24
frame 54795 P
C     39.741000    20.180000    46.326000
H     40.787000    19.840000    46.362000
H     39.719000    21.266000    46.479000
C     38.999000    19.463000    47.435000
C     37.859000    20.079000    48.263000
O     38.141000    21.152000    48.828000
O     36.799000    19.418000    48.370000
O     39.321000    18.325000    47.725000
C     37.962000    17.597000    45.004000
H     37.971000    16.507000    44.973000
C     39.081000    18.296000    44.794000
H     40.034000    17.799000    44.603000
C     39.143000    19.799000    44.908000
C     37.766000    20.406000    44.807000
H     37.720000    21.468000    44.556000
C     36.648000    19.706000    45.020000
H     35.677000    20.208000    44.982000
C     36.624000    18.224000    45.300000
H     36.406000    18.101000    46.378000
O     35.610000    17.622000    44.524000
H     35.173000    16.864000    45.035000
C     40.126000    20.356000    43.818000
O     41.230000    19.775000    43.695000
O     39.767000    21.351000    43.139000
