24
frame 54795 R
C     39.801000    20.127000    47.439000
H     40.668000    19.770000    46.879000
H     39.825000    21.131000    47.864000
C     38.711000    19.372000    47.621000
C     37.520000    19.861000    48.438000
O     37.452000    21.095000    48.674000
O     36.680000    19.030000    48.837000
O     38.644000    18.078000    47.147000
C     38.141000    17.840000    45.779000
H     38.112000    16.745000    45.708000
C     39.149000    18.416000    44.832000
H     40.098000    17.894000    44.695000
C     38.978000    19.639000    44.291000
C     37.719000    20.362000    44.511000
H     37.667000    21.386000    44.134000
C     36.677000    19.799000    45.150000
H     35.759000    20.370000    45.310000
C     36.695000    18.357000    45.598000
H     36.208000    18.273000    46.583000
O     36.005000    17.581000    44.634000
H     35.447000    16.872000    45.095000
C     40.110000    20.316000    43.530000
O     41.237000    19.761000    43.503000
O     39.847000    21.429000    42.996000
