24
Coordinates from ORCA-job neb_NEB-CI_converged.QMRegion
  C          39.80123788843062     20.19285020810687     46.87275727085609
  H          40.73220415333304     19.76841359285569     46.49892983936289
  H          39.76391735166010     21.27107340426771     47.02329063861833
  C          38.88412173645803     19.35470653866869     47.52437977704457
  C          37.68915554516673     19.88773485095730     48.35088887662852
  O          37.67734393001984     21.09984446987636     48.67420840733224
  O          36.80300716186332     19.07277046632050     48.68668326095700
  O          38.94838593485159     18.09807253053408     47.37333655977008
  C          38.02367257142589     17.60864523363162     45.38005854521519
  H          38.09397289588458     16.53450047723370     45.55736050332049
  C          39.06195754256238     18.27593658173751     44.76847389776481
  H          40.00393036026190     17.77136089234545     44.55568914057214
  C          39.00737042122839     19.66869080499660     44.60200361325992
  C          37.71478340810717     20.34209276187683     44.75228074744824
  H          37.66996517801967     21.39884795022977     44.48026629177664
  C          36.63276172728092     19.68442304312120     45.20161219008875
  H          35.68420857067465     20.21104857102677     45.32534496045736
  C          36.64636396264198     18.21380953845079     45.52606630846482
  H          36.31402961678094     18.08284640710186     46.56998731367361
  O          35.77366669276278     17.54798362525537     44.62696643986755
  H          35.26197277968770     16.80637581056814     45.10995537033591
  C          40.11330672845109     20.31188535002962     43.76260736614024
  O          41.21959160096578     19.72408867011056     43.69631261328081
  O          39.82759218327659     21.37117409505081     43.14152721096678
