24
Coordinates from ORCA-job neb_initial_path.QMRegion E   0.000000000000
  C      41.517000     18.174000     48.900000
  H      41.822000     17.274000     48.367000
  H      42.140000     19.068000     48.848000
  C      40.374000     18.235000     49.593000
  C      39.947000     19.476000     50.366000
  O      40.441000     20.579000     50.010000
  O      39.136000     19.307000     51.306000
  O      39.525000     17.156000     49.698000
  C      38.527000     16.981000     48.627000
  H      37.905000     16.148000     48.984000
  C      39.294000     16.611000     47.403000
  H      39.745000     15.621000     47.358000
  C      39.627000     17.533000     46.481000
  C      39.079000     18.890000     46.577000
  H      39.461000     19.610000     45.849000
  C      38.193000     19.235000     47.527000
  H      37.823000     20.262000     47.604000
  C      37.604000     18.210000     48.470000
  H      37.474000     18.651000     49.472000
  O      36.356000     17.806000     47.928000
  H      35.685000     17.612000     48.658000
  C      40.672000     17.216000     45.422000
  O      41.299000     16.131000     45.536000
  O      40.868000     18.067000     44.525000
24
Coordinates from ORCA-job neb_initial_path.QMRegion E   0.000000000000
  C      41.492200     18.169600     48.838000
  H      41.811600     17.263800     48.328000
  H      42.096400     19.070000     48.750000
  C      40.384200     18.221000     49.584800
  C      39.960200     19.467800     50.352800
  O      40.454800     20.570000     49.995000
  O      39.151000     19.303400     51.295600
  O      39.560000     17.142400     49.719200
  C      38.498400     16.959800     48.610800
  H      37.899800     16.124800     48.991800
  C      39.283200     16.607400     47.410600
  H      39.725600     15.615600     47.348200
  C      39.659600     17.553400     46.535000
  C      39.097800     18.904800     46.627400
  H      39.487600     19.630600     45.910000
  C      38.186800     19.232800     47.555800
  H      37.801800     20.253600     47.627200
  C      37.592800     18.198200     48.483200
  H      37.471200     18.623800     49.491800
  O      36.340000     17.812400     47.940000
  H      35.668200     17.615000     48.670000
  C      40.696200     17.242600     45.466200
  O      41.308200     16.148600     45.554400
  O      40.890800     18.104000     44.580200
24
Coordinates from ORCA-job neb_initial_path.QMRegion E   0.000000000000
  C      41.467400     18.165200     48.776000
  H      41.801200     17.253600     48.289000
  H      42.052800     19.072000     48.652000
  C      40.394400     18.207000     49.576600
  C      39.973400     19.459600     50.339600
  O      40.468600     20.561000     49.980000
  O      39.166000     19.299800     51.285200
  O      39.595000     17.128800     49.740400
  C      38.469800     16.938600     48.594600
  H      37.894600     16.101600     48.999600
  C      39.272400     16.603800     47.418200
  H      39.706200     15.610200     47.338400
  C      39.692200     17.573800     46.589000
  C      39.116600     18.919600     46.677800
  H      39.514200     19.651200     45.971000
  C      38.180600     19.230600     47.584600
  H      37.780600     20.245200     47.650400
  C      37.581600     18.186400     48.496400
  H      37.468400     18.596600     49.511600
  O      36.324000     17.818800     47.952000
  H      35.651400     17.618000     48.682000
  C      40.720400     17.269200     45.510400
  O      41.317400     16.166200     45.572800
  O      40.913600     18.141000     44.635400
24
Coordinates from ORCA-job neb_initial_path.QMRegion E   0.000000000000
  C      41.442600     18.160800     48.714000
  H      41.790800     17.243400     48.250000
  H      42.009200     19.074000     48.554000
  C      40.404600     18.193000     49.568400
  C      39.986600     19.451400     50.326400
  O      40.482400     20.552000     49.965000
  O      39.181000     19.296200     51.274800
  O      39.630000     17.115200     49.761600
  C      38.441200     16.917400     48.578400
  H      37.889400     16.078400     49.007400
  C      39.261600     16.600200     47.425800
  H      39.686800     15.604800     47.328600
  C      39.724800     17.594200     46.643000
  C      39.135400     18.934400     46.728200
  H      39.540800     19.671800     46.032000
  C      38.174400     19.228400     47.613400
  H      37.759400     20.236800     47.673600
  C      37.570400     18.174600     48.509600
  H      37.465600     18.569400     49.531400
  O      36.308000     17.825200     47.964000
  H      35.634600     17.621000     48.694000
  C      40.744600     17.295800     45.554600
  O      41.326600     16.183800     45.591200
  O      40.936400     18.178000     44.690600
24
Coordinates from ORCA-job neb_initial_path.QMRegion E   0.000000000000
  C      41.417800     18.156400     48.652000
  H      41.780400     17.233200     48.211000
  H      41.965600     19.076000     48.456000
  C      40.414800     18.179000     49.560200
  C      39.999800     19.443200     50.313200
  O      40.496200     20.543000     49.950000
  O      39.196000     19.292600     51.264400
  O      39.665000     17.101600     49.782800
  C      38.412600     16.896200     48.562200
  H      37.884200     16.055200     49.015200
  C      39.250800     16.596600     47.433400
  H      39.667400     15.599400     47.318800
  C      39.757400     17.614600     46.697000
  C      39.154200     18.949200     46.778600
  H      39.567400     19.692400     46.093000
  C      38.168200     19.226200     47.642200
  H      37.738200     20.228400     47.696800
  C      37.559200     18.162800     48.522800
  H      37.462800     18.542200     49.551200
  O      36.292000     17.831600     47.976000
  H      35.617800     17.624000     48.706000
  C      40.768800     17.322400     45.598800
  O      41.335800     16.201400     45.609600
  O      40.959200     18.215000     44.745800
24
Coordinates from ORCA-job neb_initial_path.QMRegion E   0.000000000000
  C      41.393000     18.152000     48.590000
  H      41.770000     17.223000     48.172000
  H      41.922000     19.078000     48.358000
  C      40.425000     18.165000     49.552000
  C      40.013000     19.435000     50.300000
  O      40.510000     20.534000     49.935000
  O      39.211000     19.289000     51.254000
  O      39.700000     17.088000     49.804000
  C      38.384000     16.875000     48.546000
  H      37.879000     16.032000     49.023000
  C      39.240000     16.593000     47.441000
  H      39.648000     15.594000     47.309000
  C      39.790000     17.635000     46.751000
  C      39.173000     18.964000     46.829000
  H      39.594000     19.713000     46.154000
  C      38.162000     19.224000     47.671000
  H      37.717000     20.220000     47.720000
  C      37.548000     18.151000     48.536000
  H      37.460000     18.515000     49.571000
  O      36.276000     17.838000     47.988000
  H      35.601000     17.627000     48.718000
  C      40.793000     17.349000     45.643000
  O      41.345000     16.219000     45.628000
  O      40.982000     18.252000     44.801000
24
Coordinates from ORCA-job neb_initial_path.QMRegion E   0.000000000000
  C      41.351250     18.135000     48.514000
  H      41.821750     17.237250     48.195750
  H      41.865750     19.070250     48.282000
  C      40.467000     18.142250     49.577500
  C      40.037500     19.421250     50.312500
  O      40.516250     20.518000     49.924500
  O      39.245000     19.274250     51.271750
  O      39.874500     17.068500     49.904000
  C      38.315250     16.823750     48.451750
  H      37.798250     15.969250     48.888250
  C      39.258250     16.583500     47.481750
  H      39.679250     15.590250     47.347000
  C      39.875000     17.662750     46.859500
  C      39.195750     18.964250     46.878250
  H      39.619500     19.722000     46.215000
  C      38.140250     19.191500     47.657000
  H      37.667250     20.172250     47.670500
  C      37.515000     18.110750     48.503000
  H      37.464000     18.446750     49.549000
  O      36.223500     17.855750     47.989750
  H      35.562250     17.644250     48.730750
  C      40.829750     17.375750     45.701500
  O      41.343750     16.234750     45.642250
  O      41.028750     18.296250     44.884250
24
Coordinates from ORCA-job neb_initial_path.QMRegion E   0.000000000000
  C      41.309500     18.118000     48.438000
  H      41.873500     17.251500     48.219500
  H      41.809500     19.062500     48.206000
  C      40.509000     18.119500     49.603000
  C      40.062000     19.407500     50.325000
  O      40.522500     20.502000     49.914000
  O      39.279000     19.259500     51.289500
  O      40.049000     17.049000     50.004000
  C      38.246500     16.772500     48.357500
  H      37.717500     15.906500     48.753500
  C      39.276500     16.574000     47.522500
  H      39.710500     15.586500     47.385000
  C      39.960000     17.690500     46.968000
  C      39.218500     18.964500     46.927500
  H      39.645000     19.731000     46.276000
  C      38.118500     19.159000     47.643000
  H      37.617500     20.124500     47.621000
  C      37.482000     18.070500     48.470000
  H      37.468000     18.378500     49.527000
  O      36.171000     17.873500     47.991500
  H      35.523500     17.661500     48.743500
  C      40.866500     17.402500     45.760000
  O      41.342500     16.250500     45.656500
  O      41.075500     18.340500     44.967500
24
Coordinates from ORCA-job neb_initial_path.QMRegion E   0.000000000000
  C      41.267750     18.101000     48.362000
  H      41.925250     17.265750     48.243250
  H      41.753250     19.054750     48.130000
  C      40.551000     18.096750     49.628500
  C      40.086500     19.393750     50.337500
  O      40.528750     20.486000     49.903500
  O      39.313000     19.244750     51.307250
  O      40.223500     17.029500     50.104000
  C      38.177750     16.721250     48.263250
  H      37.636750     15.843750     48.618750
  C      39.294750     16.564500     47.563250
  H      39.741750     15.582750     47.423000
  C      40.045000     17.718250     47.076500
  C      39.241250     18.964750     46.976750
  H      39.670500     19.740000     46.337000
  C      38.096750     19.126500     47.629000
  H      37.567750     20.076750     47.571500
  C      37.449000     18.030250     48.437000
  H      37.472000     18.310250     49.505000
  O      36.118500     17.891250     47.993250
  H      35.484750     17.678750     48.756250
  C      40.903250     17.429250     45.818500
  O      41.341250     16.266250     45.670750
  O      41.122250     18.384750     45.050750
24
Coordinates from ORCA-job neb_initial_path.QMRegion E   0.000000000000
  C      41.226000     18.084000     48.286000
  H      41.977000     17.280000     48.267000
  H      41.697000     19.047000     48.054000
  C      40.593000     18.074000     49.654000
  C      40.111000     19.380000     50.350000
  O      40.535000     20.470000     49.893000
  O      39.347000     19.230000     51.325000
  O      40.398000     17.010000     50.204000
  C      38.109000     16.670000     48.169000
  H      37.556000     15.781000     48.484000
  C      39.313000     16.555000     47.604000
  H      39.773000     15.579000     47.461000
  C      40.130000     17.746000     47.185000
  C      39.264000     18.965000     47.026000
  H      39.696000     19.749000     46.398000
  C      38.075000     19.094000     47.615000
  H      37.518000     20.029000     47.522000
  C      37.416000     17.990000     48.404000
  H      37.476000     18.242000     49.483000
  O      36.066000     17.909000     47.995000
  H      35.446000     17.696000     48.769000
  C      40.940000     17.456000     45.877000
  O      41.340000     16.282000     45.685000
  O      41.169000     18.429000     45.134000
