24
Coordinates from ORCA-job neb_MEP.QMRegion E -1075.798895800434
  C      41.517000     18.174000     48.900000
  H      41.822000     17.274000     48.367000
  H      42.140000     19.068000     48.848000
  C      40.374000     18.235000     49.593000
  C      39.947000     19.476000     50.366000
  O      40.441000     20.579000     50.010000
  O      39.136000     19.307000     51.306000
  O      39.525000     17.156000     49.698000
  C      38.527000     16.981000     48.627000
  H      37.905000     16.148000     48.984000
  C      39.294000     16.611000     47.403000
  H      39.745000     15.621000     47.358000
  C      39.627000     17.533000     46.481000
  C      39.079000     18.890000     46.577000
  H      39.461000     19.610000     45.849000
  C      38.193000     19.235000     47.527000
  H      37.823000     20.262000     47.604000
  C      37.604000     18.210000     48.470000
  H      37.474000     18.651000     49.472000
  O      36.356000     17.806000     47.928000
  H      35.685000     17.612000     48.658000
  C      40.672000     17.216000     45.422000
  O      41.299000     16.131000     45.536000
  O      40.868000     18.067000     44.525000
24
Coordinates from ORCA-job neb_MEP.QMRegion E -1075.801818252189
  C      41.513719     18.169753     48.878157
  H      41.813518     17.272601     48.336095
  H      42.133954     19.064228     48.816073
  C      40.379038     18.227323     49.585914
  C      39.958446     19.467986     50.360852
  O      40.452959     20.569985     50.003327
  O      39.153756     19.299651     51.306495
  O      39.530881     17.148133     49.697242
  C      38.521214     16.972593     48.635852
  H      37.905944     16.137212     48.996697
  C      39.280165     16.607896     47.405398
  H      39.729216     15.617575     47.351894
  C      39.620535     17.539986     46.495876
  C      39.075240     18.896926     46.605906
  H      39.462360     19.624691     45.887726
  C      38.186922     19.234943     47.557734
  H      37.820752     20.261855     47.645201
  C      37.596782     18.200997     48.489658
  H      37.465771     18.632974     49.495520
  O      36.350522     17.799641     47.943877
  H      35.676920     17.607162     48.672679
  C      40.676555     17.234167     45.444668
  O      41.294257     16.141730     45.545159
  O      40.894779     18.103284     44.570702
24
Coordinates from ORCA-job neb_MEP.QMRegion E -1075.805051509164
  C      41.508777     18.160877     48.846272
  H      41.800788     17.266360     48.295968
  H      42.122681     19.058559     48.769808
  C      40.385759     18.215573     49.573117
  C      39.973621     19.456941     50.351313
  O      40.467687     20.558568     49.991717
  O      39.174901     19.290384     51.302288
  O      39.539640     17.135911     49.696421
  C      38.514185     16.958881     48.647181
  H      37.907840     16.119960     49.014628
  C      39.262436     16.603551     47.408259
  H      39.709942     15.613412     47.342063
  C      39.610119     17.548867     46.515151
  C      39.068835     18.905932     46.644273
  H      39.464406     19.643458     45.940897
  C      38.178517     19.231997     47.598410
  H      37.816582     20.258579     47.703452
  C      37.586723     18.185862     48.515333
  H      37.453802     18.605773     49.525766
  O      36.342162     17.787349     47.963224
  H      35.664307     17.598807     48.689888
  C      40.682296     17.259236     45.475682
  O      41.285844     16.156969     45.557573
  O      40.929489     18.151529     44.634147
24
Coordinates from ORCA-job neb_MEP.QMRegion E -1075.805485999389
  C      41.494927     18.143492     48.761642
  H      41.801140     17.245415     48.225487
  H      42.056003     19.065518     48.600740
  C      40.402925     18.181938     49.539687
  C      40.001516     19.429836     50.315957
  O      40.494664     20.531018     49.953729
  O      39.212089     19.270648     51.276594
  O      39.564528     17.097633     49.690738
  C      38.499391     16.915227     48.657475
  H      37.913836     16.063771     49.031735
  C      39.242460     16.588991     47.413856
  H      39.676767     15.596764     47.313138
  C      39.635965     17.575308     46.586332
  C      39.091699     18.927488     46.748038
  H      39.515716     19.688575     46.087522
  C      38.154318     19.213484     47.668039
  H      37.759066     20.227627     47.772671
  C      37.561692     18.142091     48.553696
  H      37.443053     18.534696     49.575593
  O      36.307574     17.771567     48.002759
  H      35.620858     17.603014     48.729221
  C      40.729345     17.323537     45.564395
  O      41.309747     16.206237     45.592783
  O      41.008147     18.259518     44.784101
24
Coordinates from ORCA-job neb_MEP.QMRegion E -1075.793675702545
  C      41.485000     18.151106     48.673658
  H      41.845172     17.238634     48.199050
  H      41.970304     19.091997     48.404965
  C      40.443546     18.155462     49.535714
  C      40.024211     19.415824     50.292246
  O      40.509876     20.519790     49.925792
  O      39.227755     19.265424     51.249902
  O      39.653654     17.063236     49.726463
  C      38.441131     16.868669     48.604528
  H      37.893449     16.009134     49.015632
  C      39.238602     16.579285     47.423156
  H      39.660117     15.585362     47.303236
  C      39.714792     17.607020     46.685261
  C      39.143905     18.949043     46.830861
  H      39.581073     19.716597     46.186670
  C      38.141810     19.202640     47.687406
  H      37.700052     20.199676     47.757660
  C      37.537498     18.120505     48.548113
  H      37.452822     18.482288     49.582926
  O      36.261079     17.809103     48.010537
  H      35.575427     17.633517     48.742948
  C      40.782709     17.361003     45.638512
  O      41.342915     16.234079     45.623045
  O      41.030146     18.299534     44.852964
24
Coordinates from ORCA-job neb_MEP.QMRegion E -1075.783973742384
  C      41.481141     18.158139     48.637505
  H      41.863661     17.234905     48.204655
  H      41.955698     19.099764     48.357366
  C      40.476144     18.142657     49.565472
  C      40.034027     19.417516     50.298093
  O      40.509857     20.522384     49.920354
  O      39.229200     19.271569     51.248760
  O      39.767759     17.057389     49.803787
  C      38.359188     16.837736     48.521838
  H      37.867665     15.986459     49.002667
  C      39.228476     16.576250     47.434646
  H      39.657012     15.586305     47.311252
  C      39.750403     17.624682     46.728828
  C      39.155144     18.956114     46.844563
  H      39.589326     19.720803     46.195808
  C      38.135673     19.200879     47.682255
  H      37.691467     20.196191     47.751300
  C      37.523080     18.115594     48.530313
  H      37.460081     18.461625     49.572684
  O      36.233643     17.834255     48.004407
  H      35.559684     17.639153     48.744639
  C      40.796884     17.367479     45.658311
  O      41.342174     16.234642     45.630032
  O      41.026541     18.299740     44.860180
24
Coordinates from ORCA-job neb_MEP.QMRegion E -1075.781083043228
  C      41.458603     18.160653     48.578692
  H      41.885618     17.229424     48.211503
  H      41.937385     19.102989     48.310895
  C      40.500003     18.131604     49.587807
  C      40.041255     19.419208     50.303362
  O      40.510978     20.522292     49.915611
  O      39.232554     19.274580     51.249706
  O      39.881592     17.055363     49.884355
  C      38.280581     16.808562     48.440165
  H      37.839833     15.969418     48.981386
  C      39.222850     16.575122     47.455440
  H      39.655662     15.587824     47.321383
  C      39.799948     17.649139     46.784350
  C      39.165423     18.963764     46.856301
  H      39.596106     19.726394     46.203184
  C      38.129734     19.198306     47.676670
  H      37.682699     20.192288     47.744029
  C      37.510337     18.109559     48.514388
  H      37.465114     18.444730     49.564012
  O      36.208941     17.858721     47.999684
  H      35.546340     17.646332     48.745240
  C      40.811803     17.375627     45.678378
  O      41.340107     16.235678     45.635940
  O      41.022153     18.300075     44.866478
24
Coordinates from ORCA-job neb_MEP.QMRegion E -1075.784895327202
  C      41.377845     18.144392     48.463591
  H      41.904393     17.221403     48.225193
  H      41.891421     19.086057     48.245815
  C      40.503581     18.120717     49.593142
  C      40.046261     19.418365     50.306941
  O      40.518518     20.516959     49.910876
  O      39.241774     19.273568     51.253261
  O      39.970222     17.053303     49.951073
  C      38.235387     16.787996     48.386345
  H      37.808438     15.953605     48.945653
  C      39.232220     16.579810     47.486761
  H      39.661486     15.592175     47.336309
  C      39.898727     17.689562     46.885869
  C      39.186080     18.976266     46.879871
  H      39.603879     19.735041     46.213852
  C      38.128350     19.194207     47.672767
  H      37.668400     20.183505     47.726913
  C      37.503021     18.102885     48.504863
  H      37.468618     18.431248     49.558860
  O      36.193069     17.882284     47.998933
  H      35.539426     17.653347     48.746203
  C      40.835468     17.387935     45.707472
  O      41.341162     16.238655     45.643699
  O      41.015925     18.300760     44.876680
24
Coordinates from ORCA-job neb_MEP.QMRegion E -1075.799039609570
  C      41.269877     18.112861     48.336673
  H      41.903669     17.225708     48.239316
  H      41.821160     19.053292     48.167778
  C      40.493116     18.113188     49.590885
  C      40.050543     19.420474     50.306383
  O      40.531651     20.511516     49.908066
  O      39.254536     19.271204     51.257500
  O      40.054541     17.050883     50.015901
  C      38.213648     16.777615     48.349227
  H      37.774830     15.939142     48.891945
  C      39.250939     16.588075     47.519049
  H      39.674194     15.599631     47.353618
  C      40.012944     17.733296     46.997029
  C      39.217854     18.989778     46.911880
  H      39.613136     19.744619     46.227279
  C      38.136044     19.188188     47.672142
  H      37.654150     20.167075     47.699720
  C      37.500171     18.097089     48.496745
  H      37.471824     18.417450     49.552730
  O      36.182300     17.908467     47.999890
  H      35.535008     17.660757     48.746302
  C      40.856356     17.400766     45.735477
  O      41.342195     16.244250     45.653715
  O      41.008175     18.303905     44.889357
24
Coordinates from ORCA-job neb_MEP.QMRegion E -1075.826917705800
  C      41.226000     18.084000     48.286000
  H      41.977000     17.280000     48.267000
  H      41.697000     19.047000     48.054000
  C      40.593000     18.074000     49.654000
  C      40.111000     19.380000     50.350000
  O      40.535000     20.470000     49.893000
  O      39.347000     19.230000     51.325000
  O      40.398000     17.010000     50.204000
  C      38.109000     16.670000     48.169000
  H      37.556000     15.781000     48.484000
  C      39.313000     16.555000     47.604000
  H      39.773000     15.579000     47.461000
  C      40.130000     17.746000     47.185000
  C      39.264000     18.965000     47.026000
  H      39.696000     19.749000     46.398000
  C      38.075000     19.094000     47.615000
  H      37.518000     20.029000     47.522000
  C      37.416000     17.990000     48.404000
  H      37.476000     18.242000     49.483000
  O      36.066000     17.909000     47.995000
  H      35.446000     17.696000     48.769000
  C      40.940000     17.456000     45.877000
  O      41.340000     16.282000     45.685000
  O      41.169000     18.429000     45.134000
