24
frame 20000 P, aligned onto 20000 on 8 atoms
C      48.22400000    28.26200000    55.99400000
H      49.07600000    27.58400000    56.14100000
H      48.36200000    29.16400000    56.59900000
C      46.97200000    27.54000000    56.42600000
C      45.86600000    28.29500000    57.20800000
O      46.24400000    29.17400000    58.00800000
O      44.68300000    27.92500000    56.99000000
O      46.81800000    26.36400000    56.15400000
C      46.69700000    27.05900000    53.23600000
H      46.54200000    26.12900000    52.68800000
C      47.91900000    27.44800000    53.61800000
H      48.81400000    26.87300000    53.36100000
C      48.14500000    28.67200000    54.46700000
C      46.98500000    29.63400000    54.32600000
H      47.19500000    30.67000000    54.59400000
C      45.76800000    29.24600000    53.93400000
H      44.95000000    29.96900000    53.87100000
C      45.43500000    27.83100000    53.53700000
H      44.92300000    27.35000000    54.39400000
O      44.57800000    27.84400000    52.41000000
H      43.80200000    27.21000000    52.52500000
C      49.51600000    29.36900000    54.15300000
O      50.52200000    28.63800000    53.93300000
O      49.53100000    30.61200000    54.19200000
