24
frame 20000 TS, aligned onto 20000 on 8 atoms
C      48.13665195    28.11099393    56.47990169
H      48.99756607    27.52932175    56.16382993
H      48.29644606    29.04065828    57.01852064
C      46.86326822    27.56012638    56.45694853
C      45.68554539    28.28415280    57.14353045
O      45.92967155    29.31397309    57.82386716
O      44.54253085    27.78244541    57.01291305
O      46.61270491    26.50175197    55.77674163
C      46.56550063    26.94913726    53.74789052
H      46.38417697    25.91404646    53.45262008
C      47.84924921    27.47915941    53.67626656
H      48.72302058    26.85838160    53.46627697
C      48.07365180    28.77801040    54.13250307
C      46.93407041    29.69610292    54.23283960
H      47.16982717    30.73357359    54.46979001
C      45.67622186    29.27363564    54.02407822
H      44.84286442    29.97912962    54.05383987
C      45.33350388    27.83883825    53.73583728
H      44.65711693    27.48559355    54.53198061
O      44.69871224    27.74785313    52.46801613
H      43.87884443    27.15595583    52.52768663
C      49.48152245    29.38530399    54.10218812
O      50.47632119    28.62558617    53.93202920
O      49.53850809    30.62361636    54.23403627
