24
Coordinates from ORCA-job neb_MEP.QMRegion E -1075.581518671735
  C      40.564000     21.023000     47.591000
  H      41.377000     20.618000     46.988000
  H      40.636000     22.038000     47.978000
  C      39.456000     20.326000     47.868000
  C      38.331000     20.913000     48.718000
  O      38.485000     22.078000     49.140000
  O      37.329000     20.177000     48.934000
  O      39.279000     19.028000     47.428000
  C      38.783000     18.808000     46.062000
  H      38.691000     17.715000     45.993000
  C      39.822000     19.324000     45.119000
  H      40.766000     18.782000     45.032000
  C      39.706000     20.541000     44.550000
  C      38.464000     21.302000     44.719000
  H      38.446000     22.319000     44.328000
  C      37.398000     20.800000     45.366000
  H      36.509000     21.419000     45.512000
  C      37.364000     19.381000     45.873000
  H      36.882000     19.356000     46.862000
  O      36.649000     18.582000     44.940000
  H      36.000000     17.988000     45.432000
  C      40.935000     21.190000     43.926000
  O      41.994000     20.514000     43.919000
  O      40.850000     22.387000     43.539000
24
Coordinates from ORCA-job neb_MEP.QMRegion E -1075.583126226848
  C      40.624370     20.941752     47.425263
  H      41.401629     20.494483     46.807978
  H      40.725453     21.978081     47.742124
  C      39.519981     20.273388     47.779028
  C      38.434328     20.909265     48.646140
  O      38.633433     22.072880     49.056001
  O      37.411362     20.210925     48.888705
  O      39.309487     18.961651     47.396486
  C      38.771035     18.685273     46.041747
  H      38.697624     17.589090     46.014902
  C      39.778805     19.201378     45.071015
  H      40.709315     18.648501     44.938746
  C      39.674479     20.452924     44.576656
  C      38.439242     21.213417     44.801448
  H      38.420623     22.249345     44.464006
  C      37.375291     20.682678     45.430415
  H      36.484429     21.290142     45.605645
  C      37.347219     19.251047     45.896488
  H      36.894722     19.207237     46.897724
  O      36.603985     18.466995     44.973743
  H      35.914805     17.922630     45.468685
  C      40.917354     21.118502     43.991790
  O      41.973140     20.437137     43.991653
  O      40.852616     22.325177     43.630890
24
Coordinates from ORCA-job neb_MEP.QMRegion E -1075.576967695445
  C      40.644353     20.914629     47.292771
  H      41.434766     20.436826     46.718226
  H      40.709651     21.986867     47.473070
  C      39.562488     20.244349     47.722075
  C      38.493902     20.919301     48.587321
  O      38.723135     22.077379     49.000149
  O      37.455539     20.246916     48.842049
  O      39.345560     18.920255     47.384889
  C      38.771744     18.600352     46.009233
  H      38.720381     17.500864     46.000775
  C      39.763745     19.136385     45.048832
  H      40.680232     18.574932     44.872582
  C      39.683281     20.427244     44.656267
  C      38.446087     21.177844     44.904598
  H      38.421868     22.228014     44.616229
  C      37.366431     20.607035     45.467815
  H      36.451279     21.186131     45.610747
  C      37.341527     19.166224     45.900639
  H      36.933667     19.110295     46.918933
  O      36.543273     18.416794     44.996369
  H      35.833973     17.904495     45.503419
  C      40.925686     21.092141     44.074508
  O      41.972558     20.396792     44.060468
  O      40.872163     22.298315     43.709412
24
Coordinates from ORCA-job neb_MEP.QMRegion E -1075.562746503648
  C      40.630631     20.954911     47.249874
  H      41.453950     20.464352     46.734616
  H      40.664617     22.038514     47.364793
  C      39.588226     20.249629     47.753245
  C      38.496891     20.933184     48.593832
  O      38.719495     22.093362     49.005603
  O      37.453045     20.261966     48.833488
  O      39.415260     18.938747     47.468585
  C      38.749524     18.561053     45.904538
  H      38.722948     17.464088     45.953310
  C      39.764734     19.128147     45.051094
  H      40.681034     18.571495     44.868992
  C      39.714080     20.454253     44.749362
  C      38.464404     21.194371     44.949988
  H      38.435341     22.241510     44.650783
  C      37.368900     20.603054     45.456070
  H      36.443681     21.171167     45.571259
  C      37.340478     19.158398     45.869492
  H      36.975161     19.098346     46.902311
  O      36.495239     18.437186     44.984604
  H      35.801898     17.909346     45.505381
  C      40.943442     21.101494     44.124526
  O      41.978058     20.391198     44.078810
  O      40.883081     22.297585     43.728332
24
Coordinates from ORCA-job neb_MEP.QMRegion E -1075.554680969431
  C      40.622413     20.966218     47.200597
  H      41.471189     20.460031     46.745251
  H      40.657854     22.047646     47.320141
  C      39.604580     20.245572     47.780227
  C      38.498153     20.943002     48.598771
  O      38.722322     22.103517     49.007432
  O      37.455366     20.268522     48.830700
  O      39.487165     18.964036     47.587200
  C      38.712786     18.521709     45.784905
  H      38.715127     17.437584     45.923114
  C      39.753485     19.113151     45.055200
  H      40.676835     18.567468     44.873678
  C      39.726802     20.471441     44.807516
  C      38.465811     21.198005     44.962534
  H      38.436464     22.242953     44.658694
  C      37.366292     20.599604     45.450762
  H      36.439566     21.165689     45.563471
  C      37.336934     19.152182     45.851082
  H      36.990852     19.085891     46.892644
  O      36.467617     18.445322     44.975999
  H      35.788072     17.908665     45.505142
  C      40.947141     21.107035     44.145858
  O      41.974350     20.388299     44.080725
  O      40.880824     22.295694     43.729759
24
Coordinates from ORCA-job neb_MEP.QMRegion E -1075.552909999086
  C      40.608782     20.974013     47.137459
  H      41.486917     20.458315     46.754838
  H      40.649164     22.053483     47.270495
  C      39.615645     20.244239     47.795405
  C      38.500212     20.949734     48.601808
  O      38.727996     22.109843     49.008255
  O      37.459489     20.273203     48.830202
  O      39.547914     18.981900     47.678206
  C      38.688788     18.493005     45.702219
  H      38.704674     17.417119     45.886276
  C      39.748550     19.102312     45.068490
  H      40.674743     18.563103     44.879634
  C      39.745209     20.491887     44.875971
  C      38.469410     21.202852     44.978540
  H      38.437351     22.245147     44.666629
  C      37.365652     20.595757     45.444950
  H      36.436465     21.159206     45.552639
  C      37.334876     19.144911     45.833827
  H      37.004283     19.075071     46.881795
  O      36.442763     18.453079     44.969125
  H      35.774042     17.908978     45.504298
  C      40.950947     21.111561     44.167107
  O      41.971563     20.385579     44.083022
  O      40.878647     22.293243     43.732563
24
Coordinates from ORCA-job neb_MEP.QMRegion E -1075.555647852599
  C      40.567580     20.965647     47.019165
  H      41.493466     20.452445     46.765621
  H      40.631030     22.039564     47.203783
  C      39.613408     20.239492     47.792294
  C      38.502025     20.953625     48.601514
  O      38.738049     22.112417     49.004650
  O      37.464368     20.277728     48.835119
  O      39.592097     18.994171     47.753292
  C      38.677282     18.479276     45.654196
  H      38.697173     17.407083     45.852577
  C      39.747945     19.098741     45.093181
  H      40.672166     18.562695     44.887955
  C      39.779431     20.524730     44.983209
  C      38.476659     21.211803     45.008332
  H      38.437311     22.247843     44.677519
  C      37.369513     20.594331     45.445237
  H      36.435306     21.152415     45.535939
  C      37.335590     19.140839     45.825638
  H      37.012689     19.066439     46.875021
  O      36.426472     18.463524     44.967668
  H      35.767665     17.909815     45.504865
  C      40.956041     21.117762     44.192493
  O      41.968625     20.384250     44.085457
  O      40.874703     22.290924     43.737780
24
Coordinates from ORCA-job neb_MEP.QMRegion E -1075.564041234785
  C      40.519744     20.946832     46.888913
  H      41.485979     20.446869     46.773572
  H      40.609066     22.014742     47.138639
  C      39.603554     20.231794     47.780752
  C      38.503535     20.955529     48.601392
  O      38.749459     22.113050     49.000428
  O      37.468656     20.281620     48.840417
  O      39.623371     19.004273     47.813629
  C      38.672531     18.469942     45.619678
  H      38.693440     17.398073     45.824990
  C      39.749668     19.098336     45.115286
  H      40.671616     18.563370     44.897083
  C      39.822936     20.562596     45.102648
  C      38.486851     21.221077     45.040423
  H      38.437611     22.248803     44.684766
  C      37.376686     20.593978     45.448523
  H      36.436333     21.146339     45.518193
  C      37.338763     19.137308     45.823057
  H      37.017259     19.060106     46.872368
  O      36.417748     18.471229     44.968702
  H      35.766683     17.910770     45.506452
  C      40.961669     21.124680     44.213793
  O      41.965030     20.383205     44.083896
  O      40.871304     22.289167     43.739507
24
Coordinates from ORCA-job neb_MEP.QMRegion E -1075.580536179994
  C      40.467007     20.921236     46.759761
  H      41.465270     20.459503     46.781244
  H      40.563836     21.984274     47.032263
  C      39.594843     20.228536     47.766333
  C      38.509988     20.957893     48.602278
  O      38.768079     22.113308     48.999983
  O      37.478099     20.284414     48.846411
  O      39.687357     19.019679     47.900964
  C      38.667381     18.459941     45.573108
  H      38.673089     17.379287     45.734721
  C      39.763784     19.100334     45.154426
  H      40.680344     18.560932     44.921319
  C      39.875678     20.598054     45.230213
  C      38.509539     21.229447     45.088178
  H      38.447756     22.249778     44.710608
  C      37.389763     20.589738     45.445816
  H      36.440358     21.132892     45.468544
  C      37.340457     19.129837     45.813092
  H      37.026521     19.046668     46.866637
  O      36.398298     18.483052     44.968014
  H      35.754031     17.919237     45.509044
  C      40.974389     21.130703     44.246032
  O      41.964287     20.377677     44.086594
  O      40.870752     22.283264     43.746369
24
Coordinates from ORCA-job neb_MEP.QMRegion E -1075.591431929321
  C      40.457000     20.860000     46.731000
  H      41.482000     20.467000     46.791000
  H      40.472000     21.941000     46.890000
  C      39.659000     20.194000     47.823000
  C      38.548000     20.942000     48.599000
  O      38.813000     22.102000     48.975000
  O      37.506000     20.280000     48.833000
  O      39.898000     19.039000     48.122000
  C      38.670000     18.342000     45.420000
  H      38.638000     17.250000     45.396000
  C      39.804000     19.004000     45.177000
  H      40.738000     18.485000     44.967000
  C      39.903000     20.505000     45.281000
  C      38.543000     21.135000     45.111000
  H      38.499000     22.179000     44.804000
  C      37.412000     20.473000     45.365000
  H      36.455000     20.993000     45.301000
  C      37.356000     19.013000     45.728000
  H      37.143000     18.947000     46.812000
  O      36.329000     18.379000     44.988000
  H      35.674000     17.898000     45.587000
  C      40.995000     21.056000     44.293000
  O      41.979000     20.304000     44.104000
  O      40.899000     22.226000     43.835000
