24
Coordinates from ORCA-job neb_initial_path.QMRegion E   0.000000000000
  C      40.564000     21.023000     47.591000
  H      41.377000     20.618000     46.988000
  H      40.636000     22.038000     47.978000
  C      39.456000     20.326000     47.868000
  C      38.331000     20.913000     48.718000
  O      38.485000     22.078000     49.140000
  O      37.329000     20.177000     48.934000
  O      39.279000     19.028000     47.428000
  C      38.783000     18.808000     46.062000
  H      38.691000     17.715000     45.993000
  C      39.822000     19.324000     45.119000
  H      40.766000     18.782000     45.032000
  C      39.706000     20.541000     44.550000
  C      38.464000     21.302000     44.719000
  H      38.446000     22.319000     44.328000
  C      37.398000     20.800000     45.366000
  H      36.509000     21.419000     45.512000
  C      37.364000     19.381000     45.873000
  H      36.882000     19.356000     46.862000
  O      36.649000     18.582000     44.940000
  H      36.000000     17.988000     45.432000
  C      40.935000     21.190000     43.926000
  O      41.994000     20.514000     43.919000
  O      40.850000     22.387000     43.539000
24
Coordinates from ORCA-job neb_initial_path.QMRegion E   0.000000000000
  C      40.563400     21.004200     47.477200
  H      41.396000     20.578000     46.933800
  H      40.632000     22.032000     47.815600
  C      39.480600     20.305400     47.840800
  C      38.365600     20.919000     48.689200
  O      38.539600     22.082800     49.105600
  O      37.357200     20.196200     48.917200
  O      39.318200     19.014600     47.459600
  C      38.768600     18.747600     46.002200
  H      38.696400     17.657000     45.979800
  C      39.807000     19.280000     45.109600
  H      40.745600     18.737000     44.997800
  C      39.720000     20.534200     44.632200
  C      38.467200     21.283400     44.780000
  H      38.445000     22.305600     44.405000
  C      37.393000     20.758400     45.385200
  H      36.494800     21.365200     45.517800
  C      37.359200     19.333200     45.870600
  H      36.903400     19.300000     46.869800
  O      36.612400     18.554400     44.948800
  H      35.957600     17.971600     45.448200
  C      40.941400     21.173400     43.981600
  O      41.990400     20.484600     43.956000
  O      40.861000     22.366800     43.583800
24
Coordinates from ORCA-job neb_initial_path.QMRegion E   0.000000000000
  C      40.562800     20.985400     47.363400
  H      41.415000     20.538000     46.879600
  H      40.628000     22.026000     47.653200
  C      39.505200     20.284800     47.813600
  C      38.400200     20.925000     48.660400
  O      38.594200     22.087600     49.071200
  O      37.385400     20.215400     48.900400
  O      39.357400     19.001200     47.491200
  C      38.754200     18.687200     45.942400
  H      38.701800     17.599000     45.966600
  C      39.792000     19.236000     45.100200
  H      40.725200     18.692000     44.963600
  C      39.734000     20.527400     44.714400
  C      38.470400     21.264800     44.841000
  H      38.444000     22.292200     44.482000
  C      37.388000     20.716800     45.404400
  H      36.480600     21.311400     45.523600
  C      37.354400     19.285400     45.868200
  H      36.924800     19.244000     46.877600
  O      36.575800     18.526800     44.957600
  H      35.915200     17.955200     45.464400
  C      40.947800     21.156800     44.037200
  O      41.986800     20.455200     43.993000
  O      40.872000     22.346600     43.628600
24
Coordinates from ORCA-job neb_initial_path.QMRegion E   0.000000000000
  C      40.562200     20.966600     47.249600
  H      41.434000     20.498000     46.825400
  H      40.624000     22.020000     47.490800
  C      39.529800     20.264200     47.786400
  C      38.434800     20.931000     48.631600
  O      38.648800     22.092400     49.036800
  O      37.413600     20.234600     48.883600
  O      39.396600     18.987800     47.522800
  C      38.739800     18.626800     45.882600
  H      38.707200     17.541000     45.953400
  C      39.777000     19.192000     45.090800
  H      40.704800     18.647000     44.929400
  C      39.748000     20.520600     44.796600
  C      38.473600     21.246200     44.902000
  H      38.443000     22.278800     44.559000
  C      37.383000     20.675200     45.423600
  H      36.466400     21.257600     45.529400
  C      37.349600     19.237600     45.865800
  H      36.946200     19.188000     46.885400
  O      36.539200     18.499200     44.966400
  H      35.872800     17.938800     45.480600
  C      40.954200     21.140200     44.092800
  O      41.983200     20.425800     44.030000
  O      40.883000     22.326400     43.673400
24
Coordinates from ORCA-job neb_initial_path.QMRegion E   0.000000000000
  C      40.561600     20.947800     47.135800
  H      41.453000     20.458000     46.771200
  H      40.620000     22.014000     47.328400
  C      39.554400     20.243600     47.759200
  C      38.469400     20.937000     48.602800
  O      38.703400     22.097200     49.002400
  O      37.441800     20.253800     48.866800
  O      39.435800     18.974400     47.554400
  C      38.725400     18.566400     45.822800
  H      38.712600     17.483000     45.940200
  C      39.762000     19.148000     45.081400
  H      40.684400     18.602000     44.895200
  C      39.762000     20.513800     44.878800
  C      38.476800     21.227600     44.963000
  H      38.442000     22.265400     44.636000
  C      37.378000     20.633600     45.442800
  H      36.452200     21.203800     45.535200
  C      37.344800     19.189800     45.863400
  H      36.967600     19.132000     46.893200
  O      36.502600     18.471600     44.975200
  H      35.830400     17.922400     45.496800
  C      40.960600     21.123600     44.148400
  O      41.979600     20.396400     44.067000
  O      40.894000     22.306200     43.718200
24
Coordinates from ORCA-job neb_initial_path.QMRegion E   0.000000000000
  C      40.561000     20.929000     47.022000
  H      41.472000     20.418000     46.717000
  H      40.616000     22.008000     47.166000
  C      39.579000     20.223000     47.732000
  C      38.504000     20.943000     48.574000
  O      38.758000     22.102000     48.968000
  O      37.470000     20.273000     48.850000
  O      39.475000     18.961000     47.586000
  C      38.711000     18.506000     45.763000
  H      38.718000     17.425000     45.927000
  C      39.747000     19.104000     45.072000
  H      40.664000     18.557000     44.861000
  C      39.776000     20.507000     44.961000
  C      38.480000     21.209000     45.024000
  H      38.441000     22.252000     44.713000
  C      37.373000     20.592000     45.462000
  H      36.438000     21.150000     45.541000
  C      37.340000     19.142000     45.861000
  H      36.989000     19.076000     46.901000
  O      36.466000     18.444000     44.984000
  H      35.788000     17.906000     45.513000
  C      40.967000     21.107000     44.204000
  O      41.976000     20.367000     44.104000
  O      40.905000     22.286000     43.763000
24
Coordinates from ORCA-job neb_initial_path.QMRegion E   0.000000000000
  C      40.535000     20.911750     46.949250
  H      41.474500     20.430250     46.735500
  H      40.580000     21.991250     47.097000
  C      39.599000     20.215750     47.754750
  C      38.515000     20.942750     48.580250
  O      38.771750     22.102000     48.969750
  O      37.479000     20.274750     48.845750
  O      39.580750     18.980500     47.720000
  C      38.700750     18.465000     45.677250
  H      38.698000     17.381250     45.794250
  C      39.761250     19.079000     45.098250
  H      40.682500     18.539000     44.887500
  C      39.807750     20.506500     45.041000
  C      38.495750     21.190500     45.045750
  H      38.455500     22.233750     44.735750
  C      37.382750     20.562250     45.437750
  H      36.442250     21.110750     45.481000
  C      37.344000     19.109750     45.827750
  H      37.027500     19.043750     46.878750
  O      36.431750     18.427750     44.985000
  H      35.759500     17.904000     45.531500
  C      40.974000     21.094250     44.226250
  O      41.976750     20.351250     44.104000
  O      40.903500     22.271000     43.781000
24
Coordinates from ORCA-job neb_initial_path.QMRegion E   0.000000000000
  C      40.509000     20.894500     46.876500
  H      41.477000     20.442500     46.754000
  H      40.544000     21.974500     47.028000
  C      39.619000     20.208500     47.777500
  C      38.526000     20.942500     48.586500
  O      38.785500     22.102000     48.971500
  O      37.488000     20.276500     48.841500
  O      39.686500     19.000000     47.854000
  C      38.690500     18.424000     45.591500
  H      38.678000     17.337500     45.661500
  C      39.775500     19.054000     45.124500
  H      40.701000     18.521000     44.914000
  C      39.839500     20.506000     45.121000
  C      38.511500     21.172000     45.067500
  H      38.470000     22.215500     44.758500
  C      37.392500     20.532500     45.413500
  H      36.446500     21.071500     45.421000
  C      37.348000     19.077500     45.794500
  H      37.066000     19.011500     46.856500
  O      36.397500     18.411500     44.986000
  H      35.731000     17.902000     45.550000
  C      40.981000     21.081500     44.248500
  O      41.977500     20.335500     44.104000
  O      40.902000     22.256000     43.799000
24
Coordinates from ORCA-job neb_initial_path.QMRegion E   0.000000000000
  C      40.483000     20.877250     46.803750
  H      41.479500     20.454750     46.772500
  H      40.508000     21.957750     46.959000
  C      39.639000     20.201250     47.800250
  C      38.537000     20.942250     48.592750
  O      38.799250     22.102000     48.973250
  O      37.497000     20.278250     48.837250
  O      39.792250     19.019500     47.988000
  C      38.680250     18.383000     45.505750
  H      38.658000     17.293750     45.528750
  C      39.789750     19.029000     45.150750
  H      40.719500     18.503000     44.940500
  C      39.871250     20.505500     45.201000
  C      38.527250     21.153500     45.089250
  H      38.484500     22.197250     44.781250
  C      37.402250     20.502750     45.389250
  H      36.450750     21.032250     45.361000
  C      37.352000     19.045250     45.761250
  H      37.104500     18.979250     46.834250
  O      36.363250     18.395250     44.987000
  H      35.702500     17.900000     45.568500
  C      40.988000     21.068750     44.270750
  O      41.978250     20.319750     44.104000
  O      40.900500     22.241000     43.817000
24
Coordinates from ORCA-job neb_initial_path.QMRegion E   0.000000000000
  C      40.457000     20.860000     46.731000
  H      41.482000     20.467000     46.791000
  H      40.472000     21.941000     46.890000
  C      39.659000     20.194000     47.823000
  C      38.548000     20.942000     48.599000
  O      38.813000     22.102000     48.975000
  O      37.506000     20.280000     48.833000
  O      39.898000     19.039000     48.122000
  C      38.670000     18.342000     45.420000
  H      38.638000     17.250000     45.396000
  C      39.804000     19.004000     45.177000
  H      40.738000     18.485000     44.967000
  C      39.903000     20.505000     45.281000
  C      38.543000     21.135000     45.111000
  H      38.499000     22.179000     44.804000
  C      37.412000     20.473000     45.365000
  H      36.455000     20.993000     45.301000
  C      37.356000     19.013000     45.728000
  H      37.143000     18.947000     46.812000
  O      36.329000     18.379000     44.988000
  H      35.674000     17.898000     45.587000
  C      40.995000     21.056000     44.293000
  O      41.979000     20.304000     44.104000
  O      40.899000     22.226000     43.835000
