24
frame 24883 P, aligned onto 20000 on 8 atoms
C      48.22185786    28.37017291    56.10591389
H      49.11548165    27.74986863    56.26483253
H      48.31642724    29.32042401    56.65041501
C      47.01499495    27.58626468    56.56384487
C      45.75102269    28.29467144    57.12839423
O      45.90153409    29.40771150    57.68632087
O      44.66949906    27.67213364    57.02254365
O      46.98543608    26.37898862    56.44204672
C      46.65420632    27.00072912    53.39070609
H      46.51130409    26.03544538    52.90437674
C      47.86545581    27.38752965    53.80397844
H      48.74398054    26.75534995    53.66293543
C      48.10822405    28.67232235    54.55225399
C      46.95018337    29.61861412    54.38125782
H      47.13588394    30.65762983    54.65165687
C      45.72991764    29.22163463    54.00995090
H      44.89713191    29.92810031    54.03467306
C      45.40318686    27.82362361    53.55497707
H      44.76401804    27.35130547    54.32452485
O      44.70330454    27.86919926    52.31670990
H      43.77784537    27.48988977    52.39279303
C      49.48581657    29.29039907    54.13317285
O      50.46824803    28.50686426    54.10915985
O      49.52658794    30.51126308    53.86480226
