24
frame 24883 R, aligned onto 20000 on 8 atoms
C      48.01830267    27.98067705    56.87168817
H      48.90678718    27.50132979    56.46021949
H      48.12982447    28.76984586    57.61454784
C      46.78493780    27.63911098    56.47767077
C      45.54595028    28.28568461    57.07283753
O      45.68858688    29.39092969    57.65992281
O      44.45617423    27.66895907    56.95413725
O      46.55888579    26.63610919    55.56704851
C      46.54797122    26.96158462    54.13073705
H      46.34779292    25.99403871    53.65114081
C      47.90786301    27.48790774    53.79833325
H      48.74661585    26.79197804    53.72855127
C      48.15184586    28.81141705    53.83180704
C      47.03398349    29.75162348    53.98020041
H      47.30297712    30.80268386    54.08395254
C      45.75301532    29.34861382    54.01799964
H      44.94975316    30.07005803    54.18275752
C      45.37149750    27.90663311    53.79420334
H      44.55776266    27.63577645    54.48270190
O      44.95690285    27.72616862    52.44199409
H      44.00817979    27.41648198    52.40684121
C      49.56866750    29.36391242    53.84737308
O      50.52514744    28.55565301    53.98697918
O      49.67295604    30.61165892    53.75348715
