24
frame 24883 TS, aligned onto 20000 on 8 atoms
C      48.15754696    28.25098162    56.47574344
H      49.04176997    27.68322326    56.19539206
H      48.28936548    29.21456862    56.96842676
C      46.90866529    27.63414718    56.46622861
C      45.66912604    28.31766112    57.06889755
O      45.81842547    29.42243830    57.65473849
O      44.57309959    27.71109955    56.96734241
O      46.71794693    26.53891705    55.84136219
C      46.59243741    26.91179853    53.77823949
H      46.41726646    25.86248783    53.53813712
C      47.87524966    27.43397998    53.70832465
H      48.74343891    26.78972094    53.56508343
C      48.10020841    28.75198829    54.10692010
C      46.95650775    29.66535327    54.19710384
H      47.18062587    30.70799214    54.41837690
C      45.69449531    29.23065611    54.05399728
H      44.85454476    29.91633912    54.18319371
C      45.36699077    27.80159637    53.71409794
H      44.63093993    27.42754526    54.44063850
O      44.84312580    27.72882095    52.38773039
H      43.89438575    27.39834628    52.39288297
C      49.51321624    29.32244576    54.01568532
O      50.47997889    28.51985818    54.07551687
O      49.60234018    30.56087388    53.84706741
