24
Coordinates from ORCA-job neb_NEB-CI_converged.QMRegion
  C          41.54125922794824     20.14996434951319     44.49023891088797
  H          42.39243923776971     19.53112737445971     44.21190921381987
  H          41.68325388177925     21.22884734900913     44.48709285139192
  C          40.46641375324353     19.56099898720766     45.16020559675052
  C          39.34905099473141     20.36747739423245     45.86340400635154
  O          39.55782896570742     21.56274442127177     46.16072148099257
  O          38.30132390508454     19.73397576189006     46.15506879834206
  O          40.32122560719862     18.29770636984463     45.15366315915346
  C          39.48956050168217     17.67252543742938     43.25012474903868
  H          39.40745733070943     16.62674977991690     43.55208677246194
  C          40.62818564157509     18.12079871726629     42.61371403766087
  H          41.51465398530591     17.49863777662707     42.53847067320529
  C          40.76103723745454     19.47246946123884     42.28640466283989
  C          39.55797759206185     20.31194218896306     42.27351888283160
  H          39.67264342108255     21.33821635277144     41.91884110505814
  C          38.37166625143523     19.83628806789923     42.69284656628317
  H          37.48620974471453     20.47798900444150     42.67724827427489
  C          38.18989500344926     18.44107535339148     43.22760532745222
  H          37.82151306032259     18.52469382498987     44.26559894476064
  O          37.25688956583022     17.73912796539899     42.41998423042929
  H          36.81243893966266     17.01357193781283     42.98431700926712
  C          41.99226463980784     19.88253733724028     41.47856666600030
  O          42.94757117942780     19.07321074256833     41.39309647168843
  O          41.94292205901846     20.99440306584294     40.89065511388432
