24
frame 55446 P
C     41.454000    20.146000    44.012000
H     42.487000    19.788000    44.140000
H     41.449000    21.240000    44.001000
C     40.652000    19.587000    45.167000
C     39.457000    20.334000    45.817000
O     39.651000    21.516000    46.164000
O     38.414000    19.670000    46.027000
O     40.962000    18.504000    45.628000
C     39.476000    17.574000    42.925000
H     39.355000    16.494000    43.028000
C     40.681000    18.114000    42.737000
H     41.582000    17.505000    42.712000
C     40.907000    19.599000    42.629000
C     39.617000    20.325000    42.321000
H     39.724000    21.349000    41.956000
C     38.411000    19.777000    42.512000
H     37.501000    20.356000    42.318000
C     38.205000    18.376000    43.029000
H     37.936000    18.463000    44.101000
O     37.145000    17.760000    42.323000
H     36.739000    17.036000    42.906000
C     42.022000    19.902000    41.564000
O     42.947000    19.070000    41.419000
O     41.931000    20.980000    40.923000
