24
frame 55446 R
C     41.479000    20.230000    44.956000
H     42.264000    19.675000    44.444000
H     41.653000    21.271000    45.220000
C     40.304000    19.669000    45.266000
C     39.200000    20.415000    46.007000
O     39.355000    21.639000    46.217000
O     38.197000    19.744000    46.364000
O     40.039000    18.343000    44.999000
C     39.596000    17.948000    43.655000
H     39.417000    16.868000    43.752000
C     40.722000    18.229000    42.716000
H     41.607000    17.595000    42.756000
C     40.751000    19.360000    41.986000
C     39.589000    20.256000    41.990000
H     39.709000    21.220000    41.492000
C     38.434000    19.921000    42.595000
H     37.586000    20.613000    42.577000
C     38.242000    18.596000    43.290000
H     37.716000    18.762000    44.246000
O     37.487000    17.741000    42.449000
H     36.995000    17.063000    43.022000
C     42.023000    19.761000    41.258000
O     42.970000    18.937000    41.204000
O     42.047000    20.924000    40.771000
