24
Coordinates from ORCA-job neb_NEB-CI_converged.QMRegion
  C          42.37593438605384     21.23445804461431     42.41330004061113
  H          43.06771062440809     20.55369923807764     41.92357848271793
  H          42.55132078718496     22.30936771089183     42.34109178575231
  C          41.51283628883274     20.73622078380059     43.39253281435496
  C          40.71638647070452     21.67454850773948     44.32141332213480
  O          41.16628742114264     22.83171930010988     44.48466180905812
  O          39.69720043977998     21.19973815368107     44.89401234560323
  O          41.28037884425165     19.49040152244789     43.48479274888800
  C          39.95151744579997     18.88438648581194     41.90926562015767
  H          39.85695315625294     17.86243892575192     42.28330470161314
  C          40.90272502479510     19.19862120904697     40.96176504108505
  H          41.67626569667028     18.48021649742872     40.68572426056724
  C          41.03430188187346     20.53010934237627     40.54744866811289
  C          39.92029005302062     21.46176279183446     40.76100897724279
  H          39.98476373255186     22.42949496272827     40.25773549751992
  C          38.87307669012835     21.12568682805033     41.52780151814445
  H          38.03016673201010     21.80810693321225     41.67293867069959
  C          38.75454131485046     19.77144670669454     42.16857324047058
  H          38.65069817392108     19.90419261561090     43.25938834411399
  O          37.62267407798755     19.14155895542809     41.61102004146377
  H          37.29520636734181     18.37930108807613     42.27146642298150
  C          41.98681398749340     20.79166319363906     39.39577814543752
  O          43.15234328997085     20.31250382923135     39.46001424977218
  O          41.52660710480362     21.42974278676588     38.42865696404338
