24
frame 57397 R
C     41.517000    18.174000    48.900000
H     41.822000    17.274000    48.367000
H     42.140000    19.068000    48.848000
C     40.374000    18.235000    49.593000
C     39.947000    19.476000    50.366000
O     40.441000    20.579000    50.010000
O     39.136000    19.307000    51.306000
O     39.525000    17.156000    49.698000
C     38.527000    16.981000    48.627000
H     37.905000    16.148000    48.984000
C     39.294000    16.611000    47.403000
H     39.745000    15.621000    47.358000
C     39.627000    17.533000    46.481000
C     39.079000    18.890000    46.577000
H     39.461000    19.610000    45.849000
C     38.193000    19.235000    47.527000
H     37.823000    20.262000    47.604000
C     37.604000    18.210000    48.470000
H     37.474000    18.651000    49.472000
O     36.356000    17.806000    47.928000
H     35.685000    17.612000    48.658000
C     40.672000    17.216000    45.422000
O     41.299000    16.131000    45.536000
O     40.868000    18.067000    44.525000
