24
frame 58698 R
C     41.694000    18.885000    45.600000
H     42.101000    18.103000    44.957000
H     42.095000    19.897000    45.545000
C     40.693000    18.637000    46.454000
C     40.175000    19.700000    47.421000
O     40.425000    20.914000    47.177000
O     39.548000    19.294000    48.425000
O     40.136000    17.377000    46.590000
C     39.148000    16.942000    45.592000
H     38.821000    15.961000    45.970000
C     39.800000    16.781000    44.249000
H     40.494000    15.952000    44.100000
C     39.625000    17.685000    43.265000
C     38.765000    18.851000    43.500000
H     38.803000    19.628000    42.734000
C     38.030000    18.983000    44.617000
H     37.477000    19.907000    44.807000
C     37.893000    17.851000    45.607000
H     37.827000    18.261000    46.631000
O     36.721000    17.144000    45.256000
H     36.408000    16.478000    45.965000
C     40.389000    17.630000    41.944000
O     41.368000    16.833000    41.842000
O     40.032000    18.433000    41.057000
