24
frame 58698 P
C     41.158000    18.543000    44.985000
H     42.027000    17.897000    44.809000
H     41.419000    19.592000    44.781000
C     40.739000    18.362000    46.431000
C     40.253000    19.554000    47.345000
O     40.454000    20.743000    46.994000
O     39.701000    19.204000    48.409000
O     40.740000    17.248000    46.920000
C     38.371000    16.495000    45.000000
H     38.005000    15.476000    45.158000
C     39.477000    16.726000    44.284000
H     40.053000    15.912000    43.844000
C     39.993000    18.113000    44.001000
C     38.925000    19.150000    44.235000
H     39.130000    20.130000    43.805000
C     37.877000    18.932000    45.030000
H     37.221000    19.758000    45.311000
C     37.589000    17.599000    45.670000
H     37.961000    17.686000    46.710000
O     36.198000    17.381000    45.677000
H     35.951000    16.538000    46.217000
C     40.497000    18.142000    42.508000
O     41.358000    17.286000    42.139000
O     39.996000    19.016000    41.778000
