24
Coordinates from ORCA-job neb_NEB-CI_converged.QMRegion
  C          43.36501921443493     16.61773453065251     46.49890727036218
  H          43.94370409014428     15.74737537464842     46.19836359125465
  H          43.77438902918728     17.60637506395251     46.28905592354653
  C          42.34426492609209     16.46170052812890     47.43784964518562
  C          41.71193214366719     17.64771045399738     48.20908470145250
  O          42.16946738253684     18.81371121124978     48.04624963943796
  O          40.79571594947024     17.35845287774029     49.00745854129426
  O          41.83229800882804     15.31561339582986     47.65008663381828
  C          40.47137187004078     14.83843776561623     46.03796191432286
  H          40.09583470476382     13.93311226598695     46.52014663537584
  C          41.51856531646001     14.76473819942506     45.13779983566397
  H          42.06326236957469     13.83248698432310     44.99983904061239
  C          42.02062100806743     15.94240102575154     44.57837820892048
  C          41.17145768514764     17.13686914149634     44.57965551960007
  H          41.51929448706886     17.96163179760537     43.94999479303858
  C          40.03419757911606     17.19435860992726     45.29063044518817
  H          39.42036320560614     18.09826969748266     45.28650385795461
  C          39.53765724849679     16.02690660071213     46.10383351467160
  H          39.45466976602741     16.34122059415660     47.16103362596570
  O          38.28192058175994     15.64589694511203     45.58326154612159
  H          37.82810995373443     14.93480736728457     46.20943892018249
  C          43.19555645187496     15.87919475375345     43.60575668921370
  O          43.88507974096292     14.83243486383180     43.58164259438739
  O          43.38222800559729     16.88532626169975     42.88209007658639
