24
Coordinates from ORCA-job neb.QMRegion E -1076.079342342356
  C      48.136652     28.110994     56.479902
  H      48.997566     27.529322     56.163830
  H      48.296446     29.040658     57.018521
  C      46.863268     27.560126     56.456949
  C      45.685545     28.284153     57.143530
  O      45.929672     29.313973     57.823867
  O      44.542531     27.782445     57.012913
  O      46.612705     26.501752     55.776742
  C      46.565501     26.949137     53.747891
  H      46.384177     25.914046     53.452620
  C      47.849249     27.479159     53.676267
  H      48.723021     26.858382     53.466277
  C      48.073652     28.778010     54.132503
  C      46.934070     29.696103     54.232840
  H      47.169827     30.733574     54.469790
  C      45.676222     29.273636     54.024078
  H      44.842864     29.979130     54.053840
  C      45.333504     27.838838     53.735837
  H      44.657117     27.485594     54.531981
  O      44.698712     27.747853     52.468016
  H      43.878844     27.155956     52.527687
  C      49.481522     29.385304     54.102188
  O      50.476321     28.625586     53.932029
  O      49.538508     30.623616     54.234036
24
Coordinates from ORCA-job neb.QMRegion E -1076.079566043643
  C      48.141720     28.108150     56.483660
  H      49.004013     27.526387     56.171633
  H      48.299051     29.038780     57.021230
  C      46.868282     27.556565     56.458021
  C      45.689498     28.280904     57.143206
  O      45.931820     29.311553     57.823117
  O      44.546828     27.778918     57.011480
  O      46.618642     26.498607     55.777155
  C      46.569256     26.947625     53.737184
  H      46.390057     25.912028     53.441987
  C      47.851801     27.479570     53.666981
  H      48.726463     26.859646     53.459024
  C      48.073863     28.778936     54.123701
  C      46.932634     29.695649     54.220157
  H      47.166471     30.734322     54.453481
  C      45.675301     29.269967     54.014459
  H      44.840168     29.973312     54.045736
  C      45.335191     27.834517     53.726807
  H      44.661106     27.479526     54.523959
  O      44.697521     27.743260     52.460274
  H      43.877445     27.151607     52.521440
  C      49.481992     29.386681     54.098531
  O      50.477320     28.627069     53.930329
  O      49.538492     30.624909     54.231655
24
Coordinates from ORCA-job neb.QMRegion E -1076.079658755420
  C      48.143739     28.107567     56.482585
  H      49.006174     27.526640     56.168984
  H      48.300987     29.037530     57.021828
  C      46.870445     27.555761     56.455465
  C      45.691934     28.279839     57.141650
  O      45.933898     29.310369     57.821999
  O      44.549440     27.777573     57.010164
  O      46.621325     26.497014     55.775944
  C      46.572090     26.944143     53.732957
  H      46.394499     25.908153     53.437978
  C      47.854041     27.477520     53.664985
  H      48.729453     26.858478     53.457320
  C      48.074588     28.777538     54.120982
  C      46.931844     29.691652     54.221494
  H      47.163930     30.730672     54.455549
  C      45.674835     29.263920     54.016822
  H      44.838248     29.965343     54.051968
  C      45.336652     27.828669     53.725866
  H      44.664681     27.470226     54.523284
  O      44.697012     27.738829     52.460059
  H      43.876570     27.147751     52.521348
  C      49.482215     29.386353     54.097277
  O      50.477870     28.627165     53.929598
  O      49.538368     30.624528     54.231285
24
Coordinates from ORCA-job neb.QMRegion E -1076.079746688366
  C      48.146948     28.104112     56.484682
  H      49.009621     27.524630     56.169136
  H      48.303621     29.033910     57.024440
  C      46.873865     27.552662     56.454697
  C      45.695182     28.277100     57.140627
  O      45.936407     29.307893     57.820830
  O      44.552704     27.774813     57.008867
  O      46.624946     26.494262     55.774516
  C      46.575536     26.941346     53.726383
  H      46.399988     25.905186     53.430750
  C      47.856917     27.476436     53.660352
  H      48.733268     26.858410     53.453313
  C      48.075467     28.777128     54.114851
  C      46.931330     29.688940     54.216518
  H      47.161346     30.727824     54.453025
  C      45.674678     29.258996     54.013031
  H      44.836352     29.958320     54.052186
  C      45.338483     27.823499     53.721123
  H      44.668784     27.462651     54.519189
  O      44.696155     27.734523     52.456540
  H      43.875436     27.144094     52.518535
  C      49.482685     29.386508     54.094366
  O      50.478836     28.627568     53.928197
  O      49.538354     30.624485     54.230156
24
Coordinates from ORCA-job neb.QMRegion E -1076.079828342512
  C      48.152233     28.100105     56.484378
  H      49.015086     27.520427     56.170357
  H      48.307894     29.028622     57.026606
  C      46.878721     27.547098     56.454069
  C      45.699826     28.273130     57.139331
  O      45.940442     29.304332     57.819005
  O      44.557362     27.771171     57.006530
  O      46.630555     26.488757     55.776986
  C      46.580630     26.938542     53.711265
  H      46.407817     25.901542     53.416464
  C      47.860287     27.474689     53.652948
  H      48.738438     26.858754     53.446857
  C      48.076406     28.776155     54.109694
  C      46.930480     29.685504     54.209524
  H      47.157847     30.724788     54.446802
  C      45.674598     29.252667     54.006285
  H      44.834144     29.949434     54.048446
  C      45.341269     27.816906     53.711967
  H      44.674911     27.452392     54.511136
  O      44.694477     27.729706     52.449259
  H      43.873096     27.140399     52.512117
  C      49.483253     29.386616     54.091379
  O      50.480051     28.628120     53.926288
  O      49.538133     30.624425     54.228373
24
Coordinates from ORCA-job neb.QMRegion E -1076.079994559848
  C      48.152488     28.093513     56.495120
  H      49.015612     27.521430     56.166607
  H      48.308648     29.024269     57.033625
  C      46.880772     27.546898     56.452086
  C      45.701890     28.271361     57.137453
  O      45.941639     29.302346     57.817931
  O      44.559036     27.769860     57.004663
  O      46.630876     26.490401     55.763364
  C      46.581660     26.934667     53.720557
  H      46.410510     25.899406     53.419302
  C      47.863347     27.475275     53.651424
  H      48.741246     26.859459     53.444392
  C      48.077397     28.777125     54.096875
  C      46.930930     29.683638     54.205798
  H      47.157480     30.723399     54.441956
  C      45.674398     29.249143     54.007757
  H      44.833331     29.945084     54.051640
  C      45.341723     27.813339     53.713740
  H      44.676365     27.447969     54.513073
  O      44.695471     27.725262     52.451124
  H      43.872909     27.137690     52.513745
  C      49.483614     29.386828     54.086949
  O      50.480982     28.628383     53.925092
  O      49.538433     30.624243     54.228472
24
Coordinates from ORCA-job neb.QMRegion E -1076.080058451771
  C      48.153816     28.091275     56.495740
  H      49.016642     27.520079     56.165565
  H      48.310087     29.021315     57.035410
  C      46.881933     27.545271     56.450897
  C      45.703206     28.269957     57.136423
  O      45.943134     29.300746     57.817106
  O      44.560210     27.768804     57.003181
  O      46.632155     26.489098     55.762169
  C      46.583164     26.932843     53.719201
  H      46.412706     25.897041     53.418989
  C      47.864458     27.474019     53.650204
  H      48.742648     26.858781     53.442400
  C      48.077928     28.776675     54.093863
  C      46.930895     29.682125     54.203822
  H      47.156682     30.722269     54.439141
  C      45.674436     29.246397     54.007779
  H      44.832684     29.941375     54.053265
  C      45.342557     27.810360     53.713846
  H      44.678267     27.444195     54.513793
  O      44.695262     27.722174     52.451769
  H      43.872556     27.135042     52.514594
  C      49.484047     29.386775     54.085121
  O      50.481704     28.628500     53.924046
  O      49.538590     30.624088     54.227607
24
Coordinates from ORCA-job neb.QMRegion E -1076.080096435330
  C      48.154874     28.088705     56.497331
  H      49.017555     27.519040     56.164294
  H      48.311316     29.018281     57.037742
  C      46.883170     27.543905     56.449755
  C      45.704529     28.268663     57.135202
  O      45.944544     29.299148     57.816264
  O      44.561328     27.767984     57.001401
  O      46.633211     26.488263     55.759311
  C      46.584330     26.931349     53.718519
  H      46.414580     25.895354     53.418440
  C      47.865659     27.473491     53.648375
  H      48.744096     26.858751     53.440035
  C      48.078411     28.776374     54.090228
  C      46.930980     29.680966     54.201286
  H      47.156110     30.721290     54.436558
  C      45.674530     29.244443     54.006429
  H      44.832278     29.938769     54.052954
  C      45.343164     27.808209     53.712828
  H      44.679524     27.441655     54.513062
  O      44.695267     27.719926     52.451081
  H      43.872013     27.133619     52.513983
  C      49.484403     29.386670     54.083263
  O      50.482363     28.628566     53.923061
  O      49.538727     30.623870     54.226917
24
Coordinates from ORCA-job neb.QMRegion E -1076.080139589100
  C      48.156602     28.088106     56.494509
  H      49.019185     27.516922     56.164111
  H      48.312970     29.016072     57.037712
  C      46.884305     27.541597     56.449175
  C      45.705742     28.267242     57.134613
  O      45.946177     29.297601     57.815575
  O      44.562440     27.766970     57.000278
  O      46.634864     26.485639     55.762038
  C      46.585716     26.930989     53.711670
  H      46.416398     25.894320     53.413571
  C      47.866100     27.472556     53.646102
  H      48.745220     26.858796     53.437534
  C      48.078673     28.775343     54.091702
  C      46.930804     29.679564     54.201731
  H      47.155358     30.719940     54.437376
  C      45.674671     29.242636     54.005814
  H      44.831983     29.936358     54.053059
  C      45.343960     27.806544     53.710420
  H      44.681435     27.438556     54.510937
  O      44.694110     27.719761     52.449443
  H      43.871302     27.132997     52.512701
  C      49.484596     29.386330     54.083201
  O      50.482689     28.628495     53.922431
  O      49.538603     30.623565     54.226238
