24
Coordinates from ORCA-job neb.QMRegion
  C          48.15660238023907     28.08810571104974     56.49450920577721
  H          49.01918536919795     27.51692163660703     56.16411122736071
  H          48.31296963880313     29.01607150595580     57.03771228274940
  C          46.88430487097239     27.54159697795394     56.44917470226464
  C          45.70574170031646     28.26724177877662     57.13461275613909
  O          45.94617699392254     29.29760126587821     57.81557523657675
  O          44.56244039114041     27.76697034160944     57.00027790270092
  O          46.63486428887698     26.48563852504565     55.76203807805464
  C          46.58571607687851     26.93098902305598     53.71166992246980
  H          46.41639767923399     25.89431977415108     53.41357107525253
  C          47.86610028052217     27.47255589804989     53.64610213280756
  H          48.74522027124091     26.85879599794706     53.43753436193253
  C          48.07867274415983     28.77534275292913     54.09170158492380
  C          46.93080368798526     29.67956429383547     54.20173050074454
  H          47.15535750536240     30.71994002147638     54.43737610330722
  C          45.67467054307008     29.24263582829374     54.00581379867631
  H          44.83198318644902     29.93635756016651     54.05305865070857
  C          45.34396030231797     27.80654354528331     53.71041990601900
  H          44.68143468825018     27.43855619646185     54.51093734288487
  O          44.69411045410482     27.71976123353994     52.44944288349524
  H          43.87130234225907     27.13299695190096     52.51270086821106
  C          49.48459615915554     29.38632963871455     54.08320080400735
  O          50.48268923921984     28.62849467203334     53.92243120613183
  O          49.53860317373898     30.62356506672221     54.22623821269049
