24
Coordinates from ORCA-job neb_initial_path.QMRegion E   0.000000000000
  C      48.064000     27.894000     56.866000
  H      48.929000     27.402000     56.423000
  H      48.211000     28.661000     57.627000
  C      46.808000     27.594000     56.511000
  C      45.618000     28.277000     57.175000
  O      45.842000     29.312000     57.855000
  O      44.482000     27.767000     57.017000
  O      46.535000     26.614000     55.576000
  C      46.550000     26.968000     54.140000
  H      46.353000     26.007000     53.643000
  C      47.908000     27.502000     53.801000
  H      48.758000     26.826000     53.679000
  C      48.154000     28.827000     53.832000
  C      47.036000     29.770000     53.961000
  H      47.296000     30.825000     54.057000
  C      45.755000     29.358000     53.958000
  H      44.944000     30.088000     54.032000
  C      45.364000     27.910000     53.819000
  H      44.602000     27.678000     54.582000
  O      44.845000     27.680000     52.517000
  H      43.998000     27.141000     52.574000
  C      49.577000     29.380000     53.866000
  O      50.556000     28.587000     53.823000
  O      49.681000     30.616000     54.001000
24
Coordinates from ORCA-job neb_initial_path.QMRegion E   0.000000000000
  C      48.077000     27.940800     56.778000
  H      48.942200     27.427800     56.370200
  H      48.226800     28.737600     57.499200
  C      46.817600     27.589600     56.494600
  C      45.631400     28.278200     57.167000
  O      45.860200     29.311400     57.848200
  O      44.494200     27.769000     57.017200
  O      46.548000     26.595600     55.606400
  C      46.552800     26.963200     54.072400
  H      46.358800     25.989600     53.608600
  C      47.896600     27.497600     53.780200
  H      48.750600     26.832200     53.639000
  C      48.138800     28.814400     53.903000
  C      47.015800     29.754200     54.019600
  H      47.271600     30.806200     54.140800
  C      45.739800     29.341400     53.972400
  H      44.925400     30.067800     54.032800
  C      45.357200     27.896000     53.806000
  H      44.609800     27.641200     54.574000
  O      44.818600     27.692600     52.509200
  H      43.976000     27.144600     52.565600
  C      49.558400     29.379800     53.916600
  O      50.540600     28.593800     53.846600
  O      49.652600     30.616600     54.046600
24
Coordinates from ORCA-job neb_initial_path.QMRegion E   0.000000000000
  C      48.090000     27.987600     56.690000
  H      48.955400     27.453600     56.317400
  H      48.242600     28.814200     57.371400
  C      46.827200     27.585200     56.478200
  C      45.644800     28.279400     57.159000
  O      45.878400     29.310800     57.841400
  O      44.506400     27.771000     57.017400
  O      46.561000     26.577200     55.636800
  C      46.555600     26.958400     54.004800
  H      46.364600     25.972200     53.574200
  C      47.885200     27.493200     53.759400
  H      48.743200     26.838400     53.599000
  C      48.123600     28.801800     53.974000
  C      46.995600     29.738400     54.078200
  H      47.247200     30.787400     54.224600
  C      45.724600     29.324800     53.986800
  H      44.906800     30.047600     54.033600
  C      45.350400     27.882000     53.793000
  H      44.617600     27.604400     54.566000
  O      44.792200     27.705200     52.501400
  H      43.954000     27.148200     52.557200
  C      49.539800     29.379600     53.967200
  O      50.525200     28.600600     53.870200
  O      49.624200     30.617200     54.092200
24
Coordinates from ORCA-job neb_initial_path.QMRegion E   0.000000000000
  C      48.103000     28.034400     56.602000
  H      48.968600     27.479400     56.264600
  H      48.258400     28.890800     57.243600
  C      46.836800     27.580800     56.461800
  C      45.658200     28.280600     57.151000
  O      45.896600     29.310200     57.834600
  O      44.518600     27.773000     57.017600
  O      46.574000     26.558800     55.667200
  C      46.558400     26.953600     53.937200
  H      46.370400     25.954800     53.539800
  C      47.873800     27.488800     53.738600
  H      48.735800     26.844600     53.559000
  C      48.108400     28.789200     54.045000
  C      46.975400     29.722600     54.136800
  H      47.222800     30.768600     54.308400
  C      45.709400     29.308200     54.001200
  H      44.888200     30.027400     54.034400
  C      45.343600     27.868000     53.780000
  H      44.625400     27.567600     54.558000
  O      44.765800     27.717800     52.493600
  H      43.932000     27.151800     52.548800
  C      49.521200     29.379400     54.017800
  O      50.509800     28.607400     53.893800
  O      49.595800     30.617800     54.137800
24
Coordinates from ORCA-job neb_initial_path.QMRegion E   0.000000000000
  C      48.116000     28.081200     56.514000
  H      48.981800     27.505200     56.211800
  H      48.274200     28.967400     57.115800
  C      46.846400     27.576400     56.445400
  C      45.671600     28.281800     57.143000
  O      45.914800     29.309600     57.827800
  O      44.530800     27.775000     57.017800
  O      46.587000     26.540400     55.697600
  C      46.561200     26.948800     53.869600
  H      46.376200     25.937400     53.505400
  C      47.862400     27.484400     53.717800
  H      48.728400     26.850800     53.519000
  C      48.093200     28.776600     54.116000
  C      46.955200     29.706800     54.195400
  H      47.198400     30.749800     54.392200
  C      45.694200     29.291600     54.015600
  H      44.869600     30.007200     54.035200
  C      45.336800     27.854000     53.767000
  H      44.633200     27.530800     54.550000
  O      44.739400     27.730400     52.485800
  H      43.910000     27.155400     52.540400
  C      49.502600     29.379200     54.068400
  O      50.494400     28.614200     53.917400
  O      49.567400     30.618400     54.183400
24
Coordinates from ORCA-job neb_initial_path.QMRegion E   0.000000000000
  C      48.129000     28.128000     56.426000
  H      48.995000     27.531000     56.159000
  H      48.290000     29.044000     56.988000
  C      46.856000     27.572000     56.429000
  C      45.685000     28.283000     57.135000
  O      45.933000     29.309000     57.821000
  O      44.543000     27.777000     57.018000
  O      46.600000     26.522000     55.728000
  C      46.564000     26.944000     53.802000
  H      46.382000     25.920000     53.471000
  C      47.851000     27.480000     53.697000
  H      48.721000     26.857000     53.479000
  C      48.078000     28.764000     54.187000
  C      46.935000     29.691000     54.254000
  H      47.174000     30.731000     54.476000
  C      45.679000     29.275000     54.030000
  H      44.851000     29.987000     54.036000
  C      45.330000     27.840000     53.754000
  H      44.641000     27.494000     54.542000
  O      44.713000     27.743000     52.478000
  H      43.888000     27.159000     52.532000
  C      49.484000     29.379000     54.119000
  O      50.479000     28.621000     53.941000
  O      49.539000     30.619000     54.229000
24
Coordinates from ORCA-job neb_initial_path.QMRegion E   0.000000000000
  C      48.152750     28.161500     56.318000
  H      49.015250     27.544250     56.154500
  H      48.308000     29.074000     56.890750
  C      46.885000     27.564000     56.428250
  C      45.730250     28.286000     57.153250
  O      46.010750     29.275250     57.867750
  O      44.578000     27.814000     57.011000
  O      46.654500     26.482500     55.834500
  C      46.597250     26.972750     53.660500
  H      46.422000     25.972250     53.275250
  C      47.868000     27.472000     53.677250
  H      48.744250     26.861000     53.449500
  C      48.094750     28.741000     54.257000
  C      46.947500     29.676750     54.272000
  H      47.179250     30.715750     54.505500
  C      45.701250     29.267750     54.006000
  H      44.875750     29.982500     53.994750
  C      45.356250     27.837750     53.699750
  H      44.711500     27.458000     54.505000
  O      44.679250     27.768250     52.461000
  H      43.866500     27.171750     52.530250
  C      49.492000     29.376500     54.127500
  O      50.489750     28.625250     53.939000
  O      49.537000     30.617250     54.219750
24
Coordinates from ORCA-job neb_initial_path.QMRegion E   0.000000000000
  C      48.176500     28.195000     56.210000
  H      49.035500     27.557500     56.150000
  H      48.326000     29.104000     56.793500
  C      46.914000     27.556000     56.427500
  C      45.775500     28.289000     57.171500
  O      46.088500     29.241500     57.914500
  O      44.613000     27.851000     57.004000
  O      46.709000     26.443000     55.941000
  C      46.630500     27.001500     53.519000
  H      46.462000     26.024500     53.079500
  C      47.885000     27.464000     53.657500
  H      48.767500     26.865000     53.420000
  C      48.111500     28.718000     54.327000
  C      46.960000     29.662500     54.290000
  H      47.184500     30.700500     54.535000
  C      45.723500     29.260500     53.982000
  H      44.900500     29.978000     53.953500
  C      45.382500     27.835500     53.645500
  H      44.782000     27.422000     54.468000
  O      44.645500     27.793500     52.444000
  H      43.845000     27.184500     52.528500
  C      49.500000     29.374000     54.136000
  O      50.500500     28.629500     53.937000
  O      49.535000     30.615500     54.210500
24
Coordinates from ORCA-job neb_initial_path.QMRegion E   0.000000000000
  C      48.200250     28.228500     56.102000
  H      49.055750     27.570750     56.145500
  H      48.344000     29.134000     56.696250
  C      46.943000     27.548000     56.426750
  C      45.820750     28.292000     57.189750
  O      46.166250     29.207750     57.961250
  O      44.648000     27.888000     56.997000
  O      46.763500     26.403500     56.047500
  C      46.663750     27.030250     53.377500
  H      46.502000     26.076750     52.883750
  C      47.902000     27.456000     53.637750
  H      48.790750     26.869000     53.390500
  C      48.128250     28.695000     54.397000
  C      46.972500     29.648250     54.308000
  H      47.189750     30.685250     54.564500
  C      45.745750     29.253250     53.958000
  H      44.925250     29.973500     53.912250
  C      45.408750     27.833250     53.591250
  H      44.852500     27.386000     54.431000
  O      44.611750     27.818750     52.427000
  H      43.823500     27.197250     52.526750
  C      49.508000     29.371500     54.144500
  O      50.511250     28.633750     53.935000
  O      49.533000     30.613750     54.201250
24
Coordinates from ORCA-job neb_initial_path.QMRegion E   0.000000000000
  C      48.224000     28.262000     55.994000
  H      49.076000     27.584000     56.141000
  H      48.362000     29.164000     56.599000
  C      46.972000     27.540000     56.426000
  C      45.866000     28.295000     57.208000
  O      46.244000     29.174000     58.008000
  O      44.683000     27.925000     56.990000
  O      46.818000     26.364000     56.154000
  C      46.697000     27.059000     53.236000
  H      46.542000     26.129000     52.688000
  C      47.919000     27.448000     53.618000
  H      48.814000     26.873000     53.361000
  C      48.145000     28.672000     54.467000
  C      46.985000     29.634000     54.326000
  H      47.195000     30.670000     54.594000
  C      45.768000     29.246000     53.934000
  H      44.950000     29.969000     53.871000
  C      45.435000     27.831000     53.537000
  H      44.923000     27.350000     54.394000
  O      44.578000     27.844000     52.410000
  H      43.802000     27.210000     52.525000
  C      49.516000     29.369000     54.153000
  O      50.522000     28.638000     53.933000
  O      49.531000     30.612000     54.192000
