24
Coordinates from ORCA-job neb_initial_path.QMRegion E   0.000000000000
  C      47.813000     26.378000     68.235000
  H      48.270000     25.394000     68.343000
  H      48.308000     27.226000     68.696000
  C      46.670000     26.535000     67.559000
  C      45.961000     27.873000     67.389000
  O      46.595000     28.935000     67.608000
  O      44.755000     27.822000     67.035000
  O      46.034000     25.439000     67.010000
  C      46.437000     24.998000     65.665000
  H      45.852000     24.082000     65.514000
  C      47.909000     24.707000     65.681000
  H      48.267000     23.810000     66.188000
  C      48.803000     25.615000     65.243000
  C      48.326000     26.851000     64.614000
  H      49.099000     27.588000     64.388000
  C      47.028000     27.056000     64.322000
  H      46.704000     27.980000     63.832000
  C      45.970000     26.017000     64.598000
  H      45.090000     26.517000     65.033000
  O      45.624000     25.376000     63.382000
  H      44.622000     25.243000     63.347000
  C      50.298000     25.450000     65.499000
  O      50.717000     24.406000     66.055000
  O      51.030000     26.423000     65.168000
24
Coordinates from ORCA-job neb_initial_path.QMRegion E   0.000000000000
  C      47.858889     26.368000     68.129444
  H      48.304444     25.405333     68.300222
  H      48.353000     27.226778     68.566000
  C      46.678444     26.524778     67.554556
  C      45.969556     27.866333     67.379556
  O      46.603444     28.927667     67.600333
  O      44.765222     27.813111     67.023778
  O      46.038333     25.444778     67.104778
  C      46.450444     24.960000     65.580556
  H      45.861111     24.046889     65.437556
  C      47.890000     24.697000     65.663667
  H      48.251222     23.798111     66.164556
  C      48.774667     25.641556     65.304222
  C      48.307333     26.864889     64.642111
  H      49.076111     27.609222     64.432444
  C      47.025333     27.049333     64.307556
  H      46.709444     27.964222     63.799444
  C      45.971111     26.003556     64.562111
  H      45.096556     26.488778     65.019333
  O      45.609778     25.401222     63.337222
  H      44.608444     25.262667     63.311444
  C      50.275111     25.461000     65.522222
  O      50.692889     24.410000     66.062556
  O      51.009667     26.426111     65.177889
24
Coordinates from ORCA-job neb_initial_path.QMRegion E   0.000000000000
  C      47.904778     26.358000     68.023889
  H      48.338889     25.416667     68.257444
  H      48.398000     27.227556     68.436000
  C      46.686889     26.514556     67.550111
  C      45.978111     27.859667     67.370111
  O      46.611889     28.920333     67.592667
  O      44.775444     27.804222     67.012556
  O      46.042667     25.450556     67.199556
  C      46.463889     24.922000     65.496111
  H      45.870222     24.011778     65.361111
  C      47.871000     24.687000     65.646333
  H      48.235444     23.786222     66.141111
  C      48.746333     25.668111     65.365444
  C      48.288667     26.878778     64.670222
  H      49.053222     27.630444     64.476889
  C      47.022667     27.042667     64.293111
  H      46.714889     27.948444     63.766889
  C      45.972222     25.990111     64.526222
  H      45.103111     26.460556     65.005667
  O      45.595556     25.426444     63.292444
  H      44.594889     25.282333     63.275889
  C      50.252222     25.472000     65.545444
  O      50.668778     24.414000     66.070111
  O      50.989333     26.429222     65.187778
24
Coordinates from ORCA-job neb_initial_path.QMRegion E   0.000000000000
  C      47.950667     26.348000     67.918333
  H      48.373333     25.428000     68.214667
  H      48.443000     27.228333     68.306000
  C      46.695333     26.504333     67.545667
  C      45.986667     27.853000     67.360667
  O      46.620333     28.913000     67.585000
  O      44.785667     27.795333     67.001333
  O      46.047000     25.456333     67.294333
  C      46.477333     24.884000     65.411667
  H      45.879333     23.976667     65.284667
  C      47.852000     24.677000     65.629000
  H      48.219667     23.774333     66.117667
  C      48.718000     25.694667     65.426667
  C      48.270000     26.892667     64.698333
  H      49.030333     27.651667     64.521333
  C      47.020000     27.036000     64.278667
  H      46.720333     27.932667     63.734333
  C      45.973333     25.976667     64.490333
  H      45.109667     26.432333     64.992000
  O      45.581333     25.451667     63.247667
  H      44.581333     25.302000     63.240333
  C      50.229333     25.483000     65.568667
  O      50.644667     24.418000     66.077667
  O      50.969000     26.432333     65.197667
24
Coordinates from ORCA-job neb_initial_path.QMRegion E   0.000000000000
  C      47.996556     26.338000     67.812778
  H      48.407778     25.439333     68.171889
  H      48.488000     27.229111     68.176000
  C      46.703778     26.494111     67.541222
  C      45.995222     27.846333     67.351222
  O      46.628778     28.905667     67.577333
  O      44.795889     27.786444     66.990111
  O      46.051333     25.462111     67.389111
  C      46.490778     24.846000     65.327222
  H      45.888444     23.941556     65.208222
  C      47.833000     24.667000     65.611667
  H      48.203889     23.762444     66.094222
  C      48.689667     25.721222     65.487889
  C      48.251333     26.906556     64.726444
  H      49.007444     27.672889     64.565778
  C      47.017333     27.029333     64.264222
  H      46.725778     27.916889     63.701778
  C      45.974444     25.963222     64.454444
  H      45.116222     26.404111     64.978333
  O      45.567111     25.476889     63.202889
  H      44.567778     25.321667     63.204778
  C      50.206444     25.494000     65.591889
  O      50.620556     24.422000     66.085222
  O      50.948667     26.435444     65.207556
24
Coordinates from ORCA-job neb_initial_path.QMRegion E   0.000000000000
  C      48.042444     26.328000     67.707222
  H      48.442222     25.450667     68.129111
  H      48.533000     27.229889     68.046000
  C      46.712222     26.483889     67.536778
  C      46.003778     27.839667     67.341778
  O      46.637222     28.898333     67.569667
  O      44.806111     27.777556     66.978889
  O      46.055667     25.467889     67.483889
  C      46.504222     24.808000     65.242778
  H      45.897556     23.906444     65.131778
  C      47.814000     24.657000     65.594333
  H      48.188111     23.750556     66.070778
  C      48.661333     25.747778     65.549111
  C      48.232667     26.920444     64.754556
  H      48.984556     27.694111     64.610222
  C      47.014667     27.022667     64.249778
  H      46.731222     27.901111     63.669222
  C      45.975556     25.949778     64.418556
  H      45.122778     26.375889     64.964667
  O      45.552889     25.502111     63.158111
  H      44.554222     25.341333     63.169222
  C      50.183556     25.505000     65.615111
  O      50.596444     24.426000     66.092778
  O      50.928333     26.438556     65.217444
24
Coordinates from ORCA-job neb_initial_path.QMRegion E   0.000000000000
  C      48.088333     26.318000     67.601667
  H      48.476667     25.462000     68.086333
  H      48.578000     27.230667     67.916000
  C      46.720667     26.473667     67.532333
  C      46.012333     27.833000     67.332333
  O      46.645667     28.891000     67.562000
  O      44.816333     27.768667     66.967667
  O      46.060000     25.473667     67.578667
  C      46.517667     24.770000     65.158333
  H      45.906667     23.871333     65.055333
  C      47.795000     24.647000     65.577000
  H      48.172333     23.738667     66.047333
  C      48.633000     25.774333     65.610333
  C      48.214000     26.934333     64.782667
  H      48.961667     27.715333     64.654667
  C      47.012000     27.016000     64.235333
  H      46.736667     27.885333     63.636667
  C      45.976667     25.936333     64.382667
  H      45.129333     26.347667     64.951000
  O      45.538667     25.527333     63.113333
  H      44.540667     25.361000     63.133667
  C      50.160667     25.516000     65.638333
  O      50.572333     24.430000     66.100333
  O      50.908000     26.441667     65.227333
24
Coordinates from ORCA-job neb_initial_path.QMRegion E   0.000000000000
  C      48.134222     26.308000     67.496111
  H      48.511111     25.473333     68.043556
  H      48.623000     27.231444     67.786000
  C      46.729111     26.463444     67.527889
  C      46.020889     27.826333     67.322889
  O      46.654111     28.883667     67.554333
  O      44.826556     27.759778     66.956444
  O      46.064333     25.479444     67.673444
  C      46.531111     24.732000     65.073889
  H      45.915778     23.836222     64.978889
  C      47.776000     24.637000     65.559667
  H      48.156556     23.726778     66.023889
  C      48.604667     25.800889     65.671556
  C      48.195333     26.948222     64.810778
  H      48.938778     27.736556     64.699111
  C      47.009333     27.009333     64.220889
  H      46.742111     27.869556     63.604111
  C      45.977778     25.922889     64.346778
  H      45.135889     26.319444     64.937333
  O      45.524444     25.552556     63.068556
  H      44.527111     25.380667     63.098111
  C      50.137778     25.527000     65.661556
  O      50.548222     24.434000     66.107889
  O      50.887667     26.444778     65.237222
24
Coordinates from ORCA-job neb_initial_path.QMRegion E   0.000000000000
  C      48.180111     26.298000     67.390556
  H      48.545556     25.484667     68.000778
  H      48.668000     27.232222     67.656000
  C      46.737556     26.453222     67.523444
  C      46.029444     27.819667     67.313444
  O      46.662556     28.876333     67.546667
  O      44.836778     27.750889     66.945222
  O      46.068667     25.485222     67.768222
  C      46.544556     24.694000     64.989444
  H      45.924889     23.801111     64.902444
  C      47.757000     24.627000     65.542333
  H      48.140778     23.714889     66.000444
  C      48.576333     25.827444     65.732778
  C      48.176667     26.962111     64.838889
  H      48.915889     27.757778     64.743556
  C      47.006667     27.002667     64.206444
  H      46.747556     27.853778     63.571556
  C      45.978889     25.909444     64.310889
  H      45.142444     26.291222     64.923667
  O      45.510222     25.577778     63.023778
  H      44.513556     25.400333     63.062556
  C      50.114889     25.538000     65.684778
  O      50.524111     24.438000     66.115444
  O      50.867333     26.447889     65.247111
24
Coordinates from ORCA-job neb_initial_path.QMRegion E   0.000000000000
  C      48.226000     26.288000     67.285000
  H      48.580000     25.496000     67.958000
  H      48.713000     27.233000     67.526000
  C      46.746000     26.443000     67.519000
  C      46.038000     27.813000     67.304000
  O      46.671000     28.869000     67.539000
  O      44.847000     27.742000     66.934000
  O      46.073000     25.491000     67.863000
  C      46.558000     24.656000     64.905000
  H      45.934000     23.766000     64.826000
  C      47.738000     24.617000     65.525000
  H      48.125000     23.703000     65.977000
  C      48.548000     25.854000     65.794000
  C      48.158000     26.976000     64.867000
  H      48.893000     27.779000     64.788000
  C      47.004000     26.996000     64.192000
  H      46.753000     27.838000     63.539000
  C      45.980000     25.896000     64.275000
  H      45.149000     26.263000     64.910000
  O      45.496000     25.603000     62.979000
  H      44.500000     25.420000     63.027000
  C      50.092000     25.549000     65.708000
  O      50.500000     24.442000     66.123000
  O      50.847000     26.451000     65.257000
