24
Coordinates from ORCA-job neb_MEP.QMRegion E -1075.549743135452
  C      47.813000     26.378000     68.235000
  H      48.270000     25.394000     68.343000
  H      48.308000     27.226000     68.696000
  C      46.670000     26.535000     67.559000
  C      45.961000     27.873000     67.389000
  O      46.595000     28.935000     67.608000
  O      44.755000     27.822000     67.035000
  O      46.034000     25.439000     67.010000
  C      46.437000     24.998000     65.665000
  H      45.852000     24.082000     65.514000
  C      47.909000     24.707000     65.681000
  H      48.267000     23.810000     66.188000
  C      48.803000     25.615000     65.243000
  C      48.326000     26.851000     64.614000
  H      49.099000     27.588000     64.388000
  C      47.028000     27.056000     64.322000
  H      46.704000     27.980000     63.832000
  C      45.970000     26.017000     64.598000
  H      45.090000     26.517000     65.033000
  O      45.624000     25.376000     63.382000
  H      44.622000     25.243000     63.347000
  C      50.298000     25.450000     65.499000
  O      50.717000     24.406000     66.055000
  O      51.030000     26.423000     65.168000
24
Coordinates from ORCA-job neb_MEP.QMRegion E -1075.563587073345
  C      47.814406     26.373531     68.222289
  H      48.270591     25.389163     68.330036
  H      48.306216     27.220648     68.690652
  C      46.675380     26.530426     67.540107
  C      45.965343     27.869232     67.369237
  O      46.595890     28.930494     67.602789
  O      44.765027     27.817198     66.999426
  O      46.041581     25.435403     66.986368
  C      46.451958     24.995485     65.642585
  H      45.869608     24.077234     65.488252
  C      47.922925     24.708042     65.665486
  H      48.282133     23.812292     66.174363
  C      48.817440     25.616417     65.229343
  C      48.342175     26.851810     64.597059
  H      49.116662     27.588533     64.374461
  C      47.045516     27.054426     64.300396
  H      46.722532     27.976191     63.807058
  C      45.989541     26.012673     64.571973
  H      45.105157     26.510924     65.001171
  O      45.652305     25.368867     63.355159
  H      44.649342     25.238603     63.314201
  C      50.311474     25.452347     65.492341
  O      50.729443     24.411626     66.054882
  O      51.043200     26.425472     65.161067
24
Coordinates from ORCA-job neb_MEP.QMRegion E -1075.571820306181
  C      47.758527     26.382710     68.293667
  H      48.200512     25.394350     68.425678
  H      48.220346     27.228099     68.796228
  C      46.657052     26.543954     67.554048
  C      45.951595     27.882666     67.365613
  O      46.577393     28.942377     67.616808
  O      44.760940     27.827092     66.965094
  O      46.044042     25.450674     66.975275
  C      46.478346     25.017343     65.643378
  H      45.903955     24.095756     65.478816
  C      47.949548     24.729167     65.685859
  H      48.299007     23.847425     66.226576
  C      48.851034     25.611154     65.211707
  C      48.386435     26.834664     64.547975
  H      49.168866     27.552182     64.292459
  C      47.088872     27.051521     64.266339
  H      46.771079     27.974265     63.771484
  C      46.025883     26.022191     64.557040
  H      45.139297     26.529831     64.970229
  O      45.695238     25.353758     63.350558
  H      44.693439     25.223176     63.304719
  C      50.345562     25.443453     65.472227
  O      50.762643     24.405711     66.041421
  O      51.077590     26.413241     65.133018
24
Coordinates from ORCA-job neb_MEP.QMRegion E -1075.549178863360
  C      48.040886     26.330458     67.819700
  H      48.491514     25.353199     67.981000
  H      48.654762     27.200822     68.024574
  C      46.746257     26.447712     67.434549
  C      46.040788     27.805833     67.296349
  O      46.669783     28.868308     67.533074
  O      44.831600     27.768569     66.950212
  O      46.053104     25.365266     67.036577
  C      46.421526     24.814061     65.393233
  H      45.796021     23.914378     65.355057
  C      47.843770     24.603167     65.483552
  H      48.241356     23.679084     65.899105
  C      48.682238     25.664568     65.334123
  C      48.185364     26.908105     64.741162
  H      48.922712     27.706272     64.640990
  C      46.921903     27.019781     64.295925
  H      46.586600     27.917038     63.768641
  C      45.906628     25.921162     64.460850
  H      45.034850     26.339466     64.983491
  O      45.534789     25.434252     63.183803
  H      44.524807     25.308059     63.151299
  C      50.177782     25.506622     65.582767
  O      50.596326     24.447594     66.108779
  O      50.916854     26.461890     65.224237
24
Coordinates from ORCA-job neb_MEP.QMRegion E -1075.541592076114
  C      48.094765     26.325436     67.743142
  H      48.498614     25.348449     67.997557
  H      48.695219     27.197656     67.970749
  C      46.734871     26.444040     67.476772
  C      46.041246     27.815672     67.303094
  O      46.676061     28.876724     67.528883
  O      44.837424     27.773244     66.949608
  O      46.033216     25.407205     67.233247
  C      46.467083     24.734109     65.221916
  H      45.799183     23.876175     65.310780
  C      47.819725     24.590992     65.473966
  H      48.230574     23.678091     65.902036
  C      48.657373     25.707183     65.427889
  C      48.179809     26.918201     64.760894
  H      48.920315     27.711661     64.650369
  C      46.926016     27.011999     64.286049
  H      46.590984     27.906117     63.753164
  C      45.917988     25.904933     64.433592
  H      45.053605     26.308228     64.986001
  O      45.521663     25.460916     63.145462
  H      44.514017     25.314249     63.135974
  C      50.166577     25.518143     65.613407
  O      50.585896     24.446678     66.109003
  O      50.908948     26.459265     65.223540
24
Coordinates from ORCA-job neb_MEP.QMRegion E -1075.542406532968
  C      48.122149     26.316895     67.681882
  H      48.500755     25.348628     68.002003
  H      48.707962     27.191763     67.941564
  C      46.733800     26.443871     67.480586
  C      46.040949     27.819407     67.304892
  O      46.678407     28.878300     67.529143
  O      44.837729     27.774659     66.953811
  O      46.027845     25.419596     67.293179
  C      46.478929     24.716247     65.182561
  H      45.804301     23.866054     65.290055
  C      47.809959     24.591990     65.480350
  H      48.224839     23.680258     65.907738
  C      48.644280     25.732604     65.488538
  C      48.176249     26.925934     64.775112
  H      48.918677     27.716486     64.655962
  C      46.928522     27.010504     64.285259
  H      46.595438     27.901290     63.745021
  C      45.920775     25.901672     64.428126
  H      45.057640     26.301150     64.986745
  O      45.517979     25.472311     63.136572
  H      44.511867     25.318216     63.133131
  C      50.161266     25.525517     65.629199
  O      50.581689     24.448025     66.110225
  O      50.904498     26.459504     65.224384
24
Coordinates from ORCA-job neb_MEP.QMRegion E -1075.545685399402
  C      48.152425     26.301614     67.603673
  H      48.501322     25.349802     68.003696
  H      48.715897     27.180256     67.911807
  C      46.734169     26.441010     67.475520
  C      46.041305     27.820781     67.305253
  O      46.680893     28.876587     67.530119
  O      44.837981     27.773534     66.957676
  O      46.024422     25.429033     67.340389
  C      46.489784     24.701930     65.153260
  H      45.810858     23.856149     65.269196
  C      47.801489     24.592613     65.488869
  H      48.219937     23.680369     65.912646
  C      48.630941     25.759508     65.560328
  C      48.172690     26.932204     64.790399
  H      48.917426     27.718941     64.659119
  C      46.931899     27.007174     64.285007
  H      46.601151     27.894197     63.736261
  C      45.922854     25.897890     64.424670
  H      45.059609     26.294867     64.986106
  O      45.515989     25.479650     63.130368
  H      44.511341     25.320010     63.130467
  C      50.157235     25.531186     65.643375
  O      50.579174     24.447365     66.109193
  O      50.900405     26.458012     65.223807
24
Coordinates from ORCA-job neb_MEP.QMRegion E -1075.556773691467
  C      48.197607     26.274001     67.472174
  H      48.500099     25.359357     67.995262
  H      48.728263     27.156923     67.850718
  C      46.736379     26.439718     67.465095
  C      46.040775     27.824188     67.307361
  O      46.684864     28.875935     67.531509
  O      44.838356     27.772468     66.965181
  O      46.021285     25.445048     67.421053
  C      46.504722     24.684570     65.116726
  H      45.821074     23.840809     65.231554
  C      47.790425     24.597046     65.504702
  H      48.209983     23.682877     65.922938
  C      48.610742     25.804300     65.681339
  C      48.167448     26.941823     64.817809
  H      48.914381     27.723263     64.665846
  C      46.937734     27.003179     64.287859
  H      46.611300     27.882371     63.721657
  C      45.927052     25.892609     64.419483
  H      45.064673     26.286594     64.984555
  O      45.512355     25.494063     63.120967
  H      44.509164     25.326038     63.125816
  C      50.150451     25.540193     65.665286
  O      50.573856     24.447338     66.107638
  O      50.892688     26.456173     65.221541
24
Coordinates from ORCA-job neb_MEP.QMRegion E -1075.582189129497
  C      48.223775     26.267271     67.301081
  H      48.567612     25.457323     67.958039
  H      48.734261     27.196654     67.558445
  C      46.743420     26.437730     67.540612
  C      46.035270     27.809988     67.324160
  O      46.677294     28.865702     67.528039
  O      44.834614     27.738808     66.982489
  O      46.064204     25.490777     67.885926
  C      46.530865     24.661644     64.935858
  H      45.898790     23.775576     64.870683
  C      47.722689     24.615186     65.534749
  H      48.113656     23.700642     65.980446
  C      48.538273     25.848986     65.802169
  C      48.139849     26.977445     64.886665
  H      48.883459     27.771474     64.792825
  C      46.972336     27.008606     64.236344
  H      46.705794     27.854770     63.595653
  C      45.949581     25.905442     64.316811
  H      45.113740     26.264961     64.949888
  O      45.473447     25.621849     63.014720
  H      44.476106     25.444389     63.051657
  C      50.082344     25.545625     65.707897
  O      50.494833     24.439609     66.121090
  O      50.832370     26.451178     65.254504
24
Coordinates from ORCA-job neb_MEP.QMRegion E -1075.581607183806
  C      48.226000     26.288000     67.285000
  H      48.580000     25.496000     67.958000
  H      48.713000     27.233000     67.526000
  C      46.746000     26.443000     67.519000
  C      46.038000     27.813000     67.304000
  O      46.671000     28.869000     67.539000
  O      44.847000     27.742000     66.934000
  O      46.073000     25.491000     67.863000
  C      46.558000     24.656000     64.905000
  H      45.934000     23.766000     64.826000
  C      47.738000     24.617000     65.525000
  H      48.125000     23.703000     65.977000
  C      48.548000     25.854000     65.794000
  C      48.158000     26.976000     64.867000
  H      48.893000     27.779000     64.788000
  C      47.004000     26.996000     64.192000
  H      46.753000     27.838000     63.539000
  C      45.980000     25.896000     64.275000
  H      45.149000     26.263000     64.910000
  O      45.496000     25.603000     62.979000
  H      44.500000     25.420000     63.027000
  C      50.092000     25.549000     65.708000
  O      50.500000     24.442000     66.123000
  O      50.847000     26.451000     65.257000
