24
Coordinates from ORCA-job neb_NEB-CI_converged.QMRegion
  C          48.09476458145052     26.32543589239038     67.74314197635941
  H          48.49861386794328     25.34844858885505     67.99755710833328
  H          48.69521884389805     27.19765623360526     67.97074948124042
  C          46.73487083163598     26.44404023362153     67.47677231941095
  C          46.04124601688846     27.81567188950874     67.30309440117487
  O          46.67606094893183     28.87672424434482     67.52888324767819
  O          44.83742353192150     27.77324374592876     66.94960810626364
  O          46.03321641249616     25.40720519004685     67.23324726760970
  C          46.46708344881705     24.73410884262567     65.22191581651477
  H          45.79918288537348     23.87617529097823     65.31078041523084
  C          47.81972533321205     24.59099170004345     65.47396632699576
  H          48.23057440943821     23.67809120006038     65.90203597570067
  C          48.65737317811207     25.70718273021800     65.42788946645624
  C          48.17980852108239     26.91820109423223     64.76089392432380
  H          48.92031452436545     27.71166121138377     64.65036856790823
  C          46.92601571011640     27.01199920432482     64.28604903279064
  H          46.59098422269165     27.90611662185745     63.75316393465491
  C          45.91798812000427     25.90493319961318     64.43359229401523
  H          45.05360515537718     26.30822796351471     64.98600065575943
  O          45.52166303017473     25.46091639191802     63.14546153591922
  H          44.51401711673279     25.31424873281923     63.13597373265556
  C          50.16657678277169     25.51814318975428     65.61340736883061
  O          50.58589619047999     24.44667754269396     66.10900338229604
  O          50.90894804969646     26.45926457378205     65.22353951427984
