88
Image 0. Energy: -22838.635701203268 
C  53.49978916788982 35.197651980658236 60.171998798522715
H  53.9102502149191 34.7728201797215 59.2521005319786
H  52.71557377105627 35.95191216958561 60.09213679929939
C  53.937158962769686 34.80677034548795 61.37382972813697
C  53.39243179783512 35.33705905557192 62.68949938805833
O  52.88194497270731 36.50894146928438 62.67599166678973
O  53.4925266285382 34.605505858468156 63.696075351419324
O  54.90109853583926 33.821101532124274 61.49849921978959
C  56.26525878431008 34.28593742369127 61.651007888918095
H  56.7789592911278 33.47972734476499 62.19936204184731
C  56.308296833491205 35.558791378965005 62.4500385202207
H  56.07683251947923 35.50188350284951 63.51399429430761
C  56.52078877160186 36.7591240297373 61.86294199496614
C  56.81825275349665 36.85603659127548 60.43177401490699
H  56.90305416923638 37.8489521595873 59.987351273284155
C  56.99224651772794 35.750106807818106 59.68424129326606
H  57.22296501953359 35.82506631171112 58.61689993499475
C  57.0034908948592 34.372574203795274 60.30110882457913
H  56.52301519030242 33.648373492382 59.61833944454585
O  58.3412158256954 33.99226260696578 60.594932635133155
H  58.85431487867606 33.94492427319126 59.77037353911806
C  56.45639524210218 38.01689309251044 62.688634019792744
O  55.883827364849836 37.98362218427911 63.82991957504734
O  56.976822021951044 39.06646738558083 62.22120335107309
C  58.83 23.9195 51.0824
O  60.013825 23.981276 50.685863
O  58.118716 22.892117 51.114959
H  58.372021 24.85535 51.435161
C  57.4157 41.1959 64.2282
N  57.566277 41.58112 62.964146
H  57.25576 42.243622 63.6604
H  57.762446 40.626082 63.227813
N  57.006801 42.068304 65.145049
H  57.20297 41.113266 65.408716
H  57.121149 42.36084 64.185128
N  57.674021 39.938276 64.575405
H  57.78837 40.230811 63.615484
H  57.363504 40.600778 65.271659
C  51.1339 26.9766 61.0525
N  51.284477 27.36182 59.788446
H  50.97396 28.024322 60.4847
H  51.480646 26.406782 60.052113
N  50.725001 27.849004 61.969349
H  50.92117 26.893966 62.233016
H  50.839349 28.14154 61.009428
N  51.392221 25.718976 61.399705
H  51.50657 26.011511 60.439784
H  51.081704 26.381478 62.095959
C  64.0068 27.2335 46.3013
O  65.190625 27.295276 45.904763
O  63.295516 26.206117 46.333859
H  63.548821 28.16935 46.654061
C  66.8229 35.1419 46.8401
O  68.006725 35.203676 46.443563
O  66.111616 34.114517 46.872659
H  66.364921 36.07775 47.192861
C  60.2041 35.5483 44.6865
O  61.387925 35.610076 44.289963
O  59.492816 34.520917 44.719059
H  59.746121 36.48415 45.039261
C  55.0788 28.9151 64.6805
N  55.229377 29.30032 63.416446
H  54.91886 29.962822 64.1127
H  55.425546 28.345282 63.680113
N  54.669901 29.787504 65.597349
H  54.86607 28.832466 65.861016
H  54.784249 30.08004 64.637428
N  55.337121 27.657476 65.027705
H  55.45147 27.950011 64.067784
H  55.026604 28.319978 65.723959
C  68.6075 29.7171 48.4668
O  69.791325 29.778876 48.070263
O  67.896216 28.689717 48.499359
H  68.149521 30.65295 48.819561
C  53.3054 38.5948 64.7235
N  53.455977 38.98002 63.459446
H  53.14546 39.642522 64.1557
H  53.652146 38.024982 63.723113
N  52.896501 39.467204 65.640349
H  53.09267 38.512166 65.904016
H  53.010849 39.75974 64.680428
N  53.563721 37.337176 65.070705
H  53.67807 37.629711 64.110784
H  53.253204 37.999678 65.766959
C  65.0152 24.3148 50.7546
O  66.199025 24.376576 50.358063
O  64.303916 23.287417 50.787159
H  64.557221 25.25065 51.107361
88
Image 1. Energy: -22838.35457211222 
C  53.870961850623324 35.85504613172943 59.92142460675327
H  54.4899100099786 35.54510216223906 59.07270599936864
H  53.22419163271916 36.724124023603196 59.7931942567798
C  53.91418125712793 35.15994592664327 61.06477413905481
C  53.14655060888113 35.447816279186 62.3493211530814
O  52.80091036187843 36.653800696628416 62.57313515456787
O  52.95607955615679 34.49396804097178 63.12965622457502
O  54.71067074202714 34.037006951157004 61.13891561537627
C  55.91414437073817 34.13402687026705 61.93468388206202
H  55.89089724879267 33.287745733449746 62.64604921567454
C  55.98771024816422 35.43601140280969 62.689906170599805
H  55.400317759370026 35.53058225604846 63.60273970878008
C  56.648306924785956 36.50532898915837 62.185566372589626
C  57.47091532173513 36.36127062889614 60.98386634632872
H  57.93477203071076 37.257509981470676 60.570767649024184
C  57.69881081730822 35.152211953545844 60.43560097697016
H  58.36360365746623 35.05032307224101 59.57212830735075
C  57.108006892443434 33.88302752824674 61.000979154466464
H  56.71642832176599 33.275147558236924 60.16449574555105
O  58.06778934461238 33.14880019099403 61.75545927410256
H  58.806546926791576 32.915089029170396 61.16924962168271
C  56.50586811968054 37.8677073257025 62.83179671089835
O  55.863858494832286 37.95353941813333 63.932079883611124
O  57.018688171396114 38.874082599483934 62.273054090746456
C  58.83 23.9195 51.0824
O  60.013825 23.981276 50.685863
O  58.118716 22.892117 51.114959
H  58.372021 24.85535 51.435161
C  57.4157 41.1959 64.2282
N  57.566277 41.58112 62.964146
H  57.25576 42.243622 63.6604
H  57.762446 40.626082 63.227813
N  57.006801 42.068304 65.145049
H  57.20297 41.113266 65.408716
H  57.121149 42.36084 64.185128
N  57.674021 39.938276 64.575405
H  57.78837 40.230811 63.615484
H  57.363504 40.600778 65.271659
C  51.1339 26.9766 61.0525
N  51.284477 27.36182 59.788446
H  50.97396 28.024322 60.4847
H  51.480646 26.406782 60.052113
N  50.725001 27.849004 61.969349
H  50.92117 26.893966 62.233016
H  50.839349 28.14154 61.009428
N  51.392221 25.718976 61.399705
H  51.50657 26.011511 60.439784
H  51.081704 26.381478 62.095959
C  64.0068 27.2335 46.3013
O  65.190625 27.295276 45.904763
O  63.295516 26.206117 46.333859
H  63.548821 28.16935 46.654061
C  66.8229 35.1419 46.8401
O  68.006725 35.203676 46.443563
O  66.111616 34.114517 46.872659
H  66.364921 36.07775 47.192861
C  60.2041 35.5483 44.6865
O  61.387925 35.610076 44.289963
O  59.492816 34.520917 44.719059
H  59.746121 36.48415 45.039261
C  55.0788 28.9151 64.6805
N  55.229377 29.30032 63.416446
H  54.91886 29.962822 64.1127
H  55.425546 28.345282 63.680113
N  54.669901 29.787504 65.597349
H  54.86607 28.832466 65.861016
H  54.784249 30.08004 64.637428
N  55.337121 27.657476 65.027705
H  55.45147 27.950011 64.067784
H  55.026604 28.319978 65.723959
C  68.6075 29.7171 48.4668
O  69.791325 29.778876 48.070263
O  67.896216 28.689717 48.499359
H  68.149521 30.65295 48.819561
C  53.3054 38.5948 64.7235
N  53.455977 38.98002 63.459446
H  53.14546 39.642522 64.1557
H  53.652146 38.024982 63.723113
N  52.896501 39.467204 65.640349
H  53.09267 38.512166 65.904016
H  53.010849 39.75974 64.680428
N  53.563721 37.337176 65.070705
H  53.67807 37.629711 64.110784
H  53.253204 37.999678 65.766959
C  65.0152 24.3148 50.7546
O  66.199025 24.376576 50.358063
O  64.303916 23.287417 50.787159
H  64.557221 25.25065 51.107361
88
Image 2. Energy: -22837.77927666381 
C  54.380942581185415 35.70481902442271 59.89692478430082
H  55.0888051147305 35.25755689161582 59.190561910719154
H  53.915025150976994 36.64995205480377 59.61374938347115
C  54.11150879302585 35.09336331201777 61.056718624477085
C  53.21263227528016 35.57943511369039 62.183580741123
O  52.96228027417697 36.819948851077726 62.244270425416914
O  52.83980869971915 34.74394697727185 63.03437701996086
O  54.71649383706946 33.8848087646066 61.353144340061604
C  55.868661134187406 33.95751127225882 62.21906366928927
H  55.7809651461962 33.08403042797483 62.89165128384162
C  55.89160997838982 35.236261750783434 63.02691462839592
H  55.18394334271642 35.31008596407738 63.853618270760336
C  56.62408017803199 36.30328629159112 62.625158983848515
C  57.59107194718808 36.16220039277434 61.53761412430271
H  58.136272761603685 37.05397993342394 61.22814346784307
C  57.853750281903096 34.968826730424986 60.97523451867594
H  58.62788973180648 34.876228995894444 60.207866317235826
C  57.12843695554108 33.70895574382478 61.37018850349641
H  56.77386084347074 33.214493574366074 60.44664133697899
O  57.962658806400185 32.82782162594141 62.119976695244134
H  58.72686195615691 32.59179981461905 61.56833620740888
C  56.397940144049265 37.68709781028127 63.20205544487045
O  55.97591512561771 37.79859976645843 64.39590496285379
O  56.61231617057573 38.69091298577413 62.46915076542493
C  58.83 23.9195 51.0824
O  60.013825 23.981276 50.685863
O  58.118716 22.892117 51.114959
H  58.372021 24.85535 51.435161
C  57.4157 41.1959 64.2282
N  57.566277 41.58112 62.964146
H  57.25576 42.243622 63.6604
H  57.762446 40.626082 63.227813
N  57.006801 42.068304 65.145049
H  57.20297 41.113266 65.408716
H  57.121149 42.36084 64.185128
N  57.674021 39.938276 64.575405
H  57.78837 40.230811 63.615484
H  57.363504 40.600778 65.271659
C  51.1339 26.9766 61.0525
N  51.284477 27.36182 59.788446
H  50.97396 28.024322 60.4847
H  51.480646 26.406782 60.052113
N  50.725001 27.849004 61.969349
H  50.92117 26.893966 62.233016
H  50.839349 28.14154 61.009428
N  51.392221 25.718976 61.399705
H  51.50657 26.011511 60.439784
H  51.081704 26.381478 62.095959
C  64.0068 27.2335 46.3013
O  65.190625 27.295276 45.904763
O  63.295516 26.206117 46.333859
H  63.548821 28.16935 46.654061
C  66.8229 35.1419 46.8401
O  68.006725 35.203676 46.443563
O  66.111616 34.114517 46.872659
H  66.364921 36.07775 47.192861
C  60.2041 35.5483 44.6865
O  61.387925 35.610076 44.289963
O  59.492816 34.520917 44.719059
H  59.746121 36.48415 45.039261
C  55.0788 28.9151 64.6805
N  55.229377 29.30032 63.416446
H  54.91886 29.962822 64.1127
H  55.425546 28.345282 63.680113
N  54.669901 29.787504 65.597349
H  54.86607 28.832466 65.861016
H  54.784249 30.08004 64.637428
N  55.337121 27.657476 65.027705
H  55.45147 27.950011 64.067784
H  55.026604 28.319978 65.723959
C  68.6075 29.7171 48.4668
O  69.791325 29.778876 48.070263
O  67.896216 28.689717 48.499359
H  68.149521 30.65295 48.819561
C  53.3054 38.5948 64.7235
N  53.455977 38.98002 63.459446
H  53.14546 39.642522 64.1557
H  53.652146 38.024982 63.723113
N  52.896501 39.467204 65.640349
H  53.09267 38.512166 65.904016
H  53.010849 39.75974 64.680428
N  53.563721 37.337176 65.070705
H  53.67807 37.629711 64.110784
H  53.253204 37.999678 65.766959
C  65.0152 24.3148 50.7546
O  66.199025 24.376576 50.358063
O  64.303916 23.287417 50.787159
H  64.557221 25.25065 51.107361
88
Image 3. Energy: -22837.416976302997 
C  54.735846584239205 35.60151939808915 60.02350925590545
H  55.53210289390413 35.1313561927536 59.437765598532984
H  54.33531361155711 36.54468228765609 59.64652519980957
C  54.285462874514785 35.02475301279456 61.14529356963939
C  53.28535427026926 35.59735236248503 62.13970144056624
O  53.09758914435818 36.84968357541323 62.11871312610888
O  52.7731886719661 34.82324476833433 62.977829917703254
O  54.7731589064709 33.785458477665394 61.536508203905385
C  55.88486919212764 33.79623587542832 62.4536654872193
H  55.74731886337695 32.88782584179534 63.07041736688385
C  55.87119107735491 35.0301557352714 63.3232460880054
H  55.098136222620276 35.08387974123938 64.09219889734452
C  56.63043699229838 36.1072000329305 63.01357113100531
C  57.68095628985218 35.997952551245824 61.99732313758192
H  58.26553112735425 36.889239990140666 61.76190726501252
C  57.98093518155854 34.823417811745564 61.41312324113485
H  58.821200282078486 34.74490061965139 60.71633068989148
C  57.187075346911854 33.567765275886195 61.65828594196188
H  56.86313494052619 33.18133269705303 60.67393793890559
O  57.94263512569899 32.573662304336615 62.34844774374216
H  58.693899545709876 32.32481916091804 61.783420590989884
C  56.33771543188651 37.467961048905906 63.61831741088227
O  56.1530284974042 37.582439677148116 64.86423002832774
O  56.24126069595058 38.445795001102326 62.815873288943024
C  58.83 23.9195 51.0824
O  60.013825 23.981276 50.685863
O  58.118716 22.892117 51.114959
H  58.372021 24.85535 51.435161
C  57.4157 41.1959 64.2282
N  57.566277 41.58112 62.964146
H  57.25576 42.243622 63.6604
H  57.762446 40.626082 63.227813
N  57.006801 42.068304 65.145049
H  57.20297 41.113266 65.408716
H  57.121149 42.36084 64.185128
N  57.674021 39.938276 64.575405
H  57.78837 40.230811 63.615484
H  57.363504 40.600778 65.271659
C  51.1339 26.9766 61.0525
N  51.284477 27.36182 59.788446
H  50.97396 28.024322 60.4847
H  51.480646 26.406782 60.052113
N  50.725001 27.849004 61.969349
H  50.92117 26.893966 62.233016
H  50.839349 28.14154 61.009428
N  51.392221 25.718976 61.399705
H  51.50657 26.011511 60.439784
H  51.081704 26.381478 62.095959
C  64.0068 27.2335 46.3013
O  65.190625 27.295276 45.904763
O  63.295516 26.206117 46.333859
H  63.548821 28.16935 46.654061
C  66.8229 35.1419 46.8401
O  68.006725 35.203676 46.443563
O  66.111616 34.114517 46.872659
H  66.364921 36.07775 47.192861
C  60.2041 35.5483 44.6865
O  61.387925 35.610076 44.289963
O  59.492816 34.520917 44.719059
H  59.746121 36.48415 45.039261
C  55.0788 28.9151 64.6805
N  55.229377 29.30032 63.416446
H  54.91886 29.962822 64.1127
H  55.425546 28.345282 63.680113
N  54.669901 29.787504 65.597349
H  54.86607 28.832466 65.861016
H  54.784249 30.08004 64.637428
N  55.337121 27.657476 65.027705
H  55.45147 27.950011 64.067784
H  55.026604 28.319978 65.723959
C  68.6075 29.7171 48.4668
O  69.791325 29.778876 48.070263
O  67.896216 28.689717 48.499359
H  68.149521 30.65295 48.819561
C  53.3054 38.5948 64.7235
N  53.455977 38.98002 63.459446
H  53.14546 39.642522 64.1557
H  53.652146 38.024982 63.723113
N  52.896501 39.467204 65.640349
H  53.09267 38.512166 65.904016
H  53.010849 39.75974 64.680428
N  53.563721 37.337176 65.070705
H  53.67807 37.629711 64.110784
H  53.253204 37.999678 65.766959
C  65.0152 24.3148 50.7546
O  66.199025 24.376576 50.358063
O  64.303916 23.287417 50.787159
H  64.557221 25.25065 51.107361
88
Image 4. Energy: -22837.133388664224 
C  54.9969958215971 35.53197037561313 60.25897656753923
H  55.99694822094089 35.239580313138674 59.92953014267362
H  54.52074842672511 36.32461809290061 59.677857884258415
C  54.41489266485849 34.92850906966587 61.30658656516779
C  53.29404877906179 35.49028693093261 62.182516295936864
O  53.148544880269355 36.75234392240262 62.1961373619993
O  52.68033765878957 34.702512536356835 62.92898558498298
O  54.89389044389004 33.704657863301165 61.76208839672617
C  55.95510907183379 33.65560532887245 62.751030535863066
H  55.73720923036376 32.74181953974542 63.3374456115872
C  55.90313151821159 34.883782805465465 63.6123414403572
H  55.102190206342854 34.935508943460384 64.35436556608622
C  56.64129506385588 35.968462395857784 63.28068484152758
C  57.75731712291574 35.82782263532374 62.339139048966096
H  58.35161170350506 36.713037099306995 62.10789915592013
C  58.12670611883734 34.63108507688417 61.8437930713022
H  59.04473107419349 34.52384563092828 61.258241434268996
C  57.282167308539165 33.39860341806026 61.993722280257906
H  56.94646201917765 33.121401804180536 60.97743776656471
O  57.971676570853795 32.29495305851502 62.57265911694465
H  58.674302029779255 32.03523451555957 61.94937717657991
C  56.31216409150791 37.34043085796618 63.83993758696111
O  56.195990643665034 37.4973525654797 65.08593467852343
O  56.122481650282985 38.27591800009172 63.002750599015776
C  58.83 23.9195 51.0824
O  60.013825 23.981276 50.685863
O  58.118716 22.892117 51.114959
H  58.372021 24.85535 51.435161
C  57.4157 41.1959 64.2282
N  57.566277 41.58112 62.964146
H  57.25576 42.243622 63.6604
H  57.762446 40.626082 63.227813
N  57.006801 42.068304 65.145049
H  57.20297 41.113266 65.408716
H  57.121149 42.36084 64.185128
N  57.674021 39.938276 64.575405
H  57.78837 40.230811 63.615484
H  57.363504 40.600778 65.271659
C  51.1339 26.9766 61.0525
N  51.284477 27.36182 59.788446
H  50.97396 28.024322 60.4847
H  51.480646 26.406782 60.052113
N  50.725001 27.849004 61.969349
H  50.92117 26.893966 62.233016
H  50.839349 28.14154 61.009428
N  51.392221 25.718976 61.399705
H  51.50657 26.011511 60.439784
H  51.081704 26.381478 62.095959
C  64.0068 27.2335 46.3013
O  65.190625 27.295276 45.904763
O  63.295516 26.206117 46.333859
H  63.548821 28.16935 46.654061
C  66.8229 35.1419 46.8401
O  68.006725 35.203676 46.443563
O  66.111616 34.114517 46.872659
H  66.364921 36.07775 47.192861
C  60.2041 35.5483 44.6865
O  61.387925 35.610076 44.289963
O  59.492816 34.520917 44.719059
H  59.746121 36.48415 45.039261
C  55.0788 28.9151 64.6805
N  55.229377 29.30032 63.416446
H  54.91886 29.962822 64.1127
H  55.425546 28.345282 63.680113
N  54.669901 29.787504 65.597349
H  54.86607 28.832466 65.861016
H  54.784249 30.08004 64.637428
N  55.337121 27.657476 65.027705
H  55.45147 27.950011 64.067784
H  55.026604 28.319978 65.723959
C  68.6075 29.7171 48.4668
O  69.791325 29.778876 48.070263
O  67.896216 28.689717 48.499359
H  68.149521 30.65295 48.819561
C  53.3054 38.5948 64.7235
N  53.455977 38.98002 63.459446
H  53.14546 39.642522 64.1557
H  53.652146 38.024982 63.723113
N  52.896501 39.467204 65.640349
H  53.09267 38.512166 65.904016
H  53.010849 39.75974 64.680428
N  53.563721 37.337176 65.070705
H  53.67807 37.629711 64.110784
H  53.253204 37.999678 65.766959
C  65.0152 24.3148 50.7546
O  66.199025 24.376576 50.358063
O  64.303916 23.287417 50.787159
H  64.557221 25.25065 51.107361
88
Image 5. Energy: -22836.46998492008 
C  55.09521214773679 35.43295370686682 60.48560868730024
H  56.17344981118046 35.29184992314246 60.36734739523815
H  54.62989314884302 36.04544036030755 59.69924697529285
C  54.4415533462612 34.77325148454723 61.480603566963644
C  53.33246324995663 35.394845778114345 62.353810872445116
O  53.219630374246 36.66264657362095 62.29434021844966
O  52.750846180753626 34.677239078024236 63.19433670250821
O  54.92474714205695 33.56763550003947 61.960528587393874
C  56.098693410658434 33.48239256667592 63.109095458393405
H  55.81094672543813 32.568384504861285 63.66612648120487
C  56.006444485513015 34.71561781961182 63.8994549500482
H  55.21057702552968 34.768891640464574 64.64239681457225
C  56.6964631278456 35.82323628352874 63.513501953290884
C  57.837617946000684 35.682031541202214 62.60446735382418
H  58.427296230795 36.56917490031033 62.36174414830358
C  58.230097123411674 34.47686815863526 62.14209906269519
H  59.1517974481265 34.37257246946001 61.55859896075646
C  57.395105440317664 33.235305577359874 62.30780455673437
H  56.98402655643548 32.99946822664819 61.314920267369295
O  58.11891640727114 32.107184649822216 62.79068015604844
H  58.78378077833309 31.88030920276912 62.111384877144445
C  56.31863044141071 37.190623429266886 64.06671138619711
O  56.23229178686055 37.344290957521245 65.31102365121204
O  56.0540824850168 38.113837817212236 63.232901776611605
C  58.83 23.9195 51.0824
O  60.013825 23.981276 50.685863
O  58.118716 22.892117 51.114959
H  58.372021 24.85535 51.435161
C  57.4157 41.1959 64.2282
N  57.566277 41.58112 62.964146
H  57.25576 42.243622 63.6604
H  57.762446 40.626082 63.227813
N  57.006801 42.068304 65.145049
H  57.20297 41.113266 65.408716
H  57.121149 42.36084 64.185128
N  57.674021 39.938276 64.575405
H  57.78837 40.230811 63.615484
H  57.363504 40.600778 65.271659
C  51.1339 26.9766 61.0525
N  51.284477 27.36182 59.788446
H  50.97396 28.024322 60.4847
H  51.480646 26.406782 60.052113
N  50.725001 27.849004 61.969349
H  50.92117 26.893966 62.233016
H  50.839349 28.14154 61.009428
N  51.392221 25.718976 61.399705
H  51.50657 26.011511 60.439784
H  51.081704 26.381478 62.095959
C  64.0068 27.2335 46.3013
O  65.190625 27.295276 45.904763
O  63.295516 26.206117 46.333859
H  63.548821 28.16935 46.654061
C  66.8229 35.1419 46.8401
O  68.006725 35.203676 46.443563
O  66.111616 34.114517 46.872659
H  66.364921 36.07775 47.192861
C  60.2041 35.5483 44.6865
O  61.387925 35.610076 44.289963
O  59.492816 34.520917 44.719059
H  59.746121 36.48415 45.039261
C  55.0788 28.9151 64.6805
N  55.229377 29.30032 63.416446
H  54.91886 29.962822 64.1127
H  55.425546 28.345282 63.680113
N  54.669901 29.787504 65.597349
H  54.86607 28.832466 65.861016
H  54.784249 30.08004 64.637428
N  55.337121 27.657476 65.027705
H  55.45147 27.950011 64.067784
H  55.026604 28.319978 65.723959
C  68.6075 29.7171 48.4668
O  69.791325 29.778876 48.070263
O  67.896216 28.689717 48.499359
H  68.149521 30.65295 48.819561
C  53.3054 38.5948 64.7235
N  53.455977 38.98002 63.459446
H  53.14546 39.642522 64.1557
H  53.652146 38.024982 63.723113
N  52.896501 39.467204 65.640349
H  53.09267 38.512166 65.904016
H  53.010849 39.75974 64.680428
N  53.563721 37.337176 65.070705
H  53.67807 37.629711 64.110784
H  53.253204 37.999678 65.766959
C  65.0152 24.3148 50.7546
O  66.199025 24.376576 50.358063
O  64.303916 23.287417 50.787159
H  64.557221 25.25065 51.107361
88
Image 6. Energy: -22835.57961101908 
C  55.17876997212698 35.35234827386776 60.715060243182464
H  56.26632002079066 35.33136044868777 60.752026453948844
H  54.755979537672246 35.791190533236126 59.808427490393306
C  54.41426535644896 34.591993506277845 61.64538578292376
C  53.38621274741458 35.293767114702554 62.5840298372208
O  53.330670551583054 36.56190819312205 62.495786526433825
O  52.82251955024031 34.61008539454617 63.44777464533542
O  54.70160957242211 33.401658645488574 61.91063899749437
C  56.42953335921133 33.29473045957603 63.64679669929612
H  55.90991222553993 32.395288365058136 63.99376944925926
C  56.12873245148752 34.52438971965106 64.18000562763157
H  55.3065911290606 34.608708015264675 64.89228277409173
C  56.76425897480943 35.697691120590115 63.714180280269225
C  57.916826330844145 35.5506420638433 62.86273342066757
H  58.50476355744583 36.43507182444276 62.60540932578763
C  58.32615373542385 34.332004319665444 62.41379384099967
H  59.24045513499572 34.232971116209356 61.819176201703286
C  57.517937149130574 33.080275146870264 62.635094948051496
H  57.013053677474154 32.88169835213994 61.66552808543588
O  58.26226779021882 31.926739485586896 63.01218286671233
H  58.90344992531919 31.732515417533506 62.30604573884275
C  56.35504698757928 37.04946620724295 64.27994128213807
O  56.28447901228533 37.166124029439295 65.52754473745853
O  56.05836463046733 37.99013373695215 63.47441571471762
C  58.83 23.9195 51.0824
O  60.013825 23.981276 50.685863
O  58.118716 22.892117 51.114959
H  58.372021 24.85535 51.435161
C  57.4157 41.1959 64.2282
N  57.566277 41.58112 62.964146
H  57.25576 42.243622 63.6604
H  57.762446 40.626082 63.227813
N  57.006801 42.068304 65.145049
H  57.20297 41.113266 65.408716
H  57.121149 42.36084 64.185128
N  57.674021 39.938276 64.575405
H  57.78837 40.230811 63.615484
H  57.363504 40.600778 65.271659
C  51.1339 26.9766 61.0525
N  51.284477 27.36182 59.788446
H  50.97396 28.024322 60.4847
H  51.480646 26.406782 60.052113
N  50.725001 27.849004 61.969349
H  50.92117 26.893966 62.233016
H  50.839349 28.14154 61.009428
N  51.392221 25.718976 61.399705
H  51.50657 26.011511 60.439784
H  51.081704 26.381478 62.095959
C  64.0068 27.2335 46.3013
O  65.190625 27.295276 45.904763
O  63.295516 26.206117 46.333859
H  63.548821 28.16935 46.654061
C  66.8229 35.1419 46.8401
O  68.006725 35.203676 46.443563
O  66.111616 34.114517 46.872659
H  66.364921 36.07775 47.192861
C  60.2041 35.5483 44.6865
O  61.387925 35.610076 44.289963
O  59.492816 34.520917 44.719059
H  59.746121 36.48415 45.039261
C  55.0788 28.9151 64.6805
N  55.229377 29.30032 63.416446
H  54.91886 29.962822 64.1127
H  55.425546 28.345282 63.680113
N  54.669901 29.787504 65.597349
H  54.86607 28.832466 65.861016
H  54.784249 30.08004 64.637428
N  55.337121 27.657476 65.027705
H  55.45147 27.950011 64.067784
H  55.026604 28.319978 65.723959
C  68.6075 29.7171 48.4668
O  69.791325 29.778876 48.070263
O  67.896216 28.689717 48.499359
H  68.149521 30.65295 48.819561
C  53.3054 38.5948 64.7235
N  53.455977 38.98002 63.459446
H  53.14546 39.642522 64.1557
H  53.652146 38.024982 63.723113
N  52.896501 39.467204 65.640349
H  53.09267 38.512166 65.904016
H  53.010849 39.75974 64.680428
N  53.563721 37.337176 65.070705
H  53.67807 37.629711 64.110784
H  53.253204 37.999678 65.766959
C  65.0152 24.3148 50.7546
O  66.199025 24.376576 50.358063
O  64.303916 23.287417 50.787159
H  64.557221 25.25065 51.107361
88
Image 7. Energy: -22835.282595020537 
C  55.246276871379706 35.15927921770902 60.93900726603147
H  56.005402956705524 35.90110763496093 61.20324116616829
H  55.165741278493925 34.995901977003015 59.85946919802504
C  54.50847512024271 34.41099572617809 61.92485214475168
C  53.5731892717661 35.20446214029691 62.878891941517416
O  53.46752558146881 36.46048562618132 62.66130399613308
O  52.95957304795098 34.547937551854396 63.7361091033735
O  54.54000420955385 33.17153243360912 62.054208166434805
C  56.529791505743894 33.14490022630746 63.917063150247735
H  55.99726761799372 32.243568636179994 64.24082980081896
C  56.19441825834214 34.37256566720385 64.41877312668998
H  55.37352409099123 34.462895021933925 65.1307291016647
C  56.84422681503708 35.548969347375206 63.96556662525937
C  58.01049129606557 35.4056983851752 63.133992038002255
H  58.59258645808909 36.29329872773693 62.87493559462295
C  58.44417777993841 34.18330907694882 62.71775022421982
H  59.353215025833926 34.0826238360002 62.1154309416691
C  57.60427647205635 32.95514422740064 62.901811757573064
H  57.082938508526325 32.84080720841952 61.9024397981626
O  58.29848303790595 31.75586292846517 63.211108137487635
H  58.98568545877857 31.598713620678705 62.54127362232107
C  56.414458473966484 36.89954187165876 64.51769402212923
O  56.33734080284365 37.01975857858868 65.76089688799814
O  56.10271397033054 37.83011120212659 63.69994931871878
C  58.83 23.9195 51.0824
O  60.013825 23.981276 50.685863
O  58.118716 22.892117 51.114959
H  58.372021 24.85535 51.435161
C  57.4157 41.1959 64.2282
N  57.566277 41.58112 62.964146
H  57.25576 42.243622 63.6604
H  57.762446 40.626082 63.227813
N  57.006801 42.068304 65.145049
H  57.20297 41.113266 65.408716
H  57.121149 42.36084 64.185128
N  57.674021 39.938276 64.575405
H  57.78837 40.230811 63.615484
H  57.363504 40.600778 65.271659
C  51.1339 26.9766 61.0525
N  51.284477 27.36182 59.788446
H  50.97396 28.024322 60.4847
H  51.480646 26.406782 60.052113
N  50.725001 27.849004 61.969349
H  50.92117 26.893966 62.233016
H  50.839349 28.14154 61.009428
N  51.392221 25.718976 61.399705
H  51.50657 26.011511 60.439784
H  51.081704 26.381478 62.095959
C  64.0068 27.2335 46.3013
O  65.190625 27.295276 45.904763
O  63.295516 26.206117 46.333859
H  63.548821 28.16935 46.654061
C  66.8229 35.1419 46.8401
O  68.006725 35.203676 46.443563
O  66.111616 34.114517 46.872659
H  66.364921 36.07775 47.192861
C  60.2041 35.5483 44.6865
O  61.387925 35.610076 44.289963
O  59.492816 34.520917 44.719059
H  59.746121 36.48415 45.039261
C  55.0788 28.9151 64.6805
N  55.229377 29.30032 63.416446
H  54.91886 29.962822 64.1127
H  55.425546 28.345282 63.680113
N  54.669901 29.787504 65.597349
H  54.86607 28.832466 65.861016
H  54.784249 30.08004 64.637428
N  55.337121 27.657476 65.027705
H  55.45147 27.950011 64.067784
H  55.026604 28.319978 65.723959
C  68.6075 29.7171 48.4668
O  69.791325 29.778876 48.070263
O  67.896216 28.689717 48.499359
H  68.149521 30.65295 48.819561
C  53.3054 38.5948 64.7235
N  53.455977 38.98002 63.459446
H  53.14546 39.642522 64.1557
H  53.652146 38.024982 63.723113
N  52.896501 39.467204 65.640349
H  53.09267 38.512166 65.904016
H  53.010849 39.75974 64.680428
N  53.563721 37.337176 65.070705
H  53.67807 37.629711 64.110784
H  53.253204 37.999678 65.766959
C  65.0152 24.3148 50.7546
O  66.199025 24.376576 50.358063
O  64.303916 23.287417 50.787159
H  64.557221 25.25065 51.107361
88
Image 8. Energy: -22836.213743879965 
C  55.38159176446484 34.94486591794857 61.22929057651478
H  55.58856140927098 35.99876777371937 61.32222370032952
H  55.75528632029487 34.47517079676568 60.32608144027567
C  54.60044153343911 34.26919082924074 62.161001846703954
C  53.66334260789645 35.12484281076039 63.04973907336503
O  53.53401738815678 36.36601750765671 62.74759561949605
O  53.078512518982826 34.54206472883989 63.98141099080474
O  54.60756486708749 33.0096804942844 62.34040927083382
C  56.58789749101272 33.00518057313761 64.15680511601586
H  56.087644934095664 32.09735066622357 64.50864561768458
C  56.24539347355814 34.23505552002143 64.64928772577889
H  55.41947382096179 34.329492937237454 65.35290911012757
C  56.89990365243459 35.40194208035322 64.18383320777993
C  58.10821038005377 35.25821774030977 63.4125294608941
H  58.6920802851096 36.147378001258986 63.16688635311074
C  58.55491631245401 34.03327567925776 63.02366638750559
H  59.48024499103232 33.92170811587653 62.44869770896611
C  57.687487616314314 32.82299883376116 63.17153277559245
H  57.162553684367616 32.79996389511826 62.16662006405921
O  58.32597396108135 31.58894696042519 63.422688680208196
H  59.055438231799805 31.461619744909278 62.79169979570825
C  56.451488785209776 36.76151059024695 64.7303398928884
O  56.36943021903484 36.86214258218769 65.97123704494742
O  56.14793822188475 37.68879543045305 63.911491800401656
C  58.83 23.9195 51.0824
O  60.013825 23.981276 50.685863
O  58.118716 22.892117 51.114959
H  58.372021 24.85535 51.435161
C  57.4157 41.1959 64.2282
N  57.566277 41.58112 62.964146
H  57.25576 42.243622 63.6604
H  57.762446 40.626082 63.227813
N  57.006801 42.068304 65.145049
H  57.20297 41.113266 65.408716
H  57.121149 42.36084 64.185128
N  57.674021 39.938276 64.575405
H  57.78837 40.230811 63.615484
H  57.363504 40.600778 65.271659
C  51.1339 26.9766 61.0525
N  51.284477 27.36182 59.788446
H  50.97396 28.024322 60.4847
H  51.480646 26.406782 60.052113
N  50.725001 27.849004 61.969349
H  50.92117 26.893966 62.233016
H  50.839349 28.14154 61.009428
N  51.392221 25.718976 61.399705
H  51.50657 26.011511 60.439784
H  51.081704 26.381478 62.095959
C  64.0068 27.2335 46.3013
O  65.190625 27.295276 45.904763
O  63.295516 26.206117 46.333859
H  63.548821 28.16935 46.654061
C  66.8229 35.1419 46.8401
O  68.006725 35.203676 46.443563
O  66.111616 34.114517 46.872659
H  66.364921 36.07775 47.192861
C  60.2041 35.5483 44.6865
O  61.387925 35.610076 44.289963
O  59.492816 34.520917 44.719059
H  59.746121 36.48415 45.039261
C  55.0788 28.9151 64.6805
N  55.229377 29.30032 63.416446
H  54.91886 29.962822 64.1127
H  55.425546 28.345282 63.680113
N  54.669901 29.787504 65.597349
H  54.86607 28.832466 65.861016
H  54.784249 30.08004 64.637428
N  55.337121 27.657476 65.027705
H  55.45147 27.950011 64.067784
H  55.026604 28.319978 65.723959
C  68.6075 29.7171 48.4668
O  69.791325 29.778876 48.070263
O  67.896216 28.689717 48.499359
H  68.149521 30.65295 48.819561
C  53.3054 38.5948 64.7235
N  53.455977 38.98002 63.459446
H  53.14546 39.642522 64.1557
H  53.652146 38.024982 63.723113
N  52.896501 39.467204 65.640349
H  53.09267 38.512166 65.904016
H  53.010849 39.75974 64.680428
N  53.563721 37.337176 65.070705
H  53.67807 37.629711 64.110784
H  53.253204 37.999678 65.766959
C  65.0152 24.3148 50.7546
O  66.199025 24.376576 50.358063
O  64.303916 23.287417 50.787159
H  64.557221 25.25065 51.107361
88
Image 9. Energy: -22837.223560139562 
C  55.530969626540056 34.70791880135528 61.46346596442992
H  55.35679384741695 35.75714408804143 61.23604159492307
H  56.24331376401099 34.18109325315497 60.82972082951668
C  54.883029549494644 34.19550581884187 62.51816824353271
C  53.798236531746696 35.00061989680808 63.22661435383465
O  53.62495831178977 36.19817323326091 62.80006767821693
O  53.16438253766753 34.451232462008115 64.14946171820053
O  55.16584497833148 32.93332643639602 63.04553338988222
C  56.325600731895825 32.92644846067607 64.02951776015823
H  56.14339888363096 32.00280073540688 64.62459658161919
C  56.24142681078141 34.16321754515848 64.86058673928953
H  55.42023278871868 34.218565664356966 65.57458142401885
C  56.97701680575733 35.25936446341607 64.55113426242924
C  58.17151654883711 35.10956925696538 63.70528507459482
H  58.80628628321471 35.98250706160751 63.53161029972171
C  58.55678211852738 33.907306818435806 63.23294317336468
H  59.50668018284798 33.78675586549346 62.70126142683125
C  57.65776976977582 32.70076444189409 63.27423601069766
H  57.34416594724915 32.53383156271213 62.228171725406504
O  58.26673509016334 31.51339625414451 63.77845953424087
H  59.06524875236995 31.331171501416158 63.25001819892474
C  56.512071035293935 36.63181593413904 65.06432900121187
O  56.33240403350253 36.79139058327638 66.28767581909459
O  56.24414008044042 37.518969401017486 64.18243860586253
C  58.83 23.9195 51.0824
O  60.013825 23.981276 50.685863
O  58.118716 22.892117 51.114959
H  58.372021 24.85535 51.435161
C  57.4157 41.1959 64.2282
N  57.566277 41.58112 62.964146
H  57.25576 42.243622 63.6604
H  57.762446 40.626082 63.227813
N  57.006801 42.068304 65.145049
H  57.20297 41.113266 65.408716
H  57.121149 42.36084 64.185128
N  57.674021 39.938276 64.575405
H  57.78837 40.230811 63.615484
H  57.363504 40.600778 65.271659
C  51.1339 26.9766 61.0525
N  51.284477 27.36182 59.788446
H  50.97396 28.024322 60.4847
H  51.480646 26.406782 60.052113
N  50.725001 27.849004 61.969349
H  50.92117 26.893966 62.233016
H  50.839349 28.14154 61.009428
N  51.392221 25.718976 61.399705
H  51.50657 26.011511 60.439784
H  51.081704 26.381478 62.095959
C  64.0068 27.2335 46.3013
O  65.190625 27.295276 45.904763
O  63.295516 26.206117 46.333859
H  63.548821 28.16935 46.654061
C  66.8229 35.1419 46.8401
O  68.006725 35.203676 46.443563
O  66.111616 34.114517 46.872659
H  66.364921 36.07775 47.192861
C  60.2041 35.5483 44.6865
O  61.387925 35.610076 44.289963
O  59.492816 34.520917 44.719059
H  59.746121 36.48415 45.039261
C  55.0788 28.9151 64.6805
N  55.229377 29.30032 63.416446
H  54.91886 29.962822 64.1127
H  55.425546 28.345282 63.680113
N  54.669901 29.787504 65.597349
H  54.86607 28.832466 65.861016
H  54.784249 30.08004 64.637428
N  55.337121 27.657476 65.027705
H  55.45147 27.950011 64.067784
H  55.026604 28.319978 65.723959
C  68.6075 29.7171 48.4668
O  69.791325 29.778876 48.070263
O  67.896216 28.689717 48.499359
H  68.149521 30.65295 48.819561
C  53.3054 38.5948 64.7235
N  53.455977 38.98002 63.459446
H  53.14546 39.642522 64.1557
H  53.652146 38.024982 63.723113
N  52.896501 39.467204 65.640349
H  53.09267 38.512166 65.904016
H  53.010849 39.75974 64.680428
N  53.563721 37.337176 65.070705
H  53.67807 37.629711 64.110784
H  53.253204 37.999678 65.766959
C  65.0152 24.3148 50.7546
O  66.199025 24.376576 50.358063
O  64.303916 23.287417 50.787159
H  64.557221 25.25065 51.107361
88
Image 10. Energy: -22837.518882696677 
C  56.03765908016108 34.8633965575906 62.57134540480573
H  55.79200527865764 35.8238365171837 62.09992315284958
H  56.68046131570984 34.294182756170855 61.87801504986486
C  54.77229749444538 34.09468354475663 62.78253833488086
C  53.61404903739444 34.95755344676166 63.32594723808958
O  53.49607357978513 36.120076567536756 62.81751669636891
O  52.9742584927927 34.46369739794858 64.2699787459151
O  54.692035829354666 32.875501930334316 62.734550435881104
C  56.73233542790416 32.69161522117901 64.64224610290943
H  56.32739581005903 31.79009327760879 65.12505394647624
C  56.29172788148322 33.91268857514697 64.94009768364973
H  55.51106141222345 34.07811847344116 65.68500514782134
C  56.73704848660815 35.0737263740088 64.06440789781732
C  58.23607248686001 34.901800888968324 63.814076444685135
H  58.868229424511185 35.79136180573958 63.73950932485589
C  58.73149720049726 33.67900934645541 63.58572521783022
H  59.766456162376976 33.53243791340462 63.26274546713338
C  57.82939833109634 32.45997695735663 63.63863227237318
H  57.38830749585748 32.34506372599251 62.621239034562585
O  58.45904424334794 31.245074882141434 64.01939797775884
H  59.25269361317716 31.117093330636262 63.475895205573686
C  56.416384041360914 36.44057464405842 64.80584137944784
O  56.441644129367226 36.42702869884371 66.05235977369013
O  56.144479294965564 37.48100608672792 64.11316760475565
C  58.83 23.9195 51.0824
O  60.013825 23.981276 50.685863
O  58.118716 22.892117 51.114959
H  58.372021 24.85535 51.435161
C  57.4157 41.1959 64.2282
N  57.566277 41.58112 62.964146
H  57.25576 42.243622 63.6604
H  57.762446 40.626082 63.227813
N  57.006801 42.068304 65.145049
H  57.20297 41.113266 65.408716
H  57.121149 42.36084 64.185128
N  57.674021 39.938276 64.575405
H  57.78837 40.230811 63.615484
H  57.363504 40.600778 65.271659
C  51.1339 26.9766 61.0525
N  51.284477 27.36182 59.788446
H  50.97396 28.024322 60.4847
H  51.480646 26.406782 60.052113
N  50.725001 27.849004 61.969349
H  50.92117 26.893966 62.233016
H  50.839349 28.14154 61.009428
N  51.392221 25.718976 61.399705
H  51.50657 26.011511 60.439784
H  51.081704 26.381478 62.095959
C  64.0068 27.2335 46.3013
O  65.190625 27.295276 45.904763
O  63.295516 26.206117 46.333859
H  63.548821 28.16935 46.654061
C  66.8229 35.1419 46.8401
O  68.006725 35.203676 46.443563
O  66.111616 34.114517 46.872659
H  66.364921 36.07775 47.192861
C  60.2041 35.5483 44.6865
O  61.387925 35.610076 44.289963
O  59.492816 34.520917 44.719059
H  59.746121 36.48415 45.039261
C  55.0788 28.9151 64.6805
N  55.229377 29.30032 63.416446
H  54.91886 29.962822 64.1127
H  55.425546 28.345282 63.680113
N  54.669901 29.787504 65.597349
H  54.86607 28.832466 65.861016
H  54.784249 30.08004 64.637428
N  55.337121 27.657476 65.027705
H  55.45147 27.950011 64.067784
H  55.026604 28.319978 65.723959
C  68.6075 29.7171 48.4668
O  69.791325 29.778876 48.070263
O  67.896216 28.689717 48.499359
H  68.149521 30.65295 48.819561
C  53.3054 38.5948 64.7235
N  53.455977 38.98002 63.459446
H  53.14546 39.642522 64.1557
H  53.652146 38.024982 63.723113
N  52.896501 39.467204 65.640349
H  53.09267 38.512166 65.904016
H  53.010849 39.75974 64.680428
N  53.563721 37.337176 65.070705
H  53.67807 37.629711 64.110784
H  53.253204 37.999678 65.766959
C  65.0152 24.3148 50.7546
O  66.199025 24.376576 50.358063
O  64.303916 23.287417 50.787159
H  64.557221 25.25065 51.107361
88
Image 11. Energy: -22837.79225386463 
C  56.372240384392136 34.85357936720367 62.82917162360821
H  56.48012638674221 35.89428267000473 62.50585611164038
H  57.0639765371345 34.2158725207046 62.263366820387404
C  54.96118774767939 34.348245907763285 62.601487574219156
C  53.805925668507165 35.33101476103664 62.939136820951276
O  53.98923806336286 36.552681030601114 62.626523294796
O  52.834803131979875 34.854093996631676 63.544506858137964
O  54.7163874193932 33.20120860853272 62.30969263142699
C  56.61646769357916 32.369744677563894 64.8124443174687
H  56.11454214155296 31.457772673586696 65.18951329021282
C  56.090094008813196 33.58439499409332 64.97996474148458
H  55.12953677643899 33.7317497917214 65.47642912212137
C  56.76073518180976 34.80221068802744 64.36676600274814
C  58.274977267894336 34.59398169600759 64.43745829797273
H  58.91466687071037 35.478440715007345 64.50826959687743
C  58.816379449463945 33.3721958564759 64.34038420388862
H  59.90248805504113 33.22532972868716 64.32677738543661
C  57.94154703928374 32.14935138660744 64.13269370037834
H  57.77092445997313 32.06445320314977 63.034199155970526
O  58.463463408052526 30.921413906182927 64.6203950681252
H  59.33540516261725 30.770459975407693 64.21821870496254
C  56.33670270027741 36.123053837969294 65.12098002849041
O  55.95571915053236 35.99096263669112 66.30218703094431
O  56.39869139475856 37.229813630352595 64.49808933772572
C  58.83 23.9195 51.0824
O  60.013825 23.981276 50.685863
O  58.118716 22.892117 51.114959
H  58.372021 24.85535 51.435161
C  57.4157 41.1959 64.2282
N  57.566277 41.58112 62.964146
H  57.25576 42.243622 63.6604
H  57.762446 40.626082 63.227813
N  57.006801 42.068304 65.145049
H  57.20297 41.113266 65.408716
H  57.121149 42.36084 64.185128
N  57.674021 39.938276 64.575405
H  57.78837 40.230811 63.615484
H  57.363504 40.600778 65.271659
C  51.1339 26.9766 61.0525
N  51.284477 27.36182 59.788446
H  50.97396 28.024322 60.4847
H  51.480646 26.406782 60.052113
N  50.725001 27.849004 61.969349
H  50.92117 26.893966 62.233016
H  50.839349 28.14154 61.009428
N  51.392221 25.718976 61.399705
H  51.50657 26.011511 60.439784
H  51.081704 26.381478 62.095959
C  64.0068 27.2335 46.3013
O  65.190625 27.295276 45.904763
O  63.295516 26.206117 46.333859
H  63.548821 28.16935 46.654061
C  66.8229 35.1419 46.8401
O  68.006725 35.203676 46.443563
O  66.111616 34.114517 46.872659
H  66.364921 36.07775 47.192861
C  60.2041 35.5483 44.6865
O  61.387925 35.610076 44.289963
O  59.492816 34.520917 44.719059
H  59.746121 36.48415 45.039261
C  55.0788 28.9151 64.6805
N  55.229377 29.30032 63.416446
H  54.91886 29.962822 64.1127
H  55.425546 28.345282 63.680113
N  54.669901 29.787504 65.597349
H  54.86607 28.832466 65.861016
H  54.784249 30.08004 64.637428
N  55.337121 27.657476 65.027705
H  55.45147 27.950011 64.067784
H  55.026604 28.319978 65.723959
C  68.6075 29.7171 48.4668
O  69.791325 29.778876 48.070263
O  67.896216 28.689717 48.499359
H  68.149521 30.65295 48.819561
C  53.3054 38.5948 64.7235
N  53.455977 38.98002 63.459446
H  53.14546 39.642522 64.1557
H  53.652146 38.024982 63.723113
N  52.896501 39.467204 65.640349
H  53.09267 38.512166 65.904016
H  53.010849 39.75974 64.680428
N  53.563721 37.337176 65.070705
H  53.67807 37.629711 64.110784
H  53.253204 37.999678 65.766959
C  65.0152 24.3148 50.7546
O  66.199025 24.376576 50.358063
O  64.303916 23.287417 50.787159
H  64.557221 25.25065 51.107361
88
Image 12. Energy: -22838.017140040443 
C  56.71027752764007 34.8254691888215 63.217385778379345
H  57.133714171494425 35.82765161748453 63.10011656315057
H  57.31640286350789 34.09254401747598 62.66868397604101
C  55.301846611758904 34.773171099698224 62.67920085877061
C  54.50579583211635 36.09118639552034 62.74770347080139
O  55.195027690526175 37.13857613078696 62.91178341461343
O  53.25748859422459 36.04730380059372 62.74438577945048
O  54.76174985432784 33.74377864878463 62.32612991563525
C  56.41512215957313 32.037421728778774 64.69409978720944
H  55.776480186062436 31.07164975627034 64.63886144472622
C  55.89893648470805 33.23418305598026 64.95689016408963
H  54.854731289766285 33.40497902195137 65.21793892457946
C  56.76160229728329 34.472865996427956 64.76101751365758
C  58.210880542329555 34.15096266645975 65.07045261920933
H  58.856510032788435 34.98965417197879 65.3468737450267
C  58.70516176179926 32.917126311493355 64.9145656870553
H  59.770559043379414 32.71078673915204 65.06669763886129
C  57.85978703572427 31.767897837634568 64.38143061793657
H  58.00362831140403 31.740622172318602 63.27889665904453
O  58.16260032906397 30.492263814441287 64.93246658635553
H  59.09558537909563 30.292149898810127 64.74087715214162
C  56.24197882790632 35.69479916990337 65.63303565080274
O  55.31989892873742 35.44698598245978 66.44048568072455
O  56.784070884788456 36.80898836678587 65.43382824174412
C  58.83 23.9195 51.0824
O  60.013825 23.981276 50.685863
O  58.118716 22.892117 51.114959
H  58.372021 24.85535 51.435161
C  57.4157 41.1959 64.2282
N  57.566277 41.58112 62.964146
H  57.25576 42.243622 63.6604
H  57.762446 40.626082 63.227813
N  57.006801 42.068304 65.145049
H  57.20297 41.113266 65.408716
H  57.121149 42.36084 64.185128
N  57.674021 39.938276 64.575405
H  57.78837 40.230811 63.615484
H  57.363504 40.600778 65.271659
C  51.1339 26.9766 61.0525
N  51.284477 27.36182 59.788446
H  50.97396 28.024322 60.4847
H  51.480646 26.406782 60.052113
N  50.725001 27.849004 61.969349
H  50.92117 26.893966 62.233016
H  50.839349 28.14154 61.009428
N  51.392221 25.718976 61.399705
H  51.50657 26.011511 60.439784
H  51.081704 26.381478 62.095959
C  64.0068 27.2335 46.3013
O  65.190625 27.295276 45.904763
O  63.295516 26.206117 46.333859
H  63.548821 28.16935 46.654061
C  66.8229 35.1419 46.8401
O  68.006725 35.203676 46.443563
O  66.111616 34.114517 46.872659
H  66.364921 36.07775 47.192861
C  60.2041 35.5483 44.6865
O  61.387925 35.610076 44.289963
O  59.492816 34.520917 44.719059
H  59.746121 36.48415 45.039261
C  55.0788 28.9151 64.6805
N  55.229377 29.30032 63.416446
H  54.91886 29.962822 64.1127
H  55.425546 28.345282 63.680113
N  54.669901 29.787504 65.597349
H  54.86607 28.832466 65.861016
H  54.784249 30.08004 64.637428
N  55.337121 27.657476 65.027705
H  55.45147 27.950011 64.067784
H  55.026604 28.319978 65.723959
C  68.6075 29.7171 48.4668
O  69.791325 29.778876 48.070263
O  67.896216 28.689717 48.499359
H  68.149521 30.65295 48.819561
C  53.3054 38.5948 64.7235
N  53.455977 38.98002 63.459446
H  53.14546 39.642522 64.1557
H  53.652146 38.024982 63.723113
N  52.896501 39.467204 65.640349
H  53.09267 38.512166 65.904016
H  53.010849 39.75974 64.680428
N  53.563721 37.337176 65.070705
H  53.67807 37.629711 64.110784
H  53.253204 37.999678 65.766959
C  65.0152 24.3148 50.7546
O  66.199025 24.376576 50.358063
O  64.303916 23.287417 50.787159
H  64.557221 25.25065 51.107361
88
Image 13. Energy: -22838.734212644948 
C  57.310113311377485 35.00532894390559 63.63555384331332
H  57.79809939443937 35.88262711687454 64.07850029355531
H  58.05230927598286 34.393294044534514 63.102192130221525
C  56.24285660856165 35.41154381971536 62.64588789282729
C  55.45201121785004 36.72043883494491 62.88987428123262
O  56.01443870739411 37.76618558103749 63.306794163079964
O  54.212336143648606 36.59663566452214 62.68586304057264
O  55.898342839350875 34.675332290234145 61.748329353716116
C  56.33204647218565 31.781110538511708 64.48248676741208
H  55.61656398313132 30.81048496167394 64.39279547923798
C  55.85416385013646 33.00522556015529 64.3670637387308
H  54.83722240969434 33.225617234476395 64.05047368606189
C  56.709869103680994 34.178970217455664 64.82232938906468
C  57.86746793921327 33.69392228133862 65.6621056669333
H  58.39002041534457 34.464383719744546 66.23453733704046
C  58.30665080725146 32.430793241391804 65.69803789018172
H  59.18009338213599 32.147218388861084 66.29421514354794
C  57.701563974368526 31.313932671332307 64.86019147584827
H  58.312856418706374 31.171723364760908 63.946367444095365
O  57.58739988659889 30.070966229695394 65.54787425736504
H  58.482110880374215 29.7090174728389 65.6702097150007
C  55.74912688526595 35.11117128009252 65.70460185953198
O  54.6218180553243 34.64338104035049 65.96111765024628
O  56.22396522797221 36.220422471557825 66.03570149116798
C  58.83 23.9195 51.0824
O  60.013825 23.981276 50.685863
O  58.118716 22.892117 51.114959
H  58.372021 24.85535 51.435161
C  57.4157 41.1959 64.2282
N  57.566277 41.58112 62.964146
H  57.25576 42.243622 63.6604
H  57.762446 40.626082 63.227813
N  57.006801 42.068304 65.145049
H  57.20297 41.113266 65.408716
H  57.121149 42.36084 64.185128
N  57.674021 39.938276 64.575405
H  57.78837 40.230811 63.615484
H  57.363504 40.600778 65.271659
C  51.1339 26.9766 61.0525
N  51.284477 27.36182 59.788446
H  50.97396 28.024322 60.4847
H  51.480646 26.406782 60.052113
N  50.725001 27.849004 61.969349
H  50.92117 26.893966 62.233016
H  50.839349 28.14154 61.009428
N  51.392221 25.718976 61.399705
H  51.50657 26.011511 60.439784
H  51.081704 26.381478 62.095959
C  64.0068 27.2335 46.3013
O  65.190625 27.295276 45.904763
O  63.295516 26.206117 46.333859
H  63.548821 28.16935 46.654061
C  66.8229 35.1419 46.8401
O  68.006725 35.203676 46.443563
O  66.111616 34.114517 46.872659
H  66.364921 36.07775 47.192861
C  60.2041 35.5483 44.6865
O  61.387925 35.610076 44.289963
O  59.492816 34.520917 44.719059
H  59.746121 36.48415 45.039261
C  55.0788 28.9151 64.6805
N  55.229377 29.30032 63.416446
H  54.91886 29.962822 64.1127
H  55.425546 28.345282 63.680113
N  54.669901 29.787504 65.597349
H  54.86607 28.832466 65.861016
H  54.784249 30.08004 64.637428
N  55.337121 27.657476 65.027705
H  55.45147 27.950011 64.067784
H  55.026604 28.319978 65.723959
C  68.6075 29.7171 48.4668
O  69.791325 29.778876 48.070263
O  67.896216 28.689717 48.499359
H  68.149521 30.65295 48.819561
C  53.3054 38.5948 64.7235
N  53.455977 38.98002 63.459446
H  53.14546 39.642522 64.1557
H  53.652146 38.024982 63.723113
N  52.896501 39.467204 65.640349
H  53.09267 38.512166 65.904016
H  53.010849 39.75974 64.680428
N  53.563721 37.337176 65.070705
H  53.67807 37.629711 64.110784
H  53.253204 37.999678 65.766959
C  65.0152 24.3148 50.7546
O  66.199025 24.376576 50.358063
O  64.303916 23.287417 50.787159
H  64.557221 25.25065 51.107361
