88
-2 1 -839.3043387095051
C       53.48397411    35.20316939    60.16640055
H       53.89742574    34.77660686    59.24773679
H       52.69545623    35.95243175    60.08123948
C       53.92942343    34.81345785    61.36624140
C       53.39672830    35.33905583    62.68743716
O       52.88594723    36.51127174    62.67646190
O       53.50744834    34.60726466    63.69304241
O       54.89593004    33.83007274    61.47574982
C       56.26161103    34.28392874    61.64838395
H       56.76301464    33.46922078    62.19718763
C       56.30825825    35.55440387    62.45225081
H       56.08042556    35.49747558    63.51710789
C       56.52295388    36.75562420    61.86679865
C       56.81851740    36.85428034    60.43509861
H       56.90025286    37.84797845    59.99203837
C       56.99486666    35.74943295    59.68647747
H       57.22668570    35.82564052    58.61938483
C       57.01075973    34.37203507    60.30437922
H       56.53761971    33.64430219    59.61911592
O       58.34817573    34.00127776    60.60834406
H       58.86393189    33.94288217    59.78588117
C       56.46016569    38.01438480    62.69134603
O       55.88527292    37.98332905    63.83168402
O       56.98166506    39.06297809    62.22246599
C       58.83000000    23.91950000    51.08240000
O       60.01382500    23.98127600    50.68586300
O       58.11871600    22.89211700    51.11495900
H       58.37202100    24.85535000    51.43516100
C       57.41570000    41.19590000    64.22820000
N       57.56627700    41.58112000    62.96414600
H       57.25576000    42.24362200    63.66040000
H       57.76244600    40.62608200    63.22781300
N       57.00680100    42.06830400    65.14504900
H       57.20297000    41.11326600    65.40871600
H       57.12114900    42.36084000    64.18512800
N       57.67402100    39.93827600    64.57540500
H       57.78837000    40.23081100    63.61548400
H       57.36350400    40.60077800    65.27165900
C       51.13390000    26.97660000    61.05250000
N       51.28447700    27.36182000    59.78844600
H       50.97396000    28.02432200    60.48470000
H       51.48064600    26.40678200    60.05211300
N       50.72500100    27.84900400    61.96934900
H       50.92117000    26.89396600    62.23301600
H       50.83934900    28.14154000    61.00942800
N       51.39222100    25.71897600    61.39970500
H       51.50657000    26.01151100    60.43978400
H       51.08170400    26.38147800    62.09595900
C       64.00680000    27.23350000    46.30130000
O       65.19062500    27.29527600    45.90476300
O       63.29551600    26.20611700    46.33385900
H       63.54882100    28.16935000    46.65406100
C       66.82290000    35.14190000    46.84010000
O       68.00672500    35.20367600    46.44356300
O       66.11161600    34.11451700    46.87265900
H       66.36492100    36.07775000    47.19286100
C       60.20410000    35.54830000    44.68650000
O       61.38792500    35.61007600    44.28996300
O       59.49281600    34.52091700    44.71905900
H       59.74612100    36.48415000    45.03926100
C       55.07880000    28.91510000    64.68050000
N       55.22937700    29.30032000    63.41644600
H       54.91886000    29.96282200    64.11270000
H       55.42554600    28.34528200    63.68011300
N       54.66990100    29.78750400    65.59734900
H       54.86607000    28.83246600    65.86101600
H       54.78424900    30.08004000    64.63742800
N       55.33712100    27.65747600    65.02770500
H       55.45147000    27.95001100    64.06778400
H       55.02660400    28.31997800    65.72395900
C       68.60750000    29.71710000    48.46680000
O       69.79132500    29.77887600    48.07026300
O       67.89621600    28.68971700    48.49935900
H       68.14952100    30.65295000    48.81956100
C       53.30540000    38.59480000    64.72350000
N       53.45597700    38.98002000    63.45944600
H       53.14546000    39.64252200    64.15570000
H       53.65214600    38.02498200    63.72311300
N       52.89650100    39.46720400    65.64034900
H       53.09267000    38.51216600    65.90401600
H       53.01084900    39.75974000    64.68042800
N       53.56372100    37.33717600    65.07070500
H       53.67807000    37.62971100    64.11078400
H       53.25320400    37.99967800    65.76695900
C       65.01520000    24.31480000    50.75460000
O       66.19902500    24.37657600    50.35806300
O       64.30391600    23.28741700    50.78715900
H       64.55722100    25.25065000    51.10736100
