24
Coordinates from ORCA-job neb_initial_path.QMRegion E   0.000000000000
  C      47.828000     29.430000     63.400000
  H      48.578000     28.669000     63.181000
  H      48.029000     30.174000     64.170000
  C      46.650000     29.450000     62.768000
  C      45.558000     30.445000     63.134000
  O      45.902000     31.550000     63.626000
  O      44.373000     30.085000     62.940000
  O      46.341000     28.486000     61.825000
  C      46.505000     28.814000     60.401000
  H      46.292000     27.862000     59.896000
  C      47.929000     29.247000     60.184000
  H      48.729000     28.501000     60.204000
  C      48.265000     30.553000     60.144000
  C      47.205000     31.568000     60.129000
  H      47.526000     32.608000     60.187000
  C      45.903000     31.241000     60.039000
  H      45.143000     32.025000     60.024000
  C      45.421000     29.819000     59.936000
  H      44.584000     29.690000     60.639000
  O      44.995000     29.548000     58.605000
  H      44.053000     29.223000     58.622000
  C      49.719000     31.014000     60.223000
  O      50.644000     30.161000     60.228000
  O      49.908000     32.253000     60.331000
24
Coordinates from ORCA-job neb_initial_path.QMRegion E   0.000000000000
  C      47.855444     29.498333     63.257667
  H      48.601667     28.731556     63.081222
  H      48.063556     30.256333     64.009556
  C      46.658667     29.454778     62.742111
  C      45.565556     30.443333     63.131222
  O      45.909556     31.553667     63.608667
  O      44.384333     30.071000     62.964111
  O      46.357222     28.466333     61.889444
  C      46.518556     28.820222     60.291667
  H      46.303556     27.867000     59.792889
  C      47.921778     29.241000     60.142111
  H      48.726222     28.501111     60.148111
  C      48.251778     30.541556     60.193444
  C      47.192111     31.559667     60.150667
  H      47.507111     32.598667     60.227778
  C      45.898556     31.234222     60.022778
  H      45.139111     32.017778     59.998111
  C      45.422111     29.814222     59.893667
  H      44.607444     29.658444     60.610556
  O      44.961667     29.570222     58.575889
  H      44.021222     29.243333     58.607778
  C      49.706778     31.011333     60.238778
  O      50.632667     30.159444     60.235778
  O      49.895000     32.250333     60.331222
24
Coordinates from ORCA-job neb_initial_path.QMRegion E   0.000000000000
  C      47.882889     29.566667     63.115333
  H      48.625333     28.794111     62.981444
  H      48.098111     30.338667     63.849111
  C      46.667333     29.459556     62.716222
  C      45.573111     30.441667     63.128444
  O      45.917111     31.557333     63.591333
  O      44.395667     30.057000     62.988222
  O      46.373444     28.446667     61.953889
  C      46.532111     28.826444     60.182333
  H      46.315111     27.872000     59.689778
  C      47.914556     29.235000     60.100222
  H      48.723444     28.501222     60.092222
  C      48.238556     30.530111     60.242889
  C      47.179222     31.551333     60.172333
  H      47.488222     32.589333     60.268556
  C      45.894111     31.227444     60.006556
  H      45.135222     32.010556     59.972222
  C      45.423222     29.809444     59.851333
  H      44.630889     29.626889     60.582111
  O      44.928333     29.592444     58.546778
  H      43.989444     29.263667     58.593556
  C      49.694556     31.008667     60.254556
  O      50.621333     30.157889     60.243556
  O      49.882000     32.247667     60.331444
24
Coordinates from ORCA-job neb_initial_path.QMRegion E   0.000000000000
  C      47.910333     29.635000     62.973000
  H      48.649000     28.856667     62.881667
  H      48.132667     30.421000     63.688667
  C      46.676000     29.464333     62.690333
  C      45.580667     30.440000     63.125667
  O      45.924667     31.561000     63.574000
  O      44.407000     30.043000     63.012333
  O      46.389667     28.427000     62.018333
  C      46.545667     28.832667     60.073000
  H      46.326667     27.877000     59.586667
  C      47.907333     29.229000     60.058333
  H      48.720667     28.501333     60.036333
  C      48.225333     30.518667     60.292333
  C      47.166333     31.543000     60.194000
  H      47.469333     32.580000     60.309333
  C      45.889667     31.220667     59.990333
  H      45.131333     32.003333     59.946333
  C      45.424333     29.804667     59.809000
  H      44.654333     29.595333     60.553667
  O      44.895000     29.614667     58.517667
  H      43.957667     29.284000     58.579333
  C      49.682333     31.006000     60.270333
  O      50.610000     30.156333     60.251333
  O      49.869000     32.245000     60.331667
24
Coordinates from ORCA-job neb_initial_path.QMRegion E   0.000000000000
  C      47.937778     29.703333     62.830667
  H      48.672667     28.919222     62.781889
  H      48.167222     30.503333     63.528222
  C      46.684667     29.469111     62.664444
  C      45.588222     30.438333     63.122889
  O      45.932222     31.564667     63.556667
  O      44.418333     30.029000     63.036444
  O      46.405889     28.407333     62.082778
  C      46.559222     28.838889     59.963667
  H      46.338222     27.882000     59.483556
  C      47.900111     29.223000     60.016444
  H      48.717889     28.501444     59.980444
  C      48.212111     30.507222     60.341778
  C      47.153444     31.534667     60.215667
  H      47.450444     32.570667     60.350111
  C      45.885222     31.213889     59.974111
  H      45.127444     31.996111     59.920444
  C      45.425444     29.799889     59.766667
  H      44.677778     29.563778     60.525222
  O      44.861667     29.636889     58.488556
  H      43.925889     29.304333     58.565111
  C      49.670111     31.003333     60.286111
  O      50.598667     30.154778     60.259111
  O      49.856000     32.242333     60.331889
24
Coordinates from ORCA-job neb_initial_path.QMRegion E   0.000000000000
  C      47.965222     29.771667     62.688333
  H      48.696333     28.981778     62.682111
  H      48.201778     30.585667     63.367778
  C      46.693333     29.473889     62.638556
  C      45.595778     30.436667     63.120111
  O      45.939778     31.568333     63.539333
  O      44.429667     30.015000     63.060556
  O      46.422111     28.387667     62.147222
  C      46.572778     28.845111     59.854333
  H      46.349778     27.887000     59.380444
  C      47.892889     29.217000     59.974556
  H      48.715111     28.501556     59.924556
  C      48.198889     30.495778     60.391222
  C      47.140556     31.526333     60.237333
  H      47.431556     32.561333     60.390889
  C      45.880778     31.207111     59.957889
  H      45.123556     31.988889     59.894556
  C      45.426556     29.795111     59.724333
  H      44.701222     29.532222     60.496778
  O      44.828333     29.659111     58.459444
  H      43.894111     29.324667     58.550889
  C      49.657889     31.000667     60.301889
  O      50.587333     30.153222     60.266889
  O      49.843000     32.239667     60.332111
24
Coordinates from ORCA-job neb_initial_path.QMRegion E   0.000000000000
  C      47.992667     29.840000     62.546000
  H      48.720000     29.044333     62.582333
  H      48.236333     30.668000     63.207333
  C      46.702000     29.478667     62.612667
  C      45.603333     30.435000     63.117333
  O      45.947333     31.572000     63.522000
  O      44.441000     30.001000     63.084667
  O      46.438333     28.368000     62.211667
  C      46.586333     28.851333     59.745000
  H      46.361333     27.892000     59.277333
  C      47.885667     29.211000     59.932667
  H      48.712333     28.501667     59.868667
  C      48.185667     30.484333     60.440667
  C      47.127667     31.518000     60.259000
  H      47.412667     32.552000     60.431667
  C      45.876333     31.200333     59.941667
  H      45.119667     31.981667     59.868667
  C      45.427667     29.790333     59.682000
  H      44.724667     29.500667     60.468333
  O      44.795000     29.681333     58.430333
  H      43.862333     29.345000     58.536667
  C      49.645667     30.998000     60.317667
  O      50.576000     30.151667     60.274667
  O      49.830000     32.237000     60.332333
24
Coordinates from ORCA-job neb_initial_path.QMRegion E   0.000000000000
  C      48.020111     29.908333     62.403667
  H      48.743667     29.106889     62.482556
  H      48.270889     30.750333     63.046889
  C      46.710667     29.483444     62.586778
  C      45.610889     30.433333     63.114556
  O      45.954889     31.575667     63.504667
  O      44.452333     29.987000     63.108778
  O      46.454556     28.348333     62.276111
  C      46.599889     28.857556     59.635667
  H      46.372889     27.897000     59.174222
  C      47.878444     29.205000     59.890778
  H      48.709556     28.501778     59.812778
  C      48.172444     30.472889     60.490111
  C      47.114778     31.509667     60.280667
  H      47.393778     32.542667     60.472444
  C      45.871889     31.193556     59.925444
  H      45.115778     31.974444     59.842778
  C      45.428778     29.785556     59.639667
  H      44.748111     29.469111     60.439889
  O      44.761667     29.703556     58.401222
  H      43.830556     29.365333     58.522444
  C      49.633444     30.995333     60.333444
  O      50.564667     30.150111     60.282444
  O      49.817000     32.234333     60.332556
24
Coordinates from ORCA-job neb_initial_path.QMRegion E   0.000000000000
  C      48.047556     29.976667     62.261333
  H      48.767333     29.169444     62.382778
  H      48.305444     30.832667     62.886444
  C      46.719333     29.488222     62.560889
  C      45.618444     30.431667     63.111778
  O      45.962444     31.579333     63.487333
  O      44.463667     29.973000     63.132889
  O      46.470778     28.328667     62.340556
  C      46.613444     28.863778     59.526333
  H      46.384444     27.902000     59.071111
  C      47.871222     29.199000     59.848889
  H      48.706778     28.501889     59.756889
  C      48.159222     30.461444     60.539556
  C      47.101889     31.501333     60.302333
  H      47.374889     32.533333     60.513222
  C      45.867444     31.186778     59.909222
  H      45.111889     31.967222     59.816889
  C      45.429889     29.780778     59.597333
  H      44.771556     29.437556     60.411444
  O      44.728333     29.725778     58.372111
  H      43.798778     29.385667     58.508222
  C      49.621222     30.992667     60.349222
  O      50.553333     30.148556     60.290222
  O      49.804000     32.231667     60.332778
24
Coordinates from ORCA-job neb_initial_path.QMRegion E   0.000000000000
  C      48.075000     30.045000     62.119000
  H      48.791000     29.232000     62.283000
  H      48.340000     30.915000     62.726000
  C      46.728000     29.493000     62.535000
  C      45.626000     30.430000     63.109000
  O      45.970000     31.583000     63.470000
  O      44.475000     29.959000     63.157000
  O      46.487000     28.309000     62.405000
  C      46.627000     28.870000     59.417000
  H      46.396000     27.907000     58.968000
  C      47.864000     29.193000     59.807000
  H      48.704000     28.502000     59.701000
  C      48.146000     30.450000     60.589000
  C      47.089000     31.493000     60.324000
  H      47.356000     32.524000     60.554000
  C      45.863000     31.180000     59.893000
  H      45.108000     31.960000     59.791000
  C      45.431000     29.776000     59.555000
  H      44.795000     29.406000     60.383000
  O      44.695000     29.748000     58.343000
  H      43.767000     29.406000     58.494000
  C      49.609000     30.990000     60.365000
  O      50.542000     30.147000     60.298000
  O      49.791000     32.229000     60.333000
