24
Coordinates from ORCA-job neb_NEB-CI_converged.QMRegion
  C          48.05084051084697     29.79639010974266     62.60550058692238
  H          48.78125143175554     29.03215969771052     62.35521975423747
  H          48.37745499958120     30.67972086653803     63.14407686867519
  C          46.70819764243874     29.47041117596610     62.50243650902183
  C          45.62102248851208     30.43252580719995     63.01526268590305
  O          45.97551930334541     31.54037743298338     63.49779061944646
  O          44.43397301947641     30.05161935815713     62.91577737374628
  O          46.35117792071150     28.42599665775390     61.85308590119672
  C          46.53224206391815     28.78883072491451     59.78068652004903
  H          46.28556389471115     27.75963556868877     59.51924812681996
  C          47.85809132490922     29.20864874482464     59.80220171803195
  H          48.68094786702851     28.49690197307736     59.70878178424305
  C          48.16547916579102     30.50715200251491     60.22345476856189
  C          47.09569410172099     31.50655551785378     60.21698521156729
  H          47.38046515685237     32.53470369002424     60.43796452177858
  C          45.82145034342975     31.17403231294098     59.94230486490541
  H          45.04328821240185     31.93895941228058     59.93327388584493
  C          45.37708107236234     29.76415678920043     59.66579802221990
  H          44.63930148583872     29.49214534440285     60.43737756378309
  O          44.79504584926483     29.66110683526449     58.37181886107690
  H          43.85370716597493     29.32713986142072     58.45535326917769
  C          49.62358805340894     30.98835575424904     60.29030325376394
  O          50.54629176227481     30.13228079614786     60.27739178144306
  O          49.82049028769934     32.22732046000063     60.34704659659163
