24
Coordinates from ORCA-job neb_MEP.QMRegion E -1076.317365925964
  C      47.828000     29.430000     63.400000
  H      48.578000     28.669000     63.181000
  H      48.029000     30.174000     64.170000
  C      46.650000     29.450000     62.768000
  C      45.558000     30.445000     63.134000
  O      45.902000     31.550000     63.626000
  O      44.373000     30.085000     62.940000
  O      46.341000     28.486000     61.825000
  C      46.505000     28.814000     60.401000
  H      46.292000     27.862000     59.896000
  C      47.929000     29.247000     60.184000
  H      48.729000     28.501000     60.204000
  C      48.265000     30.553000     60.144000
  C      47.205000     31.568000     60.129000
  H      47.526000     32.608000     60.187000
  C      45.903000     31.241000     60.039000
  H      45.143000     32.025000     60.024000
  C      45.421000     29.819000     59.936000
  H      44.584000     29.690000     60.639000
  O      44.995000     29.548000     58.605000
  H      44.053000     29.223000     58.622000
  C      49.719000     31.014000     60.223000
  O      50.644000     30.161000     60.228000
  O      49.908000     32.253000     60.331000
24
Coordinates from ORCA-job neb_MEP.QMRegion E -1076.328870485818
  C      47.827082     29.432622     63.395872
  H      48.578848     28.673386     63.176541
  H      48.028783     30.176517     64.166454
  C      46.650116     29.454233     62.763666
  C      45.559157     30.450030     63.133230
  O      45.905148     31.551368     63.629412
  O      44.373495     30.094775     62.936179
  O      46.339761     28.489283     61.822219
  C      46.503486     28.815525     60.398118
  H      46.289119     27.863804     59.893155
  C      47.928703     29.246384     60.179880
  H      48.727562     28.499517     60.199440
  C      48.265446     30.552648     60.135946
  C      47.206127     31.568664     60.120997
  H      47.526932     32.608889     60.179328
  C      45.904200     31.242662     60.034874
  H      45.143766     32.026203     60.022832
  C      45.420032     29.820135     59.932990
  H      44.583761     29.692884     60.636465
  O      44.991604     29.547234     58.603621
  H      44.047889     29.227308     58.622006
  C      49.719229     31.014258     60.218724
  O      50.644365     30.161359     60.228285
  O      49.906949     32.253039     60.324385
24
Coordinates from ORCA-job neb_MEP.QMRegion E -1076.333892670843
  C      47.787777     29.415811     63.493963
  H      48.531028     28.639959     63.304475
  H      47.974240     30.160103     64.268208
  C      46.631814     29.453238     62.825003
  C      45.544514     30.465549     63.161221
  O      45.892967     31.568528     63.651102
  O      44.358775     30.119651     62.947381
  O      46.336520     28.486815     61.880554
  C      46.522092     28.810811     60.459513
  H      46.319559     27.857314     59.952650
  C      47.948095     29.245928     60.253291
  H      48.751516     28.504002     60.277786
  C      48.280082     30.552508     60.191080
  C      47.217975     31.565275     60.170291
  H      47.533887     32.606869     60.229861
  C      45.918102     31.234060     60.075628
  H      45.154587     32.014462     60.055576
  C      45.440345     29.809474     59.975779
  H      44.598937     29.684239     60.673011
  O      45.023815     29.528059     58.644785
  H      44.079553     29.210949     58.656004
  C      49.733342     31.018381     60.243991
  O      50.661075     30.168408     60.235198
  O      49.919754     32.257883     60.339355
24
Coordinates from ORCA-job neb_MEP.QMRegion E -1076.331056378705
  C      47.854778     29.367662     63.334135
  H      48.599106     28.607903     63.102860
  H      48.042544     30.060857     64.151606
  C      46.685204     29.432738     62.688640
  C      45.594621     30.416147     63.094321
  O      45.939657     31.513327     63.601098
  O      44.410967     30.049601     62.909344
  O      46.351450     28.507291     61.712820
  C      46.456552     28.874277     60.297926
  H      46.194548     27.943276     59.777226
  C      47.887478     29.267190     60.054896
  H      48.659778     28.501078     60.147159
  C      48.259441     30.561459     59.955358
  C      47.231644     31.605089     59.877133
  H      47.595908     32.630896     59.833000
  C      45.918168     31.322262     59.880706
  H      45.189626     32.132310     59.869141
  C      45.386846     29.912398     59.856772
  H      44.556480     29.830334     60.575634
  O      44.933971     29.616239     58.539765
  H      43.990010     29.296753     58.573401
  C      49.713186     31.000471     60.120143
  O      50.627882     30.140101     60.180238
  O      49.898558     32.238010     60.259430
24
Coordinates from ORCA-job neb_MEP.QMRegion E -1076.322833207765
  C      48.010666     29.707782     62.732989
  H      48.770297     29.021356     62.369208
  H      48.326837     30.580467     63.295510
  C      46.717365     29.509573     62.450575
  C      45.625680     30.423028     62.996924
  O      45.974087     31.518048     63.511232
  O      44.437802     30.036649     62.907482
  O      46.353128     28.487910     61.592410
  C      46.484783     28.769980     60.095878
  H      46.267893     27.799267     59.633560
  C      47.882702     29.231860     59.854514
  H      48.688526     28.503672     59.733428
  C      48.197528     30.532927     60.056137
  C      47.111994     31.519051     60.158458
  H      47.397479     32.544310     60.393555
  C      45.823895     31.184145     59.959488
  H      45.046426     31.949171     59.980441
  C      45.365161     29.769568     59.728709
  H      44.579875     29.549069     60.466636
  O      44.854378     29.608621     58.414067
  H      43.902065     29.307138     58.471046
  C      49.643888     31.001580     60.218938
  O      50.562204     30.139514     60.264704
  O      49.841170     32.235423     60.342971
24
Coordinates from ORCA-job neb_MEP.QMRegion E -1076.311640004383
  C      48.026594     29.752146     62.670323
  H      48.775235     29.034714     62.347087
  H      48.357657     30.650464     63.183573
  C      46.715451     29.491253     62.465932
  C      45.624679     30.426480     63.000214
  O      45.974285     31.530211     63.498519
  O      44.435631     30.043548     62.908706
  O      46.351001     28.462036     61.676212
  C      46.503871     28.769605     59.958042
  H      46.278232     27.771311     59.566413
  C      47.873103     29.222405     59.818365
  H      48.685165     28.500524     59.708023
  C      48.177929     30.517031     60.132947
  C      47.098525     31.507476     60.197125
  H      47.382704     32.534111     60.427033
  C      45.819083     31.175115     59.948144
  H      45.041429     31.940503     59.943164
  C      45.367364     29.764148     59.688920
  H      44.612074     29.510921     60.446474
  O      44.817687     29.638439     58.385838
  H      43.869169     29.321589     58.457691
  C      49.629344     30.991953     60.259490
  O      50.550882     30.134188     60.275120
  O      49.825571     32.229471     60.346940
24
Coordinates from ORCA-job neb_MEP.QMRegion E -1076.305649980293
  C      48.050841     29.796390     62.605501
  H      48.781251     29.032160     62.355220
  H      48.377455     30.679721     63.144077
  C      46.708198     29.470411     62.502437
  C      45.621022     30.432526     63.015263
  O      45.975519     31.540377     63.497791
  O      44.433973     30.051619     62.915777
  O      46.351178     28.425997     61.853086
  C      46.532242     28.788831     59.780687
  H      46.285564     27.759636     59.519248
  C      47.858091     29.208649     59.802202
  H      48.680948     28.496902     59.708782
  C      48.165479     30.507152     60.223455
  C      47.095694     31.506556     60.216985
  H      47.380465     32.534704     60.437965
  C      45.821450     31.174032     59.942305
  H      45.043288     31.938959     59.933274
  C      45.377081     29.764157     59.665798
  H      44.639301     29.492145     60.437378
  O      44.795046     29.661107     58.371819
  H      43.853707     29.327140     58.455353
  C      49.623588     30.988356     60.290303
  O      50.546292     30.132281     60.277392
  O      49.820490     32.227320     60.347047
24
Coordinates from ORCA-job neb_MEP.QMRegion E -1076.307660027772
  C      48.069040     29.839597     62.518549
  H      48.783555     29.035811     62.357330
  H      48.387956     30.695420     63.107204
  C      46.706968     29.467835     62.509397
  C      45.620312     30.435013     63.025731
  O      45.980107     31.542384     63.502251
  O      44.435920     30.051209     62.927637
  O      46.356154     28.407607     61.937342
  C      46.546577     28.796058     59.720129
  H      46.293449     27.761619     59.490313
  C      47.852922     29.199480     59.811747
  H      48.680476     28.492792     59.717852
  C      48.162122     30.493934     60.318456
  C      47.095804     31.504128     60.242950
  H      47.381102     32.535083     60.451198
  C      45.828203     31.173305     59.944424
  H      45.050896     31.939902     59.925406
  C      45.384406     29.763542     59.661791
  H      44.651749     29.484639     60.437104
  O      44.788476     29.672180     58.372275
  H      43.850512     29.331080     58.459464
  C      49.623247     30.986189     60.316304
  O      50.547956     30.132992     60.281913
  O      49.819042     32.225984     60.349844
24
Coordinates from ORCA-job neb_MEP.QMRegion E -1076.316812321122
  C      48.083902     29.892466     62.382462
  H      48.775007     29.048619     62.347225
  H      48.388827     30.703709     63.048914
  C      46.701880     29.469154     62.499058
  C      45.616704     30.435705     63.031755
  O      45.982841     31.542371     63.503747
  O      44.434097     30.048738     62.935257
  O      46.357288     28.389789     62.013470
  C      46.558124     28.802366     59.669557
  H      46.299725     27.764786     59.450518
  C      47.846741     29.189804     59.823488
  H      48.677459     28.486278     59.722801
  C      48.158868     30.470933     60.446640
  C      47.093456     31.497584     60.272444
  H      47.378819     32.534182     60.460655
  C      45.834847     31.170320     59.942870
  H      45.059140     31.940051     59.908380
  C      45.388512     29.760757     59.655524
  H      44.659270     29.475670     60.432392
  O      44.780553     29.681862     58.369945
  H      43.845745     29.333996     58.458879
  C      49.620192     30.983273     60.337952
  O      50.547428     30.133997     60.281518
  O      49.813613     32.223560     60.345512
24
Coordinates from ORCA-job neb_MEP.QMRegion E -1076.348810185383
  C      48.075000     30.045000     62.119000
  H      48.791000     29.232000     62.283000
  H      48.340000     30.915000     62.726000
  C      46.728000     29.493000     62.535000
  C      45.626000     30.430000     63.109000
  O      45.970000     31.583000     63.470000
  O      44.475000     29.959000     63.157000
  O      46.487000     28.309000     62.405000
  C      46.627000     28.870000     59.417000
  H      46.396000     27.907000     58.968000
  C      47.864000     29.193000     59.807000
  H      48.704000     28.502000     59.701000
  C      48.146000     30.450000     60.589000
  C      47.089000     31.493000     60.324000
  H      47.356000     32.524000     60.554000
  C      45.863000     31.180000     59.893000
  H      45.108000     31.960000     59.791000
  C      45.431000     29.776000     59.555000
  H      44.795000     29.406000     60.383000
  O      44.695000     29.748000     58.343000
  H      43.767000     29.406000     58.494000
  C      49.609000     30.990000     60.365000
  O      50.542000     30.147000     60.298000
  O      49.791000     32.229000     60.333000
