38
Image 0. Energy: -837.3758917893614 
C  53.73312661 32.6034457 57.73800195
H  53.27518705 32.21878147 56.82520754
H  53.8322575 33.68129049 57.87748012
C  54.15266392 31.82829145 58.74584445
C  54.71753836 32.42777739 60.02124493
O  55.04844711 33.64650677 60.02618121
O  54.88131005 31.63172894 60.99157481
O  54.01613891 30.4670639 58.76740433
C  55.13267605 29.61272345 58.48631352
H  54.95059924 28.71665387 59.10899732
C  56.54163165 30.08943391 58.74901579
H  56.79808144 30.84893073 59.51481223
C  57.58943699 29.44728185 58.19138197
C  57.35878286 28.39563674 57.19263746
H  58.2182602 27.79848408 56.88643917
C  56.14226697 28.24636088 56.64170032
H  55.95348673 27.52413719 55.84209842
C  55.02141161 29.17501141 57.01928877
H  55.13217046 30.09738179 56.39953367
O  53.77399202 28.56564973 56.78767137
H  53.10252181 29.195415 57.09284786
C  59.04200415 29.70354465 58.62014398
O  59.28060946 30.75642382 59.32011888
O  59.88241136 28.87651392 58.28546064
C  57.4994 32.313 60.9995
N  57.649977 32.69822 59.735446
H  57.33946 33.360722 60.4317
H  57.846146 31.743182 59.999113
N  57.090501 33.185404 61.916349
H  57.28667 32.230366 62.180016
H  57.204849 33.47794 60.956428
N  57.757721 31.055376 61.346705
H  57.87207 31.347911 60.386784
H  57.447204 31.717878 62.042959
C  63.0044 29.1163 52.2256
O  64.188225 29.178076 51.829063
O  62.293116 28.088917 52.258159
H  62.546421 30.05215 52.578361
38
Image 1. Energy: -22784.255443084992 
C  54.37050253644868 32.96582563174445 57.86298377215115
H  54.10678602950511 32.55032783811958 56.89232249748268
H  54.51943909568296 34.040138075616476 57.98446205611581
C  54.50215948610689 32.19831742553849 58.95055182363019
C  54.683007580183 32.90099082513983 60.310020848469335
O  55.10563649809305 34.09449639073913 60.261046382688974
O  54.474976901077554 32.23455869270158 61.35428291083623
O  54.35642797920188 30.815316971874683 58.91497185919626
C  55.42133663103944 29.84324082936722 58.64750017273442
H  55.04096475354405 28.966480404915625 59.20108750071799
C  56.78396970783261 30.241159051552543 59.10704820601909
H  56.7062430713578 31.097892906861453 59.8675525138444
C  58.018708246036574 29.73301477087975 58.86312989912124
C  58.03538520865744 28.69568034621399 57.85991070968714
H  58.962367050475414 28.131077691989795 57.78601681888386
C  56.950677475342104 28.53793442446479 57.084985410907656
H  56.975291814771346 27.81656654226123 56.26961383613138
C  55.69430279311112 29.41102342628005 57.19032287047136
H  55.919824838496595 30.353528938646274 56.63967136566257
O  54.62988252868223 28.70210984446241 56.62489404450367
H  53.84330384255836 29.261577003076113 56.67471303685665
C  59.47049430157994 29.988339925673067 59.62061496496696
O  59.81073177922539 31.1865209307125 59.886303669787836
O  60.051266480995345 28.955566751169872 59.9029060891354
C  57.4994 32.313 60.9995
N  57.649977 32.69822 59.735446
H  57.33946 33.360722 60.4317
H  57.846146 31.743182 59.999113
N  57.090501 33.185404 61.916349
H  57.28667 32.230366 62.180016
H  57.204849 33.47794 60.956428
N  57.757721 31.055376 61.346705
H  57.87207 31.347911 60.386784
H  57.447204 31.717878 62.042959
C  63.0044 29.1163 52.2256
O  64.188225 29.178076 51.829063
O  62.293116 28.088917 52.258159
H  62.546421 30.05215 52.578361
38
Image 2. Energy: -22780.84011439215 
C  54.9797902169389 33.36533652147095 58.176414728730066
H  54.8387932995538 32.87420247223752 57.212050768525316
H  55.448275821999346 34.34770014294422 58.22684216374335
C  54.543668775371074 32.76123329024631 59.341467765740575
C  54.72142380366012 33.619584579722094 60.636699864891746
O  55.396828143476206 34.69600766022985 60.52527499529221
O  54.2869614558648 33.13395384026114 61.708589306874785
O  54.08834919434175 31.57355434217865 59.46111558051026
C  55.783305818573695 29.518713125667595 58.49950978712603
H  54.78213604831541 29.316181246292174 58.86649239938033
C  56.67566800744291 30.20545839324557 59.21305666712438
H  56.28087349177367 30.887883674283017 60.00051595444923
C  58.1034026008079 30.214290894928943 59.047987109822834
C  58.65522812759592 29.168214342156514 58.291378966474944
H  59.66597817261297 28.784953888775558 58.48423644462945
C  57.82066893838764 28.690511995140824 57.32287226390951
H  58.16111762479664 28.010813053356323 56.54650069468298
C  56.41317553573586 29.235288166020418 57.197616802629454
H  56.6419877051953 30.300151327079735 56.86993317291163
O  55.59252570422025 28.610320138402898 56.28534235134215
H  54.76497345450499 29.113206950698494 56.34422291109211
C  60.56186147658685 30.47504712554023 61.36552290906298
O  60.50705834470897 31.62289009135787 61.654002940236424
O  60.576309017529475 29.363404817763634 61.104779270821595
C  57.4994 32.313 60.9995
N  57.649977 32.69822 59.735446
H  57.33946 33.360722 60.4317
H  57.846146 31.743182 59.999113
N  57.090501 33.185404 61.916349
H  57.28667 32.230366 62.180016
H  57.204849 33.47794 60.956428
N  57.757721 31.055376 61.346705
H  57.87207 31.347911 60.386784
H  57.447204 31.717878 62.042959
C  63.0044 29.1163 52.2256
O  64.188225 29.178076 51.829063
O  62.293116 28.088917 52.258159
H  62.546421 30.05215 52.578361
38
Image 3. Energy: -22777.38189701668 
C  55.43904222709451 33.604912427370984 58.37058709808187
H  55.412924323003196 33.01526735184269 57.455474237502
H  56.11089319298906 34.46748639470968 58.40756854360507
C  54.69394950980854 33.29042255481971 59.52359282756448
C  54.87521854096784 34.28653275356936 60.732708526134765
O  55.77757448506096 35.1742586653091 60.59232626256307
O  54.22218653660587 34.02847551611063 61.75890066814577
O  53.98435929185132 32.26602335208236 59.70879506343069
C  56.2857159027958 29.63471244639311 58.542464397881986
H  55.64699033792112 28.744965362604066 58.50813126106598
C  56.140300920600794 30.557864490632035 59.43523733686693
H  55.47130888370802 30.823963173054068 60.273311118653524
C  59.52568713698629 30.817301275190562 59.42559361207015
C  59.504298121196925 29.55445187597754 58.979704593536624
H  60.31416937393436 28.895599212263786 59.3443037542037
C  58.6635051658426 29.09132398350248 57.94602962610766
H  59.03429210582718 28.224949033655747 57.39245561221579
C  57.405482297084276 29.673513935858534 57.43250055199958
H  57.50905364540879 30.74223792485871 57.15996289544814
O  56.96877685889922 28.893534365430074 56.360313072049436
H  56.03889927625181 29.116941803127816 56.203385968294704
C  60.388292318543385 30.722883451600524 62.49615023197228
O  59.95427983118992 31.722751653581717 63.00649567834844
O  60.779834596424955 29.705745626455748 61.95194545225358
C  57.4994 32.313 60.9995
N  57.649977 32.69822 59.735446
H  57.33946 33.360722 60.4317
H  57.846146 31.743182 59.999113
N  57.090501 33.185404 61.916349
H  57.28667 32.230366 62.180016
H  57.204849 33.47794 60.956428
N  57.757721 31.055376 61.346705
H  57.87207 31.347911 60.386784
H  57.447204 31.717878 62.042959
C  63.0044 29.1163 52.2256
O  64.188225 29.178076 51.829063
O  62.293116 28.088917 52.258159
H  62.546421 30.05215 52.578361
38
Image 4. Energy: -22777.800431822976 
C  55.986042685850066 34.226319525302515 58.580984805962245
H  56.674687793295725 33.4486444939012 58.16960194396865
H  56.563421424993784 35.162571343626816 58.53947448632201
C  55.09499448894983 33.54272164817594 59.33509463689286
C  54.70605120811928 35.19148791298009 61.08802066111212
O  55.60347639224816 35.85765987234193 60.71587257559596
O  53.84670347614766 34.51228662757187 61.406166239500756
O  54.4535258466584 32.756421728758234 59.91547788987847
C  56.296656723198616 30.597770556517794 58.034075259895985
H  56.827511223591856 28.999311029484932 59.207608684403006
C  57.14822007102253 29.95671952637083 58.76586902920514
H  56.54049367996719 31.68960254436474 62.20835017443796
C  59.960574379820855 31.194558614768567 59.95913196420279
C  60.11121770299971 29.902958785683992 59.541342135813515
H  60.863121917679784 29.265949100129312 60.068306835842726
C  59.49608576877834 29.33206743377224 58.394240301042714
H  59.92847158683742 28.419043120113848 57.99634849367062
C  58.326154389261106 29.75858279368816 57.59030110346852
H  58.395486081680964 30.700219174681756 57.02514271445769
O  57.80810407898091 28.74470171720502 56.78368286287347
H  56.932266743811724 29.06838538227052 56.47525982864034
C  59.81771278583912 30.626950043265385 63.28409856485484
O  59.06119885548259 31.37732823129914 63.7619709689548
O  60.56152970478249 29.89107391372451 62.787028819007304
C  57.4994 32.313 60.9995
N  57.649977 32.69822 59.735446
H  57.33946 33.360722 60.4317
H  57.846146 31.743182 59.999113
N  57.090501 33.185404 61.916349
H  57.28667 32.230366 62.180016
H  57.204849 33.47794 60.956428
N  57.757721 31.055376 61.346705
H  57.87207 31.347911 60.386784
H  57.447204 31.717878 62.042959
C  63.0044 29.1163 52.2256
O  64.188225 29.178076 51.829063
O  62.293116 28.088917 52.258159
H  62.546421 30.05215 52.578361
38
Image 5. Energy: -22775.61367285931 
C  57.79457828652175 35.261678741139214 58.964310836548854
H  58.7211305789797 34.616935157467786 59.10565107701277
H  57.989483624256074 35.58152683302993 57.90059737828843
C  54.306652491429034 33.933345947090054 61.40603228499725
C  54.8825041573569 35.16125707920209 60.88902817102586
O  55.48272674908667 36.145010369525345 60.68702535520817
O  54.03034001714778 34.29127829657571 60.110244771685444
O  54.0553147095316 33.03638649845995 62.12680804482873
C  57.124578506286184 29.515086827453032 57.68093053546186
H  56.795559909298326 29.134123506252692 58.66208750818223
C  59.792827125030115 30.69788827186673 59.62330051556136
H  56.64872222965341 31.68852051481366 62.38618270591576
C  60.435519130372704 31.67066309052619 60.89811628134202
C  60.83139017222704 30.43905118236766 60.57435561567587
H  61.50518371600434 29.570134222259757 60.74479504407984
C  59.55371013864007 29.905041697327356 58.56860533593326
H  60.25126791852151 29.04920459453832 58.44036365346619
C  58.52259348809764 29.988804167384206 57.49644987425182
H  58.70225067082634 30.718663677329406 56.68932963541055
O  58.084872336003905 28.715701670646382 57.02330168889515
H  56.322626159351415 29.897291875224347 57.03546080935586
C  60.043866676030106 30.750505250474905 63.73050404161531
O  59.218158457947744 31.646959254808735 64.00839413717657
O  60.76452589140424 29.97549287423452 63.507088208083196
C  57.4994 32.313 60.9995
N  57.649977 32.69822 59.735446
H  57.33946 33.360722 60.4317
H  57.846146 31.743182 59.999113
N  57.090501 33.185404 61.916349
H  57.28667 32.230366 62.180016
H  57.204849 33.47794 60.956428
N  57.757721 31.055376 61.346705
H  57.87207 31.347911 60.386784
H  57.447204 31.717878 62.042959
C  63.0044 29.1163 52.2256
O  64.188225 29.178076 51.829063
O  62.293116 28.088917 52.258159
H  62.546421 30.05215 52.578361
38
Image 6. Energy: -22740.4171005992 
C  58.6232822812882 34.839312505532135 58.809115448799396
H  58.54633391752823 34.401843521269576 59.86529086501376
H  57.8567206700263 35.65764462046529 58.893585668843876
C  54.8041279976914 34.72218790090401 62.43140382104318
C  55.17311661846824 35.43268663034951 61.03671751486769
O  56.0476619426284 36.336349602705106 61.06156377073188
O  54.449300676151445 35.049103384803246 60.099260755376775
O  55.14842925305768 33.566720212616566 62.658024988605455
C  57.74592415191551 29.91713070552155 58.19077016464388
H  57.63617537335869 30.15517036167124 59.385714874233614
C  60.51360562888634 31.50905969058908 60.95406009949479
H  58.374923410840076 30.99029167432716 62.73751250205204
C  60.474133777827646 32.12954363718744 62.02620909178997
C  60.784363070338095 30.48465599928018 60.0259297850928
H  61.59278370123135 29.853121719242043 60.432309536766375
C  60.231502899112456 29.9942121667385 58.892681700982266
H  60.726958435308646 29.059964891161044 58.58313029605684
C  59.149200213570126 30.29155365851483 57.90482165128445
H  59.34995941373639 31.112144007171555 57.18730561533343
O  58.653502786795286 29.0453031962427 57.40281517117315
H  56.99361341607342 30.37082679533172 57.51854427809981
C  60.106348520957745 31.422601850118056 63.26055068225539
O  58.79720623093842 31.371571011261395 63.59028098951502
O  60.9378828622669 30.84476836699693 63.93687679794662
C  63.0044 29.1163 52.2256
N  64.182604 29.207656 51.818181
H  62.315539 28.073627 52.253927
H  62.530138 30.038301 52.593009
N  57.4994 32.313 60.9995
H  57.649977 32.69822 59.735446
H  57.33946 33.360722 60.4317
N  57.846146 31.743182 59.999113
H  57.090501 33.185404 61.916349
H  57.28667 32.230366 62.180016
C  57.204849 33.47794 60.956428
O  57.757721 31.055376 61.346705
O  57.87207 31.347911 60.386784
H  57.447204 31.717878 62.042959
38
Image 7. Energy: -22744.72525371023 
C  59.33827717629347 35.20060876997391 59.62622698481471
H  59.127270353197986 34.62610573955514 60.572818750847915
H  58.30495446435589 35.557293109595335 59.33949761018666
C  55.42402897007079 35.16356250367381 62.89874604715638
C  55.70060041308506 35.763781644530866 61.51171199039839
O  56.607217999590205 36.637015622598085 61.427686392132
O  55.012806877239356 35.31202378487761 60.546510016005676
O  56.02696382520533 34.05381627775742 63.10453517103502
C  58.96739018889872 29.973088718768885 57.651032426520736
H  57.48925890222677 30.028964632621598 60.4011276990447
C  60.7988906218597 31.93589366679151 61.172475861748346
H  58.5841667040478 31.19126794973821 62.596119073169326
C  60.568410911354064 32.58150081636247 62.23295377007401
C  61.30152312867543 30.953847664227332 60.357839830754706
H  62.03003772956399 30.347942455072804 60.911326760332074
C  60.782519152374064 30.387016418685537 59.18039206689486
H  61.074518084112576 29.340711892269553 59.00472924389591
C  59.858993050665944 30.910078299098743 58.30171883902617
H  59.40687777479105 31.879156239221654 58.61336468700498
O  59.14412182539754 28.774311127633183 57.371590266141794
H  57.965283286523444 30.432824596645297 57.5133364072543
C  60.1811208550562 31.790322355806573 63.407420138531
O  58.88193509336729 31.47580840086146 63.533134897244764
O  60.99656400204317 31.40804195363164 64.23369370978982
C  63.0044 29.1163 52.2256
N  64.182604 29.207656 51.818181
H  62.315539 28.073627 52.253927
H  62.530138 30.038301 52.593009
N  57.4994 32.313 60.9995
H  57.649977 32.69822 59.735446
H  57.33946 33.360722 60.4317
N  57.846146 31.743182 59.999113
H  57.090501 33.185404 61.916349
H  57.28667 32.230366 62.180016
C  57.204849 33.47794 60.956428
O  57.757721 31.055376 61.346705
O  57.87207 31.347911 60.386784
H  57.447204 31.717878 62.042959
38
Image 8. Energy: -22751.001607269038 
C  59.745945588978806 34.30728815237755 60.815105422254355
H  59.74739439065184 34.779789698284375 61.801544912891885
H  59.36695047703264 34.96712109578455 60.00982816605519
C  56.20439760819696 35.62405893674351 62.93832545889703
C  56.16289780289331 36.00007536136275 61.4317224014185
O  56.93807098668148 36.89991440880699 61.00193815314133
O  55.26219098661394 35.418308710566365 60.73862700358193
O  56.48866990615815 34.39416668888007 63.18176765233799
C  60.32337078905437 32.379858731780864 59.29597012228087
H  57.62594991090315 30.00403412060659 60.38911706917014
C  60.31535461924749 32.99890874403308 60.6271630070051
H  58.74251554488271 31.44226483096444 62.43146022705374
C  60.850585687004354 32.157153656339894 61.68912950232793
C  61.54412369500903 30.982437889765112 61.28613511635935
H  62.11856067403495 30.46004739251188 62.05536388032051
C  61.40503951849587 30.385407826311525 60.04121209197082
H  61.801889984968675 29.38938235397548 59.82826720647751
C  60.5632350880298 31.033069053324542 59.11533405053165
H  59.64413942444629 32.81081162645438 58.55840549032016
O  59.94648575309992 30.310349556502906 58.103643496043446
H  58.98984719357188 30.501128063043378 58.27758479024705
C  60.409294100228166 31.98780413046842 63.12185729579994
O  59.081953613476884 31.859819090739947 63.31111065738281
O  61.15154212633932 31.799000960368875 64.08488803613024
C  63.0044 29.1163 52.2256
N  64.182604 29.207656 51.818181
H  62.315539 28.073627 52.253927
H  62.530138 30.038301 52.593009
N  57.4994 32.313 60.9995
H  57.649977 32.69822 59.735446
H  57.33946 33.360722 60.4317
N  57.846146 31.743182 59.999113
H  57.090501 33.185404 61.916349
H  57.28667 32.230366 62.180016
C  57.204849 33.47794 60.956428
O  57.757721 31.055376 61.346705
O  57.87207 31.347911 60.386784
H  57.447204 31.717878 62.042959
38
Image 9. Energy: -22751.581324083978 
C  59.11682183645015 35.47653815686492 62.24963442537361
H  59.595925771643486 34.83523440254409 62.99618751178238
H  59.69664145495066 35.6994460983889 61.351628283572886
C  57.74776118675138 35.66328348489299 62.256211729258126
C  57.16522898353702 36.300193006834554 60.92731292078635
O  57.87481329096144 37.095089585196675 60.26899861497031
O  56.03140403616961 35.852521914522214 60.55654450816191
O  56.89792141669368 35.133721670292815 63.08775635469872
C  60.62394561552556 32.36034219393696 59.84719844227596
H  58.51212002139152 30.14366840398748 60.55822164122097
C  60.185850590966226 32.63037045480947 61.166721961982766
H  59.07864505335443 32.34310291812999 61.07344661663139
C  60.75219949816243 32.10681822589624 62.3076396882522
C  61.93731286968707 31.36586545985704 62.08549135884813
H  62.60278772213042 31.14640742621016 62.92298340580951
C  62.14830957211781 30.816746690487417 60.81583145146423
H  62.91035846834169 30.055614474801754 60.64665956765157
C  61.360131765601864 31.21054134884873 59.70269877873769
H  60.07384697684289 32.77987863722581 58.99019666902412
O  61.22701727853819 30.421326288081683 58.564757529658856
H  60.27553898334179 30.4873554038414 58.339345638698234
C  59.99740843729165 32.059808919655225 63.667017306325185
O  58.74943329724864 32.24138490613167 63.70434879689469
O  60.72565551230101 31.83415750855984 64.67418055791941
C  63.0044 29.1163 52.2256
N  64.182604 29.207656 51.818181
H  62.315539 28.073627 52.253927
H  62.530138 30.038301 52.593009
N  57.4994 32.313 60.9995
H  57.649977 32.69822 59.735446
H  57.33946 33.360722 60.4317
N  57.846146 31.743182 59.999113
H  57.090501 33.185404 61.916349
H  57.28667 32.230366 62.180016
C  57.204849 33.47794 60.956428
O  57.757721 31.055376 61.346705
O  57.87207 31.347911 60.386784
H  57.447204 31.717878 62.042959
38
Image 10. Energy: -22747.223658801864 
C  60.036885257006965 34.74763440842795 62.68666246339434
H  60.21601328549062 35.19816017657914 63.68219800112242
H  60.58634557907125 35.30275458288498 61.91881359568507
C  58.562725855696534 35.16574046400163 62.41878322046472
C  58.17933619435258 36.13308191951298 61.15582123276241
O  59.08247286425806 36.85761238686684 60.70941834446317
O  56.97179201665436 36.0925902507437 60.77094124598407
O  57.619882957734596 34.94532823535062 63.18910693282738
C  60.38822403886084 32.19160648751064 60.24844578063683
H  59.46974147661028 31.58631040746175 59.819381334576846
C  59.94018174018786 32.69645858861707 61.40660267007094
H  58.992962364295096 31.936744578737073 61.36191877197466
C  60.48526463360719 33.18889455018467 62.64968874647605
C  61.91906991539538 32.5920776677879 62.535211527515045
H  62.4031698345941 32.34685061531598 63.485896631000095
C  62.40422470104697 31.93617009775862 61.43079551067692
H  63.23291075779787 31.22663778438876 61.55614850211479
C  61.80490346808628 31.928525599195535 60.01480350119372
H  62.23486234482836 32.733955113286946 59.37705446778763
O  61.93841565074811 30.695031872778276 59.276128855339685
H  61.01805286965407 30.5103387478588 58.97909761026739
C  59.72383255868257 32.52751721396365 63.93049580103049
O  58.478017529704616 32.41258481692944 63.86339698287141
O  60.45446584563135 32.27402753385207 64.91971458975736
C  63.0044 29.1163 52.2256
N  64.182604 29.207656 51.818181
H  62.315539 28.073627 52.253927
H  62.530138 30.038301 52.593009
N  57.4994 32.313 60.9995
H  57.649977 32.69822 59.735446
H  57.33946 33.360722 60.4317
N  57.846146 31.743182 59.999113
H  57.090501 33.185404 61.916349
H  57.28667 32.230366 62.180016
C  57.204849 33.47794 60.956428
O  57.757721 31.055376 61.346705
O  57.87207 31.347911 60.386784
H  57.447204 31.717878 62.042959
38
Image 11 Energy: -835.562541455374 
C  60.31742238 34.88997445 62.99172344
H  60.48591637 35.18493512 64.03626899
H  61.09229699 35.32701601 62.34767106
C  58.96480775 35.41706185 62.54968674
C  58.77140461 35.71177353 61.03501219
O  59.61013551 36.46521947 60.54361878
O  57.74290905 35.21533917 60.45502758
O  58.07141441 35.65900348 63.33877975
C  61.04024321 32.49779756 60.59852403
H  60.72977477 32.18592549 59.59790898
C  60.16538399 32.84637306 61.53501983
H  59.05412019 32.7594857 61.34853049
C  60.44534141 33.3245515 62.92019245
C  61.89144434 32.99198205 63.24627126
H  62.15229481 33.12639272 64.29730454
C  62.80587731 32.61996553 62.34637792
H  63.83704552 32.42605254 62.65375324
C  62.52964717 32.44140376 60.87811193
H  63.02781447 33.25658852 60.31542732
O  63.02841799 31.18158332 60.46264663
H  63.33519616 31.24661914 59.54587405
C  59.52226996 32.69450551 64.05176908
O  58.52821031 31.96871949 63.70993563
O  59.8510392 32.95558162 65.20660297
C  63.0044 29.1163 52.2256
O  64.182604 29.207656 51.818181
O  62.315539 28.073627 52.253927
H  62.530138 30.038301 52.593009
C  57.4994 32.313 60.9995
N  57.649977 32.69822 59.735446
H  57.33946 33.360722 60.4317
H  57.846146 31.743182 59.999113
N  57.090501 33.185404 61.916349
H  57.28667 32.230366 62.180016
H  57.204849 33.47794 60.956428
N  57.757721 31.055376 61.346705
H  57.87207 31.347911 60.386784
H  57.447204 31.717878 62.042959
