38
-2 1 None
C       59.83604517    36.56000312    62.11185701
H       60.85940090    36.39234831    62.44992360
H       59.24266176    37.32077565    62.61938155
C       59.26759672    35.87913483    61.10847926
C       57.80506196    36.15004087    60.72323487
O       57.36774864    37.28580071    60.89280828
O       57.12278194    35.15834475    60.27562716
O       59.88875529    34.91979231    60.33810054
C       60.72023636    33.90624744    60.90752626
H       60.93627040    33.25484360    60.04640950
C       59.96063469    33.15474055    61.93449705
H       58.94756319    32.81134706    61.58513740
C       60.24399356    32.97425573    63.22469860
C       61.47560746    33.59720554    63.73298474
H       61.64901817    33.51113899    64.80586781
C       62.31016760    34.26485526    62.91962419
H       63.20783108    34.74337310    63.32100393
C       62.14484148    34.32086090    61.42148876
H       62.32589905    35.34652948    61.05484691
O       63.10414694    33.42483064    60.89142724
H       63.36991254    33.73120942    60.01096868
C       59.31490087    32.25431003    64.23585208
O       58.20173622    31.78601127    63.82143694
O       59.72988697    32.19669767    65.39316067
C       57.49939993    32.31299997    60.99949999
N       57.64997714    32.69822004    59.73544602
H       57.33945992    33.36072198    60.43169998
H       57.84614453    31.74318162    59.99911262
N       57.09050065    33.18540392    61.91634891
H       57.28667034    32.23036615    62.18001613
H       57.20486099    33.47794764    60.95643891
N       57.75772360    31.05537704    61.34670585
H       57.87210012    31.34791995    60.38679787
H       57.44720460    31.71787866    62.04295987
C       63.00440000    29.11630000    52.22560000
O       64.18822500    29.17807600    51.82906300
O       62.29311600    28.08891700    52.25815900
H       62.54642100    30.05215000    52.57836100
