24
Coordinates from ORCA-job neb.QMRegion E -1076.341685678225
  C      49.108445     24.268379     54.013937
  H      49.841660     23.484304     53.837107
  H      49.464020     25.274586     54.226549
  C      47.790710     23.936999     54.309521
  C      46.801561     24.985292     54.838253
  O      47.192756     26.178828     54.974396
  O      45.655188     24.574464     55.130291
  O      47.314833     22.783160     54.020828
  C      46.992369     22.679841     51.985094
  H      46.631331     21.653433     52.034089
  C      48.316284     22.927012     51.652494
  H      49.051686     22.123712     51.631234
  C      48.782098     24.238808     51.650729
  C      47.813254     25.342863     51.609654
  H      48.225627     26.348884     51.524252
  C      46.493739     25.116465     51.682405
  H      45.783847     25.946000     51.668307
  C      45.920288     23.729904     51.772740
  H      45.218869     23.698195     52.620024
  O      45.239133     23.415295     50.553747
  H      44.266742     23.253436     50.738182
  C      50.201779     24.526716     51.164276
  O      51.084513     23.632074     51.234500
  O      50.358578     25.667224     50.670758
24
Coordinates from ORCA-job neb.QMRegion E -1076.342002043604
  C      49.115017     24.264954     54.035916
  H      49.848528     23.480858     53.860645
  H      49.470986     25.268271     54.262110
  C      47.794516     23.933964     54.318261
  C      46.803227     24.982594     54.842311
  O      47.193193     26.176833     54.976382
  O      45.656126     24.571979     55.131734
  O      47.319504     22.780178     54.024786
  C      46.991818     22.677523     51.981833
  H      46.631078     21.650836     52.029890
  C      48.314660     22.925013     51.644266
  H      49.049844     22.121642     51.618992
  C      48.779907     24.236695     51.642604
  C      47.810799     25.340690     51.606037
  H      48.222975     26.347102     51.525133
  C      46.491420     25.113880     51.681449
  H      45.781272     25.943294     51.673314
  C      45.918571     23.727012     51.770316
  H      45.217980     23.693576     52.618045
  O      45.236285     23.413937     50.551280
  H      44.263638     23.252610     50.735760
  C      50.200660     24.526101     51.160067
  O      51.084036     23.632139     51.232114
  O      50.357921     25.667115     50.667893
24
Coordinates from ORCA-job neb.QMRegion E -1076.342161345183
  C      49.116894     24.261502     54.044012
  H      49.847865     23.477586     53.858497
  H      49.474848     25.263485     54.274474
  C      47.795160     23.930605     54.323464
  C      46.803737     24.980579     54.845525
  O      47.193611     26.175058     54.977731
  O      45.656205     24.570526     55.133526
  O      47.321067     22.777647     54.031071
  C      46.992203     22.675373     51.981506
  H      46.632131     21.648462     52.032654
  C      48.315305     22.923876     51.648708
  H      49.051204     22.121244     51.620168
  C      48.779481     24.236669     51.640677
  C      47.809695     25.339837     51.608404
  H      48.221138     26.346401     51.526373
  C      46.490537     25.112129     51.687964
  H      45.779763     25.941100     51.684067
  C      45.918430     23.724790     51.774004
  H      45.218590     23.689292     52.622298
  O      45.234957     23.413512     50.554696
  H      44.262150     23.252256     50.738846
  C      50.200235     24.526234     51.158324
  O      51.083580     23.632242     51.230541
  O      50.357620     25.667536     50.666937
24
Coordinates from ORCA-job neb.QMRegion E -1076.342326667597
  C      49.120387     24.261534     54.050871
  H      49.851590     23.479618     53.857602
  H      49.475864     25.265793     54.275629
  C      47.798795     23.928154     54.328095
  C      46.806040     24.978947     54.847910
  O      47.195030     26.173892     54.978601
  O      45.658271     24.568826     55.134800
  O      47.325861     22.775218     54.035733
  C      46.991463     22.671512     51.972554
  H      46.632390     21.644270     52.026794
  C      48.314419     22.921230     51.642600
  H      49.050963     22.119321     51.613185
  C      48.778027     24.234389     51.635498
  C      47.808004     25.336741     51.607625
  H      48.219277     26.343785     51.530679
  C      46.488633     25.108221     51.686003
  H      45.777123     25.936628     51.685752
  C      45.917231     23.720595     51.768768
  H      45.218251     23.682627     52.617366
  O      45.231883     23.412982     50.549451
  H      44.259112     23.252025     50.734235
  C      50.199316     24.525772     51.155889
  O      51.083034     23.632128     51.228323
  O      50.357032     25.667882     50.666304
24
Coordinates from ORCA-job neb.QMRegion E -1076.342371378847
  C      49.123341     24.260249     54.060532
  H      49.854575     23.479845     53.862027
  H      49.477692     25.263474     54.291097
  C      47.801474     23.925020     54.330359
  C      46.807924     24.976401     54.849741
  O      47.196022     26.171895     54.979337
  O      45.659979     24.566180     55.135406
  O      47.329706     22.771352     54.038640
  C      46.991037     22.665090     51.962167
  H      46.634026     21.637093     52.018618
  C      48.314639     22.917510     51.637101
  H      49.052465     22.116747     51.607182
  C      48.775807     24.231177     51.627267
  C      47.805132     25.331872     51.604772
  H      48.215402     26.339600     51.531599
  C      46.485638     25.101713     51.682239
  H      45.772705     25.928978     51.684221
  C      45.915773     23.713314     51.761067
  H      45.218158     23.671886     52.610501
  O      45.227781     23.409680     50.541982
  H      44.254941     23.250090     50.727476
  C      50.197847     24.525236     51.152458
  O      51.082270     23.632185     51.225450
  O      50.355929     25.668673     50.665910
