24
Coordinates from ORCA-job neb.QMRegion
  C          49.12334106990459     24.26024934256275     54.06053244021651
  H          49.85457500291714     23.47984505895448     53.86202747207773
  H          49.47769193136805     25.26347414025077     54.29109670775142
  C          47.80147395064046     23.92502036512978     54.33035915085195
  C          46.80792447613251     24.97640149801823     54.84974130665719
  O          47.19602194363456     26.17189533773499     54.97933683047074
  O          45.65997909641853     24.56618011439798     55.13540596979633
  O          47.32970569809373     22.77135203661202     54.03864025874897
  C          46.99103673723757     22.66508980670110     51.96216652164455
  H          46.63402599629887     21.63709322824514     52.01861768513601
  C          48.31463907166115     22.91750962605733     51.63710136859953
  H          49.05246548141833     22.11674731259634     51.60718184396457
  C          48.77580700973823     24.23117665225276     51.62726703238938
  C          47.80513172167941     25.33187214881172     51.60477236116239
  H          48.21540166938409     26.33959953358425     51.53159920774591
  C          46.48563803424690     25.10171275426382     51.68223927387037
  H          45.77270542210221     25.92897775323394     51.68422134398038
  C          45.91577275901786     23.71331409607261     51.76106682742594
  H          45.21815769667779     23.67188569069467     52.61050142415027
  O          45.22778076021035     23.40968036488534     50.54198235055483
  H          44.25494058461161     23.25008965214644     50.72747566734869
  C          50.19784714569337     24.52523562862342     51.15245776991959
  O          51.08227006763146     23.63218465400037     51.22544995342347
  O          50.35592858429190     25.66867261929021     50.66591023106938
