24
Coordinates from ORCA-job neb_initial_path.QMRegion E   0.000000000000
  C      49.040000     24.209000     54.467000
  H      49.766000     23.472000     54.125000
  H      49.396000     25.142000     54.903000
  C      47.723000     24.016000     54.354000
  C      46.711000     25.020000     54.873000
  O      47.091000     26.215000     55.027000
  O      45.563000     24.591000     55.133000
  O      47.197000     22.866000     53.798000
  C      47.053000     22.831000     52.334000
  H      46.659000     21.825000     52.135000
  C      48.409000     23.007000     51.724000
  H      49.123000     22.186000     51.795000
  C      48.806000     24.204000     51.255000
  C      47.873000     25.339000     51.259000
  H      48.301000     26.312000     51.008000
  C      46.579000     25.198000     51.589000
  H      45.913000     26.064000     51.631000
  C      45.982000     23.839000     51.855000
  H      45.244000     23.917000     52.668000
  O      45.358000     23.362000     50.662000
  H      44.380000     23.230000     50.816000
  C      50.237000     24.468000     50.805000
  O      51.139000     23.629000     51.081000
  O      50.411000     25.556000     50.208000
24
Coordinates from ORCA-job neb_initial_path.QMRegion E   0.000000000000
  C      49.051167     24.219333     54.379333
  H      49.780000     23.474333     54.074500
  H      49.407333     25.164333     54.779167
  C      47.734500     24.002167     54.342833
  C      46.727500     25.013167     54.866333
  O      47.109833     26.207667     55.017833
  O      45.580000     24.587333     55.132833
  O      47.217000     22.852500     53.830500
  C      47.043167     22.805167     52.277167
  H      46.654667     21.795500     52.116333
  C      48.393000     22.993500     51.712500
  H      49.110500     22.175333     51.766500
  C      48.802667     24.210333     51.331167
  C      47.861833     25.339500     51.322500
  H      48.287000     26.318167     51.101000
  C      46.563833     25.183167     51.605667
  H      45.890167     26.042833     51.636500
  C      45.971000     23.819500     51.841667
  H      45.238333     23.878500     52.659667
  O      45.337833     23.371333     50.643667
  H      44.360667     23.234667     50.802167
  C      50.230833     24.478333     50.870167
  O      51.129167     23.629500     51.108833
  O      50.401500     25.575333     50.290833
24
Coordinates from ORCA-job neb_initial_path.QMRegion E   0.000000000000
  C      49.062333     24.229667     54.291667
  H      49.794000     23.476667     54.024000
  H      49.418667     25.186667     54.655333
  C      47.746000     23.988333     54.331667
  C      46.744000     25.006333     54.859667
  O      47.128667     26.200333     55.008667
  O      45.597000     24.583667     55.132667
  O      47.237000     22.839000     53.863000
  C      47.033333     22.779333     52.220333
  H      46.650333     21.766000     52.097667
  C      48.377000     22.980000     51.701000
  H      49.098000     22.164667     51.738000
  C      48.799333     24.216667     51.407333
  C      47.850667     25.340000     51.386000
  H      48.273000     26.324333     51.194000
  C      46.548667     25.168333     51.622333
  H      45.867333     26.021667     51.642000
  C      45.960000     23.800000     51.828333
  H      45.232667     23.840000     52.651333
  O      45.317667     23.380667     50.625333
  H      44.341333     23.239333     50.788333
  C      50.224667     24.488667     50.935333
  O      51.119333     23.630000     51.136667
  O      50.392000     25.594667     50.373667
24
Coordinates from ORCA-job neb_initial_path.QMRegion E   0.000000000000
  C      49.073500     24.240000     54.204000
  H      49.808000     23.479000     53.973500
  H      49.430000     25.209000     54.531500
  C      47.757500     23.974500     54.320500
  C      46.760500     24.999500     54.853000
  O      47.147500     26.193000     54.999500
  O      45.614000     24.580000     55.132500
  O      47.257000     22.825500     53.895500
  C      47.023500     22.753500     52.163500
  H      46.646000     21.736500     52.079000
  C      48.361000     22.966500     51.689500
  H      49.085500     22.154000     51.709500
  C      48.796000     24.223000     51.483500
  C      47.839500     25.340500     51.449500
  H      48.259000     26.330500     51.287000
  C      46.533500     25.153500     51.639000
  H      45.844500     26.000500     51.647500
  C      45.949000     23.780500     51.815000
  H      45.227000     23.801500     52.643000
  O      45.297500     23.390000     50.607000
  H      44.322000     23.244000     50.774500
  C      50.218500     24.499000     51.000500
  O      51.109500     23.630500     51.164500
  O      50.382500     25.614000     50.456500
24
Coordinates from ORCA-job neb_initial_path.QMRegion E   0.000000000000
  C      49.084667     24.250333     54.116333
  H      49.822000     23.481333     53.923000
  H      49.441333     25.231333     54.407667
  C      47.769000     23.960667     54.309333
  C      46.777000     24.992667     54.846333
  O      47.166333     26.185667     54.990333
  O      45.631000     24.576333     55.132333
  O      47.277000     22.812000     53.928000
  C      47.013667     22.727667     52.106667
  H      46.641667     21.707000     52.060333
  C      48.345000     22.953000     51.678000
  H      49.073000     22.143333     51.681000
  C      48.792667     24.229333     51.559667
  C      47.828333     25.341000     51.513000
  H      48.245000     26.336667     51.380000
  C      46.518333     25.138667     51.655667
  H      45.821667     25.979333     51.653000
  C      45.938000     23.761000     51.801667
  H      45.221333     23.763000     52.634667
  O      45.277333     23.399333     50.588667
  H      44.302667     23.248667     50.760667
  C      50.212333     24.509333     51.065667
  O      51.099667     23.631000     51.192333
  O      50.373000     25.633333     50.539333
24
Coordinates from ORCA-job neb_initial_path.QMRegion E   0.000000000000
  C      49.095833     24.260667     54.028667
  H      49.836000     23.483667     53.872500
  H      49.452667     25.253667     54.283833
  C      47.780500     23.946833     54.298167
  C      46.793500     24.985833     54.839667
  O      47.185167     26.178333     54.981167
  O      45.648000     24.572667     55.132167
  O      47.297000     22.798500     53.960500
  C      47.003833     22.701833     52.049833
  H      46.637333     21.677500     52.041667
  C      48.329000     22.939500     51.666500
  H      49.060500     22.132667     51.652500
  C      48.789333     24.235667     51.635833
  C      47.817167     25.341500     51.576500
  H      48.231000     26.342833     51.473000
  C      46.503167     25.123833     51.672333
  H      45.798833     25.958167     51.658500
  C      45.927000     23.741500     51.788333
  H      45.215667     23.724500     52.626333
  O      45.257167     23.408667     50.570333
  H      44.283333     23.253333     50.746833
  C      50.206167     24.519667     51.130833
  O      51.089833     23.631500     51.220167
  O      50.363500     25.652667     50.622167
24
Coordinates from ORCA-job neb_initial_path.QMRegion E   0.000000000000
  C      49.107000     24.271000     53.941000
  H      49.850000     23.486000     53.822000
  H      49.464000     25.276000     54.160000
  C      47.792000     23.933000     54.287000
  C      46.810000     24.979000     54.833000
  O      47.204000     26.171000     54.972000
  O      45.665000     24.569000     55.132000
  O      47.317000     22.785000     53.993000
  C      46.994000     22.676000     51.993000
  H      46.633000     21.648000     52.023000
  C      48.313000     22.926000     51.655000
  H      49.048000     22.122000     51.624000
  C      48.786000     24.242000     51.712000
  C      47.806000     25.342000     51.640000
  H      48.217000     26.349000     51.566000
  C      46.488000     25.109000     51.689000
  H      45.776000     25.937000     51.664000
  C      45.916000     23.722000     51.775000
  H      45.210000     23.686000     52.618000
  O      45.237000     23.418000     50.552000
  H      44.264000     23.258000     50.733000
  C      50.200000     24.530000     51.196000
  O      51.080000     23.632000     51.248000
  O      50.354000     25.672000     50.705000
24
Coordinates from ORCA-job neb_initial_path.QMRegion E   0.000000000000
  C      49.118000     24.265667     53.836000
  H      49.876333     23.495333     53.818000
  H      49.467667     25.268333     54.084333
  C      47.833333     23.903333     54.326333
  C      46.840333     24.957667     54.861333
  O      47.229667     26.151667     54.973000
  O      45.702333     24.542333     55.171000
  O      47.432667     22.746333     54.190000
  C      46.977333     22.682667     51.831333
  H      46.612667     21.661667     51.787667
  C      48.290667     22.921333     51.672667
  H      49.020333     22.111667     51.648333
  C      48.794000     24.246333     51.833333
  C      47.809000     25.347667     51.701667
  H      48.215667     26.357000     51.667333
  C      46.496333     25.120000     51.667667
  H      45.792000     25.953000     51.618333
  C      45.909333     23.739333     51.697333
  H      45.228667     23.667333     52.559000
  O      45.183667     23.505667     50.493667
  H      44.223000     23.316333     50.699333
  C      50.182667     24.525000     51.229333
  O      51.063333     23.626667     51.263000
  O      50.318333     25.656667     50.714000
24
Coordinates from ORCA-job neb_initial_path.QMRegion E   0.000000000000
  C      49.129000     24.260333     53.731000
  H      49.902667     23.504667     53.814000
  H      49.471333     25.260667     54.008667
  C      47.874667     23.873667     54.365667
  C      46.870667     24.936333     54.889667
  O      47.255333     26.132333     54.974000
  O      45.739667     24.515667     55.210000
  O      47.548333     22.707667     54.387000
  C      46.960667     22.689333     51.669667
  H      46.592333     21.675333     51.552333
  C      48.268333     22.916667     51.690333
  H      48.992667     22.101333     51.672667
  C      48.802000     24.250667     51.954667
  C      47.812000     25.353333     51.763333
  H      48.214333     26.365000     51.768667
  C      46.504667     25.131000     51.646333
  H      45.808000     25.969000     51.572667
  C      45.902667     23.756667     51.619667
  H      45.247333     23.648667     52.500000
  O      45.130333     23.593333     50.435333
  H      44.182000     23.374667     50.665667
  C      50.165333     24.520000     51.262667
  O      51.046667     23.621333     51.278000
  O      50.282667     25.641333     50.723000
24
Coordinates from ORCA-job neb_initial_path.QMRegion E   0.000000000000
  C      49.140000     24.255000     53.626000
  H      49.929000     23.514000     53.810000
  H      49.475000     25.253000     53.933000
  C      47.916000     23.844000     54.405000
  C      46.901000     24.915000     54.918000
  O      47.281000     26.113000     54.975000
  O      45.777000     24.489000     55.249000
  O      47.664000     22.669000     54.584000
  C      46.944000     22.696000     51.508000
  H      46.572000     21.689000     51.317000
  C      48.246000     22.912000     51.708000
  H      48.965000     22.091000     51.697000
  C      48.810000     24.255000     52.076000
  C      47.815000     25.359000     51.825000
  H      48.213000     26.373000     51.870000
  C      46.513000     25.142000     51.625000
  H      45.824000     25.985000     51.527000
  C      45.896000     23.774000     51.542000
  H      45.266000     23.630000     52.441000
  O      45.077000     23.681000     50.377000
  H      44.141000     23.433000     50.632000
  C      50.148000     24.515000     51.296000
  O      51.030000     23.616000     51.293000
  O      50.247000     25.626000     50.732000
