24
Coordinates from ORCA-job neb_MEP.QMRegion E -1076.527283455264
  C      57.899000     33.042000     57.801000
  H      58.349000     32.076000     58.037000
  H      58.544000     33.901000     57.626000
  C      56.572000     33.197000     57.722000
  C      55.922000     34.545000     57.419000
  O      56.664000     35.482000     57.038000
  O      54.676000     34.632000     57.572000
  O      55.717000     32.149000     57.973000
  C      55.359000     31.226000     56.883000
  H      54.718000     30.482000     57.377000
  C      56.606000     30.590000     56.350000
  H      57.090000     29.802000     56.928000
  C      57.214000     31.073000     55.249000
  C      56.583000     32.158000     54.490000
  H      57.179000     32.585000     53.682000
  C      55.350000     32.612000     54.777000
  H      54.930000     33.450000     54.215000
  C      54.495000     31.957000     55.833000
  H      53.937000     32.733000     56.379000
  O      53.602000     31.052000     55.203000
  H      52.688000     31.141000     55.617000
  C      58.609000     30.613000     54.835000
  O      59.205000     29.780000     55.550000
  O      59.088000     31.155000     53.801000
24
Coordinates from ORCA-job neb_MEP.QMRegion E -1076.529622684581
  C      57.885681     32.966059     57.723809
  H      58.330576     31.993568     57.939734
  H      58.530528     33.814164     57.494206
  C      56.558545     33.143305     57.701171
  C      55.923532     34.503931     57.411317
  O      56.674023     35.436219     57.033358
  O      54.679206     34.609130     57.573790
  O      55.693588     32.109479     57.977464
  C      55.321494     31.175983     56.893768
  H      54.683601     30.435295     57.396797
  C      56.567756     30.542828     56.354001
  H      57.042198     29.732809     56.910065
  C      57.188517     31.059459     55.273899
  C      56.560223     32.159927     54.536271
  H      57.164828     32.612940     53.748630
  C      55.315608     32.588803     54.809601
  H      54.888294     33.424046     54.248470
  C      54.456840     31.918232     55.852196
  H      53.908518     32.691510     56.411462
  O      53.554239     31.029713     55.213487
  H      52.637464     31.140761     55.618277
  C      58.589814     30.612671     54.866206
  O      59.184348     29.783601     55.586636
  O      59.076522     31.157633     53.836422
24
Coordinates from ORCA-job neb_MEP.QMRegion E -1076.526479835194
  C      57.865955     32.841056     57.583873
  H      58.314589     31.870487     57.799799
  H      58.500653     33.658781     57.235487
  C      56.543123     33.052201     57.669032
  C      55.936216     34.436098     57.394459
  O      56.700185     35.359786     57.017099
  O      54.696317     34.572302     57.570594
  O      55.664944     32.036715     57.985377
  C      55.264741     31.072585     56.899637
  H      54.635591     30.326442     57.410283
  C      56.510421     30.464198     56.353506
  H      56.972801     29.617701     56.862389
  C      57.165360     31.069288     55.340440
  C      56.535327     32.186109     54.631177
  H      57.149547     32.685219     53.880011
  C      55.261311     32.548921     54.860418
  H      54.808720     33.359523     54.283757
  C      54.399327     31.845649     55.877743
  H      53.879227     32.605158     56.479480
  O      53.466792     31.014013     55.209570
  H      52.546445     31.159449     55.604781
  C      58.568537     30.634479     54.941285
  O      59.150113     29.797356     55.662093
  O      59.063422     31.173670     53.912449
24
Coordinates from ORCA-job neb_MEP.QMRegion E -1076.514438892342
  C      57.872004     32.795262     57.500282
  H      58.328374     31.842477     57.770889
  H      58.498193     33.582103     57.074760
  C      56.553928     33.035618     57.678290
  C      55.952609     34.426143     57.386605
  O      56.716679     35.346602     57.000445
  O      54.712347     34.568379     57.563715
  O      55.686405     32.043961     58.038289
  C      55.229745     30.974078     56.852466
  H      54.608720     30.236798     57.389311
  C      56.491280     30.435484     56.351655
  H      56.958990     29.583803     56.844282
  C      57.182582     31.128345     55.413933
  C      56.540794     32.225400     54.688360
  H      57.154115     32.732293     53.941625
  C      55.246843     32.533379     54.875713
  H      54.775487     33.314648     54.275259
  C      54.382036     31.807434     55.872392
  H      53.892633     32.550634     56.515488
  O      53.420531     31.033371     55.177353
  H      52.501940     31.180812     55.586636
  C      58.573640     30.674786     54.998197
  O      59.137819     29.813083     55.703184
  O      59.056701     31.186935     53.951139
24
Coordinates from ORCA-job neb_MEP.QMRegion E -1076.500366116154
  C      57.881926     32.772670     57.444037
  H      58.339781     31.843700     57.781817
  H      58.505831     33.557973     57.019365
  C      56.564712     33.049991     57.712764
  C      55.960194     34.437917     57.385775
  O      56.721462     35.355890     56.990494
  O      54.718685     34.573609     57.558573
  O      55.746794     32.134238     58.154618
  C      55.189753     30.854108     56.743783
  H      54.588238     30.182687     57.366579
  C      56.471768     30.423268     56.351250
  H      56.956871     29.583907     56.847005
  C      57.202380     31.184754     55.466535
  C      56.545319     32.241741     54.703259
  H      57.157230     32.743957     53.952692
  C      55.244190     32.525853     54.873710
  H      54.769298     33.300938     54.269246
  C      54.379372     31.787760     55.859075
  H      53.907786     32.523571     56.526302
  O      53.398242     31.047470     55.151320
  H      52.486126     31.187251     55.578907
  C      58.580554     30.699085     55.024613
  O      59.129953     29.816706     55.712967
  O      59.047816     31.189743     53.960469
24
Coordinates from ORCA-job neb_MEP.QMRegion E -1076.496068004240
  C      57.881254     32.720118     57.350844
  H      58.351811     31.845209     57.797899
  H      58.507310     33.525568     56.969497
  C      56.570984     33.058448     57.729112
  C      55.963953     34.447301     57.383621
  O      56.727734     35.360834     56.985028
  O      54.725082     34.577619     57.560263
  O      55.805693     32.212411     58.263752
  C      55.158407     30.757391     56.655919
  H      54.569686     30.130479     57.328723
  C      56.456414     30.422934     56.363646
  H      56.954336     29.587748     56.854417
  C      57.234963     31.262557     55.542057
  C      56.550019     32.258306     54.718750
  H      57.158455     32.753181     53.961070
  C      55.242303     32.515667     54.871029
  H      54.763993     33.285026     54.261967
  C      54.377046     31.768093     55.849317
  H      53.917728     32.499682     56.534057
  O      53.379005     31.061036     55.128779
  H      52.473506     31.192965     55.571262
  C      58.586857     30.724006     55.052250
  O      59.121721     29.819020     55.720611
  O      59.036495     31.191817     53.969931
24
Coordinates from ORCA-job neb_MEP.QMRegion E -1076.499448507445
  C      57.857709     32.633922     57.227261
  H      58.348876     31.846881     57.804462
  H      58.490064     33.477716     56.926438
  C      56.564485     33.051655     57.719785
  C      55.965500     34.451048     57.383194
  O      56.734997     35.357786     56.985582
  O      54.729494     34.580812     57.566352
  O      55.836902     32.255296     58.320696
  C      55.150585     30.715724     56.616862
  H      54.563359     30.102113     57.302892
  C      56.452533     30.433475     56.379672
  H      56.955210     29.595666     56.862451
  C      57.282161     31.357381     55.638190
  C      56.557837     32.277993     54.737459
  H      57.160148     32.760833     53.966914
  C      55.246344     32.511643     54.872438
  H      54.763713     33.269203     54.250778
  C      54.378217     31.762211     55.849544
  H      53.919528     32.493132     56.538456
  O      53.374861     31.070841     55.120612
  H      52.473701     31.196789     55.569560
  C      58.594818     30.747817     55.076220
  O      59.117175     29.821166     55.723970
  O      59.026159     31.194391     53.977651
24
Coordinates from ORCA-job neb_MEP.QMRegion E -1076.512341296965
  C      57.822710     32.537460     57.102851
  H      58.333701     31.853796     57.795254
  H      58.460158     33.410276     56.873431
  C      56.554615     33.041302     57.701858
  C      55.968921     34.454452     57.382262
  O      56.743046     35.355877     56.985892
  O      54.735977     34.582985     57.572968
  O      55.870109     32.295619     58.379949
  C      55.149059     30.685882     56.588747
  H      54.557399     30.065259     57.265632
  C      56.455975     30.449827     56.402112
  H      56.957999     29.604523     56.872747
  C      57.332489     31.451698     55.737359
  C      56.570776     32.300628     54.764904
  H      57.162791     32.769794     53.976999
  C      55.253944     32.507271     54.877609
  H      54.765581     33.247119     54.237694
  C      54.380715     31.755244     55.850166
  H      53.923563     32.483638     56.544704
  O      53.371095     31.082997     55.112110
  H      52.472998     31.201397     55.566903
  C      58.601322     30.771225     55.100562
  O      59.111316     29.824940     55.729252
  O      59.014407     31.198285     53.987147
24
Coordinates from ORCA-job neb_MEP.QMRegion E -1076.525417378081
  C      57.783073     32.453456     57.024472
  H      58.307601     31.836616     57.765539
  H      58.410855     33.307761     56.762416
  C      56.551132     33.027371     57.697127
  C      55.976925     34.446817     57.376873
  O      56.757294     35.340086     56.980156
  O      54.746883     34.581898     57.580584
  O      55.948111     32.354703     58.504198
  C      55.139497     30.617202     56.542861
  H      54.533778     29.938041     57.150391
  C      56.457922     30.447479     56.428803
  H      56.966178     29.603288     56.894977
  C      57.349438     31.491601     55.801740
  C      56.579168     32.320404     54.807811
  H      57.167174     32.793910     54.019153
  C      55.255898     32.485516     54.886737
  H      54.759070     33.195945     54.219567
  C      54.377926     31.719029     55.846065
  H      53.942045     32.432537     56.571910
  O      53.344878     31.105185     55.094776
  H      52.451799     31.220579     55.560695
  C      58.599591     30.790848     55.132744
  O      59.102312     29.833150     55.750355
  O      58.998301     31.206648     54.010243
24
Coordinates from ORCA-job neb_MEP.QMRegion E -1076.531862411583
  C      57.775000     32.369000     57.016000
  H      58.365000     31.769000     57.723000
  H      58.365000     33.223000     56.678000
  C      56.599000     32.960000     57.765000
  C      55.995000     34.355000     57.394000
  O      56.775000     35.255000     57.007000
  O      54.759000     34.477000     57.563000
  O      56.110000     32.357000     58.696000
  C      55.126000     30.416000     56.434000
  H      54.530000     29.625000     56.892000
  C      56.458000     30.339000     56.404000
  H      56.998000     29.502000     56.848000
  C      57.320000     31.429000     55.820000
  C      56.539000     32.276000     54.854000
  H      57.127000     32.817000     54.114000
  C      55.210000     32.383000     54.910000
  H      54.691000     33.082000     54.252000
  C      54.348000     31.563000     55.839000
  H      53.993000     32.229000     56.648000
  O      53.242000     31.054000     55.117000
  H      52.370000     31.266000     55.587000
  C      58.578000     30.772000     55.129000
  O      59.129000     29.829000     55.728000
  O      58.950000     31.218000     54.011000
