24
Coordinates from ORCA-job neb_initial_path.QMRegion E   0.000000000000
  C      57.899000     33.042000     57.801000
  H      58.349000     32.076000     58.037000
  H      58.544000     33.901000     57.626000
  C      56.572000     33.197000     57.722000
  C      55.922000     34.545000     57.419000
  O      56.664000     35.482000     57.038000
  O      54.676000     34.632000     57.572000
  O      55.717000     32.149000     57.973000
  C      55.359000     31.226000     56.883000
  H      54.718000     30.482000     57.377000
  C      56.606000     30.590000     56.350000
  H      57.090000     29.802000     56.928000
  C      57.214000     31.073000     55.249000
  C      56.583000     32.158000     54.490000
  H      57.179000     32.585000     53.682000
  C      55.350000     32.612000     54.777000
  H      54.930000     33.450000     54.215000
  C      54.495000     31.957000     55.833000
  H      53.937000     32.733000     56.379000
  O      53.602000     31.052000     55.203000
  H      52.688000     31.141000     55.617000
  C      58.609000     30.613000     54.835000
  O      59.205000     29.780000     55.550000
  O      59.088000     31.155000     53.801000
24
Coordinates from ORCA-job neb_initial_path.QMRegion E   0.000000000000
  C      57.885143     32.966857     57.709857
  H      58.345286     32.037286     58.004429
  H      58.526429     33.821286     57.510571
  C      56.564286     33.166000     57.717714
  C      55.928571     34.525429     57.415143
  O      56.678000     35.454857     57.031286
  O      54.685429     34.623571     57.576429
  O      55.725857     32.152857     58.014143
  C      55.327429     31.148429     56.848429
  H      54.692286     30.413143     57.358429
  C      56.581143     30.563000     56.355714
  H      57.067429     29.765571     56.915857
  C      57.224143     31.116429     55.315286
  C      56.578143     32.176286     54.533714
  H      57.174429     32.613857     53.732143
  C      55.332857     32.593000     54.795000
  H      54.902857     33.414571     54.219571
  C      54.475143     31.924286     55.838857
  H      53.931143     32.692571     56.406000
  O      53.565286     31.052571     55.193571
  H      52.652857     31.149714     55.611000
  C      58.605143     30.633143     54.876286
  O      59.189286     29.785143     55.580143
  O      59.077429     31.161571     53.833143
24
Coordinates from ORCA-job neb_initial_path.QMRegion E   0.000000000000
  C      57.871286     32.891714     57.618714
  H      58.341571     31.998571     57.971857
  H      58.508857     33.741571     57.395143
  C      56.556571     33.135000     57.713429
  C      55.935143     34.505857     57.411286
  O      56.692000     35.427714     57.024571
  O      54.694857     34.615143     57.580857
  O      55.734714     32.156714     58.055286
  C      55.295857     31.070857     56.813857
  H      54.666571     30.344286     57.339857
  C      56.556286     30.536000     56.361429
  H      57.044857     29.729143     56.903714
  C      57.234286     31.159857     55.381571
  C      56.573286     32.194571     54.577429
  H      57.169857     32.642714     53.782286
  C      55.315714     32.574000     54.813000
  H      54.875714     33.379143     54.224143
  C      54.455286     31.891571     55.844714
  H      53.925286     32.652143     56.433000
  O      53.528571     31.053143     55.184143
  H      52.617714     31.158429     55.605000
  C      58.601286     30.653286     54.917571
  O      59.173571     29.790286     55.610286
  O      59.066857     31.168143     53.865286
24
Coordinates from ORCA-job neb_initial_path.QMRegion E   0.000000000000
  C      57.857429     32.816571     57.527571
  H      58.337857     31.959857     57.939286
  H      58.491286     33.661857     57.279714
  C      56.548857     33.104000     57.709143
  C      55.941714     34.486286     57.407429
  O      56.706000     35.400571     57.017857
  O      54.704286     34.606714     57.585286
  O      55.743571     32.160571     58.096429
  C      55.264286     30.993286     56.779286
  H      54.640857     30.275429     57.321286
  C      56.531429     30.509000     56.367143
  H      57.022286     29.692714     56.891571
  C      57.244429     31.203286     55.447857
  C      56.568429     32.212857     54.621143
  H      57.165286     32.671571     53.832429
  C      55.298571     32.555000     54.831000
  H      54.848571     33.343714     54.228714
  C      54.435429     31.858857     55.850571
  H      53.919429     32.611714     56.460000
  O      53.491857     31.053714     55.174714
  H      52.582571     31.167143     55.599000
  C      58.597429     30.673429     54.958857
  O      59.157857     29.795429     55.640429
  O      59.056286     31.174714     53.897429
24
Coordinates from ORCA-job neb_initial_path.QMRegion E   0.000000000000
  C      57.843571     32.741429     57.436429
  H      58.334143     31.921143     57.906714
  H      58.473714     33.582143     57.164286
  C      56.541143     33.073000     57.704857
  C      55.948286     34.466714     57.403571
  O      56.720000     35.373429     57.011143
  O      54.713714     34.598286     57.589714
  O      55.752429     32.164429     58.137571
  C      55.232714     30.915714     56.744714
  H      54.615143     30.206571     57.302714
  C      56.506571     30.482000     56.372857
  H      56.999714     29.656286     56.879429
  C      57.254571     31.246714     55.514143
  C      56.563571     32.231143     54.664857
  H      57.160714     32.700429     53.882571
  C      55.281429     32.536000     54.849000
  H      54.821429     33.308286     54.233286
  C      54.415571     31.826143     55.856429
  H      53.913571     32.571286     56.487000
  O      53.455143     31.054286     55.165286
  H      52.547429     31.175857     55.593000
  C      58.593571     30.693571     55.000143
  O      59.142143     29.800571     55.670571
  O      59.045714     31.181286     53.929571
24
Coordinates from ORCA-job neb_initial_path.QMRegion E   0.000000000000
  C      57.829714     32.666286     57.345286
  H      58.330429     31.882429     57.874143
  H      58.456143     33.502429     57.048857
  C      56.533429     33.042000     57.700571
  C      55.954857     34.447143     57.399714
  O      56.734000     35.346286     57.004429
  O      54.723143     34.589857     57.594143
  O      55.761286     32.168286     58.178714
  C      55.201143     30.838143     56.710143
  H      54.589429     30.137714     57.284143
  C      56.481714     30.455000     56.378571
  H      56.977143     29.619857     56.867286
  C      57.264714     31.290143     55.580429
  C      56.558714     32.249429     54.708571
  H      57.156143     32.729286     53.932714
  C      55.264286     32.517000     54.867000
  H      54.794286     33.272857     54.237857
  C      54.395714     31.793429     55.862286
  H      53.907714     32.530857     56.514000
  O      53.418429     31.054857     55.155857
  H      52.512286     31.184571     55.587000
  C      58.589714     30.713714     55.041429
  O      59.126429     29.805714     55.700714
  O      59.035143     31.187857     53.961714
24
Coordinates from ORCA-job neb_initial_path.QMRegion E   0.000000000000
  C      57.815857     32.591143     57.254143
  H      58.326714     31.843714     57.841571
  H      58.438571     33.422714     56.933429
  C      56.525714     33.011000     57.696286
  C      55.961429     34.427571     57.395857
  O      56.748000     35.319143     56.997714
  O      54.732571     34.581429     57.598571
  O      55.770143     32.172143     58.219857
  C      55.169571     30.760571     56.675571
  H      54.563714     30.068857     57.265571
  C      56.456857     30.428000     56.384286
  H      56.954571     29.583429     56.855143
  C      57.274857     31.333571     55.646714
  C      56.553857     32.267714     54.752286
  H      57.151571     32.758143     53.982857
  C      55.247143     32.498000     54.885000
  H      54.767143     33.237429     54.242429
  C      54.375857     31.760714     55.868143
  H      53.901857     32.490429     56.541000
  O      53.381714     31.055429     55.146429
  H      52.477143     31.193286     55.581000
  C      58.585857     30.733857     55.082714
  O      59.110714     29.810857     55.730857
  O      59.024571     31.194429     53.993857
24
Coordinates from ORCA-job neb_initial_path.QMRegion E   0.000000000000
  C      57.802000     32.516000     57.163000
  H      58.323000     31.805000     57.809000
  H      58.421000     33.343000     56.818000
  C      56.518000     32.980000     57.692000
  C      55.968000     34.408000     57.392000
  O      56.762000     35.292000     56.991000
  O      54.742000     34.573000     57.603000
  O      55.779000     32.176000     58.261000
  C      55.138000     30.683000     56.641000
  H      54.538000     30.000000     57.247000
  C      56.432000     30.401000     56.390000
  H      56.932000     29.547000     56.843000
  C      57.285000     31.377000     55.713000
  C      56.549000     32.286000     54.796000
  H      57.147000     32.787000     54.033000
  C      55.230000     32.479000     54.903000
  H      54.740000     33.202000     54.247000
  C      54.356000     31.728000     55.874000
  H      53.896000     32.450000     56.568000
  O      53.345000     31.056000     55.137000
  H      52.442000     31.202000     55.575000
  C      58.582000     30.754000     55.124000
  O      59.095000     29.816000     55.761000
  O      59.014000     31.201000     54.026000
24
Coordinates from ORCA-job neb_initial_path.QMRegion E   0.000000000000
  C      57.788500     32.442500     57.089500
  H      58.344000     31.787000     57.766000
  H      58.393000     33.283000     56.748000
  C      56.558500     32.970000     57.728500
  C      55.981500     34.381500     57.393000
  O      56.768500     35.273500     56.999000
  O      54.750500     34.525000     57.583000
  O      55.944500     32.266500     58.478500
  C      55.132000     30.549500     56.537500
  H      54.534000     29.812500     57.069500
  C      56.445000     30.370000     56.397000
  H      56.965000     29.524500     56.845500
  C      57.302500     31.403000     55.766500
  C      56.544000     32.281000     54.825000
  H      57.137000     32.802000     54.073500
  C      55.220000     32.431000     54.906500
  H      54.715500     33.142000     54.249500
  C      54.352000     31.645500     55.856500
  H      53.944500     32.339500     56.608000
  O      53.293500     31.055000     55.127000
  H      52.406000     31.234000     55.581000
  C      58.580000     30.763000     55.126500
  O      59.112000     29.822500     55.744500
  O      58.982000     31.209500     54.018500
24
Coordinates from ORCA-job neb_initial_path.QMRegion E   0.000000000000
  C      57.775000     32.369000     57.016000
  H      58.365000     31.769000     57.723000
  H      58.365000     33.223000     56.678000
  C      56.599000     32.960000     57.765000
  C      55.995000     34.355000     57.394000
  O      56.775000     35.255000     57.007000
  O      54.759000     34.477000     57.563000
  O      56.110000     32.357000     58.696000
  C      55.126000     30.416000     56.434000
  H      54.530000     29.625000     56.892000
  C      56.458000     30.339000     56.404000
  H      56.998000     29.502000     56.848000
  C      57.320000     31.429000     55.820000
  C      56.539000     32.276000     54.854000
  H      57.127000     32.817000     54.114000
  C      55.210000     32.383000     54.910000
  H      54.691000     33.082000     54.252000
  C      54.348000     31.563000     55.839000
  H      53.993000     32.229000     56.648000
  O      53.242000     31.054000     55.117000
  H      52.370000     31.266000     55.587000
  C      58.578000     30.772000     55.129000
  O      59.129000     29.829000     55.728000
  O      58.950000     31.218000     54.011000
