24
frame 50892 P, aligned onto 20000 on 8 atoms
C      48.13850503    28.18511744    56.02451439
H      49.01997795    27.55032427    56.19397569
H      48.23533478    29.10492304    56.60644966
C      46.93329502    27.40932962    56.49189655
C      45.72735292    28.10032009    57.17324582
O      45.99133144    28.95410718    58.04420158
O      44.59343382    27.68397622    56.82734227
O      46.90422882    26.20140354    56.34831125
C      46.61106250    26.80725561    53.37482949
H      46.45022016    25.83548632    52.90169294
C      47.83359117    27.20347365    53.73771225
H      48.70803900    26.57023174    53.59571690
C      48.08117376    28.50097671    54.46490321
C      46.95681320    29.47246405    54.20523868
H      47.15567980    30.53349734    54.34939636
C      45.73325795    29.07171650    53.85276888
H      44.93257508    29.80563786    53.74975733
C      45.36893486    27.64029907    53.56153388
H      44.78670569    27.26255180    54.42356473
O      44.59026369    27.57955044    52.38074355
H      43.71250199    27.10415599    52.53148012
C      49.50883088    29.06286206    54.12097152
O      50.39270829    28.19897710    53.91616799
O      49.72782493    30.30281123    54.17044554
