24
frame 50892 R, aligned onto 20000 on 8 atoms
C      47.96053955    28.01066057    56.87039328
H      48.87337948    27.64588265    56.39894516
H      48.02284919    28.77817049    57.63995421
C      46.74591238    27.56455273    56.52999550
C      45.48074476    28.08801876    57.20677333
O      45.62626707    28.95856013    58.08995280
O      44.38078773    27.60079840    56.82589690
O      46.56827762    26.58564542    55.57087124
C      46.55295160    26.98021399    54.15508427
H      46.35183173    26.03811172    53.62605864
C      47.91128709    27.50836943    53.82191385
H      48.74944024    26.80960905    53.78065592
C      48.15618691    28.83396054    53.78817520
C      47.04065323    29.77794407    53.90952462
H      47.28935929    30.83679568    53.97640184
C      45.76165415    29.37078526    53.98268244
H      44.96398174    30.10510578    54.12157124
C      45.37307703    27.92152856    53.83975288
H      44.57906217    27.68133195    54.56288219
O      44.93017965    27.69895402    52.50768026
H      44.08066745    27.15649682    52.52072676
C      49.59744395    29.32511477    53.83880802
O      50.49760871    28.44865465    53.84400827
O      49.80548766    30.56236866    53.96420191
