24
frame 50892 TS, aligned onto 20000 on 8 atoms
C      48.15316265    28.11058368    56.46664026
H      49.03597721    27.55362689    56.16020607
H      48.28238573    29.03150542    57.03213977
C      46.90899137    27.47519012    56.47650793
C      45.68296048    28.11841252    57.16593794
O      45.90181394    28.97124617    58.05347174
O      44.55031706    27.69052091    56.80958327
O      46.72551442    26.39027211    55.84317454
C      46.54994217    26.84235862    53.68761521
H      46.36351080    25.80173180    53.41558643
C      47.83224438    27.34363502    53.66794524
H      48.68952537    26.68682492    53.53409223
C      48.07331953    28.66783326    54.06338692
C      46.94302576    29.59785476    54.09729355
H      47.15447303    30.65601701    54.23969534
C      45.67814122    29.16706499    53.95991513
H      44.84931802    29.87439985    54.03194572
C      45.32945300    27.72869129    53.70179771
H      44.64995738    27.38949680    54.49906805
O      44.71197918    27.62434902    52.42506627
H      43.83554228    27.11721136    52.49074690
C      49.51864345    29.16742656    54.02174112
O      50.40348732    28.28186307    53.92898206
O      49.75301776    30.40392187    54.10283576
