24
Coordinates from ORCA-job neb_initial_path.QMRegion E   0.000000000000
  C      44.842000     22.068000     40.142000
  H      45.265000     21.440000     39.358000
  H      45.368000     22.976000     40.435000
  C      43.689000     21.758000     40.746000
  C      43.115000     22.623000     41.859000
  O      43.577000     23.785000     42.012000
  O      42.221000     22.117000     42.579000
  O      42.985000     20.610000     40.433000
  C      42.079000     20.646000     39.270000
  H      41.683000     19.622000     39.219000
  C      42.892000     20.975000     38.054000
  H      43.551000     20.209000     37.638000
  C      42.969000     22.244000     37.605000
  C      42.118000     23.281000     38.202000
  H      42.307000     24.301000     37.867000
  C      41.188000     23.002000     39.130000
  H      40.598000     23.809000     39.575000
  C      40.887000     21.588000     39.553000
  H      40.742000     21.566000     40.644000
  O      39.715000     21.144000     38.884000
  H      39.068000     20.737000     39.535000
  C      44.024000     22.694000     36.600000
  O      44.937000     21.905000     36.259000
  O      43.944000     23.900000     36.236000
24
Coordinates from ORCA-job neb_initial_path.QMRegion E   0.000000000000
  C      44.777333     22.071000     40.033000
  H      45.224333     21.424000     39.283000
  H      45.280667     22.999333     40.289667
  C      43.686000     21.722000     40.726667
  C      43.125333     22.609667     41.834000
  O      43.603000     23.765667     41.981667
  O      42.224667     22.121333     42.558333
  O      43.019000     20.572000     40.467667
  C      42.015667     20.599000     39.200667
  H      41.659000     19.564667     39.189667
  C      42.856333     20.948667     38.049667
  H      43.495667     20.190000     37.596333
  C      43.020333     22.239000     37.717333
  C      42.157667     23.266667     38.314000
  H      42.367000     24.293333     38.022333
  C      41.184333     22.966667     39.180667
  H      40.576000     23.762333     39.619000
  C      40.860667     21.546333     39.551333
  H      40.732000     21.486000     40.640667
  O      39.671333     21.151333     38.887333
  H      39.025000     20.734333     39.536667
  C      44.044667     22.696333     36.685000
  O      44.955000     21.914667     36.322333
  O      43.929000     23.891333     36.302333
24
Coordinates from ORCA-job neb_initial_path.QMRegion E   0.000000000000
  C      44.712667     22.074000     39.924000
  H      45.183667     21.408000     39.208000
  H      45.193333     23.022667     40.144333
  C      43.683000     21.686000     40.707333
  C      43.135667     22.596333     41.809000
  O      43.629000     23.746333     41.951333
  O      42.228333     22.125667     42.537667
  O      43.053000     20.534000     40.502333
  C      41.952333     20.552000     39.131333
  H      41.635000     19.507333     39.160333
  C      42.820667     20.922333     38.045333
  H      43.440333     20.171000     37.554667
  C      43.071667     22.234000     37.829667
  C      42.197333     23.252333     38.426000
  H      42.427000     24.285667     38.177667
  C      41.180667     22.931333     39.231333
  H      40.554000     23.715667     39.663000
  C      40.834333     21.504667     39.549667
  H      40.722000     21.406000     40.637333
  O      39.627667     21.158667     38.890667
  H      38.982000     20.731667     39.538333
  C      44.065333     22.698667     36.770000
  O      44.973000     21.924333     36.385667
  O      43.914000     23.882667     36.368667
24
Coordinates from ORCA-job neb_initial_path.QMRegion E   0.000000000000
  C      44.648000     22.077000     39.815000
  H      45.143000     21.392000     39.133000
  H      45.106000     23.046000     39.999000
  C      43.680000     21.650000     40.688000
  C      43.146000     22.583000     41.784000
  O      43.655000     23.727000     41.921000
  O      42.232000     22.130000     42.517000
  O      43.087000     20.496000     40.537000
  C      41.889000     20.505000     39.062000
  H      41.611000     19.450000     39.131000
  C      42.785000     20.896000     38.041000
  H      43.385000     20.152000     37.513000
  C      43.123000     22.229000     37.942000
  C      42.237000     23.238000     38.538000
  H      42.487000     24.278000     38.333000
  C      41.177000     22.896000     39.282000
  H      40.532000     23.669000     39.707000
  C      40.808000     21.463000     39.548000
  H      40.712000     21.326000     40.634000
  O      39.584000     21.166000     38.894000
  H      38.939000     20.729000     39.540000
  C      44.086000     22.701000     36.855000
  O      44.991000     21.934000     36.449000
  O      43.899000     23.874000     36.435000
24
Coordinates from ORCA-job neb_initial_path.QMRegion E   0.000000000000
  C      44.605000     22.048000     39.738000
  H      45.135667     21.348333     39.115667
  H      45.075333     23.010167     39.929167
  C      43.685000     21.615333     40.675667
  C      43.165333     22.568500     41.764167
  O      43.703000     23.695833     41.894167
  O      42.236167     22.139167     42.489333
  O      43.151667     20.457333     40.581833
  C      41.825333     20.493000     38.960833
  H      41.525833     19.447167     38.993000
  C      42.767333     20.878000     38.020667
  H      43.365000     20.139667     37.482667
  C      43.157000     22.210667     37.984667
  C      42.249000     23.218667     38.561833
  H      42.505000     24.259833     38.380333
  C      41.170000     22.874667     39.269500
  H      40.519500     23.646500     39.688333
  C      40.783333     21.443000     39.507500
  H      40.718000     21.276167     40.588500
  O      39.537833     21.181500     38.894500
  H      38.906333     20.739833     39.549500
  C      44.088333     22.693333     36.870000
  O      44.992667     21.934000     36.449333
  O      43.884833     23.863667     36.453500
24
Coordinates from ORCA-job neb_initial_path.QMRegion E   0.000000000000
  C      44.562000     22.019000     39.661000
  H      45.128333     21.304667     39.098333
  H      45.044667     22.974333     39.859333
  C      43.690000     21.580667     40.663333
  C      43.184667     22.554000     41.744333
  O      43.751000     23.664667     41.867333
  O      42.240333     22.148333     42.461667
  O      43.216333     20.418667     40.626667
  C      41.761667     20.481000     38.859667
  H      41.440667     19.444333     38.855000
  C      42.749667     20.860000     38.000333
  H      43.345000     20.127333     37.452333
  C      43.191000     22.192333     38.027333
  C      42.261000     23.199333     38.585667
  H      42.523000     24.241667     38.427667
  C      41.163000     22.853333     39.257000
  H      40.507000     23.624000     39.669667
  C      40.758667     21.423000     39.467000
  H      40.724000     21.226333     40.543000
  O      39.491667     21.197000     38.895000
  H      38.873667     20.750667     39.559000
  C      44.090667     22.685667     36.885000
  O      44.994333     21.934000     36.449667
  O      43.870667     23.853333     36.472000
24
Coordinates from ORCA-job neb_initial_path.QMRegion E   0.000000000000
  C      44.519000     21.990000     39.584000
  H      45.121000     21.261000     39.081000
  H      45.014000     22.938500     39.789500
  C      43.695000     21.546000     40.651000
  C      43.204000     22.539500     41.724500
  O      43.799000     23.633500     41.840500
  O      42.244500     22.157500     42.434000
  O      43.281000     20.380000     40.671500
  C      41.698000     20.469000     38.758500
  H      41.355500     19.441500     38.717000
  C      42.732000     20.842000     37.980000
  H      43.325000     20.115000     37.422000
  C      43.225000     22.174000     38.070000
  C      42.273000     23.180000     38.609500
  H      42.541000     24.223500     38.475000
  C      41.156000     22.832000     39.244500
  H      40.494500     23.601500     39.651000
  C      40.734000     21.403000     39.426500
  H      40.730000     21.176500     40.497500
  O      39.445500     21.212500     38.895500
  H      38.841000     20.761500     39.568500
  C      44.093000     22.678000     36.900000
  O      44.996000     21.934000     36.450000
  O      43.856500     23.843000     36.490500
24
Coordinates from ORCA-job neb_initial_path.QMRegion E   0.000000000000
  C      44.476000     21.961000     39.507000
  H      45.113667     21.217333     39.063667
  H      44.983333     22.902667     39.719667
  C      43.700000     21.511333     40.638667
  C      43.223333     22.525000     41.704667
  O      43.847000     23.602333     41.813667
  O      42.248667     22.166667     42.406333
  O      43.345667     20.341333     40.716333
  C      41.634333     20.457000     38.657333
  H      41.270333     19.438667     38.579000
  C      42.714333     20.824000     37.959667
  H      43.305000     20.102667     37.391667
  C      43.259000     22.155667     38.112667
  C      42.285000     23.160667     38.633333
  H      42.559000     24.205333     38.522333
  C      41.149000     22.810667     39.232000
  H      40.482000     23.579000     39.632333
  C      40.709333     21.383000     39.386000
  H      40.736000     21.126667     40.452000
  O      39.399333     21.228000     38.896000
  H      38.808333     20.772333     39.578000
  C      44.095333     22.670333     36.915000
  O      44.997667     21.934000     36.450333
  O      43.842333     23.832667     36.509000
24
Coordinates from ORCA-job neb_initial_path.QMRegion E   0.000000000000
  C      44.433000     21.932000     39.430000
  H      45.106333     21.173667     39.046333
  H      44.952667     22.866833     39.649833
  C      43.705000     21.476667     40.626333
  C      43.242667     22.510500     41.684833
  O      43.895000     23.571167     41.786833
  O      42.252833     22.175833     42.378667
  O      43.410333     20.302667     40.761167
  C      41.570667     20.445000     38.556167
  H      41.185167     19.435833     38.441000
  C      42.696667     20.806000     37.939333
  H      43.285000     20.090333     37.361333
  C      43.293000     22.137333     38.155333
  C      42.297000     23.141333     38.657167
  H      42.577000     24.187167     38.569667
  C      41.142000     22.789333     39.219500
  H      40.469500     23.556500     39.613667
  C      40.684667     21.363000     39.345500
  H      40.742000     21.076833     40.406500
  O      39.353167     21.243500     38.896500
  H      38.775667     20.783167     39.587500
  C      44.097667     22.662667     36.930000
  O      44.999333     21.934000     36.450667
  O      43.828167     23.822333     36.527500
24
Coordinates from ORCA-job neb_initial_path.QMRegion E   0.000000000000
  C      44.390000     21.903000     39.353000
  H      45.099000     21.130000     39.029000
  H      44.922000     22.831000     39.580000
  C      43.710000     21.442000     40.614000
  C      43.262000     22.496000     41.665000
  O      43.943000     23.540000     41.760000
  O      42.257000     22.185000     42.351000
  O      43.475000     20.264000     40.806000
  C      41.507000     20.433000     38.455000
  H      41.100000     19.433000     38.303000
  C      42.679000     20.788000     37.919000
  H      43.265000     20.078000     37.331000
  C      43.327000     22.119000     38.198000
  C      42.309000     23.122000     38.681000
  H      42.595000     24.169000     38.617000
  C      41.135000     22.768000     39.207000
  H      40.457000     23.534000     39.595000
  C      40.660000     21.343000     39.305000
  H      40.748000     21.027000     40.361000
  O      39.307000     21.259000     38.897000
  H      38.743000     20.794000     39.597000
  C      44.100000     22.655000     36.945000
  O      45.001000     21.934000     36.451000
  O      43.814000     23.812000     36.546000
