24
Coordinates from ORCA-job neb_MEP.QMRegion E -1075.680500703602
  C      44.842000     22.068000     40.142000
  H      45.265000     21.440000     39.358000
  H      45.368000     22.976000     40.435000
  C      43.689000     21.758000     40.746000
  C      43.115000     22.623000     41.859000
  O      43.577000     23.785000     42.012000
  O      42.221000     22.117000     42.579000
  O      42.985000     20.610000     40.433000
  C      42.079000     20.646000     39.270000
  H      41.683000     19.622000     39.219000
  C      42.892000     20.975000     38.054000
  H      43.551000     20.209000     37.638000
  C      42.969000     22.244000     37.605000
  C      42.118000     23.281000     38.202000
  H      42.307000     24.301000     37.867000
  C      41.188000     23.002000     39.130000
  H      40.598000     23.809000     39.575000
  C      40.887000     21.588000     39.553000
  H      40.742000     21.566000     40.644000
  O      39.715000     21.144000     38.884000
  H      39.068000     20.737000     39.535000
  C      44.024000     22.694000     36.600000
  O      44.937000     21.905000     36.259000
  O      43.944000     23.900000     36.236000
24
Coordinates from ORCA-job neb_MEP.QMRegion E -1075.679954717052
  C      44.785053     21.965281     39.986716
  H      45.172851     21.340746     39.183729
  H      45.287799     22.905500     40.212909
  C      43.671102     21.651173     40.661240
  C      43.146621     22.563213     41.766740
  O      43.684185     23.690113     41.919429
  O      42.204923     22.130659     42.476952
  O      42.942314     20.508485     40.384318
  C      41.999652     20.526527     39.220608
  H      41.629554     19.492664     39.163669
  C      42.787186     20.906994     38.011827
  H      43.388945     20.151351     37.502264
  C      42.949636     22.212722     37.717487
  C      42.152938     23.225064     38.424160
  H      42.415813     24.265434     38.236202
  C      41.166360     22.893277     39.272935
  H      40.579992     23.671207     39.770615
  C      40.815246     21.458338     39.563026
  H      40.681897     21.352065     40.648403
  O      39.625974     21.102921     38.877902
  H      38.962496     20.708705     39.526579
  C      44.003413     22.704378     36.737191
  O      44.941363     21.943625     36.390431
  O      43.891488     23.909441     36.383962
24
Coordinates from ORCA-job neb_MEP.QMRegion E -1075.668595199702
  C      44.751870     21.984947     39.913261
  H      45.176183     21.335639     39.150128
  H      45.199436     22.966565     40.066835
  C      43.686498     21.622170     40.657498
  C      43.162079     22.562526     41.750120
  O      43.715502     23.682605     41.900909
  O      42.205320     22.152331     42.456013
  O      42.989142     20.473347     40.414935
  C      41.937883     20.485712     39.123072
  H      41.596078     19.440164     39.084453
  C      42.773914     20.890065     37.997160
  H      43.367146     20.144197     37.465933
  C      43.019749     22.210104     37.816854
  C      42.205790     23.214309     38.513046
  H      42.475268     24.257845     38.353797
  C      41.165489     22.866594     39.286248
  H      40.540129     23.633293     39.751633
  C      40.792732     21.431570     39.533824
  H      40.705300     21.284089     40.616926
  O      39.563151     21.141640     38.889124
  H      38.910967     20.732162     39.547116
  C      44.045960     22.702349     36.811927
  O      44.975561     21.946769     36.436790
  O      43.893028     23.894856     36.433160
24
Coordinates from ORCA-job neb_MEP.QMRegion E -1075.657763453361
  C      44.734602     22.007755     39.871263
  H      45.188264     21.329894     39.152226
  H      45.179427     22.988546     40.023801
  C      43.709155     21.606172     40.683324
  C      43.169166     22.568754     41.757104
  O      43.718341     23.691382     41.900931
  O      42.207234     22.160246     42.456155
  O      43.090731     20.461215     40.513498
  C      41.854469     20.473402     39.005411
  H      41.569401     19.417542     39.047143
  C      42.759540     20.878947     37.997866
  H      43.366456     20.141762     37.470408
  C      43.060018     22.214596     37.874423
  C      42.217153     23.215635     38.531982
  H      42.481106     24.259088     38.366654
  C      41.162327     22.862956     39.282374
  H      40.530968     23.627855     39.741962
  C      40.782901     21.428304     39.515227
  H      40.716891     21.265694     40.598890
  O      39.534652     21.162151     38.892009
  H      38.894915     20.736694     39.552976
  C      44.062465     22.701213     36.836700
  O      44.978490     21.942162     36.440818
  O      43.888826     23.885776     36.442109
24
Coordinates from ORCA-job neb_MEP.QMRegion E -1075.655219004501
  C      44.703791     22.030273     39.812759
  H      45.200210     21.322690     39.154208
  H      45.158899     23.003117     39.983930
  C      43.724256     21.594327     40.701926
  C      43.173360     22.573254     41.763564
  O      43.721406     23.696488     41.899574
  O      42.209938     22.164579     42.457666
  O      43.182802     20.446871     40.600885
  C      41.787694     20.464007     38.911406
  H      41.540858     19.404790     39.008096
  C      42.751746     20.867540     38.007624
  H      43.366935     20.138496     37.477860
  C      43.107107     22.220058     37.937670
  C      42.226771     23.217353     38.547860
  H      42.484825     24.261025     38.376528
  C      41.159071     22.859489     39.276628
  H      40.523213     23.623242     39.732336
  C      40.774261     21.424098     39.497250
  H      40.724868     21.250879     40.582103
  O      39.509823     21.179825     38.894650
  H      38.881650     20.740139     39.557234
  C      44.076006     22.700007     36.858094
  O      44.980532     21.938188     36.443811
  O      43.884316     23.877296     36.449750
24
Coordinates from ORCA-job neb_MEP.QMRegion E -1075.658033309491
  C      44.627738     22.052398     39.708045
  H      45.202783     21.312262     39.156004
  H      45.118260     23.001782     39.931197
  C      43.716701     21.586976     40.699329
  C      43.173183     22.573003     41.764676
  O      43.726812     23.692992     41.893933
  O      42.214235     22.162274     42.460653
  O      43.240866     20.435213     40.657855
  C      41.752705     20.459153     38.855747
  H      41.515783     19.399631     38.970284
  C      42.754259     20.858786     38.024433
  H      43.369420     20.134496     37.486887
  C      43.184514     22.223829     38.030562
  C      42.241344     23.218094     38.570320
  H      42.487350     24.262459     38.386058
  C      41.158720     22.855834     39.270603
  H      40.512352     23.618918     39.713797
  C      40.769913     21.419336     39.486498
  H      40.726717     21.240714     40.572019
  O      39.496262     21.190112     38.896453
  H      38.874618     20.741773     39.558218
  C      44.091920     22.697813     36.881602
  O      44.983837     21.934746     36.444063
  O      43.876325     23.865516     36.458168
24
Coordinates from ORCA-job neb_MEP.QMRegion E -1075.668022659176
  C      44.534791     22.070830     39.587634
  H      45.195279     21.309809     39.162141
  H      45.067608     22.991478     39.874318
  C      43.701657     21.583309     40.690920
  C      43.174400     22.573056     41.767015
  O      43.734221     23.689052     41.889388
  O      42.219882     22.160158     42.464827
  O      43.291555     20.426030     40.709500
  C      41.731023     20.457852     38.814470
  H      41.493114     19.398254     38.932598
  C      42.762648     20.852974     38.042767
  H      43.373767     20.131168     37.496070
  C      43.277583     22.227969     38.135053
  C      42.261151     23.218071     38.595736
  H      42.491001     24.263802     38.396231
  C      41.163019     22.852410     39.266034
  H      40.503655     23.615002     39.693201
  C      40.768678     21.415258     39.478777
  H      40.729498     21.231869     40.564880
  O      39.487120     21.200368     38.899626
  H      38.870201     20.744102     39.559384
  C      44.107017     22.696729     36.904376
  O      44.987060     21.932751     36.444851
  O      43.867626     23.854197     36.466919
24
Coordinates from ORCA-job neb_MEP.QMRegion E -1075.686578070188
  C      44.430611     22.072309     39.478119
  H      45.166131     21.318952     39.163084
  H      44.955550     22.993144     39.769556
  C      43.686001     21.577440     40.684076
  C      43.183731     22.574624     41.768482
  O      43.757169     23.683121     41.881368
  O      42.237191     22.161647     42.475766
  O      43.385120     20.403212     40.793527
  C      41.694209     20.459656     38.743064
  H      41.421629     19.404305     38.810567
  C      42.778899     20.845524     38.060970
  H      43.393362     20.123560     37.517795
  C      43.358538     22.222962     38.229288
  C      42.299608     23.214513     38.639236
  H      42.522313     24.262703     38.441601
  C      41.171721     22.847122     39.253667
  H      40.488848     23.610671     39.639705
  C      40.761534     21.411841     39.451363
  H      40.749230     21.207405     40.536836
  O      39.460514     21.234103     38.909203
  H      38.857552     20.759050     39.568218
  C      44.126385     22.693062     36.941854
  O      45.003681     21.937039     36.463378
  O      43.854316     23.837682     36.491757
24
Coordinates from ORCA-job neb_MEP.QMRegion E -1075.698318361760
  C      44.400318     21.985316     39.405424
  H      45.133187     21.230521     39.091691
  H      44.908850     22.921446     39.652751
  C      43.702491     21.504752     40.650188
  C      43.234988     22.537353     41.715218
  O      43.880354     23.603174     41.819404
  O      42.247006     22.190353     42.406378
  O      43.461929     20.325268     40.823211
  C      41.587080     20.444660     38.556374
  H      41.223503     19.418558     38.476704
  C      42.737287     20.813040     37.985360
  H      43.349112     20.100580     37.427033
  C      43.352743     22.167312     38.224459
  C      42.316857     23.167654     38.669186
  H      42.579112     24.217136     38.548739
  C      41.155706     22.806507     39.218889
  H      40.464751     23.570006     39.589079
  C      40.710136     21.375152     39.356427
  H      40.771155     21.102181     40.427116
  O      39.371872     21.263828     38.905225
  H      38.794363     20.790559     39.588089
  C      44.119403     22.675108     36.954773
  O      45.015654     21.944794     36.468941
  O      43.827211     23.821705     36.527562
24
Coordinates from ORCA-job neb_MEP.QMRegion E -1075.701067018986
  C      44.390000     21.903000     39.353000
  H      45.099000     21.130000     39.029000
  H      44.922000     22.831000     39.580000
  C      43.710000     21.442000     40.614000
  C      43.262000     22.496000     41.665000
  O      43.943000     23.540000     41.760000
  O      42.257000     22.185000     42.351000
  O      43.475000     20.264000     40.806000
  C      41.507000     20.433000     38.455000
  H      41.100000     19.433000     38.303000
  C      42.679000     20.788000     37.919000
  H      43.265000     20.078000     37.331000
  C      43.327000     22.119000     38.198000
  C      42.309000     23.122000     38.681000
  H      42.595000     24.169000     38.617000
  C      41.135000     22.768000     39.207000
  H      40.457000     23.534000     39.595000
  C      40.660000     21.343000     39.305000
  H      40.748000     21.027000     40.361000
  O      39.307000     21.259000     38.897000
  H      38.743000     20.794000     39.597000
  C      44.100000     22.655000     36.945000
  O      45.001000     21.934000     36.451000
  O      43.814000     23.812000     36.546000
