24
Coordinates from ORCA-job neb_MEP_ALL.QMRegion E -1075.680500703602
  C      44.842000     22.068000     40.142000
  H      45.265000     21.440000     39.358000
  H      45.368000     22.976000     40.435000
  C      43.689000     21.758000     40.746000
  C      43.115000     22.623000     41.859000
  O      43.577000     23.785000     42.012000
  O      42.221000     22.117000     42.579000
  O      42.985000     20.610000     40.433000
  C      42.079000     20.646000     39.270000
  H      41.683000     19.622000     39.219000
  C      42.892000     20.975000     38.054000
  H      43.551000     20.209000     37.638000
  C      42.969000     22.244000     37.605000
  C      42.118000     23.281000     38.202000
  H      42.307000     24.301000     37.867000
  C      41.188000     23.002000     39.130000
  H      40.598000     23.809000     39.575000
  C      40.887000     21.588000     39.553000
  H      40.742000     21.566000     40.644000
  O      39.715000     21.144000     38.884000
  H      39.068000     20.737000     39.535000
  C      44.024000     22.694000     36.600000
  O      44.937000     21.905000     36.259000
  O      43.944000     23.900000     36.236000
24
Coordinates from ORCA-job neb_MEP_ALL.QMRegion E -1075.674746145432
  C      44.778849     22.071796     40.032064
  H      45.221905     21.423217     39.278694
  H      45.277671     23.001440     40.283386
  C      43.686065     21.723290     40.726205
  C      43.126311     22.608633     41.832496
  O      43.603927     23.765325     41.980672
  O      42.224518     22.121686     42.557529
  O      43.008713     20.565748     40.458411
  C      42.020742     20.595938     39.210187
  H      41.658045     19.561528     39.189025
  C      42.856323     20.944386     38.049071
  H      43.493081     20.188461     37.594253
  C      43.019343     22.243679     37.716688
  C      42.162181     23.266438     38.317879
  H      42.369942     24.293650     38.028889
  C      41.182561     22.965265     39.184493
  H      40.574872     23.760239     39.621050
  C      40.858967     21.544425     39.551221
  H      40.731946     21.482456     40.641154
  O      39.669059     21.151488     38.886953
  H      39.023064     20.734140     39.536889
  C      44.045846     22.695794     36.689692
  O      44.956133     21.914929     36.324950
  O      43.928359     23.892082     36.304743
24
Coordinates from ORCA-job neb_MEP_ALL.QMRegion E -1075.662917758521
  C      44.716076     22.074446     39.926485
  H      45.181278     21.407277     39.203960
  H      45.190800     23.024715     40.138849
  C      43.684043     21.688201     40.706714
  C      43.136455     22.595510     41.807462
  O      43.629847     23.746087     41.950547
  O      42.228104     22.125971     42.537005
  O      43.043247     20.527271     40.494258
  C      41.956312     20.548833     39.139972
  H      41.634278     19.504540     39.159926
  C      42.820866     20.918857     38.043982
  H      43.437931     20.169613     37.552679
  C      43.068364     22.238209     37.826471
  C      42.202025     23.252248     38.429556
  H      42.429617     24.286058     38.183471
  C      41.178735     22.929887     39.234940
  H      40.552965     23.713859     39.664866
  C      40.832825     21.503118     39.549412
  H      40.722027     21.402839     40.637844
  O      39.625429     21.158660     38.890319
  H      38.980334     20.731499     39.538473
  C      44.066809     22.697740     36.774223
  O      44.973919     21.924668     36.387985
  O      43.913298     23.883707     36.370670
24
Coordinates from ORCA-job neb_MEP_ALL.QMRegion E -1075.653261780038
  C      44.651864     22.075265     39.818232
  H      45.142682     21.390824     39.132554
  H      45.105353     23.044975     39.997437
  C      43.680228     21.649350     40.688161
  C      43.145986     22.582694     41.783727
  O      43.656579     23.726100     41.920254
  O      42.232453     22.130481     42.515904
  O      43.086350     20.494461     40.535114
  C      41.889365     20.504074     39.061891
  H      41.608695     19.450268     39.127102
  C      42.784460     20.895111     38.040315
  H      43.384290     20.151848     37.512126
  C      43.118780     22.229087     37.937619
  C      42.237677     23.237692     38.538644
  H      42.487456     24.277473     38.334509
  C      41.176705     22.895371     39.281884
  H      40.531731     23.668398     39.706753
  C      40.807346     21.462503     39.546592
  H      40.712223     21.324598     40.632789
  O      39.582464     21.166216     38.894078
  H      38.938162     20.729343     39.540279
  C      44.086665     22.699732     36.855122
  O      44.990884     21.934495     36.449131
  O      43.898447     23.874476     36.435400
24
Coordinates from ORCA-job neb_MEP_ALL.QMRegion E -1075.650044874798
  C      44.610406     22.053489     39.737688
  H      45.137632     21.345192     39.114128
  H      45.075076     23.010590     39.928393
  C      43.681656     21.609137     40.679076
  C      43.164423     22.568711     41.764198
  O      43.704008     23.697143     41.894186
  O      42.235654     22.139009     42.489711
  O      43.152264     20.458768     40.582605
  C      41.822623     20.490034     38.954441
  H      41.526490     19.445055     38.994756
  C      42.765154     20.873197     38.022290
  H      43.364766     20.139539     37.482703
  C      43.156541     22.218404     37.983869
  C      42.250302     23.218901     38.560747
  H      42.505333     24.260181     38.380211
  C      41.167946     22.874486     39.270510
  H      40.519518     23.646599     39.688600
  C      40.785577     21.444683     39.508890
  H      40.717887     21.276399     40.590086
  O      39.535857     21.180886     38.892881
  H      38.906190     20.739727     39.549694
  C      44.090133     22.692438     36.870650
  O      44.992549     21.934118     36.449060
  O      43.884281     23.864388     36.453218
24
Coordinates from ORCA-job neb_MEP_ALL.QMRegion E -1075.651844316231
  C      44.564859     22.029269     39.653612
  H      45.132205     21.299763     39.096674
  H      45.044442     22.975341     39.858453
  C      43.685126     21.571598     40.668781
  C      43.183461     22.554419     41.744936
  O      43.752224     23.666878     41.867432
  O      42.239325     22.147900     42.462575
  O      43.217426     20.420729     40.629183
  C      41.756987     20.476518     38.850414
  H      41.441758     19.440690     38.858270
  C      42.746877     20.852782     38.002470
  H      43.344905     20.127123     37.452654
  C      43.196371     22.204626     38.032574
  C      42.262396     23.199828     38.583640
  H      42.523440     24.242462     38.426939
  C      41.159933     22.853359     39.258474
  H      40.507099     23.624382     39.670146
  C      40.762261     21.425551     39.469616
  H      40.723832     21.227127     40.546007
  O      39.488835     21.196260     38.892491
  H      38.873734     20.750450     39.559199
  C      44.092838     22.684975     36.885989
  O      44.994329     21.933917     36.449168
  O      43.870145     23.854184     36.471452
24
Coordinates from ORCA-job neb_MEP_ALL.QMRegion E -1075.660475583139
  C      44.517981     22.002617     39.571770
  H      45.125960     21.256409     39.080229
  H      45.014428     22.940402     39.790022
  C      43.690434     21.538486     40.656904
  C      43.202479     22.540344     41.725985
  O      43.799299     23.636428     41.841076
  O      42.243173     22.156731     42.435582
  O      43.279873     20.381357     40.673527
  C      41.694078     20.464088     38.752169
  H      41.358055     19.437346     38.723106
  C      42.730379     20.835127     37.981732
  H      43.325362     20.114992     37.423001
  C      43.235061     22.187313     38.080154
  C      42.273834     23.181009     38.606613
  H      42.541082     24.224859     38.473020
  C      41.152763     22.832614     39.246282
  H      40.494826     23.602428     39.651938
  C      40.738359     21.405957     39.430233
  H      40.729788     21.178419     40.502008
  O      39.443197     21.211607     38.892779
  H      38.841828     20.761036     39.568463
  C      44.094817     22.677550     36.900699
  O      44.996068     21.933826     36.449388
  O      43.856390     23.844094     36.489415
24
Coordinates from ORCA-job neb_MEP_ALL.QMRegion E -1075.675707289159
  C      44.471452     21.972964     39.493535
  H      45.118514     21.214459     39.064026
  H      44.984504     22.905225     39.721868
  C      43.696735     21.507665     40.643422
  C      43.221733     22.526275     41.706683
  O      43.846000     23.605420     41.814778
  O      42.247299     22.165706     42.408377
  O      43.342144     20.341532     40.717040
  C      41.632332     20.452755     38.655762
  H      41.274341     19.434938     38.587390
  C      42.714533     20.819356     37.960767
  H      43.305855     20.102968     37.393252
  C      43.271040     22.166606     38.125098
  C      42.285183     23.162030     38.630113
  H      42.558601     24.207057     38.519283
  C      41.146204     22.811813     39.233836
  H      40.482514     23.580372     39.633632
  C      40.713680     21.385827     39.390166
  H      40.735804     21.129501     40.457264
  O      39.398334     21.227056     38.893655
  H      38.809903     20.771681     39.577703
  C      44.096447     22.670091     36.915142
  O      44.997738     21.933854     36.449731
  O      43.842683     23.833893     36.507476
24
Coordinates from ORCA-job neb_MEP_ALL.QMRegion E -1075.692477994849
  C      44.426077     21.939186     39.417521
  H      45.109348     21.171575     39.046701
  H      44.953156     22.868039     39.650382
  C      43.703474     21.475339     40.628441
  C      43.242193     22.511444     41.685925
  O      43.894874     23.572436     41.787227
  O      42.252052     22.175398     42.379609
  O      43.408586     20.301120     40.762291
  C      41.568662     20.442204     38.554508
  H      41.186444     19.433294     38.444277
  C      42.697348     20.803515     37.939360
  H      43.285450     20.090507     37.361913
  C      43.303871     22.142858     38.167178
  C      42.297305     23.141921     38.655431
  H      42.577031     24.188179     38.568230
  C      41.139933     22.789851     39.220560
  H      40.469614     23.557140     39.614299
  C      40.687138     21.364380     39.347507
  H      40.742163     21.077969     40.409421
  O      39.351990     21.243365     38.895074
  H      38.776315     20.783034     39.587488
  C      44.098245     22.662302     36.930226
  O      44.999388     21.934091     36.450295
  O      43.828269     23.823044     36.526725
24
Coordinates from ORCA-job neb_MEP_ALL.QMRegion E -1075.701067018986
  C      44.390000     21.903000     39.353000
  H      45.099000     21.130000     39.029000
  H      44.922000     22.831000     39.580000
  C      43.710000     21.442000     40.614000
  C      43.262000     22.496000     41.665000
  O      43.943000     23.540000     41.760000
  O      42.257000     22.185000     42.351000
  O      43.475000     20.264000     40.806000
  C      41.507000     20.433000     38.455000
  H      41.100000     19.433000     38.303000
  C      42.679000     20.788000     37.919000
  H      43.265000     20.078000     37.331000
  C      43.327000     22.119000     38.198000
  C      42.309000     23.122000     38.681000
  H      42.595000     24.169000     38.617000
  C      41.135000     22.768000     39.207000
  H      40.457000     23.534000     39.595000
  C      40.660000     21.343000     39.305000
  H      40.748000     21.027000     40.361000
  O      39.307000     21.259000     38.897000
  H      38.743000     20.794000     39.597000
  C      44.100000     22.655000     36.945000
  O      45.001000     21.934000     36.451000
  O      43.814000     23.812000     36.546000
24
Coordinates from ORCA-job neb_MEP_ALL.QMRegion E -1075.680500703602
  C      44.842000     22.068000     40.142000
  H      45.265000     21.440000     39.358000
  H      45.368000     22.976000     40.435000
  C      43.689000     21.758000     40.746000
  C      43.115000     22.623000     41.859000
  O      43.577000     23.785000     42.012000
  O      42.221000     22.117000     42.579000
  O      42.985000     20.610000     40.433000
  C      42.079000     20.646000     39.270000
  H      41.683000     19.622000     39.219000
  C      42.892000     20.975000     38.054000
  H      43.551000     20.209000     37.638000
  C      42.969000     22.244000     37.605000
  C      42.118000     23.281000     38.202000
  H      42.307000     24.301000     37.867000
  C      41.188000     23.002000     39.130000
  H      40.598000     23.809000     39.575000
  C      40.887000     21.588000     39.553000
  H      40.742000     21.566000     40.644000
  O      39.715000     21.144000     38.884000
  H      39.068000     20.737000     39.535000
  C      44.024000     22.694000     36.600000
  O      44.937000     21.905000     36.259000
  O      43.944000     23.900000     36.236000
24
Coordinates from ORCA-job neb_MEP_ALL.QMRegion E -1075.676371105535
  C      44.779157     22.071141     40.031072
  H      45.219358     21.422776     39.274669
  H      45.274984     23.003945     40.277317
  C      43.685559     21.722771     40.724504
  C      43.126845     22.607820     41.831476
  O      43.604865     23.764592     41.979518
  O      42.224680     22.122048     42.556465
  O      43.000667     20.562050     40.450559
  C      42.025066     20.592771     39.218277
  H      41.657136     19.558811     39.188442
  C      42.856004     20.944092     38.048448
  H      43.490903     20.186469     37.591846
  C      43.018420     22.243684     37.717071
  C      42.164676     23.266350     38.323107
  H      42.372954     24.294110     38.035513
  C      41.182577     22.963840     39.186898
  H      40.573555     23.758406     39.623293
  C      40.857464     21.542298     39.551445
  H      40.731710     21.478952     40.641564
  O      39.667024     21.151552     38.886701
  H      39.021142     20.733956     39.537039
  C      44.046814     22.696372     36.693494
  O      44.957232     21.915227     36.327790
  O      43.928049     23.892209     36.307370
24
Coordinates from ORCA-job neb_MEP_ALL.QMRegion E -1075.664581944463
  C      44.718332     22.073184     39.928041
  H      45.178586     21.406972     39.200172
  H      45.188342     23.027281     40.133158
  C      43.683939     21.687893     40.705213
  C      43.136945     22.594791     41.806322
  O      43.630791     23.745423     41.949503
  O      42.228230     22.126339     42.535933
  O      43.035423     20.523453     40.486720
  C      41.960336     20.545797     39.147722
  H      41.633353     19.501749     39.159345
  C      42.820653     20.918860     38.042966
  H      43.435732     20.167799     37.550229
  C      43.065428     22.237964     37.824442
  C      42.204336     23.252103     38.434798
  H      42.432507     24.286517     38.189877
  C      41.178922     22.928517     39.237162
  H      40.551690     23.712116     39.667047
  C      40.831222     21.501145     39.549495
  H      40.721872     21.399448     40.638141
  O      39.623374     21.158676     38.890063
  H      38.978472     20.731319     39.538618
  C      44.067710     22.698353     36.777660
  O      44.975038     21.924938     36.390687
  O      43.912972     23.883804     36.373238
24
Coordinates from ORCA-job neb_MEP_ALL.QMRegion E -1075.653815336034
  C      44.655193     22.073174     39.821678
  H      45.142444     21.389781     39.132170
  H      45.105109     23.044498     39.996287
  C      43.680639     21.648683     40.688096
  C      43.146330     22.582508     41.783181
  O      43.657926     23.725360     41.919635
  O      42.232448     22.130757     42.515244
  O      43.085424     20.493265     40.533098
  C      41.889769     20.503365     39.062170
  H      41.606737     19.450291     39.123882
  C      42.784046     20.894748     38.039538
  H      43.383723     20.151646     37.511306
  C      43.114893     22.228737     37.933414
  C      42.237980     23.237400     38.539108
  H      42.487895     24.277109     38.335817
  C      41.176519     22.894863     39.281758
  H      40.531517     23.667880     39.706611
  C      40.806844     21.462029     39.545514
  H      40.712410     21.323419     40.631741
  O      39.581221     21.166396     38.894000
  H      38.937386     20.729592     39.540587
  C      44.086443     22.699628     36.855003
  O      44.991228     21.934547     36.449128
  O      43.898183     23.874435     36.435908
24
Coordinates from ORCA-job neb_MEP_ALL.QMRegion E -1075.652387056100
  C      44.612790     22.054894     39.737648
  H      45.139234     21.343095     39.113336
  H      45.075663     23.012517     39.927982
  C      43.681491     21.606603     40.680443
  C      43.163694     22.569207     41.764618
  O      43.704580     23.697474     41.894003
  O      42.235156     22.139093     42.490134
  O      43.152688     20.458431     40.583969
  C      41.818977     20.487852     38.948600
  H      41.526921     19.442666     38.996390
  C      42.764147     20.871997     38.023072
  H      43.364697     20.139163     37.482634
  C      43.156290     22.221343     37.983932
  C      42.249854     23.219708     38.560623
  H      42.505602     24.260657     38.380116
  C      41.167637     22.874640     39.270504
  H      40.519345     23.646879     39.688989
  C      40.786773     21.445227     39.509501
  H      40.717819     21.276582     40.591442
  O      39.534801     21.180612     38.891830
  H      38.905953     20.739607     39.549881
  C      44.091047     22.693179     36.871013
  O      44.992810     21.933807     36.448714
  O      43.884118     23.864471     36.453012
24
Coordinates from ORCA-job neb_MEP_ALL.QMRegion E -1075.657701524544
  C      44.564264     22.033934     39.647620
  H      45.135344     21.297095     39.096291
  H      45.045553     22.978500     39.858709
  C      43.684500     21.569045     40.670970
  C      43.182303     22.555385     41.746451
  O      43.752214     23.667871     41.867508
  O      42.238448     22.147750     42.463723
  O      43.217215     20.419882     40.631868
  C      41.752211     20.473571     38.843314
  H      41.443296     19.436625     38.862730
  C      42.746100     20.851006     38.004245
  H      43.345307     20.126605     37.453058
  C      43.201297     22.209994     38.038093
  C      42.261231     23.201439     38.582959
  H      42.523502     24.243577     38.425743
  C      41.159640     22.854038     39.258540
  H      40.506991     23.625257     39.670953
  C      40.764394     21.426556     39.471382
  H      40.723616     21.228344     40.549116
  O      39.487976     21.195823     38.890908
  H      38.873989     20.750090     39.559242
  C      44.094253     22.686228     36.886556
  O      44.994525     21.933450     36.448603
  O      43.870166     23.854408     36.470688
24
Coordinates from ORCA-job neb_MEP_ALL.QMRegion E -1075.668241075605
  C      44.514168     22.009434     39.561066
  H      45.129713     21.254260     39.080673
  H      45.015797     22.943856     39.791185
  C      43.689229     21.536751     40.659122
  C      43.201216     22.541612     41.728286
  O      43.798544     23.638006     41.841548
  O      42.242093     22.156332     42.437220
  O      43.278097     20.380285     40.675830
  C      41.690668     20.461205     38.747306
  H      41.360536     19.432613     38.729694
  C      42.730304     20.833498     37.984009
  H      43.326257     20.114514     37.423808
  C      43.244337     22.193603     38.089994
  C      42.272282     23.183024     38.605428
  H      42.540827     24.226443     38.470812
  C      41.152559     22.833740     39.246508
  H      40.494825     23.603773     39.653085
  C      40.740927     21.407219     39.432909
  H      40.729531     21.180537     40.506347
  O      39.442875     21.211077     38.891040
  H      38.842653     20.760485     39.568320
  C      44.096242     22.678966     36.901190
  O      44.996173     21.933383     36.448719
  O      43.856651     23.844441     36.488203
24
Coordinates from ORCA-job neb_MEP_ALL.QMRegion E -1075.682606703826
  C      44.465599     21.980202     39.481189
  H      45.121880     21.213443     39.065158
  H      44.985760     22.908159     39.723625
  C      43.695050     21.506555     40.645135
  C      43.220583     22.527586     41.709115
  O      43.844720     23.607297     41.815594
  O      42.246272     22.165190     42.410118
  O      43.339437     20.341006     40.718317
  C      41.631047     20.450503     38.653822
  H      41.277307     19.430575     38.594681
  C      42.715049     20.818253     37.963067
  H      43.307050     20.102693     37.394262
  C      43.282132     22.172242     38.136693
  C      42.283775     23.163904     38.628726
  H      42.558113     24.208770     38.516561
  C      41.146048     22.813112     39.234219
  H      40.482582     23.581890     39.634883
  C      40.716194     21.387111     39.393163
  H      40.735630     21.132009     40.461892
  O      39.398561     21.226544     38.892101
  H      38.811105     20.771087     39.577433
  C      44.097594     22.671327     36.915468
  O      44.997747     21.933553     36.449077
  O      43.843079     23.834265     36.506106
24
Coordinates from ORCA-job neb_MEP_ALL.QMRegion E -1075.696015224267
  C      44.419750     21.943435     39.406353
  H      45.111027     21.170527     39.047326
  H      44.953131     22.868754     39.649935
  C      43.702208     21.473940     40.628849
  C      43.242051     22.512023     41.687065
  O      43.895114     23.573036     41.787294
  O      42.251598     22.175346     42.380088
  O      43.408223     20.300105     40.763902
  C      41.567133     20.440699     38.551714
  H      41.186389     19.430398     38.445729
  C      42.697681     20.802678     37.940395
  H      43.286004     20.090222     37.361861
  C      43.313314     22.145621     38.177372
  C      42.296883     23.142558     38.655174
  H      42.577153     24.189001     38.567381
  C      41.139651     22.790273     39.220578
  H      40.469325     23.557723     39.614734
  C      40.688238     21.364717     39.348585
  H      40.742397     21.078528     40.411547
  O      39.351218     21.243581     38.894143
  H      38.776483     20.783045     39.587563
  C      44.098994     22.662874     36.930876
  O      44.999424     21.934060     36.449853
  O      43.828218     23.823012     36.526268
24
Coordinates from ORCA-job neb_MEP_ALL.QMRegion E -1075.701067018986
  C      44.390000     21.903000     39.353000
  H      45.099000     21.130000     39.029000
  H      44.922000     22.831000     39.580000
  C      43.710000     21.442000     40.614000
  C      43.262000     22.496000     41.665000
  O      43.943000     23.540000     41.760000
  O      42.257000     22.185000     42.351000
  O      43.475000     20.264000     40.806000
  C      41.507000     20.433000     38.455000
  H      41.100000     19.433000     38.303000
  C      42.679000     20.788000     37.919000
  H      43.265000     20.078000     37.331000
  C      43.327000     22.119000     38.198000
  C      42.309000     23.122000     38.681000
  H      42.595000     24.169000     38.617000
  C      41.135000     22.768000     39.207000
  H      40.457000     23.534000     39.595000
  C      40.660000     21.343000     39.305000
  H      40.748000     21.027000     40.361000
  O      39.307000     21.259000     38.897000
  H      38.743000     20.794000     39.597000
  C      44.100000     22.655000     36.945000
  O      45.001000     21.934000     36.451000
  O      43.814000     23.812000     36.546000
24
Coordinates from ORCA-job neb_MEP_ALL.QMRegion E -1075.680500703602
  C      44.842000     22.068000     40.142000
  H      45.265000     21.440000     39.358000
  H      45.368000     22.976000     40.435000
  C      43.689000     21.758000     40.746000
  C      43.115000     22.623000     41.859000
  O      43.577000     23.785000     42.012000
  O      42.221000     22.117000     42.579000
  O      42.985000     20.610000     40.433000
  C      42.079000     20.646000     39.270000
  H      41.683000     19.622000     39.219000
  C      42.892000     20.975000     38.054000
  H      43.551000     20.209000     37.638000
  C      42.969000     22.244000     37.605000
  C      42.118000     23.281000     38.202000
  H      42.307000     24.301000     37.867000
  C      41.188000     23.002000     39.130000
  H      40.598000     23.809000     39.575000
  C      40.887000     21.588000     39.553000
  H      40.742000     21.566000     40.644000
  O      39.715000     21.144000     38.884000
  H      39.068000     20.737000     39.535000
  C      44.024000     22.694000     36.600000
  O      44.937000     21.905000     36.259000
  O      43.944000     23.900000     36.236000
24
Coordinates from ORCA-job neb_MEP_ALL.QMRegion E -1075.677295112640
  C      44.778419     22.064536     40.026771
  H      45.207247     21.421943     39.257062
  H      45.262980     23.014901     40.250402
  C      43.680623     21.716363     40.713681
  C      43.128796     22.604267     41.826620
  O      43.609383     23.760026     41.973738
  O      42.225402     22.123012     42.551654
  O      42.971392     20.552615     40.420179
  C      42.041414     20.580075     39.248476
  H      41.653610     19.548051     39.186059
  C      42.854202     20.942464     38.047573
  H      43.480533     20.178388     37.580833
  C      43.014020     22.240775     37.719537
  C      42.174280     23.265896     38.346782
  H      42.386867     24.296017     38.066314
  C      41.183421     22.957178     39.197762
  H      40.567928     23.749727     39.633619
  C      40.852131     21.531639     39.553473
  H      40.729605     21.463420     40.643498
  O      39.659176     21.151376     38.886243
  H      39.012493     20.733152     39.537342
  C      44.050424     22.698353     36.708128
  O      44.961821     21.917846     36.341740
  O      43.927554     23.892921     36.319780
24
Coordinates from ORCA-job neb_MEP_ALL.QMRegion E -1075.665722612780
  C      44.724827     22.063179     39.933315
  H      45.165546     21.406352     39.182944
  H      45.176303     23.038504     40.106157
  C      43.681225     21.681787     40.695561
  C      43.139326     22.591191     41.800654
  O      43.635840     23.740866     41.943662
  O      42.228768     22.127572     42.530550
  O      43.004136     20.513064     40.453231
  C      41.978445     20.533587     39.179958
  H      41.628841     19.489624     39.155693
  C      42.818490     20.918256     38.039644
  H      43.424473     20.160544     37.538490
  C      43.053263     22.233426     37.818138
  C      42.213515     23.251114     38.458925
  H      42.446599     24.287756     38.222160
  C      41.179777     22.921773     39.248307
  H      40.546259     23.702891     39.677544
  C      40.824800     21.490646     39.550573
  H      40.720091     21.383174     40.638986
  O      39.614964     21.158644     38.889550
  H      38.969225     20.730534     39.539123
  C      44.070508     22.699934     36.791162
  O      44.979868     21.927814     36.405028
  O      43.912343     23.884607     36.386302
24
Coordinates from ORCA-job neb_MEP_ALL.QMRegion E -1075.654139919032
  C      44.669206     22.062292     39.837150
  H      45.141489     21.384905     39.130526
  H      45.105033     23.043326     39.991757
  C      43.683028     21.645280     40.687202
  C      43.148219     22.581026     41.780462
  O      43.664040     23.722156     41.916829
  O      42.232041     22.132108     42.512348
  O      43.080188     20.488058     40.523380
  C      41.891162     20.500720     39.063995
  H      41.597930     19.449444     39.109771
  C      42.782423     20.894073     38.035013
  H      43.381262     20.150534     37.507303
  C      43.098419     22.226112     37.915064
  C      42.238278     23.235781     38.540439
  H      42.490128     24.275751     38.341846
  C      41.175729     22.892665     39.281244
  H      40.530619     23.665480     39.706225
  C      40.804624     21.459673     39.541105
  H      40.713208     21.318161     40.627053
  O      39.576047     21.167221     38.893225
  H      38.933640     20.730633     39.542164
  C      44.084582     22.698746     36.853299
  O      44.992425     21.935235     36.449604
  O      43.897518     23.874844     36.438028
24
Coordinates from ORCA-job neb_MEP_ALL.QMRegion E -1075.652901376012
  C      44.619305     22.054538     39.736852
  H      45.145538     21.336475     39.112030
  H      45.079101     23.022060     39.926487
  C      43.685034     21.600934     40.683592
  C      43.161494     22.570802     41.766614
  O      43.706112     23.697515     41.893048
  O      42.232944     22.140375     42.492104
  O      43.156113     20.455135     40.591949
  C      41.800678     20.480990     38.924635
  H      41.528193     19.430802     39.003188
  C      42.762252     20.871857     38.023215
  H      43.364258     20.137871     37.482700
  C      43.155894     22.225876     37.986759
  C      42.247126     23.224572     38.560184
  H      42.506471     24.263436     38.379738
  C      41.166953     22.875904     39.270362
  H      40.518590     23.647934     39.690832
  C      40.788718     21.444391     39.509790
  H      40.717905     21.277352     40.596164
  O      39.532097     21.180438     38.889312
  H      38.904780     20.739225     39.550344
  C      44.094694     22.695871     36.872153
  O      44.993164     21.933352     36.447803
  O      43.884058     23.865573     36.451543
24
Coordinates from ORCA-job neb_MEP_ALL.QMRegion E -1075.659235585792
  C      44.555762     22.045547     39.622315
  H      45.147414     21.291260     39.098338
  H      45.051390     22.993337     39.861185
  C      43.685592     21.564234     40.674718
  C      43.178113     22.558875     41.753765
  O      43.749526     23.670969     41.868466
  O      42.234891     22.148153     42.469573
  O      43.218276     20.418117     40.644808
  C      41.732034     20.465541     38.817523
  H      41.451055     19.417375     38.884898
  C      42.747002     20.851794     38.010225
  H      43.347526     20.125024     37.456150
  C      43.222665     22.220382     38.064999
  C      42.256218     23.211258     38.580492
  H      42.522445     24.249901     38.419234
  C      41.159400     22.858099     39.258819
  H      40.506691     23.629345     39.674774
  C      40.769348     21.426620     39.476465
  H      40.722885     21.234917     40.561879
  O      39.488608     21.194935     38.887494
  H      38.875754     20.748470     39.558481
  C      44.100990     22.691553     36.888919
  O      44.994077     21.932564     36.446639
  O      43.870999     23.856132     36.466011
24
Coordinates from ORCA-job neb_MEP_ALL.QMRegion E -1075.670752268180
  C      44.491737     22.029743     39.516188
  H      45.143125     21.252270     39.086531
  H      45.021674     22.958768     39.796832
  C      43.685727     21.532755     40.661191
  C      43.196540     22.546117     41.739128
  O      43.792532     23.643705     41.844424
  O      42.238004     22.155749     42.445216
  O      43.273723     20.381610     40.686701
  C      41.677910     20.454135     38.730604
  H      41.372587     19.410581     38.761457
  C      42.734429     20.835282     37.994736
  H      43.330822     20.113065     37.428717
  C      43.283990     22.207316     38.135034
  C      42.267225     23.194872     38.601646
  H      42.538057     24.234902     38.459703
  C      41.152780     22.839509     39.247395
  H      40.494882     23.609969     39.658120
  C      40.747825     21.408302     39.442054
  H      40.728424     21.191289     40.524612
  O      39.446647     21.209615     38.887271
  H      38.846921     20.758038     39.566599
  C      44.104047     22.685520     36.903986
  O      44.995150     21.932525     36.446043
  O      43.858062     23.846245     36.481511
24
Coordinates from ORCA-job neb_MEP_ALL.QMRegion E -1075.685237528313
  C      44.435761     22.001966     39.428271
  H      45.132265     21.214596     39.072518
  H      44.988594     22.918196     39.727682
  C      43.688680     21.503655     40.644348
  C      43.217434     22.531696     41.719615
  O      43.839195     23.613112     41.818688
  O      42.242713     22.164471     42.417170
  O      43.333420     20.342168     40.726411
  C      41.624648     20.444852     38.644193
  H      41.287393     19.410434     38.622622
  C      42.721112     20.820249     37.974622
  H      43.312061     20.101523     37.398449
  C      43.329216     22.185062     38.188062
  C      42.281138     23.173897     38.625982
  H      42.555342     24.216670     38.505627
  C      41.146385     22.818347     39.235092
  H      40.482291     23.587895     39.639291
  C      40.722657     21.388224     39.402417
  H      40.735127     21.142103     40.479690
  O      39.402272     21.225646     38.888641
  H      38.815374     20.769061     39.575785
  C      44.104941     22.677255     36.919057
  O      44.996597     21.933049     36.446221
  O      43.843971     23.835206     36.499969
24
Coordinates from ORCA-job neb_MEP_ALL.QMRegion E -1075.697460133605
  C      44.396812     21.954928     39.366857
  H      45.114210     21.170880     39.051138
  H      44.950889     22.869747     39.646080
  C      43.696781     21.470411     40.625145
  C      43.242567     22.513546     41.691864
  O      43.895733     23.574598     41.787625
  O      42.250127     22.175902     42.382088
  O      43.409085     20.297549     40.771432
  C      41.561224     20.436825     38.540394
  H      41.185354     19.417582     38.450873
  C      42.702071     20.803223     37.946995
  H      43.288627     20.089189     37.361730
  C      43.346790     22.151768     38.213971
  C      42.297952     23.146617     38.656587
  H      42.577009     24.192686     38.563742
  C      41.139478     22.791886     39.220164
  H      40.467777     23.560072     39.615947
  C      40.690493     21.363760     39.351463
  H      40.743513     21.080959     40.419709
  O      39.350249     21.244975     38.892192
  H      38.776933     20.783384     39.587427
  C      44.104142     22.665928     36.935358
  O      44.998759     21.934253     36.447795
  O      43.827248     23.822169     36.524193
24
Coordinates from ORCA-job neb_MEP_ALL.QMRegion E -1075.701067018986
  C      44.390000     21.903000     39.353000
  H      45.099000     21.130000     39.029000
  H      44.922000     22.831000     39.580000
  C      43.710000     21.442000     40.614000
  C      43.262000     22.496000     41.665000
  O      43.943000     23.540000     41.760000
  O      42.257000     22.185000     42.351000
  O      43.475000     20.264000     40.806000
  C      41.507000     20.433000     38.455000
  H      41.100000     19.433000     38.303000
  C      42.679000     20.788000     37.919000
  H      43.265000     20.078000     37.331000
  C      43.327000     22.119000     38.198000
  C      42.309000     23.122000     38.681000
  H      42.595000     24.169000     38.617000
  C      41.135000     22.768000     39.207000
  H      40.457000     23.534000     39.595000
  C      40.660000     21.343000     39.305000
  H      40.748000     21.027000     40.361000
  O      39.307000     21.259000     38.897000
  H      38.743000     20.794000     39.597000
  C      44.100000     22.655000     36.945000
  O      45.001000     21.934000     36.451000
  O      43.814000     23.812000     36.546000
24
Coordinates from ORCA-job neb_MEP_ALL.QMRegion E -1075.680500703602
  C      44.842000     22.068000     40.142000
  H      45.265000     21.440000     39.358000
  H      45.368000     22.976000     40.435000
  C      43.689000     21.758000     40.746000
  C      43.115000     22.623000     41.859000
  O      43.577000     23.785000     42.012000
  O      42.221000     22.117000     42.579000
  O      42.985000     20.610000     40.433000
  C      42.079000     20.646000     39.270000
  H      41.683000     19.622000     39.219000
  C      42.892000     20.975000     38.054000
  H      43.551000     20.209000     37.638000
  C      42.969000     22.244000     37.605000
  C      42.118000     23.281000     38.202000
  H      42.307000     24.301000     37.867000
  C      41.188000     23.002000     39.130000
  H      40.598000     23.809000     39.575000
  C      40.887000     21.588000     39.553000
  H      40.742000     21.566000     40.644000
  O      39.715000     21.144000     38.884000
  H      39.068000     20.737000     39.535000
  C      44.024000     22.694000     36.600000
  O      44.937000     21.905000     36.259000
  O      43.944000     23.900000     36.236000
24
Coordinates from ORCA-job neb_MEP_ALL.QMRegion E -1075.678776138136
  C      44.777132     22.059336     40.026271
  H      45.202602     21.423114     39.251870
  H      45.258312     23.014584     40.243160
  C      43.675541     21.712566     40.707404
  C      43.128093     22.601766     41.823419
  O      43.611680     23.756624     41.970888
  O      42.225609     22.122010     42.550241
  O      42.975572     20.557724     40.424176
  C      42.036486     20.578504     39.241446
  H      41.654299     19.548183     39.186456
  C      42.853126     20.939973     38.050212
  H      43.476180     20.177515     37.577276
  C      43.011557     22.237192     37.720531
  C      42.175330     23.264800     38.352680
  H      42.391835     24.296271     38.077605
  C      41.184032     22.954289     39.202330
  H      40.567002     23.746078     39.637402
  C      40.853106     21.527553     39.555582
  H      40.726875     21.459177     40.644881
  O      39.659567     21.149933     38.887427
  H      39.010066     20.732932     39.536659
  C      44.048074     22.698399     36.708788
  O      44.964051     21.919899     36.347511
  O      43.929162     23.893752     36.324458
24
Coordinates from ORCA-job neb_MEP_ALL.QMRegion E -1075.669550611510
  C      44.724166     22.056826     39.931288
  H      45.160168     21.406276     39.176611
  H      45.169135     23.037085     40.095266
  C      43.676877     21.676561     40.689996
  C      43.139837     22.587938     41.796985
  O      43.639656     23.736505     41.939482
  O      42.229062     22.127173     42.527590
  O      43.000008     20.516210     40.445482
  C      41.980656     20.530671     39.182132
  H      41.627443     19.488515     39.152495
  C      42.815367     20.914763     38.040595
  H      43.418239     20.159903     37.533306
  C      43.050779     22.229633     37.820038
  C      42.213952     23.248116     38.466997
  H      42.453228     24.286669     38.238875
  C      41.180555     22.917794     39.253511
  H      40.544919     23.697638     39.682561
  C      40.824703     21.485460     39.551860
  H      40.717258     21.375993     40.638804
  O      39.613679     21.157742     38.890764
  H      38.964988     20.730546     39.538807
  C      44.066469     22.699894     36.792765
  O      44.982884     21.930194     36.412530
  O      43.913630     23.885190     36.393250
24
Coordinates from ORCA-job neb_MEP_ALL.QMRegion E -1075.655405892516
  C      44.673820     22.057800     39.841013
  H      45.141458     21.382330     39.130141
  H      45.106203     23.042709     39.990951
  C      43.683809     21.642627     40.686492
  C      43.149777     22.579799     41.779290
  O      43.666321     23.720165     41.915474
  O      42.231529     22.132956     42.510844
  O      43.076160     20.486042     40.518732
  C      41.890952     20.499960     39.064568
  H      41.594558     19.447763     39.104864
  C      42.781474     20.894017     38.031780
  H      43.380347     20.149772     37.505058
  C      43.094999     22.224677     37.910103
  C      42.237020     23.234765     38.538923
  H      42.491462     24.275362     38.344565
  C      41.175106     22.891689     39.281352
  H      40.530380     23.664385     39.706649
  C      40.803517     21.458561     39.539949
  H      40.713362     21.316113     40.625502
  O      39.574361     21.167235     38.892730
  H      38.931927     20.731179     39.542691
  C      44.081645     22.698949     36.850759
  O      44.992742     21.935770     36.450313
  O      43.898278     23.875542     36.438633
24
Coordinates from ORCA-job neb_MEP_ALL.QMRegion E -1075.654088131910
  C      44.619202     22.052568     39.736096
  H      45.147221     21.337281     39.114357
  H      45.079274     23.021493     39.925640
  C      43.687812     21.602243     40.682856
  C      43.162750     22.569653     41.766849
  O      43.705222     23.696631     41.892953
  O      42.232618     22.142068     42.492328
  O      43.161378     20.454912     40.597097
  C      41.795749     20.481548     38.919654
  H      41.528150     19.427029     39.004304
  C      42.760976     20.873107     38.020604
  H      43.364066     20.138508     37.483475
  C      43.157954     22.222201     37.990096
  C      42.246185     23.225215     38.560023
  H      42.506361     24.266100     38.379300
  C      41.167324     22.876387     39.270238
  H      40.518210     23.647987     39.691881
  C      40.784554     21.441433     39.507328
  H      40.718872     21.277470     40.594520
  O      39.531976     21.181643     38.891701
  H      38.904400     20.739461     39.549634
  C      44.093321     22.697034     36.872563
  O      44.993261     21.933925     36.447947
  O      43.885197     23.865479     36.451051
24
Coordinates from ORCA-job neb_MEP_ALL.QMRegion E -1075.662783810242
  C      44.548567     22.045597     39.616569
  H      45.149127     21.297473     39.103956
  H      45.050298     22.991744     39.861676
  C      43.686947     21.569999     40.670869
  C      43.178774     22.557809     41.755319
  O      43.745153     23.671359     41.870315
  O      42.234829     22.149512     42.472144
  O      43.223342     20.421981     40.650239
  C      41.732289     20.467482     38.817290
  H      41.456099     19.414023     38.894355
  C      42.747876     20.855143     38.011661
  H      43.348568     20.126983     37.460090
  C      43.230487     22.214969     38.075910
  C      42.256710     23.213076     38.581623
  H      42.520315     24.255470     38.414881
  C      41.160955     22.859995     39.258591
  H      40.506491     23.630807     39.676301
  C      40.765379     21.423380     39.475477
  H      40.723449     21.238561     40.562432
  O      39.492246     21.195879     38.891817
  H      38.877436     20.748081     39.556509
  C      44.101335     22.693709     36.891013
  O      44.993811     21.933193     36.446005
  O      43.872315     23.855603     36.464011
24
Coordinates from ORCA-job neb_MEP_ALL.QMRegion E -1075.677510730052
  C      44.482535     22.029993     39.509826
  H      45.142542     21.263105     39.093559
  H      45.018014     22.955850     39.796589
  C      43.685344     21.543586     40.653943
  C      43.197161     22.545278     41.741301
  O      43.786573     23.644729     41.847406
  O      42.237975     22.156668     42.449278
  O      43.276562     20.385279     40.691497
  C      41.680692     20.456530     38.733026
  H      41.380521     19.407245     38.775703
  C      42.738828     20.840171     38.000102
  H      43.332589     20.115730     37.434332
  C      43.293702     22.202089     38.147757
  C      42.270456     23.197071     38.604700
  H      42.534771     24.241834     38.453171
  C      41.155468     22.842057     39.247107
  H      40.494688     23.612246     39.659372
  C      40.745393     21.405345     39.442656
  H      40.728459     21.197100     40.527463
  O      39.452955     21.209922     38.892196
  H      38.849702     20.757301     39.563985
  C      44.106642     22.688382     36.907690
  O      44.994501     21.933012     36.444626
  O      43.858756     23.845350     36.478640
24
Coordinates from ORCA-job neb_MEP_ALL.QMRegion E -1075.691382889663
  C      44.430585     21.997944     39.424978
  H      45.127404     21.224101     39.077033
  H      44.980047     22.911100     39.719689
  C      43.685966     21.510455     40.633986
  C      43.220056     22.529717     41.719770
  O      43.838261     23.611940     41.819606
  O      42.243489     22.166172     42.418617
  O      43.340687     20.343693     40.732995
  C      41.624330     20.446973     38.639918
  H      41.287323     19.407013     38.623816
  C      42.726620     20.824190     37.980886
  H      43.312619     20.103253     37.401098
  C      43.334362     22.180154     38.194666
  C      42.287966     23.174240     38.633062
  H      42.553849     24.221504     38.503412
  C      41.149346     22.818873     39.233694
  H      40.481083     23.588302     39.638164
  C      40.719388     21.384156     39.400459
  H      40.735775     21.143733     40.479656
  O      39.405106     21.227164     38.893148
  H      38.815346     20.769567     39.574223
  C      44.109662     22.679559     36.925188
  O      44.995878     21.933546     36.444658
  O      43.842481     23.833036     36.499203
24
Coordinates from ORCA-job neb_MEP_ALL.QMRegion E -1075.698761959464
  C      44.406599     21.948245     39.382032
  H      45.108940     21.177475     39.052349
  H      44.945074     22.865200     39.640422
  C      43.694212     21.472811     40.618414
  C      43.243956     22.511992     41.690973
  O      43.896111     23.573688     41.788088
  O      42.251150     22.177156     42.382391
  O      43.414063     20.300116     40.773920
  C      41.562140     20.438430     38.538114
  H      41.184438     19.415963     38.449365
  C      42.705851     20.805423     37.951619
  H      43.289288     20.090601     37.362929
  C      43.335259     22.149792     38.201123
  C      42.302719     23.146784     38.662537
  H      42.576420     24.195017     38.562882
  C      41.142146     22.791975     39.219054
  H      40.466976     23.559931     39.614556
  C      40.688426     21.361129     39.349905
  H      40.744210     21.081414     40.419174
  O      39.352054     21.245956     38.895067
  H      38.776545     20.784141     39.586571
  C      44.107541     22.667444     36.939275
  O      44.998398     21.934384     36.446864
  O      43.825656     23.820410     36.524410
24
Coordinates from ORCA-job neb_MEP_ALL.QMRegion E -1075.701067018986
  C      44.390000     21.903000     39.353000
  H      45.099000     21.130000     39.029000
  H      44.922000     22.831000     39.580000
  C      43.710000     21.442000     40.614000
  C      43.262000     22.496000     41.665000
  O      43.943000     23.540000     41.760000
  O      42.257000     22.185000     42.351000
  O      43.475000     20.264000     40.806000
  C      41.507000     20.433000     38.455000
  H      41.100000     19.433000     38.303000
  C      42.679000     20.788000     37.919000
  H      43.265000     20.078000     37.331000
  C      43.327000     22.119000     38.198000
  C      42.309000     23.122000     38.681000
  H      42.595000     24.169000     38.617000
  C      41.135000     22.768000     39.207000
  H      40.457000     23.534000     39.595000
  C      40.660000     21.343000     39.305000
  H      40.748000     21.027000     40.361000
  O      39.307000     21.259000     38.897000
  H      38.743000     20.794000     39.597000
  C      44.100000     22.655000     36.945000
  O      45.001000     21.934000     36.451000
  O      43.814000     23.812000     36.546000
24
Coordinates from ORCA-job neb_MEP_ALL.QMRegion E -1075.680500703602
  C      44.842000     22.068000     40.142000
  H      45.265000     21.440000     39.358000
  H      45.368000     22.976000     40.435000
  C      43.689000     21.758000     40.746000
  C      43.115000     22.623000     41.859000
  O      43.577000     23.785000     42.012000
  O      42.221000     22.117000     42.579000
  O      42.985000     20.610000     40.433000
  C      42.079000     20.646000     39.270000
  H      41.683000     19.622000     39.219000
  C      42.892000     20.975000     38.054000
  H      43.551000     20.209000     37.638000
  C      42.969000     22.244000     37.605000
  C      42.118000     23.281000     38.202000
  H      42.307000     24.301000     37.867000
  C      41.188000     23.002000     39.130000
  H      40.598000     23.809000     39.575000
  C      40.887000     21.588000     39.553000
  H      40.742000     21.566000     40.644000
  O      39.715000     21.144000     38.884000
  H      39.068000     20.737000     39.535000
  C      44.024000     22.694000     36.600000
  O      44.937000     21.905000     36.259000
  O      43.944000     23.900000     36.236000
24
Coordinates from ORCA-job neb_MEP_ALL.QMRegion E -1075.678925876419
  C      44.775378     22.052752     40.025015
  H      45.195587     21.424308     39.243340
  H      45.250634     23.013433     40.231765
  C      43.669654     21.709388     40.699535
  C      43.127455     22.598322     41.818032
  O      43.615158     23.751146     41.966420
  O      42.225690     22.120364     42.548097
  O      42.978469     20.561961     40.427799
  C      42.030664     20.576469     39.233510
  H      41.654999     19.547159     39.186927
  C      42.851210     20.935948     38.052698
  H      43.469297     20.175943     37.571774
  C      43.007765     22.233045     37.722214
  C      42.177185     23.262650     38.361740
  H      42.399632     24.296326     38.095585
  C      41.184976     22.949739     39.209583
  H      40.565600     23.740197     39.643582
  C      40.853639     21.521826     39.558328
  H      40.722907     21.452178     40.647064
  O      39.659847     21.147619     38.889097
  H      39.006312     20.732574     39.535703
  C      44.045139     22.697798     36.710628
  O      44.967098     21.923192     36.356502
  O      43.931103     23.895217     36.331737
24
Coordinates from ORCA-job neb_MEP_ALL.QMRegion E -1075.669970298020
  C      44.722809     22.047885     39.928928
  H      45.152464     21.405298     39.166445
  H      45.158529     23.034522     40.079269
  C      43.672136     21.671144     40.681859
  C      43.140948     22.583273     41.791005
  O      43.645476     23.729577     41.933111
  O      42.229132     22.126385     42.523310
  O      42.992126     20.517862     40.433883
  C      41.983196     20.526273     39.185822
  H      41.625324     19.486531     39.147722
  C      42.811037     20.910248     38.040717
  H      43.408912     20.158548     37.525291
  C      43.046279     22.224415     37.822261
  C      42.215667     23.243901     38.478221
  H      42.463090     24.284496     38.264209
  C      41.180770     22.911395     39.262005
  H      40.543045     23.689580     39.690293
  C      40.824104     21.478069     39.553503
  H      40.713075     21.365039     40.638827
  O      39.611674     21.156133     38.892403
  H      38.958798     20.730621     39.538372
  C      44.061752     22.698487     36.795762
  O      44.986425     21.934262     36.423833
  O      43.914964     23.886850     36.403260
24
Coordinates from ORCA-job neb_MEP_ALL.QMRegion E -1075.655791565590
  C      44.680510     22.051235     39.846713
  H      45.141597     21.378062     39.129410
  H      45.107827     23.040970     39.989513
  C      43.685136     21.638570     40.685133
  C      43.151936     22.577473     41.777526
  O      43.670180     23.717063     41.913235
  O      42.230924     22.134366     42.508221
  O      43.070198     20.482842     40.511776
  C      41.890557     20.498338     39.064698
  H      41.589216     19.445453     39.096937
  C      42.779679     20.893476     38.027017
  H      43.378812     20.148588     37.501430
  C      43.089675     22.222796     37.902686
  C      42.235124     23.233129     38.536838
  H      42.493513     24.274619     38.348868
  C      41.174317     22.890097     39.281239
  H      40.529946     23.662657     39.707379
  C      40.801545     21.456779     39.537900
  H      40.713591     21.312788     40.623055
  O      39.571535     21.167242     38.892159
  H      38.929204     20.732122     39.543415
  C      44.078112     22.698450     36.847190
  O      44.992708     21.936964     36.451399
  O      43.899144     23.877101     36.439299
24
Coordinates from ORCA-job neb_MEP_ALL.QMRegion E -1075.653938920275
  C      44.619972     22.051575     39.734971
  H      45.150304     21.337967     39.117566
  H      45.079471     23.020307     39.924511
  C      43.690773     21.602957     40.683097
  C      43.164247     22.568319     41.767396
  O      43.704103     23.695940     41.892900
  O      42.232252     22.144173     42.492462
  O      43.169279     20.454982     40.604441
  C      41.789183     20.480888     38.912304
  H      41.528687     19.422425     39.006269
  C      42.758006     20.873135     38.017741
  H      43.363963     20.139397     37.484638
  C      43.160738     22.219969     37.994462
  C      42.245697     23.226272     38.559399
  H      42.505996     24.269499     38.378520
  C      41.166997     22.876545     39.270388
  H      40.517778     23.648039     39.693530
  C      40.779911     21.438704     39.504419
  H      40.720349     21.277668     40.592138
  O      39.530715     21.183389     38.894268
  H      38.903640     20.739574     39.548906
  C      44.092395     22.697325     36.873122
  O      44.992834     21.935244     36.448432
  O      43.886493     23.865881     36.450310
24
Coordinates from ORCA-job neb_MEP_ALL.QMRegion E -1075.662260255138
  C      44.538291     22.049101     39.606396
  H      45.152629     21.305439     39.111892
  H      45.047910     22.988765     39.861826
  C      43.686952     21.576430     40.667728
  C      43.179063     22.556957     41.757709
  O      43.739272     23.672727     41.873106
  O      42.235107     22.150823     42.475586
  O      43.231585     20.427997     40.658522
  C      41.732040     20.468317     38.816886
  H      41.464211     19.410277     38.908260
  C      42.748519     20.857533     38.014221
  H      43.350262     20.129912     37.466125
  C      43.242966     22.211918     38.092404
  C      42.258965     23.216145     38.582998
  H      42.516953     24.262649     38.408438
  C      41.161871     22.861945     39.258890
  H      40.506366     23.632763     39.678324
  C      40.762024     21.420920     39.475082
  H      40.724404     21.243846     40.563204
  O      39.495956     21.197325     38.896642
  H      38.879604     20.747154     39.554201
  C      44.102966     22.695086     36.894203
  O      44.992992     21.934555     36.445408
  O      43.873685     23.855170     36.461407
24
Coordinates from ORCA-job neb_MEP_ALL.QMRegion E -1075.677351022656
  C      44.468740     22.034249     39.499340
  H      45.143050     21.277595     39.103599
  H      45.011840     22.951451     39.795758
  C      43.681468     21.553363     40.646770
  C      43.196572     22.544760     41.744508
  O      43.778391     23.647470     41.852129
  O      42.238785     22.157295     42.454836
  O      43.282763     20.395285     40.698349
  C      41.684752     20.458362     38.737177
  H      41.393430     19.403524     38.797319
  C      42.744474     20.844904     38.008216
  H      43.335563     20.119888     37.443207
  C      43.308904     22.199199     38.166698
  C      42.276479     23.201095     38.608944
  H      42.529670     24.251011     38.443281
  C      41.158166     22.845072     39.247532
  H      40.494767     23.615372     39.660834
  C      40.744505     21.403475     39.444895
  H      40.728712     21.205864     40.531736
  O      39.460661     21.210439     38.897867
  H      38.853756     20.755781     39.560714
  C      44.111079     22.691008     36.912925
  O      44.993408     21.934059     36.442954
  O      43.859423     23.844206     36.474915
24
Coordinates from ORCA-job neb_MEP_ALL.QMRegion E -1075.691812533429
  C      44.421182     21.994561     39.419601
  H      45.122106     21.235906     39.083006
  H      44.967421     22.901724     39.707774
  C      43.680483     21.516684     40.622523
  C      43.222360     22.527596     41.719444
  O      43.837674     23.610813     41.821161
  O      42.245497     22.168072     42.420395
  O      43.352448     20.348479     40.742170
  C      41.623507     20.448206     38.634214
  H      41.288219     19.403374     38.625574
  C      42.733924     20.827735     37.989427
  H      43.313710     20.106253     37.405688
  C      43.342753     22.176203     38.204525
  C      42.298367     23.175600     38.643280
  H      42.551650     24.227796     38.500143
  C      41.152726     22.819095     39.232502
  H      40.479797     23.588476     39.635924
  C      40.716926     21.380290     39.398464
  H      40.736972     21.146172     40.479507
  O      39.407778     21.229538     38.898550
  H      38.815222     20.770028     39.572433
  C      44.116170     22.681877     36.933401
  O      44.995234     21.934348     36.442810
  O      43.840263     23.830073     36.498699
24
Coordinates from ORCA-job neb_MEP_ALL.QMRegion E -1075.699175448593
  C      44.414308     21.940752     39.398822
  H      45.103947     21.184230     39.053420
  H      44.937920     22.860786     39.632998
  C      43.691229     21.476669     40.611880
  C      43.245097     22.510557     41.688997
  O      43.897057     23.572212     41.788764
  O      42.252875     22.178575     42.382860
  O      43.420759     20.302511     40.777353
  C      41.562617     20.439103     38.535309
  H      41.183842     19.414560     38.447159
  C      42.710385     20.806880     37.956673
  H      43.290395     20.093051     37.365165
  C      43.323561     22.147856     38.187797
  C      42.309041     23.147754     38.670086
  H      42.575719     24.198075     38.561729
  C      41.144832     22.791835     39.218365
  H      40.466290     23.559331     39.612251
  C      40.686970     21.358609     39.347980
  H      40.745390     21.082064     40.418258
  O      39.353702     21.247518     38.898519
  H      38.775920     20.785116     39.585655
  C      44.111248     22.668755     36.943577
  O      44.998374     21.934677     36.446032
  O      43.823731     23.818614     36.524958
24
Coordinates from ORCA-job neb_MEP_ALL.QMRegion E -1075.701067018986
  C      44.390000     21.903000     39.353000
  H      45.099000     21.130000     39.029000
  H      44.922000     22.831000     39.580000
  C      43.710000     21.442000     40.614000
  C      43.262000     22.496000     41.665000
  O      43.943000     23.540000     41.760000
  O      42.257000     22.185000     42.351000
  O      43.475000     20.264000     40.806000
  C      41.507000     20.433000     38.455000
  H      41.100000     19.433000     38.303000
  C      42.679000     20.788000     37.919000
  H      43.265000     20.078000     37.331000
  C      43.327000     22.119000     38.198000
  C      42.309000     23.122000     38.681000
  H      42.595000     24.169000     38.617000
  C      41.135000     22.768000     39.207000
  H      40.457000     23.534000     39.595000
  C      40.660000     21.343000     39.305000
  H      40.748000     21.027000     40.361000
  O      39.307000     21.259000     38.897000
  H      38.743000     20.794000     39.597000
  C      44.100000     22.655000     36.945000
  O      45.001000     21.934000     36.451000
  O      43.814000     23.812000     36.546000
24
Coordinates from ORCA-job neb_MEP_ALL.QMRegion E -1075.680500703602
  C      44.842000     22.068000     40.142000
  H      45.265000     21.440000     39.358000
  H      45.368000     22.976000     40.435000
  C      43.689000     21.758000     40.746000
  C      43.115000     22.623000     41.859000
  O      43.577000     23.785000     42.012000
  O      42.221000     22.117000     42.579000
  O      42.985000     20.610000     40.433000
  C      42.079000     20.646000     39.270000
  H      41.683000     19.622000     39.219000
  C      42.892000     20.975000     38.054000
  H      43.551000     20.209000     37.638000
  C      42.969000     22.244000     37.605000
  C      42.118000     23.281000     38.202000
  H      42.307000     24.301000     37.867000
  C      41.188000     23.002000     39.130000
  H      40.598000     23.809000     39.575000
  C      40.887000     21.588000     39.553000
  H      40.742000     21.566000     40.644000
  O      39.715000     21.144000     38.884000
  H      39.068000     20.737000     39.535000
  C      44.024000     22.694000     36.600000
  O      44.937000     21.905000     36.259000
  O      43.944000     23.900000     36.236000
24
Coordinates from ORCA-job neb_MEP_ALL.QMRegion E -1075.678574363023
  C      44.774074     22.047143     40.021298
  H      45.186820     21.424404     39.231539
  H      45.240507     23.010918     40.217450
  C      43.666393     21.710784     40.694036
  C      43.126404     22.594448     41.811414
  O      43.619699     23.744402     41.960605
  O      42.226112     22.118396     42.544505
  O      42.973427     20.558636     40.426085
  C      42.027519     20.573525     39.231397
  H      41.655103     19.543316     39.187281
  C      42.847755     20.932254     38.051409
  H      43.460425     20.172845     37.564469
  C      43.002955     22.229883     37.723931
  C      42.179734     23.259239     38.373056
  H      42.409807     24.295123     38.119956
  C      41.186165     22.943854     39.219206
  H      40.564076     23.732092     39.652604
  C      40.851772     21.516088     39.560998
  H      40.718524     21.442160     40.649833
  O      39.659210     21.144235     38.890457
  H      39.001727     20.732015     39.534793
  C      44.042319     22.697448     36.715187
  O      44.970485     21.926882     36.367812
  O      43.932148     23.896578     36.341274
24
Coordinates from ORCA-job neb_MEP_ALL.QMRegion E -1075.670353149287
  C      44.722697     22.038249     39.925676
  H      45.143617     21.402125     39.153108
  H      45.146541     23.030191     40.061401
  C      43.667948     21.668110     40.673466
  C      43.141962     22.577438     41.783464
  O      43.653157     23.720691     41.925148
  O      42.229297     22.125336     42.517454
  O      42.978767     20.513157     40.419975
  C      41.984917     20.520858     39.191466
  H      41.622546     19.483218     39.142003
  C      42.806018     20.906392     38.037732
  H      43.397743     20.155696     37.514685
  C      43.039042     22.219792     37.821737
  C      42.217750     23.238354     38.491388
  H      42.474967     24.280701     38.295426
  C      41.181189     22.903279     39.271989
  H      40.540949     23.679568     39.700711
  C      40.821587     21.469847     39.555283
  H      40.708184     21.351251     40.639584
  O      39.608796     21.153241     38.893593
  H      38.951922     20.730853     39.537984
  C      44.057334     22.697856     36.801160
  O      44.989776     21.938638     36.436754
  O      43.915142     23.888410     36.414960
24
Coordinates from ORCA-job neb_MEP_ALL.QMRegion E -1075.656306260405
  C      44.688033     22.043289     39.852395
  H      45.142310     21.371995     39.128500
  H      45.109624     23.036516     39.987332
  C      43.686568     21.633140     40.682943
  C      43.154876     22.574168     41.774944
  O      43.675870     23.712341     41.909864
  O      42.230133     22.136103     42.504312
  O      43.063663     20.478754     40.503596
  C      41.889463     20.495107     39.062779
  H      41.582106     19.443089     39.085968
  C      42.776572     20.891910     38.021251
  H      43.376454     20.147061     37.496296
  C      43.082746     22.220783     37.893997
  C      42.233285     23.231198     38.534588
  H      42.496016     24.273189     38.354619
  C      41.173146     22.887699     39.280610
  H      40.529371     23.660189     39.708577
  C      40.798507     21.454214     39.534521
  H      40.713888     21.308089     40.619618
  O      39.567048     21.167254     38.891919
  H      38.925432     20.733565     39.544124
  C      44.074809     22.698469     36.843812
  O      44.992441     21.938328     36.452142
  O      43.899615     23.878843     36.439869
24
Coordinates from ORCA-job neb_MEP_ALL.QMRegion E -1075.654063208047
  C      44.621036     22.053301     39.732274
  H      45.155730     21.337065     39.120848
  H      45.080087     23.019297     39.923118
  C      43.692928     21.601708     40.686223
  C      43.165197     22.568209     41.768604
  O      43.703823     23.696312     41.892710
  O      42.231862     22.145422     42.492069
  O      43.179430     20.454328     40.613432
  C      41.781613     20.477069     38.902562
  H      41.529888     19.418718     39.008266
  C      42.752669     20.870748     38.016607
  H      43.364222     20.139884     37.485651
  C      43.163748     22.222618     37.999134
  C      42.245413     23.227774     38.559252
  H      42.505162     24.271960     38.377673
  C      41.166257     22.876054     39.269877
  H      40.517417     23.647818     39.695646
  C      40.778475     21.438676     39.502149
  H      40.722230     21.277413     40.589332
  O      39.525976     21.185787     38.894559
  H      38.901640     20.739071     39.549199
  C      44.092226     22.697975     36.874015
  O      44.992676     21.936073     36.448931
  O      43.887161     23.865902     36.450130
24
Coordinates from ORCA-job neb_MEP_ALL.QMRegion E -1075.662933299116
  C      44.525551     22.059157     39.590300
  H      45.159168     21.312598     39.121048
  H      45.044152     22.986363     39.861403
  C      43.684070     21.582519     40.669979
  C      43.177487     22.559071     41.761271
  O      43.733361     23.676510     41.876652
  O      42.235826     22.149934     42.479422
  O      43.241708     20.432770     40.669072
  C      41.731379     20.466203     38.817010
  H      41.475925     19.407985     38.925891
  C      42.747716     20.856839     38.019941
  H      43.353556     20.132717     37.473637
  C      43.259816     22.218204     38.111997
  C      42.261715     23.220538     38.585868
  H      42.512320     24.268683     38.400389
  C      41.163256     22.863793     39.258830
  H      40.506561     23.634776     39.680238
  C      40.764853     21.423171     39.477477
  H      40.725775     21.250166     40.564825
  O      39.496531     21.199291     38.897927
  H      38.881422     20.744858     39.553233
  C      44.105548     22.696465     36.898068
  O      44.992848     21.935142     36.444906
  O      43.874282     23.853736     36.459849
24
Coordinates from ORCA-job neb_MEP_ALL.QMRegion E -1075.678495399693
  C      44.451263     22.046217     39.483721
  H      45.147028     21.291398     39.115164
  H      45.002996     22.948479     39.793993
  C      43.674670     21.565623     40.646779
  C      43.193460     22.548291     41.748197
  O      43.769684     23.652813     41.858235
  O      42.240310     22.155141     42.461626
  O      43.289937     20.402721     40.707474
  C      41.689722     20.457684     38.743973
  H      41.411747     19.401480     38.824669
  C      42.748852     20.846042     38.019418
  H      43.340967     20.124580     37.454966
  C      43.328949     22.207213     38.188461
  C      42.283051     23.207304     38.615011
  H      42.523163     24.259269     38.430966
  C      41.161930     22.848356     39.248423
  H      40.495647     23.618543     39.661454
  C      40.750609     21.406968     39.450752
  H      40.729608     21.216696     40.537525
  O      39.465789     21.211551     38.899936
  H      38.858285     20.752628     39.558730
  C      44.116007     22.693015     36.918409
  O      44.993355     21.934525     36.441670
  O      43.859656     23.842048     36.472529
24
Coordinates from ORCA-job neb_MEP_ALL.QMRegion E -1075.692320489982
  C      44.405441     21.995423     39.410468
  H      45.120883     21.243021     39.088059
  H      44.952462     22.895152     39.692867
  C      43.673251     21.523039     40.619288
  C      43.222377     22.528806     41.717045
  O      43.839606     23.609836     41.822839
  O      42.248878     22.168141     42.422113
  O      43.367089     20.350315     40.753420
  C      41.622149     20.446688     38.628170
  H      41.290276     19.401724     38.625278
  C      42.738588     20.826700     37.998070
  H      43.316527     20.110005     37.412056
  C      43.354304     22.179366     38.216103
  C      42.308523     23.178558     38.655785
  H      42.549679     24.232850     38.497268
  C      41.157084     22.818779     39.232054
  H      40.479296     23.587280     39.631319
  C      40.719692     21.380317     39.397576
  H      40.739337     21.148304     40.478614
  O      39.406589     21.233447     38.901204
  H      38.814237     20.769855     39.572247
  C      44.121691     22.682646     36.940389
  O      44.996287     21.935025     36.442057
  O      43.837692     23.826664     36.500559
24
Coordinates from ORCA-job neb_MEP_ALL.QMRegion E -1075.697970138930
  C      44.410551     21.938646     39.404444
  H      45.104740     21.184276     39.052640
  H      44.932503     22.861508     39.626092
  C      43.688618     21.478297     40.614213
  C      43.244029     22.511488     41.685685
  O      43.899624     23.570283     41.789239
  O      42.255141     22.179027     42.383330
  O      43.427612     20.303625     40.781038
  C      41.562161     20.437140     38.532910
  H      41.184280     19.414374     38.443834
  C      42.710959     20.804447     37.958823
  H      43.292876     20.095920     37.368247
  C      43.321259     22.148671     38.185428
  C      42.312753     23.149561     38.675949
  H      42.575640     24.200875     38.561001
  C      41.146978     22.791397     39.218961
  H      40.466308     23.557798     39.608999
  C      40.688820     21.358567     39.346616
  H      40.747365     21.082491     40.416613
  O      39.353076     21.250066     38.900154
  H      38.774835     20.785863     39.585821
  C      44.112127     22.668349     36.944569
  O      44.999758     21.935276     36.446548
  O      43.822677     23.818111     36.526506
24
Coordinates from ORCA-job neb_MEP_ALL.QMRegion E -1075.701067018986
  C      44.390000     21.903000     39.353000
  H      45.099000     21.130000     39.029000
  H      44.922000     22.831000     39.580000
  C      43.710000     21.442000     40.614000
  C      43.262000     22.496000     41.665000
  O      43.943000     23.540000     41.760000
  O      42.257000     22.185000     42.351000
  O      43.475000     20.264000     40.806000
  C      41.507000     20.433000     38.455000
  H      41.100000     19.433000     38.303000
  C      42.679000     20.788000     37.919000
  H      43.265000     20.078000     37.331000
  C      43.327000     22.119000     38.198000
  C      42.309000     23.122000     38.681000
  H      42.595000     24.169000     38.617000
  C      41.135000     22.768000     39.207000
  H      40.457000     23.534000     39.595000
  C      40.660000     21.343000     39.305000
  H      40.748000     21.027000     40.361000
  O      39.307000     21.259000     38.897000
  H      38.743000     20.794000     39.597000
  C      44.100000     22.655000     36.945000
  O      45.001000     21.934000     36.451000
  O      43.814000     23.812000     36.546000
24
Coordinates from ORCA-job neb_MEP_ALL.QMRegion E -1075.680500703602
  C      44.842000     22.068000     40.142000
  H      45.265000     21.440000     39.358000
  H      45.368000     22.976000     40.435000
  C      43.689000     21.758000     40.746000
  C      43.115000     22.623000     41.859000
  O      43.577000     23.785000     42.012000
  O      42.221000     22.117000     42.579000
  O      42.985000     20.610000     40.433000
  C      42.079000     20.646000     39.270000
  H      41.683000     19.622000     39.219000
  C      42.892000     20.975000     38.054000
  H      43.551000     20.209000     37.638000
  C      42.969000     22.244000     37.605000
  C      42.118000     23.281000     38.202000
  H      42.307000     24.301000     37.867000
  C      41.188000     23.002000     39.130000
  H      40.598000     23.809000     39.575000
  C      40.887000     21.588000     39.553000
  H      40.742000     21.566000     40.644000
  O      39.715000     21.144000     38.884000
  H      39.068000     20.737000     39.535000
  C      44.024000     22.694000     36.600000
  O      44.937000     21.905000     36.259000
  O      43.944000     23.900000     36.236000
24
Coordinates from ORCA-job neb_MEP_ALL.QMRegion E -1075.678503342868
  C      44.773803     22.047721     40.019477
  H      45.186021     21.423464     39.229816
  H      45.239691     23.010617     40.216195
  C      43.667416     21.711298     40.695151
  C      43.126738     22.594848     41.811001
  O      43.620147     23.744030     41.960011
  O      42.225935     22.118155     42.543850
  O      42.969388     20.555340     40.422748
  C      42.029560     20.572668     39.235617
  H      41.654554     19.541629     39.186993
  C      42.846484     20.932312     38.049108
  H      43.459404     20.171946     37.563477
  C      43.002670     22.231018     37.723716
  C      42.179915     23.258434     38.374363
  H      42.410982     24.294248     38.123360
  C      41.186255     22.943327     39.220221
  H      40.564121     23.730981     39.654349
  C      40.850248     21.515982     39.560908
  H      40.718458     21.440469     40.649971
  O      39.658357     21.143720     38.889971
  H      39.001364     20.731852     39.534935
  C      44.042944     22.697270     36.717112
  O      44.970255     21.927117     36.368937
  O      43.931257     23.896728     36.342279
24
Coordinates from ORCA-job neb_MEP_ALL.QMRegion E -1075.670822691375
  C      44.722690     22.037696     39.925605
  H      45.143527     21.400628     39.151890
  H      45.146947     23.029440     40.061753
  C      43.668641     21.668713     40.673031
  C      43.142272     22.577491     41.782747
  O      43.653898     23.719780     41.924593
  O      42.228927     22.125039     42.516992
  O      42.976591     20.510073     40.419697
  C      41.984260     20.520469     39.192054
  H      41.622197     19.482537     39.141701
  C      42.805655     20.907067     38.035794
  H      43.397212     20.154861     37.513543
  C      43.037382     22.220425     37.819681
  C      42.218373     23.238145     38.491126
  H      42.475403     24.279604     38.297314
  C      41.180372     22.902626     39.272869
  H      40.541223     23.678768     39.701917
  C      40.820445     21.469760     39.555217
  H      40.707990     21.350302     40.640041
  O      39.608330     21.152492     38.893055
  H      38.951970     20.730905     39.538075
  C      44.058528     22.697297     36.802290
  O      44.988759     21.939025     36.437084
  O      43.914134     23.889126     36.414908
24
Coordinates from ORCA-job neb_MEP_ALL.QMRegion E -1075.656879921203
  C      44.687760     22.042626     39.851787
  H      45.142806     21.371071     39.128451
  H      45.109799     23.034925     39.987066
  C      43.686559     21.632577     40.682433
  C      43.154948     22.573480     41.774581
  O      43.676959     23.711672     41.909278
  O      42.230154     22.136211     42.503531
  O      43.063811     20.478361     40.503400
  C      41.888872     20.494392     39.061384
  H      41.581409     19.443068     39.084672
  C      42.775887     20.891340     38.020862
  H      43.376002     20.146940     37.495535
  C      43.082174     22.220898     37.893774
  C      42.233193     23.230930     38.534871
  H      42.496141     24.272862     38.355178
  C      41.173079     22.887352     39.280106
  H      40.529346     23.659778     39.708892
  C      40.798123     21.453802     39.533872
  H      40.713924     21.307440     40.619086
  O      39.566213     21.167373     38.891905
  H      38.924762     20.733709     39.544230
  C      44.075612     22.698089     36.844225
  O      44.991968     21.938648     36.451931
  O      43.899172     23.879240     36.439621
24
Coordinates from ORCA-job neb_MEP_ALL.QMRegion E -1075.654505442106
  C      44.620867     22.054491     39.731488
  H      45.156952     21.336334     39.120981
  H      45.080614     23.019873     39.923304
  C      43.692655     21.600799     40.687658
  C      43.164726     22.569045     41.769035
  O      43.704296     23.697141     41.892741
  O      42.231812     22.144780     42.491868
  O      43.180137     20.453805     40.613895
  C      41.781508     20.476038     38.902298
  H      41.530317     19.419231     39.008460
  C      42.752320     20.870031     38.017584
  H      43.364381     20.139719     37.485638
  C      43.163262     22.224718     37.999082
  C      42.245849     23.228229     38.559292
  H      42.504764     24.271177     38.377623
  C      41.165660     22.875925     39.269746
  H      40.517661     23.647496     39.695802
  C      40.780230     21.439946     39.502289
  H      40.722361     21.277220     40.589390
  O      39.524646     21.186273     38.893338
  H      38.900937     20.738709     39.549842
  C      44.093407     22.697051     36.874103
  O      44.992323     21.936147     36.449192
  O      43.886574     23.866435     36.450215
24
Coordinates from ORCA-job neb_MEP_ALL.QMRegion E -1075.664264059311
  C      44.524097     22.061944     39.587499
  H      45.160510     21.311849     39.121557
  H      45.043594     22.987649     39.860955
  C      43.682593     21.581038     40.672594
  C      43.176153     22.560829     41.762080
  O      43.733750     23.678178     41.876991
  O      42.236036     22.148625     42.479566
  O      43.242903     20.432430     40.670344
  C      41.730840     20.465118     38.817743
  H      41.477442     19.408765     38.927254
  C      42.748108     20.856088     38.021427
  H      43.354410     20.132477     37.474285
  C      43.261095     22.222477     38.113073
  C      42.262813     23.221727     38.586043
  H      42.511649     24.267403     38.399965
  C      41.162614     22.863756     39.259288
  H      40.506955     23.634414     39.679801
  C      40.767822     21.425574     39.478373
  H      40.725988     21.250422     40.565535
  O      39.495360     21.199792     38.896017
  H      38.881105     20.744185     39.554132
  C      44.106845     22.695229     36.898142
  O      44.992729     21.935024     36.445421
  O      43.873508     23.854055     36.460374
24
Coordinates from ORCA-job neb_MEP_ALL.QMRegion E -1075.679779308424
  C      44.450391     22.049550     39.482029
  H      45.148434     21.290534     39.115821
  H      45.001805     22.950655     39.793243
  C      43.671485     21.560005     40.650994
  C      43.190967     22.550273     41.749049
  O      43.770188     23.655147     41.858904
  O      42.241150     22.153702     42.461804
  O      43.292596     20.406577     40.708669
  C      41.689750     20.456758     38.746003
  H      41.414114     19.402410     38.826794
  C      42.749041     20.845325     38.020663
  H      43.342533     20.124480     37.456272
  C      43.329515     22.212268     38.188469
  C      42.283929     23.209021     38.615207
  H      42.522545     24.258042     38.430258
  C      41.161702     22.848410     39.249339
  H      40.496271     23.618169     39.660547
  C      40.753818     21.409829     39.452016
  H      40.730098     21.217382     40.538388
  O      39.464775     21.212210     38.897921
  H      38.858424     20.751826     39.559666
  C      44.116697     22.691818     36.918082
  O      44.993673     21.934345     36.442452
  O      43.859146     23.842121     36.473463
24
Coordinates from ORCA-job neb_MEP_ALL.QMRegion E -1075.692901015917
  C      44.404144     21.996979     39.409444
  H      45.122755     21.240073     39.087539
  H      44.951943     22.898410     39.691890
  C      43.672098     21.519073     40.624721
  C      43.220115     22.530669     41.716600
  O      43.841466     23.610601     41.822779
  O      42.249705     22.167121     42.421885
  O      43.369049     20.351415     40.754169
  C      41.621392     20.445324     38.629261
  H      41.290879     19.402925     38.623839
  C      42.737496     20.825300     37.997172
  H      43.317939     20.109993     37.412854
  C      43.353753     22.182544     38.215478
  C      42.308297     23.179886     38.655596
  H      42.549992     24.231666     38.497910
  C      41.156843     22.818447     39.233173
  H      40.479945     23.586326     39.629797
  C      40.722134     21.382574     39.397828
  H      40.740125     21.147939     40.478262
  O      39.404950     21.234456     38.899592
  H      38.813874     20.769565     39.573286
  C      44.120652     22.681324     36.938944
  O      44.997348     21.934949     36.443123
  O      43.837623     23.826995     36.501956
24
Coordinates from ORCA-job neb_MEP_ALL.QMRegion E -1075.697815737646
  C      44.404049     21.941647     39.395228
  H      45.107407     21.181032     39.052256
  H      44.933777     22.864632     39.626979
  C      43.689868     21.478364     40.618570
  C      43.242813     22.512838     41.685743
  O      43.900507     23.570325     41.788940
  O      42.254909     22.178446     42.383494
  O      43.426798     20.301042     40.781664
  C      41.561056     20.435738     38.533750
  H      41.184837     19.414825     38.443380
  C      42.709166     20.803472     37.956726
  H      43.293901     20.095689     37.368472
  C      43.327857     22.149313     38.193650
  C      42.311223     23.150315     38.673843
  H      42.575996     24.200411     38.561386
  C      41.146134     22.791193     39.219949
  H      40.466695     23.557328     39.608609
  C      40.690371     21.359957     39.346907
  H      40.747834     21.082311     40.416345
  O      39.352043     21.250612     38.899079
  H      38.774750     20.785761     39.586457
  C      44.110169     22.667403     36.942620
  O      45.000533     21.935452     36.447396
  O      43.823359     23.819018     36.526912
24
Coordinates from ORCA-job neb_MEP_ALL.QMRegion E -1075.701067018986
  C      44.390000     21.903000     39.353000
  H      45.099000     21.130000     39.029000
  H      44.922000     22.831000     39.580000
  C      43.710000     21.442000     40.614000
  C      43.262000     22.496000     41.665000
  O      43.943000     23.540000     41.760000
  O      42.257000     22.185000     42.351000
  O      43.475000     20.264000     40.806000
  C      41.507000     20.433000     38.455000
  H      41.100000     19.433000     38.303000
  C      42.679000     20.788000     37.919000
  H      43.265000     20.078000     37.331000
  C      43.327000     22.119000     38.198000
  C      42.309000     23.122000     38.681000
  H      42.595000     24.169000     38.617000
  C      41.135000     22.768000     39.207000
  H      40.457000     23.534000     39.595000
  C      40.660000     21.343000     39.305000
  H      40.748000     21.027000     40.361000
  O      39.307000     21.259000     38.897000
  H      38.743000     20.794000     39.597000
  C      44.100000     22.655000     36.945000
  O      45.001000     21.934000     36.451000
  O      43.814000     23.812000     36.546000
24
Coordinates from ORCA-job neb_MEP_ALL.QMRegion E -1075.680500703602
  C      44.842000     22.068000     40.142000
  H      45.265000     21.440000     39.358000
  H      45.368000     22.976000     40.435000
  C      43.689000     21.758000     40.746000
  C      43.115000     22.623000     41.859000
  O      43.577000     23.785000     42.012000
  O      42.221000     22.117000     42.579000
  O      42.985000     20.610000     40.433000
  C      42.079000     20.646000     39.270000
  H      41.683000     19.622000     39.219000
  C      42.892000     20.975000     38.054000
  H      43.551000     20.209000     37.638000
  C      42.969000     22.244000     37.605000
  C      42.118000     23.281000     38.202000
  H      42.307000     24.301000     37.867000
  C      41.188000     23.002000     39.130000
  H      40.598000     23.809000     39.575000
  C      40.887000     21.588000     39.553000
  H      40.742000     21.566000     40.644000
  O      39.715000     21.144000     38.884000
  H      39.068000     20.737000     39.535000
  C      44.024000     22.694000     36.600000
  O      44.937000     21.905000     36.259000
  O      43.944000     23.900000     36.236000
24
Coordinates from ORCA-job neb_MEP_ALL.QMRegion E -1075.678785666388
  C      44.773175     22.047722     40.017809
  H      45.185154     21.422655     39.228174
  H      45.238989     23.010520     40.214916
  C      43.667937     21.710886     40.695496
  C      43.126825     22.594788     41.810741
  O      43.620695     23.743851     41.959434
  O      42.225919     22.118075     42.543099
  O      42.966645     20.553268     40.420328
  C      42.030893     20.571679     39.238612
  H      41.654089     19.540326     39.186707
  C      42.845207     20.932462     38.047406
  H      43.458346     20.171130     37.562426
  C      43.002340     22.231430     37.723626
  C      42.180120     23.257827     38.375719
  H      42.412164     24.293472     38.126763
  C      41.186204     22.942709     39.221284
  H      40.564174     23.729927     39.656083
  C      40.849094     21.515549     39.560958
  H      40.718266     21.438849     40.650088
  O      39.657574     21.143239     38.889538
  H      39.000951     20.731677     39.535046
  C      44.043219     22.697593     36.718803
  O      44.970275     21.927221     36.370053
  O      43.930537     23.896720     36.343353
24
Coordinates from ORCA-job neb_MEP_ALL.QMRegion E -1075.671089954280
  C      44.722920     22.036949     39.925015
  H      45.143327     21.399323     39.150922
  H      45.147279     23.028682     40.061924
  C      43.668612     21.668321     40.672663
  C      43.142299     22.577151     41.782222
  O      43.654762     23.719115     41.924053
  O      42.228835     22.124949     42.516300
  O      42.975185     20.508016     40.419521
  C      41.983680     20.520059     39.192111
  H      41.621727     19.481879     39.141222
  C      42.805028     20.907356     38.034296
  H      43.396597     20.154188     37.512436
  C      43.036099     22.220813     37.817959
  C      42.218201     23.237599     38.491481
  H      42.475942     24.278826     38.299176
  C      41.180239     22.902121     39.273211
  H      40.541391     23.678070     39.703157
  C      40.819431     21.469444     39.555206
  H      40.707770     21.349330     40.640310
  O      39.607782     21.151848     38.892559
  H      38.951874     20.730928     39.538171
  C      44.058812     22.697874     36.803185
  O      44.988415     21.938979     36.437285
  O      43.913383     23.889227     36.415128
24
Coordinates from ORCA-job neb_MEP_ALL.QMRegion E -1075.656986635317
  C      44.687655     22.041880     39.851288
  H      45.143257     21.370224     39.128431
  H      45.110079     23.033593     39.986929
  C      43.686446     21.631991     40.682024
  C      43.155211     22.573097     41.774134
  O      43.677887     23.710929     41.908749
  O      42.230033     22.136220     42.502902
  O      43.063793     20.477977     40.503074
  C      41.888357     20.493869     39.060347
  H      41.580808     19.442945     39.083570
  C      42.775360     20.891017     38.020387
  H      43.375589     20.146822     37.494823
  C      43.081597     22.220819     37.893432
  C      42.233195     23.230762     38.534977
  H      42.496237     24.272540     38.355679
  C      41.172821     22.887000     39.279796
  H      40.529378     23.659355     39.709187
  C      40.797862     21.453450     39.533314
  H      40.713950     21.306864     40.618596
  O      39.565419     21.167451     38.891867
  H      38.924160     20.733832     39.544331
  C      44.075835     22.698347     36.844507
  O      44.991843     21.938682     36.451652
  O      43.898860     23.879270     36.439533
24
Coordinates from ORCA-job neb_MEP_ALL.QMRegion E -1075.655193895518
  C      44.620681     22.055121     39.731101
  H      45.157948     21.335956     39.121321
  H      45.081201     23.020483     39.923645
  C      43.692757     21.600403     40.688576
  C      43.164422     22.569734     41.769399
  O      43.704514     23.697775     41.892844
  O      42.231721     22.144326     42.491807
  O      43.180572     20.453320     40.614210
  C      41.781604     20.475646     38.902421
  H      41.530745     19.419444     39.008885
  C      42.752319     20.869889     38.018315
  H      43.364520     20.139646     37.485709
  C      43.162783     22.225726     37.998895
  C      42.245756     23.228524     38.559471
  H      42.504420     24.270750     38.377487
  C      41.165588     22.876025     39.269424
  H      40.517847     23.647276     39.696030
  C      40.781278     21.440647     39.502316
  H      40.722467     21.277151     40.589454
  O      39.523830     21.186675     38.892651
  H      38.900463     20.738483     39.550245
  C      44.093727     22.697239     36.874178
  O      44.992430     21.935844     36.449253
  O      43.886269     23.866457     36.450379
24
Coordinates from ORCA-job neb_MEP_ALL.QMRegion E -1075.666348095912
  C      44.522989     22.063642     39.586005
  H      45.161455     21.311739     39.122267
  H      45.043328     22.989148     39.860943
  C      43.682051     21.580950     40.674240
  C      43.175200     22.562346     41.762814
  O      43.733595     23.679544     41.877443
  O      42.236029     22.147626     42.480023
  O      43.243500     20.431719     40.671426
  C      41.731139     20.465019     38.818627
  H      41.479025     19.409104     38.929161
  C      42.748489     20.856048     38.022953
  H      43.355254     20.132353     37.475031
  C      43.261858     22.224959     38.113618
  C      42.262825     23.222450     38.586457
  H      42.511049     24.266828     38.399337
  C      41.163012     22.864155     39.259253
  H      40.507219     23.634291     39.679589
  C      40.769640     21.427089     39.479091
  H      40.726140     21.250890     40.566290
  O      39.494948     21.200156     38.894917
  H      38.881116     20.743702     39.554639
  C      44.107252     22.695286     36.898176
  O      44.993029     21.934517     36.445685
  O      43.873116     23.853941     36.460802
24
Coordinates from ORCA-job neb_MEP_ALL.QMRegion E -1075.682185727121
  C      44.449172     22.051501     39.480708
  H      45.149329     21.290330     39.116646
  H      45.000683     22.952812     39.792604
  C      43.670902     21.560854     40.653305
  C      43.189704     22.552331     41.749665
  O      43.770085     23.656632     41.859477
  O      42.241257     22.152489     42.462601
  O      43.293474     20.405020     40.710529
  C      41.690298     20.456765     38.747466
  H      41.416129     19.402811     38.828896
  C      42.749233     20.845220     38.022139
  H      43.343995     20.124436     37.457565
  C      43.330299     22.215516     38.188820
  C      42.283999     23.210088     38.615746
  H      42.522038     24.257565     38.429527
  C      41.162434     22.848858     39.249691
  H      40.496653     23.617990     39.659810
  C      40.755792     21.411671     39.452875
  H      40.730519     21.218084     40.539206
  O      39.464413     21.212821     38.896773
  H      38.858722     20.751279     39.560237
  C      44.116876     22.691591     36.918016
  O      44.994235     21.933897     36.442979
  O      43.858855     23.841970     36.474207
24
Coordinates from ORCA-job neb_MEP_ALL.QMRegion E -1075.694542302266
  C      44.403358     21.997592     39.408770
  H      45.123776     21.237987     39.087269
  H      44.951118     22.901039     39.690691
  C      43.672258     21.518834     40.627924
  C      43.218996     22.532362     41.716206
  O      43.842898     23.610845     41.822592
  O      42.249911     22.166393     42.422040
  O      43.370303     20.349383     40.755714
  C      41.621117     20.444869     38.629695
  H      41.290925     19.403511     38.622140
  C      42.736406     20.824605     37.996711
  H      43.319281     20.109868     37.413459
  C      43.353156     22.184304     38.214960
  C      42.307717     23.180535     38.655708
  H      42.550398     24.231044     38.498615
  C      41.157372     22.818361     39.233746
  H      40.480265     23.585581     39.628458
  C      40.723415     21.383895     39.397752
  H      40.740864     21.147499     40.477819
  O      39.403836     21.235445     38.898664
  H      38.813580     20.769512     39.574045
  C      44.119724     22.680523     36.937978
  O      44.998296     21.934847     36.444003
  O      43.837571     23.827180     36.503128
24
Coordinates from ORCA-job neb_MEP_ALL.QMRegion E -1075.699341168373
  C      44.399955     21.943836     39.388436
  H      45.108880     21.179110     39.052275
  H      44.934328     22.866573     39.627408
  C      43.690616     21.477187     40.621252
  C      43.242086     22.513784     41.686097
  O      43.901172     23.570443     41.788690
  O      42.254592     22.178119     42.383675
  O      43.426635     20.300301     40.782301
  C      41.560655     20.435175     38.534164
  H      41.185089     19.414822     38.442944
  C      42.707675     20.803100     37.955531
  H      43.294869     20.095405     37.368608
  C      43.332481     22.149543     38.199558
  C      42.309906     23.150600     38.672431
  H      42.576295     24.200225     38.561681
  C      41.146029     22.791156     39.220415
  H      40.466813     23.557059     39.608317
  C      40.691169     21.360741     39.347119
  H      40.748263     21.082159     40.416141
  O      39.351462     21.251123     38.898408
  H      38.774728     20.785763     39.586911
  C      44.108896     22.666819     36.941436
  O      45.001011     21.935643     36.448029
  O      43.823815     23.819550     36.527209
24
Coordinates from ORCA-job neb_MEP_ALL.QMRegion E -1075.701067018986
  C      44.390000     21.903000     39.353000
  H      45.099000     21.130000     39.029000
  H      44.922000     22.831000     39.580000
  C      43.710000     21.442000     40.614000
  C      43.262000     22.496000     41.665000
  O      43.943000     23.540000     41.760000
  O      42.257000     22.185000     42.351000
  O      43.475000     20.264000     40.806000
  C      41.507000     20.433000     38.455000
  H      41.100000     19.433000     38.303000
  C      42.679000     20.788000     37.919000
  H      43.265000     20.078000     37.331000
  C      43.327000     22.119000     38.198000
  C      42.309000     23.122000     38.681000
  H      42.595000     24.169000     38.617000
  C      41.135000     22.768000     39.207000
  H      40.457000     23.534000     39.595000
  C      40.660000     21.343000     39.305000
  H      40.748000     21.027000     40.361000
  O      39.307000     21.259000     38.897000
  H      38.743000     20.794000     39.597000
  C      44.100000     22.655000     36.945000
  O      45.001000     21.934000     36.451000
  O      43.814000     23.812000     36.546000
24
Coordinates from ORCA-job neb_MEP_ALL.QMRegion E -1075.680500703602
  C      44.842000     22.068000     40.142000
  H      45.265000     21.440000     39.358000
  H      45.368000     22.976000     40.435000
  C      43.689000     21.758000     40.746000
  C      43.115000     22.623000     41.859000
  O      43.577000     23.785000     42.012000
  O      42.221000     22.117000     42.579000
  O      42.985000     20.610000     40.433000
  C      42.079000     20.646000     39.270000
  H      41.683000     19.622000     39.219000
  C      42.892000     20.975000     38.054000
  H      43.551000     20.209000     37.638000
  C      42.969000     22.244000     37.605000
  C      42.118000     23.281000     38.202000
  H      42.307000     24.301000     37.867000
  C      41.188000     23.002000     39.130000
  H      40.598000     23.809000     39.575000
  C      40.887000     21.588000     39.553000
  H      40.742000     21.566000     40.644000
  O      39.715000     21.144000     38.884000
  H      39.068000     20.737000     39.535000
  C      44.024000     22.694000     36.600000
  O      44.937000     21.905000     36.259000
  O      43.944000     23.900000     36.236000
24
Coordinates from ORCA-job neb_MEP_ALL.QMRegion E -1075.678875514245
  C      44.766848     22.044411     40.005859
  H      45.177668     21.417083     39.215562
  H      45.233872     23.009676     40.204882
  C      43.668316     21.702711     40.693390
  C      43.128384     22.593091     41.808033
  O      43.624934     23.741650     41.954776
  O      42.225319     22.117737     42.537731
  O      42.954225     20.544238     40.408623
  C      42.035378     20.564053     39.251562
  H      41.651114     19.532635     39.184699
  C      42.835388     20.931236     38.038640
  H      43.449014     20.165989     37.553869
  C      42.998681     22.231716     37.723411
  C      42.181138     23.253264     38.387216
  H      42.421713     24.288565     38.153734
  C      41.185360     22.937106     39.229627
  H      40.564754     23.722049     39.670213
  C      40.842777     21.509442     39.562288
  H      40.715497     21.426551     40.651123
  O      39.652280     21.139418     38.886708
  H      38.997343     20.730118     39.535550
  C      44.044320     22.700054     36.729847
  O      44.970711     21.928807     36.379460
  O      43.925954     23.897522     36.351838
24
Coordinates from ORCA-job neb_MEP_ALL.QMRegion E -1075.671190005867
  C      44.723066     22.028971     39.919917
  H      45.141483     21.389630     39.144183
  H      45.149642     23.021865     40.062220
  C      43.667047     21.660532     40.668237
  C      43.143509     22.574072     41.777635
  O      43.661725     23.713368     41.919529
  O      42.227829     22.124694     42.510794
  O      42.968151     20.498049     40.417802
  C      41.979307     20.516315     39.189242
  H      41.617348     19.477139     39.136195
  C      42.798827     20.907173     38.024760
  H      43.390736     20.150279     37.503874
  C      43.027185     22.221359     37.807737
  C      42.216045     23.233317     38.494599
  H      42.480431     24.273769     38.314153
  C      41.178423     22.897876     39.276155
  H      40.542897     23.672531     39.713006
  C      40.813142     21.465512     39.554721
  H      40.705588     21.341510     40.641148
  O      39.603157     21.147464     38.889242
  H      38.949883     20.730822     39.538863
  C      44.059188     22.701416     36.807512
  O      44.986242     21.939639     36.439602
  O      43.908752     23.890936     36.417219
24
Coordinates from ORCA-job neb_MEP_ALL.QMRegion E -1075.657011936769
  C      44.687529     22.035265     39.848303
  H      45.146751     21.363585     39.128293
  H      45.113166     23.024586     39.986633
  C      43.685533     21.627355     40.678926
  C      43.156983     22.570264     41.770602
  O      43.684913     23.705515     41.904954
  O      42.229072     22.136326     42.498109
  O      43.062426     20.474575     40.499748
  C      41.884678     20.491146     39.053972
  H      41.576532     19.441091     39.075907
  C      42.772042     20.889371     38.015998
  H      43.372425     20.146009     37.489368
  C      43.077357     22.219799     37.889952
  C      42.232366     23.229066     38.535537
  H      42.496940     24.270415     38.359287
  C      41.170890     22.884442     39.277679
  H      40.529750     23.655970     39.711626
  C      40.795918     21.450799     39.529393
  H      40.714137     21.302640     40.614815
  O      39.559941     21.168099     38.891101
  H      38.919371     20.734550     39.545392
  C      44.076204     22.699701     36.845443
  O      44.990973     21.939194     36.449972
  O      43.896831     23.879666     36.439191
24
Coordinates from ORCA-job neb_MEP_ALL.QMRegion E -1075.655261579695
  C      44.619894     22.057722     39.730036
  H      45.164477     21.335091     39.125486
  H      45.085549     23.024214     39.926746
  C      43.695123     21.599229     40.692672
  C      43.163196     22.573278     41.771644
  O      43.704603     23.701543     41.894200
  O      42.231077     22.142598     42.491986
  O      43.183845     20.450920     40.616684
  C      41.782826     20.475859     38.904725
  H      41.533962     19.419468     39.013174
  C      42.754341     20.870990     38.021999
  H      43.365220     20.139988     37.486985
  C      43.159543     22.228243     37.997469
  C      42.244575     23.230254     38.559899
  H      42.501972     24.269680     38.376082
  C      41.165226     22.877303     39.267671
  H      40.519080     23.645888     39.698138
  C      40.784355     21.442711     39.501665
  H      40.723257     21.277296     40.589443
  O      39.520737     21.189496     38.891003
  H      38.898036     20.737795     39.551773
  C      44.094934     22.698313     36.874570
  O      44.992628     21.934565     36.450043
  O      43.884946     23.867107     36.450904
24
Coordinates from ORCA-job neb_MEP_ALL.QMRegion E -1075.666588618637
  C      44.515318     22.072230     39.578968
  H      45.166398     21.314675     39.129502
  H      45.041214     23.000011     39.861520
  C      43.680467     21.581898     40.681089
  C      43.169686     22.570554     41.768241
  O      43.729412     23.688678     41.881798
  O      42.235886     22.143118     42.484762
  O      43.249227     20.430553     40.680396
  C      41.735401     20.468054     38.826264
  H      41.491160     19.410191     38.945561
  C      42.754170     20.859189     38.032759
  H      43.360895     20.133035     37.482329
  C      43.266489     22.233488     38.118760
  C      42.263099     23.227164     38.587985
  H      42.506582     24.266512     38.393793
  C      41.165861     22.868029     39.259706
  H      40.508795     23.634223     39.678622
  C      40.776441     21.433245     39.482894
  H      40.727169     21.255552     40.571489
  O      39.496079     21.202620     38.892318
  H      38.883049     20.741601     39.555848
  C      44.109759     22.696212     36.898684
  O      44.994277     21.931893     36.447846
  O      43.871443     23.854054     36.462130
24
Coordinates from ORCA-job neb_MEP_ALL.QMRegion E -1075.682446569550
  C      44.440353     22.061289     39.473364
  H      45.152324     21.293596     39.124875
  H      44.991151     22.968614     39.787013
  C      43.665995     21.559687     40.663455
  C      43.181576     22.563298     41.755445
  O      43.766719     23.667609     41.864644
  O      42.242360     22.147139     42.469611
  O      43.305329     20.406010     40.726272
  C      41.695450     20.460476     38.758155
  H      41.430667     19.404085     38.845786
  C      42.755104     20.849083     38.032457
  H      43.354284     20.125592     37.469112
  C      43.335636     22.227930     38.194073
  C      42.285743     23.216911     38.618858
  H      42.518302     24.258514     38.423572
  C      41.168147     22.853189     39.252307
  H      40.498496     23.617777     39.654682
  C      40.763650     21.419784     39.457482
  H      40.733572     21.224150     40.544926
  O      39.466034     21.217410     38.894172
  H      38.862636     20.748980     39.561841
  C      44.118972     22.691398     36.918848
  O      44.997240     21.931472     36.447089
  O      43.857393     23.841527     36.477781
24
Coordinates from ORCA-job neb_MEP_ALL.QMRegion E -1075.694818840412
  C      44.402304     21.998606     39.407143
  H      45.126145     21.228128     39.087464
  H      44.942517     22.917603     39.680274
  C      43.674077     21.511908     40.642253
  C      43.213419     22.540771     41.715813
  O      43.851411     23.612713     41.821398
  O      42.250604     22.164438     42.424048
  O      43.382895     20.342980     40.769306
  C      41.619749     20.445071     38.631658
  H      41.289744     19.405244     38.609684
  C      42.731995     20.824089     37.993819
  H      43.329031     20.109350     37.418738
  C      43.346745     22.188386     38.211272
  C      42.305645     23.183568     38.655542
  H      42.553587     24.229788     38.503863
  C      41.161541     22.818280     39.237172
  H      40.480985     23.581489     39.619246
  C      40.726685     21.388548     39.395876
  H      40.746374     21.144554     40.474240
  O      39.399162     21.242748     38.896680
  H      38.812734     20.770893     39.577440
  C      44.114660     22.676461     36.933626
  O      45.003710     21.934950     36.450300
  O      43.837305     23.828428     36.509964
24
Coordinates from ORCA-job neb_MEP_ALL.QMRegion E -1075.699788347480
  C      44.385595     21.953695     39.357324
  H      45.112346     21.173335     39.054567
  H      44.933228     22.873725     39.627229
  C      43.695657     21.473008     40.627979
  C      43.240475     22.517491     41.690388
  O      43.904475     23.571726     41.787237
  O      42.251623     22.177731     42.385337
  O      43.427698     20.295528     40.789314
  C      41.558901     20.434251     38.535540
  H      41.185604     19.412978     38.439747
  C      42.702593     20.803988     37.950921
  H      43.301219     20.093924     37.370142
  C      43.351809     22.149724     38.225705
  C      42.305503     23.151244     38.665300
  H      42.577884     24.199907     38.563344
  C      41.146452     22.791223     39.222119
  H      40.466263     23.556006     39.606257
  C      40.693137     21.363178     39.347965
  H      40.751379     21.081193     40.415204
  O      39.349584     21.254617     38.896711
  H      38.775359     20.786851     39.588730
  C      44.104037     22.664716     36.938426
  O      45.002690     21.937120     36.451320
  O      43.825470     23.821090     36.528722
24
Coordinates from ORCA-job neb_MEP_ALL.QMRegion E -1075.701067018986
  C      44.390000     21.903000     39.353000
  H      45.099000     21.130000     39.029000
  H      44.922000     22.831000     39.580000
  C      43.710000     21.442000     40.614000
  C      43.262000     22.496000     41.665000
  O      43.943000     23.540000     41.760000
  O      42.257000     22.185000     42.351000
  O      43.475000     20.264000     40.806000
  C      41.507000     20.433000     38.455000
  H      41.100000     19.433000     38.303000
  C      42.679000     20.788000     37.919000
  H      43.265000     20.078000     37.331000
  C      43.327000     22.119000     38.198000
  C      42.309000     23.122000     38.681000
  H      42.595000     24.169000     38.617000
  C      41.135000     22.768000     39.207000
  H      40.457000     23.534000     39.595000
  C      40.660000     21.343000     39.305000
  H      40.748000     21.027000     40.361000
  O      39.307000     21.259000     38.897000
  H      38.743000     20.794000     39.597000
  C      44.100000     22.655000     36.945000
  O      45.001000     21.934000     36.451000
  O      43.814000     23.812000     36.546000
24
Coordinates from ORCA-job neb_MEP_ALL.QMRegion E -1075.680500703602
  C      44.842000     22.068000     40.142000
  H      45.265000     21.440000     39.358000
  H      45.368000     22.976000     40.435000
  C      43.689000     21.758000     40.746000
  C      43.115000     22.623000     41.859000
  O      43.577000     23.785000     42.012000
  O      42.221000     22.117000     42.579000
  O      42.985000     20.610000     40.433000
  C      42.079000     20.646000     39.270000
  H      41.683000     19.622000     39.219000
  C      42.892000     20.975000     38.054000
  H      43.551000     20.209000     37.638000
  C      42.969000     22.244000     37.605000
  C      42.118000     23.281000     38.202000
  H      42.307000     24.301000     37.867000
  C      41.188000     23.002000     39.130000
  H      40.598000     23.809000     39.575000
  C      40.887000     21.588000     39.553000
  H      40.742000     21.566000     40.644000
  O      39.715000     21.144000     38.884000
  H      39.068000     20.737000     39.535000
  C      44.024000     22.694000     36.600000
  O      44.937000     21.905000     36.259000
  O      43.944000     23.900000     36.236000
24
Coordinates from ORCA-job neb_MEP_ALL.QMRegion E -1075.678558095652
  C      44.766164     22.042114     40.005691
  H      45.175841     21.416804     39.213718
  H      45.232992     23.006855     40.204009
  C      43.666252     21.701145     40.690132
  C      43.129062     22.590870     41.806305
  O      43.625467     23.739651     41.953789
  O      42.225124     22.118137     42.537200
  O      42.960063     20.546540     40.414548
  C      42.029074     20.564082     39.241670
  H      41.651403     19.533353     39.185171
  C      42.834624     20.928467     38.040991
  H      43.446173     20.166642     37.552411
  C      42.996023     22.228863     37.724086
  C      42.180814     23.252592     38.388811
  H      42.423272     24.288955     38.157996
  C      41.184331     22.935051     39.231505
  H      40.565510     23.721058     39.673412
  C      40.844154     21.506535     39.562821
  H      40.713520     21.425139     40.651782
  O      39.652952     21.138225     38.887365
  H      38.996565     20.729539     39.534944
  C      44.042478     22.700065     36.728491
  O      44.971077     21.930131     36.381431
  O      43.926490     23.898619     36.353100
24
Coordinates from ORCA-job neb_MEP_ALL.QMRegion E -1075.671414051505
  C      44.721950     22.026232     39.919218
  H      45.141172     21.388083     39.143634
  H      45.149457     23.017870     40.061282
  C      43.666993     21.657850     40.666646
  C      43.144281     22.571933     41.776106
  O      43.663510     23.711499     41.918162
  O      42.227715     22.125416     42.509249
  O      42.969017     20.500060     40.415850
  C      41.978162     20.515099     39.185924
  H      41.616030     19.476752     39.134013
  C      42.796827     20.904761     38.024764
  H      43.388444     20.151058     37.502333
  C      43.026575     22.218947     37.809677
  C      42.214847     23.232581     38.495203
  H      42.481294     24.273806     38.317017
  C      41.177446     22.896357     39.276779
  H      40.543291     23.671562     39.715134
  C      40.813813     21.463441     39.553738
  H      40.704647     21.339834     40.639690
  O      39.602284     21.147343     38.889640
  H      38.947888     20.730418     39.538808
  C      44.056291     22.701134     36.805081
  O      44.986669     21.940946     36.440528
  O      43.909422     23.891725     36.418120
24
Coordinates from ORCA-job neb_MEP_ALL.QMRegion E -1075.657050484540
  C      44.688832     22.033907     39.849303
  H      45.147353     21.362141     39.128236
  H      45.114602     23.023694     39.987493
  C      43.685445     21.626362     40.678138
  C      43.157284     22.569978     41.769792
  O      43.685738     23.704583     41.904658
  O      42.228810     22.136606     42.497350
  O      43.060402     20.473563     40.497970
  C      41.884907     20.491285     39.054616
  H      41.576433     19.440355     39.075640
  C      42.771930     20.889699     38.014769
  H      43.371911     20.145964     37.488378
  C      43.076812     22.219397     37.888311
  C      42.231830     23.228707     38.534676
  H      42.496894     24.270244     38.359647
  C      41.170299     22.883897     39.278050
  H      40.529883     23.655314     39.712362
  C      40.795110     21.450586     39.529073
  H      40.714088     21.302167     40.614235
  O      39.559299     21.167749     38.891308
  H      38.918889     20.734785     39.545300
  C      44.074614     22.699283     36.843930
  O      44.990863     21.939628     36.450270
  O      43.896958     23.879927     36.439540
24
Coordinates from ORCA-job neb_MEP_ALL.QMRegion E -1075.655258501229
  C      44.622531     22.057480     39.732989
  H      45.164491     21.336751     39.127454
  H      45.085652     23.022444     39.927863
  C      43.695837     21.600539     40.691200
  C      43.164219     22.571768     41.771211
  O      43.702937     23.700852     41.895018
  O      42.231284     22.144204     42.492336
  O      43.183782     20.452475     40.616137
  C      41.784566     20.476681     38.906540
  H      41.535057     19.419610     39.014900
  C      42.754636     20.870963     38.021450
  H      43.365276     20.140818     37.487756
  C      43.159623     22.226950     37.996041
  C      42.244440     23.229562     38.558425
  H      42.501858     24.271557     38.375431
  C      41.164804     22.876776     39.268503
  H      40.518876     23.646349     39.699156
  C      40.781120     21.441593     39.501892
  H      40.723306     21.278040     40.588892
  O      39.522370     21.189142     38.893648
  H      38.898913     20.738744     39.550530
  C      44.093242     22.698466     36.874254
  O      44.992243     21.935464     36.450327
  O      43.885934     23.867106     36.450515
24
Coordinates from ORCA-job neb_MEP_ALL.QMRegion E -1075.666935568638
  C      44.517219     22.072210     39.582785
  H      45.165450     21.318339     39.132082
  H      45.039620     22.998780     39.861952
  C      43.682429     21.586149     40.678733
  C      43.171334     22.568464     41.768266
  O      43.725316     23.688041     41.883370
  O      42.235988     22.145642     42.486490
  O      43.250600     20.432531     40.681957
  C      41.738378     20.469045     38.827797
  H      41.493648     19.411150     38.949370
  C      42.755017     20.859398     38.032917
  H      43.361134     20.134846     37.485115
  C      43.267078     22.229442     38.119702
  C      42.263482     23.226234     38.586573
  H      42.506235     24.270363     38.392143
  C      41.165664     22.867794     39.260295
  H      40.508138     23.635742     39.679553
  C      40.772660     21.431059     39.483314
  H      40.727183     21.257235     40.571179
  O      39.499061     21.202594     38.896361
  H      38.884748     20.742635     39.553860
  C      44.108800     22.696859     36.899468
  O      44.993627     21.933017     36.447992
  O      43.872812     23.854165     36.460690
24
Coordinates from ORCA-job neb_MEP_ALL.QMRegion E -1075.682811715932
  C      44.439896     22.060302     39.476346
  H      45.150042     21.298423     39.127581
  H      44.987208     22.968494     39.785540
  C      43.672724     21.579189     40.658028
  C      43.185199     22.562165     41.755751
  O      43.761445     23.666286     41.866210
  O      42.241304     22.149821     42.473184
  O      43.304528     20.394287     40.731874
  C      41.699289     20.462301     38.757611
  H      41.433203     19.404735     38.849680
  C      42.756537     20.850060     38.034705
  H      43.355267     20.127686     37.473255
  C      43.337505     22.222195     38.196799
  C      42.287812     23.216171     38.618051
  H      42.517993     24.263137     38.422036
  C      41.168183     22.853452     39.252712
  H      40.497330     23.619704     39.654691
  C      40.760207     21.417319     39.457980
  H      40.733758     21.226034     40.545194
  O      39.469549     21.217982     38.898911
  H      38.864717     20.750326     39.559644
  C      44.119358     22.692517     36.921040
  O      44.996540     21.932516     36.447532
  O      43.858380     23.841897     36.476057
24
Coordinates from ORCA-job neb_MEP_ALL.QMRegion E -1075.695326046324
  C      44.403710     21.996483     39.409564
  H      45.122790     21.231722     39.089082
  H      44.938430     22.915691     39.677611
  C      43.678757     21.522877     40.634318
  C      43.217995     22.537749     41.716980
  O      43.848787     23.611379     41.821562
  O      42.249407     22.168108     42.425676
  O      43.384497     20.336127     40.774780
  C      41.620430     20.445824     38.628667
  H      41.288694     19.404764     38.608307
  C      42.733911     20.825402     37.994447
  H      43.329455     20.110523     37.420986
  C      43.347190     22.182735     38.211757
  C      42.307843     23.182002     38.654806
  H      42.554306     24.232589     38.504526
  C      41.161453     22.818057     39.236296
  H      40.479000     23.583012     39.619117
  C      40.722863     21.385550     39.395410
  H      40.746969     21.144406     40.473587
  O      39.401127     21.243671     38.900728
  H      38.813736     20.772858     39.575853
  C      44.116024     22.677989     36.936910
  O      45.002532     21.936073     36.450592
  O      43.837477     23.828106     36.508727
24
Coordinates from ORCA-job neb_MEP_ALL.QMRegion E -1075.698753583259
  C      44.400731     21.947028     39.379827
  H      45.107411     21.178967     39.055028
  H      44.928861     22.869413     39.623547
  C      43.693079     21.471525     40.620888
  C      43.243450     22.514432     41.690426
  O      43.903245     23.571731     41.788076
  O      42.252604     22.180108     42.384858
  O      43.432407     20.301683     40.790292
  C      41.559956     20.435313     38.532829
  H      41.184756     19.412948     38.438779
  C      42.707443     20.804835     37.954511
  H      43.300491     20.095408     37.371561
  C      43.335225     22.150435     38.204468
  C      42.309754     23.150391     38.669283
  H      42.577596     24.200409     38.563111
  C      41.147500     22.791314     39.220403
  H      40.465082     23.556519     39.605711
  C      40.690795     21.361200     39.347346
  H      40.751734     21.080924     40.415513
  O      39.351066     21.254955     38.899308
  H      38.775782     20.787981     39.587759
  C      44.108145     22.666540     36.943315
  O      45.001368     21.937047     36.450521
  O      43.823633     23.819157     36.528598
24
Coordinates from ORCA-job neb_MEP_ALL.QMRegion E -1075.701067018986
  C      44.390000     21.903000     39.353000
  H      45.099000     21.130000     39.029000
  H      44.922000     22.831000     39.580000
  C      43.710000     21.442000     40.614000
  C      43.262000     22.496000     41.665000
  O      43.943000     23.540000     41.760000
  O      42.257000     22.185000     42.351000
  O      43.475000     20.264000     40.806000
  C      41.507000     20.433000     38.455000
  H      41.100000     19.433000     38.303000
  C      42.679000     20.788000     37.919000
  H      43.265000     20.078000     37.331000
  C      43.327000     22.119000     38.198000
  C      42.309000     23.122000     38.681000
  H      42.595000     24.169000     38.617000
  C      41.135000     22.768000     39.207000
  H      40.457000     23.534000     39.595000
  C      40.660000     21.343000     39.305000
  H      40.748000     21.027000     40.361000
  O      39.307000     21.259000     38.897000
  H      38.743000     20.794000     39.597000
  C      44.100000     22.655000     36.945000
  O      45.001000     21.934000     36.451000
  O      43.814000     23.812000     36.546000
24
Coordinates from ORCA-job neb_MEP_ALL.QMRegion E -1075.680500703602
  C      44.842000     22.068000     40.142000
  H      45.265000     21.440000     39.358000
  H      45.368000     22.976000     40.435000
  C      43.689000     21.758000     40.746000
  C      43.115000     22.623000     41.859000
  O      43.577000     23.785000     42.012000
  O      42.221000     22.117000     42.579000
  O      42.985000     20.610000     40.433000
  C      42.079000     20.646000     39.270000
  H      41.683000     19.622000     39.219000
  C      42.892000     20.975000     38.054000
  H      43.551000     20.209000     37.638000
  C      42.969000     22.244000     37.605000
  C      42.118000     23.281000     38.202000
  H      42.307000     24.301000     37.867000
  C      41.188000     23.002000     39.130000
  H      40.598000     23.809000     39.575000
  C      40.887000     21.588000     39.553000
  H      40.742000     21.566000     40.644000
  O      39.715000     21.144000     38.884000
  H      39.068000     20.737000     39.535000
  C      44.024000     22.694000     36.600000
  O      44.937000     21.905000     36.259000
  O      43.944000     23.900000     36.236000
24
Coordinates from ORCA-job neb_MEP_ALL.QMRegion E -1075.678707188495
  C      44.765753     22.040109     40.004847
  H      45.173996     21.416283     39.211686
  H      45.232024     23.004111     40.202895
  C      43.664977     21.700352     40.687974
  C      43.129580     22.589171     41.804661
  O      43.626215     23.737559     41.952627
  O      42.224966     22.118326     42.536425
  O      42.963250     20.547144     40.417945
  C      42.024706     20.563771     39.235043
  H      41.651304     19.533118     39.185390
  C      42.833507     20.926431     38.042057
  H      43.443416     20.166773     37.550748
  C      42.993806     22.226773     37.724662
  C      42.180165     23.251626     38.390875
  H      42.424914     24.289006     38.162682
  C      41.183812     22.933256     39.233213
  H      40.566249     23.719753     39.676838
  C      40.844522     21.504222     39.563196
  H      40.711826     21.423286     40.652236
  O      39.653248     21.136959     38.887835
  H      38.995682     20.728927     39.534428
  C      44.040684     22.700005     36.727874
  O      44.971333     21.931412     36.383404
  O      43.926671     23.899420     36.354567
24
Coordinates from ORCA-job neb_MEP_ALL.QMRegion E -1075.671265066850
  C      44.721653     22.023640     39.918271
  H      45.140874     21.386381     39.142987
  H      45.149510     23.014063     40.060632
  C      43.666702     21.655866     40.665479
  C      43.145271     22.570486     41.774575
  O      43.665231     23.709267     41.916711
  O      42.227384     22.125827     42.507753
  O      42.968924     20.500693     40.413748
  C      41.977063     20.513940     39.183526
  H      41.614806     19.476159     39.132036
  C      42.795025     20.903071     38.024268
  H      43.386392     20.151392     37.500571
  C      43.025716     22.217246     37.810672
  C      42.213846     23.231796     38.495750
  H      42.482029     24.273538     38.319789
  C      41.176619     22.894987     39.277357
  H      40.543685     23.670470     39.717299
  C      40.813934     21.461687     39.552845
  H      40.703828     21.338118     40.638372
  O      39.601271     21.146977     38.890004
  H      38.946162     20.730108     39.538684
  C      44.053997     22.700564     36.803350
  O      44.986698     21.942250     36.441294
  O      43.909656     23.892475     36.418892
24
Coordinates from ORCA-job neb_MEP_ALL.QMRegion E -1075.656969952469
  C      44.690145     22.032448     39.850205
  H      45.147933     21.360785     39.128304
  H      45.115984     23.022578     39.988334
  C      43.685380     21.625429     40.677319
  C      43.157488     22.569410     41.769018
  O      43.686650     23.703734     41.904322
  O      42.228601     22.136947     42.496498
  O      43.058495     20.472735     40.496153
  C      41.885206     20.491157     39.055145
  H      41.576363     19.439864     39.075311
  C      42.771669     20.889790     38.013725
  H      43.371389     20.145917     37.487359
  C      43.076045     22.219122     37.886699
  C      42.231086     23.228213     38.534043
  H      42.496829     24.270082     38.360001
  C      41.170083     22.883426     39.278092
  H      40.529933     23.654728     39.713172
  C      40.794260     21.450249     39.528728
  H      40.714017     21.301663     40.613693
  O      39.558891     21.167561     38.891282
  H      38.918203     20.734936     39.545377
  C      44.073317     22.698957     36.842649
  O      44.990723     21.940002     36.450445
  O      43.896984     23.880261     36.439762
24
Coordinates from ORCA-job neb_MEP_ALL.QMRegion E -1075.655176707102
  C      44.624940     22.057037     39.735995
  H      45.164833     21.337998     39.129090
  H      45.086209     23.021421     39.929222
  C      43.696413     21.601755     40.690357
  C      43.164861     22.570819     41.770993
  O      43.701701     23.700450     41.895658
  O      42.231404     22.145224     42.492527
  O      43.183365     20.453636     40.615218
  C      41.785985     20.477076     38.908668
  H      41.536313     19.419951     39.016655
  C      42.754857     20.871143     38.021125
  H      43.365535     20.141329     37.488305
  C      43.159030     22.226213     37.994405
  C      42.243938     23.229245     38.557331
  H      42.501594     24.272698     38.374852
  C      41.164689     22.876463     39.268977
  H      40.518809     23.646695     39.700139
  C      40.779434     21.441024     39.502230
  H      40.723299     21.278675     40.588744
  O      39.523525     21.188945     38.895068
  H      38.899359     20.739305     39.549899
  C      44.092168     22.698331     36.873746
  O      44.991827     21.936245     36.450621
  O      43.886627     23.867419     36.450126
24
Coordinates from ORCA-job neb_MEP_ALL.QMRegion E -1075.666723604898
  C      44.518885     22.072602     39.586084
  H      45.165192     21.321208     39.134331
  H      45.038581     22.998411     39.862703
  C      43.683273     21.588221     40.677994
  C      43.171898     22.567038     41.768706
  O      43.722108     23.688251     41.884736
  O      42.236299     22.147263     42.487708
  O      43.252199     20.435452     40.682937
  C      41.740375     20.469474     38.830152
  H      41.496320     19.412134     38.953140
  C      42.755804     20.859596     38.033263
  H      43.361825     20.136030     37.487457
  C      43.267239     22.227565     38.119931
  C      42.263558     23.226103     38.585495
  H      42.505692     24.272744     38.390649
  C      41.165497     22.867726     39.260737
  H      40.507793     23.636934     39.680322
  C      40.771054     21.430053     39.483934
  H      40.727196     21.258721     40.571340
  O      39.501195     21.202699     38.898721
  H      38.885946     20.743151     39.552687
  C      44.108280     22.697089     36.899928
  O      44.993053     21.933953     36.448228
  O      43.873826     23.854297     36.459623
24
Coordinates from ORCA-job neb_MEP_ALL.QMRegion E -1075.682389001609
  C      44.439762     22.061084     39.478275
  H      45.148569     21.302200     39.130179
  H      44.983627     22.969016     39.783966
  C      43.671554     21.575473     40.657222
  C      43.185238     22.560182     41.757107
  O      43.757972     23.667554     41.867985
  O      42.242373     22.152209     42.474842
  O      43.310362     20.403389     40.734969
  C      41.700862     20.462773     38.759103
  H      41.436100     19.405898     38.853368
  C      42.759107     20.850965     38.035959
  H      43.356602     20.129364     37.477212
  C      43.338753     22.219159     38.198908
  C      42.289078     23.216221     38.617819
  H      42.517589     24.266265     38.420627
  C      41.168582     22.853787     39.252853
  H      40.496495     23.621348     39.654475
  C      40.759027     21.416201     39.458728
  H      40.734090     21.227707     40.545714
  O      39.472162     21.218796     38.901871
  H      38.866322     20.751107     39.558332
  C      44.120031     22.693361     36.922663
  O      44.996030     21.933433     36.448146
  O      43.859138     23.841814     36.475033
24
Coordinates from ORCA-job neb_MEP_ALL.QMRegion E -1075.695439957832
  C      44.404123     21.995595     39.410599
  H      45.120643     21.234012     39.090377
  H      44.934839     22.914710     39.675039
  C      43.679172     21.519718     40.631579
  C      43.220054     22.535015     41.718209
  O      43.847497     23.611259     41.821910
  O      42.249781     22.171201     42.426020
  O      43.389515     20.341764     40.777781
  C      41.620262     20.445921     38.626357
  H      41.287962     19.404718     38.606724
  C      42.735399     20.825798     37.994828
  H      43.330210     20.111402     37.423078
  C      43.347836     22.179521     38.212362
  C      42.309266     23.181109     38.654547
  H      42.554988     24.234219     38.505255
  C      41.161358     22.817926     39.235442
  H      40.477524     23.584082     39.618652
  C      40.721094     21.383782     39.395016
  H      40.747689     21.144079     40.473108
  O      39.402159     21.244878     38.903344
  H      38.814307     20.774335     39.575043
  C      44.117199     22.679089     36.939430
  O      45.001828     21.936972     36.451065
  O      43.837524     23.827736     36.508085
24
Coordinates from ORCA-job neb_MEP_ALL.QMRegion E -1075.699975437455
  C      44.407076     21.942469     39.393358
  H      45.105345     21.181706     39.054919
  H      44.926453     22.867868     39.621340
  C      43.692734     21.475574     40.617134
  C      43.245452     22.512685     41.689701
  O      43.902452     23.571373     41.788768
  O      42.253501     22.181695     42.384564
  O      43.435025     20.301251     40.791564
  C      41.560657     20.435737     38.530849
  H      41.184389     19.413270     38.437871
  C      42.710118     20.804832     37.956699
  H      43.300319     20.096562     37.372831
  C      43.326378     22.150540     38.192185
  C      42.311996     23.150290     38.671962
  H      42.577513     24.200646     38.563017
  C      41.147968     22.791397     39.219370
  H      40.464459     23.556677     39.605072
  C      40.689908     21.360126     39.346682
  H      40.752152     21.080656     40.415668
  O      39.351804     21.255437     38.901050
  H      38.776015     20.788826     39.587249
  C      44.110358     22.667805     36.946040
  O      45.000877     21.936863     36.450261
  O      43.822496     23.818217     36.528633
24
Coordinates from ORCA-job neb_MEP_ALL.QMRegion E -1075.701067018986
  C      44.390000     21.903000     39.353000
  H      45.099000     21.130000     39.029000
  H      44.922000     22.831000     39.580000
  C      43.710000     21.442000     40.614000
  C      43.262000     22.496000     41.665000
  O      43.943000     23.540000     41.760000
  O      42.257000     22.185000     42.351000
  O      43.475000     20.264000     40.806000
  C      41.507000     20.433000     38.455000
  H      41.100000     19.433000     38.303000
  C      42.679000     20.788000     37.919000
  H      43.265000     20.078000     37.331000
  C      43.327000     22.119000     38.198000
  C      42.309000     23.122000     38.681000
  H      42.595000     24.169000     38.617000
  C      41.135000     22.768000     39.207000
  H      40.457000     23.534000     39.595000
  C      40.660000     21.343000     39.305000
  H      40.748000     21.027000     40.361000
  O      39.307000     21.259000     38.897000
  H      38.743000     20.794000     39.597000
  C      44.100000     22.655000     36.945000
  O      45.001000     21.934000     36.451000
  O      43.814000     23.812000     36.546000
24
Coordinates from ORCA-job neb_MEP_ALL.QMRegion E -1075.680500703602
  C      44.842000     22.068000     40.142000
  H      45.265000     21.440000     39.358000
  H      45.368000     22.976000     40.435000
  C      43.689000     21.758000     40.746000
  C      43.115000     22.623000     41.859000
  O      43.577000     23.785000     42.012000
  O      42.221000     22.117000     42.579000
  O      42.985000     20.610000     40.433000
  C      42.079000     20.646000     39.270000
  H      41.683000     19.622000     39.219000
  C      42.892000     20.975000     38.054000
  H      43.551000     20.209000     37.638000
  C      42.969000     22.244000     37.605000
  C      42.118000     23.281000     38.202000
  H      42.307000     24.301000     37.867000
  C      41.188000     23.002000     39.130000
  H      40.598000     23.809000     39.575000
  C      40.887000     21.588000     39.553000
  H      40.742000     21.566000     40.644000
  O      39.715000     21.144000     38.884000
  H      39.068000     20.737000     39.535000
  C      44.024000     22.694000     36.600000
  O      44.937000     21.905000     36.259000
  O      43.944000     23.900000     36.236000
24
Coordinates from ORCA-job neb_MEP_ALL.QMRegion E -1075.678694675216
  C      44.764748     22.033977     40.000854
  H      45.167996     21.413742     39.204444
  H      45.229314     22.995384     40.199254
  C      43.662759     21.698870     40.683265
  C      43.130499     22.584681     41.799764
  O      43.629460     23.731027     41.948436
  O      42.224529     22.118303     42.533135
  O      42.967212     20.545346     40.422742
  C      42.015129     20.561425     39.222124
  H      41.650069     19.530123     39.185586
  C      42.828874     20.921674     38.041997
  H      43.434639     20.165748     37.544715
  C      42.987290     22.222132     37.725745
  C      42.178050     23.248292     38.397679
  H      42.430253     24.287880     38.179011
  C      41.182342     22.927929     39.239199
  H      40.568954     23.714594     39.688857
  C      40.843286     21.498226     39.564123
  H      40.706971     21.416195     40.653188
  O      39.653121     21.132406     38.888678
  H      38.992650     20.726723     39.532956
  C      44.034957     22.699776     36.727612
  O      44.971653     21.935450     36.389741
  O      43.926124     23.901297     36.359763
24
Coordinates from ORCA-job neb_MEP_ALL.QMRegion E -1075.671407946540
  C      44.721745     22.014946     39.915101
  H      45.140112     21.379808     39.140173
  H      45.150599     23.002134     40.059071
  C      43.665821     21.650611     40.661712
  C      43.147865     22.565994     41.769848
  O      43.671596     23.701980     41.911681
  O      42.226293     22.126774     42.502319
  O      42.966329     20.499244     40.406680
  C      41.973288     20.510121     39.177634
  H      41.610806     19.473438     39.125766
  C      42.789471     20.899263     38.021087
  H      43.380034     20.151283     37.493945
  C      43.022160     22.213463     37.811372
  C      42.211061     23.229053     38.497593
  H      42.484164     24.271727     38.328969
  C      41.174293     22.890733     39.279124
  H      40.544958     23.666364     39.724730
  C      40.812540     21.456611     39.550054
  H      40.701454     21.332079     40.634357
  O      39.597666     21.145320     38.890624
  H      38.940759     20.729209     39.538407
  C      44.047611     22.699323     36.799735
  O      44.986203     21.945941     36.443189
  O      43.909089     23.894137     36.421393
24
Coordinates from ORCA-job neb_MEP_ALL.QMRegion E -1075.657375071189
  C      44.693748     22.027607     39.851755
  H      45.150130     21.356147     39.128866
  H      45.120189     23.018106     39.990474
  C      43.685362     21.622246     40.674648
  C      43.158499     22.567402     41.766429
  O      43.689977     23.700616     41.902884
  O      42.227793     22.138164     42.493463
  O      43.053874     20.470266     40.491271
  C      41.885190     20.489995     39.055083
  H      41.575754     19.438538     39.073368
  C      42.770313     20.889492     38.010706
  H      43.369561     20.145692     37.483864
  C      43.073644     22.218288     37.882685
  C      42.228999     23.226757     38.532268
  H      42.496515     24.269356     38.361397
  C      41.169337     22.881806     39.277879
  H      40.529955     23.652707     39.715861
  C      40.791684     21.448770     39.527167
  H      40.713796     21.299629     40.611741
  O      39.556600     21.167104     38.891312
  H      38.915702     20.735585     39.545617
  C      44.070052     22.698382     36.839427
  O      44.990173     21.941025     36.450649
  O      43.896662     23.881319     36.440265
24
Coordinates from ORCA-job neb_MEP_ALL.QMRegion E -1075.655109292114
  C      44.632932     22.055351     39.746725
  H      45.166983     21.340887     39.133572
  H      45.089496     23.020012     39.934637
  C      43.697876     21.605142     40.689377
  C      43.165922     22.569280     41.770797
  O      43.698832     23.700090     41.897341
  O      42.231429     22.146908     42.492764
  O      43.180797     20.456565     40.610930
  C      41.790440     20.477818     38.916484
  H      41.540960     19.421219     39.022849
  C      42.755277     20.872111     38.020732
  H      43.366854     20.142292     37.489592
  C      43.154632     22.225212     37.987893
  C      42.241814     23.229196     38.554268
  H      42.500244     24.274542     38.373066
  C      41.164532     22.876122     39.270028
  H      40.519130     23.647357     39.703333
  C      40.777870     21.440569     39.503732
  H      40.723104     21.280558     40.589378
  O      39.525776     21.188441     38.896903
  H      38.899945     20.740303     39.549163
  C      44.089501     22.698359     36.871612
  O      44.990965     21.937931     36.451324
  O      43.888244     23.868751     36.449007
24
Coordinates from ORCA-job neb_MEP_ALL.QMRegion E -1075.666520785486
  C      44.523591     22.074836     39.595991
  H      45.166424     21.328504     39.140917
  H      45.036973     22.999916     39.866453
  C      43.685309     21.594488     40.679457
  C      43.172054     22.565567     41.770872
  O      43.713431     23.690471     41.888600
  O      42.236762     22.149532     42.491229
  O      43.255957     20.442480     40.684796
  C      41.745928     20.470521     38.839190
  H      41.505644     19.414776     38.966002
  C      42.757316     20.860226     38.035849
  H      43.365450     20.138191     37.494023
  C      43.266293     22.226687     38.118680
  C      42.262627     23.227336     38.582874
  H      42.503357     24.277075     38.385972
  C      41.165412     22.868417     39.261683
  H      40.507558     23.639876     39.682492
  C      40.771071     21.429729     39.486780
  H      40.727201     21.263235     40.573268
  O      39.506113     21.203293     38.902152
  H      38.888644     20.743531     39.550893
  C      44.107130     22.697721     36.900556
  O      44.991943     21.935900     36.449007
  O      43.876278     23.854655     36.457135
24
Coordinates from ORCA-job neb_MEP_ALL.QMRegion E -1075.683021937436
  C      44.437326     22.065382     39.482716
  H      45.146741     21.312313     39.138245
  H      44.973102     22.973419     39.780356
  C      43.670043     21.573475     40.659872
  C      43.184987     22.558791     41.761240
  O      43.747508     23.672108     41.873229
  O      42.244431     22.156128     42.480868
  O      43.325603     20.421191     40.744843
  C      41.705989     20.464261     38.765477
  H      41.446731     19.409355     38.866431
  C      42.764428     20.852174     38.042119
  H      43.363044     20.132973     37.489329
  C      43.343056     22.217538     38.204508
  C      42.291485     23.218283     38.617864
  H      42.515878     24.272784     38.416005
  C      41.170198     22.855753     39.253172
  H      40.494952     23.625801     39.653210
  C      40.760818     21.416172     39.462106
  H      40.735340     21.233124     40.548779
  O      39.478662     21.221999     38.907126
  H      38.870534     20.752184     39.556224
  C      44.121767     22.695424     36.926978
  O      44.995629     21.935484     36.450210
  O      43.861250     23.841320     36.472978
24
Coordinates from ORCA-job neb_MEP_ALL.QMRegion E -1075.695703576717
  C      44.401375     21.994256     39.410697
  H      45.117099     21.238245     39.093526
  H      44.924025     22.914232     39.667269
  C      43.681175     21.516947     40.629786
  C      43.225393     22.530254     41.720553
  O      43.845179     23.610913     41.822772
  O      42.251078     22.178252     42.426822
  O      43.404405     20.350413     40.787433
  C      41.618617     20.445450     38.619737
  H      41.286028     19.405087     38.600735
  C      42.738045     20.824883     37.996453
  H      43.334090     20.113051     37.429345
  C      43.351037     22.175413     38.215158
  C      42.312099     23.179759     38.654875
  H      42.557211     24.236560     38.507928
  C      41.161036     22.817988     39.232786
  H      40.474061     23.586219     39.616042
  C      40.720277     21.381175     39.393680
  H      40.750450     21.142502     40.472003
  O      39.403350     21.249800     38.908242
  H      38.814910     20.777973     39.574538
  C      44.120006     22.681517     36.945807
  O      45.001204     21.939118     36.453000
  O      43.837409     23.826759     36.507497
24
Coordinates from ORCA-job neb_MEP_ALL.QMRegion E -1075.699343305399
  C      44.412831     21.934409     39.417025
  H      45.104443     21.184086     39.053499
  H      44.922254     22.868385     39.616883
  C      43.691771     21.481052     40.616592
  C      43.248371     22.510479     41.686557
  O      43.901816     23.570220     41.790647
  O      42.256758     22.184890     42.383344
  O      43.442986     20.302539     40.793941
  C      41.561403     20.435787     38.526535
  H      41.184089     19.414868     38.434602
  C      42.714063     20.803298     37.959930
  H      43.301447     20.099126     37.376392
  C      43.312213     22.150168     38.172098
  C      42.314951     23.151074     38.677042
  H      42.577874     24.201021     38.563189
  C      41.148178     22.791476     39.217629
  H      40.463561     23.556383     39.602758
  C      40.690240     21.358635     39.344616
  H      40.753889     21.079689     40.415327
  O      39.352863     21.257793     38.904141
  H      38.776013     20.790798     39.587114
  C      44.113785     22.669872     36.949345
  O      45.000923     21.936544     36.450994
  O      43.820430     23.817649     36.529201
24
Coordinates from ORCA-job neb_MEP_ALL.QMRegion E -1075.701067018986
  C      44.390000     21.903000     39.353000
  H      45.099000     21.130000     39.029000
  H      44.922000     22.831000     39.580000
  C      43.710000     21.442000     40.614000
  C      43.262000     22.496000     41.665000
  O      43.943000     23.540000     41.760000
  O      42.257000     22.185000     42.351000
  O      43.475000     20.264000     40.806000
  C      41.507000     20.433000     38.455000
  H      41.100000     19.433000     38.303000
  C      42.679000     20.788000     37.919000
  H      43.265000     20.078000     37.331000
  C      43.327000     22.119000     38.198000
  C      42.309000     23.122000     38.681000
  H      42.595000     24.169000     38.617000
  C      41.135000     22.768000     39.207000
  H      40.457000     23.534000     39.595000
  C      40.660000     21.343000     39.305000
  H      40.748000     21.027000     40.361000
  O      39.307000     21.259000     38.897000
  H      38.743000     20.794000     39.597000
  C      44.100000     22.655000     36.945000
  O      45.001000     21.934000     36.451000
  O      43.814000     23.812000     36.546000
24
Coordinates from ORCA-job neb_MEP_ALL.QMRegion E -1075.680500703602
  C      44.842000     22.068000     40.142000
  H      45.265000     21.440000     39.358000
  H      45.368000     22.976000     40.435000
  C      43.689000     21.758000     40.746000
  C      43.115000     22.623000     41.859000
  O      43.577000     23.785000     42.012000
  O      42.221000     22.117000     42.579000
  O      42.985000     20.610000     40.433000
  C      42.079000     20.646000     39.270000
  H      41.683000     19.622000     39.219000
  C      42.892000     20.975000     38.054000
  H      43.551000     20.209000     37.638000
  C      42.969000     22.244000     37.605000
  C      42.118000     23.281000     38.202000
  H      42.307000     24.301000     37.867000
  C      41.188000     23.002000     39.130000
  H      40.598000     23.809000     39.575000
  C      40.887000     21.588000     39.553000
  H      40.742000     21.566000     40.644000
  O      39.715000     21.144000     38.884000
  H      39.068000     20.737000     39.535000
  C      44.024000     22.694000     36.600000
  O      44.937000     21.905000     36.259000
  O      43.944000     23.900000     36.236000
24
Coordinates from ORCA-job neb_MEP_ALL.QMRegion E -1075.678153118124
  C      44.763464     22.027428     39.996305
  H      45.161876     21.409837     39.196059
  H      45.228357     22.986881     40.196558
  C      43.661342     21.695522     40.679505
  C      43.130793     22.581070     41.795378
  O      43.633831     23.725358     41.943862
  O      42.223714     22.117363     42.529040
  O      42.966076     20.541647     40.421960
  C      42.009580     20.557186     39.217844
  H      41.647976     19.525242     39.185516
  C      42.822689     20.918397     38.038503
  H      43.425729     20.163077     37.537670
  C      42.980585     22.219730     37.724898
  C      42.175919     23.244928     38.404167
  H      42.435419     24.285126     38.196740
  C      41.180743     22.922923     39.245976
  H      40.572339     23.708575     39.702914
  C      40.839954     21.493001     39.565112
  H      40.702457     21.407939     40.653729
  O      39.651669     21.126991     38.888197
  H      38.989435     20.723905     39.531747
  C      44.029511     22.699936     36.729028
  O      44.971006     21.939229     36.395968
  O      43.923808     23.902702     36.365260
24
Coordinates from ORCA-job neb_MEP_ALL.QMRegion E -1075.671389329381
  C      44.722756     22.004895     39.912834
  H      45.139595     21.371370     39.136229
  H      45.153699     22.990067     40.058872
  C      43.664329     21.644763     40.656524
  C      43.150004     22.561444     41.764732
  O      43.679300     23.694434     41.906203
  O      42.224732     22.127169     42.496132
  O      42.960570     20.495147     40.398302
  C      41.970295     20.506208     39.174611
  H      41.606806     19.469976     39.119732
  C      42.784151     20.896883     38.015959
  H      43.373475     20.150078     37.485961
  C      43.016623     22.211073     37.808201
  C      42.208464     23.225985     38.499253
  H      42.485928     24.268772     38.338527
  C      41.172113     22.886450     39.280980
  H      40.546481     23.661387     39.733231
  C      40.809362     21.451938     39.547513
  H      40.699064     21.325389     40.630937
  O      39.593200     21.142627     38.890351
  H      38.935628     20.728365     39.538178
  C      44.042411     22.699101     36.797867
  O      44.984824     21.948911     36.444349
  O      43.906692     23.895380     36.423731
24
Coordinates from ORCA-job neb_MEP_ALL.QMRegion E -1075.657742516199
  C      44.696917     22.022503     39.852699
  H      45.153050     21.350959     39.129777
  H      45.124489     23.012428     39.992325
  C      43.685605     21.619018     40.671949
  C      43.159858     22.565227     41.763723
  O      43.693857     23.696990     41.900956
  O      42.226766     22.139390     42.489883
  O      43.050750     20.468084     40.487099
  C      41.884140     20.488472     39.053550
  H      41.574863     19.437094     39.070718
  C      42.768524     20.888753     38.007815
  H      43.367583     20.145388     37.480100
  C      43.070809     22.217237     37.879363
  C      42.227192     23.225544     38.530695
  H      42.495925     24.268360     38.362964
  C      41.168115     22.880008     39.277481
  H      40.529991     23.650330     39.718761
  C      40.789529     21.446816     39.525160
  H      40.713507     21.297136     40.609616
  O      39.553638     21.167010     38.891000
  H      38.912494     20.736253     39.546177
  C      44.067778     22.698470     36.837337
  O      44.989391     21.941911     36.450324
  O      43.895859     23.882315     36.440403
24
Coordinates from ORCA-job neb_MEP_ALL.QMRegion E -1075.654647724167
  C      44.642194     22.053756     39.759213
  H      45.170424     21.342480     39.137464
  H      45.094660     23.020334     39.941439
  C      43.699125     21.607473     40.690160
  C      43.165900     22.569338     41.771055
  O      43.697230     23.700880     41.898723
  O      42.230898     22.146978     42.492625
  O      43.176858     20.458655     40.605287
  C      41.795372     20.478757     38.924852
  H      41.546189     19.422010     39.029916
  C      42.755702     20.873203     38.020745
  H      43.368323     20.142984     37.490669
  C      43.146986     22.225348     37.979418
  C      42.239445     23.229646     38.551400
  H      42.498309     24.274985     38.371238
  C      41.164281     22.876646     39.270922
  H      40.520094     23.647325     39.706750
  C      40.778900     21.441176     39.505548
  H      40.722736     21.282301     40.591054
  O      39.526957     21.187932     38.896776
  H      38.899817     20.740771     39.549406
  C      44.087495     22.698971     36.869112
  O      44.990564     21.938778     36.451715
  O      43.889202     23.870469     36.447940
24
Coordinates from ORCA-job neb_MEP_ALL.QMRegion E -1075.665182238371
  C      44.527979     22.078335     39.605652
  H      45.169974     21.333935     39.147241
  H      45.037649     23.004796     39.872033
  C      43.687018     21.599705     40.684006
  C      43.169997     22.567261     41.774286
  O      43.706443     23.694972     41.892119
  O      42.236511     22.148713     42.494565
  O      43.258122     20.447260     40.685612
  C      41.751592     20.472031     38.849538
  H      41.515861     19.416205     38.980488
  C      42.759102     20.861697     38.039650
  H      43.370140     20.139208     37.500291
  C      43.262673     22.229019     38.115678
  C      42.260912     23.229798     38.580628
  H      42.500265     24.278938     38.381153
  C      41.165624     22.870533     39.262577
  H      40.508312     23.641690     39.684468
  C      40.774439     21.431927     39.490528
  H      40.727164     21.267741     40.576830
  O      39.509573     21.203722     38.902673
  H      38.890781     20.743104     39.550404
  C      44.106636     22.698595     36.900082
  O      44.991710     21.936415     36.449879
  O      43.877781     23.855450     36.455400
24
Coordinates from ORCA-job neb_MEP_ALL.QMRegion E -1075.682425495986
  C      44.433169     22.071934     39.485554
  H      45.147811     21.321152     39.146832
  H      44.963789     22.981933     39.778669
  C      43.671981     21.584260     40.666318
  C      43.181288     22.561085     41.767364
  O      43.738485     23.680092     41.878399
  O      42.246111     22.156322     42.487145
  O      43.336944     20.424234     40.755965
  C      41.710902     20.466169     38.775135
  H      41.459173     19.411758     38.882085
  C      42.769833     20.854184     38.049681
  H      43.372029     20.134836     37.501780
  C      43.346144     22.221783     38.209418
  C      42.292878     23.222633     38.618087
  H      42.513529     24.276425     38.410911
  C      41.171911     22.859265     39.253996
  H      40.494811     23.629249     39.651212
  C      40.766598     21.419633     39.466677
  H      40.737035     21.239083     40.553551
  O      39.483869     21.225504     38.909256
  H      38.874623     20.752262     39.555605
  C      44.123746     22.696698     36.929953
  O      44.996359     21.936538     36.452870
  O      43.862869     23.841277     36.472004
24
Coordinates from ORCA-job neb_MEP_ALL.QMRegion E -1075.695442912722
  C      44.395997     21.994604     39.408563
  H      45.116222     21.240121     39.096192
  H      44.913343     22.916903     39.659550
  C      43.683457     21.517300     40.633918
  C      43.227708     22.529799     41.722758
  O      43.846015     23.612241     41.823389
  O      42.252688     22.182080     42.427082
  O      43.419967     20.352547     40.798100
  C      41.616056     20.445101     38.614290
  H      41.284046     19.405199     38.593467
  C      42.739912     20.823892     37.998453
  H      43.340194     20.113001     37.435402
  C      43.353178     22.175493     38.218571
  C      42.313767     23.180143     38.656197
  H      42.559603     24.236430     38.511045
  C      41.160918     22.818667     39.230466
  H      40.471882     23.586858     39.611860
  C      40.722591     21.381343     39.392164
  H      40.754174     21.140447     40.470801
  O      39.402651     21.255799     38.910746
  H      38.814725     20.781065     39.575735
  C      44.122144     22.682754     36.949904
  O      45.002341     21.940644     36.455898
  O      43.836959     23.826185     36.508624
24
Coordinates from ORCA-job neb_MEP_ALL.QMRegion E -1075.696693090603
  C      44.414240     21.933000     39.422641
  H      45.105610     21.183397     39.052535
  H      44.918977     22.871048     39.613971
  C      43.693500     21.487578     40.622619
  C      43.248875     22.511891     41.684678
  O      43.903602     23.569651     41.791511
  O      42.258237     22.185928     42.382728
  O      43.448264     20.296526     40.797966
  C      41.560711     20.435464     38.523991
  H      41.183815     19.415886     38.430327
  C      42.714059     20.802019     37.959947
  H      43.304919     20.099650     37.378908
  C      43.307393     22.149879     38.168527
  C      42.314791     23.151438     38.678044
  H      42.578969     24.201448     38.564008
  C      41.148073     22.791325     39.216947
  H      40.462990     23.555608     39.600375
  C      40.692140     21.358568     39.342949
  H      40.756329     21.078473     40.413581
  O      39.352596     21.260757     38.905566
  H      38.775660     20.792546     39.588076
  C      44.113599     22.670327     36.948523
  O      45.002594     21.936798     36.452824
  O      43.820096     23.818784     36.530111
24
Coordinates from ORCA-job neb_MEP_ALL.QMRegion E -1075.701067018986
  C      44.390000     21.903000     39.353000
  H      45.099000     21.130000     39.029000
  H      44.922000     22.831000     39.580000
  C      43.710000     21.442000     40.614000
  C      43.262000     22.496000     41.665000
  O      43.943000     23.540000     41.760000
  O      42.257000     22.185000     42.351000
  O      43.475000     20.264000     40.806000
  C      41.507000     20.433000     38.455000
  H      41.100000     19.433000     38.303000
  C      42.679000     20.788000     37.919000
  H      43.265000     20.078000     37.331000
  C      43.327000     22.119000     38.198000
  C      42.309000     23.122000     38.681000
  H      42.595000     24.169000     38.617000
  C      41.135000     22.768000     39.207000
  H      40.457000     23.534000     39.595000
  C      40.660000     21.343000     39.305000
  H      40.748000     21.027000     40.361000
  O      39.307000     21.259000     38.897000
  H      38.743000     20.794000     39.597000
  C      44.100000     22.655000     36.945000
  O      45.001000     21.934000     36.451000
  O      43.814000     23.812000     36.546000
24
Coordinates from ORCA-job neb_MEP_ALL.QMRegion E -1075.680500703602
  C      44.842000     22.068000     40.142000
  H      45.265000     21.440000     39.358000
  H      45.368000     22.976000     40.435000
  C      43.689000     21.758000     40.746000
  C      43.115000     22.623000     41.859000
  O      43.577000     23.785000     42.012000
  O      42.221000     22.117000     42.579000
  O      42.985000     20.610000     40.433000
  C      42.079000     20.646000     39.270000
  H      41.683000     19.622000     39.219000
  C      42.892000     20.975000     38.054000
  H      43.551000     20.209000     37.638000
  C      42.969000     22.244000     37.605000
  C      42.118000     23.281000     38.202000
  H      42.307000     24.301000     37.867000
  C      41.188000     23.002000     39.130000
  H      40.598000     23.809000     39.575000
  C      40.887000     21.588000     39.553000
  H      40.742000     21.566000     40.644000
  O      39.715000     21.144000     38.884000
  H      39.068000     20.737000     39.535000
  C      44.024000     22.694000     36.600000
  O      44.937000     21.905000     36.259000
  O      43.944000     23.900000     36.236000
24
Coordinates from ORCA-job neb_MEP_ALL.QMRegion E -1075.677862662488
  C      44.763455     22.027505     39.995859
  H      45.162127     21.408713     39.195530
  H      45.230186     22.987490     40.197686
  C      43.662526     21.694435     40.681020
  C      43.130316     22.582212     41.796117
  O      43.634523     23.726334     41.943788
  O      42.223461     22.116663     42.528431
  O      42.960231     20.539299     40.415763
  C      42.014608     20.555871     39.227148
  H      41.647151     19.523441     39.185246
  C      42.821342     20.920229     38.035285
  H      43.426106     20.161632     37.537115
  C      42.980792     22.221811     37.723160
  C      42.175802     23.244919     38.403674
  H      42.434879     24.283783     38.196952
  C      41.180966     22.923567     39.246144
  H      40.572787     23.708137     39.704196
  C      40.837999     21.493980     39.564976
  H      40.703065     21.407244     40.653339
  O      39.650312     21.126464     38.886929
  H      38.989450     20.723445     39.532047
  C      44.030229     22.700396     36.730762
  O      44.970035     21.938596     36.395378
  O      43.922025     23.902233     36.365150
24
Coordinates from ORCA-job neb_MEP_ALL.QMRegion E -1075.671413858363
  C      44.724083     22.004135     39.913721
  H      45.139783     21.370143     39.135502
  H      45.155655     22.990529     40.060554
  C      43.663633     21.644871     40.655672
  C      43.149107     22.561539     41.764770
  O      43.680075     23.694547     41.906146
  O      42.224636     22.126722     42.495579
  O      42.957507     20.492579     40.397506
  C      41.971400     20.506462     39.177719
  H      41.607231     19.469628     39.120587
  C      42.784702     20.898508     38.014456
  H      43.373756     20.149036     37.485119
  C      43.014863     22.212649     37.804221
  C      42.208661     23.225778     38.498901
  H      42.485364     24.267854     38.338091
  C      41.172488     22.886730     39.280899
  H      40.546665     23.660880     39.733790
  C      40.807706     21.452594     39.547985
  H      40.699133     21.325281     40.631930
  O      39.593222     21.141884     38.889124
  H      38.936093     20.728331     39.538457
  C      44.043857     22.700217     36.799725
  O      44.984021     21.947908     36.443431
  O      43.904990     23.894957     36.423304
24
Coordinates from ORCA-job neb_MEP_ALL.QMRegion E -1075.657877222301
  C      44.696265     22.022691     39.851559
  H      45.153647     21.350838     39.130205
  H      45.124247     23.011817     39.991786
  C      43.685813     21.619186     40.672427
  C      43.160098     22.565356     41.763852
  O      43.694157     23.696863     41.900613
  O      42.226577     22.139245     42.489620
  O      43.053020     20.468478     40.488616
  C      41.882936     20.488079     39.051657
  H      41.574605     19.437065     39.070145
  C      42.768139     20.888211     38.008275
  H      43.367615     20.145330     37.480228
  C      43.070845     22.217387     37.880618
  C      42.227460     23.225749     38.531268
  H      42.495664     24.268228     38.362983
  C      41.167943     22.880015     39.277171
  H      40.529938     23.650160     39.718748
  C      40.790145     21.446614     39.524901
  H      40.713479     21.296814     40.609574
  O      39.552538     21.167142     38.891117
  H      38.912322     20.736422     39.546155
  C      44.069074     22.699081     36.838787
  O      44.989210     21.941691     36.449814
  O      43.895379     23.882147     36.440054
24
Coordinates from ORCA-job neb_MEP_ALL.QMRegion E -1075.654310218194
  C      44.642836     22.053618     39.760206
  H      45.171430     21.341147     39.136674
  H      45.096331     23.022212     39.942436
  C      43.699113     21.606457     40.691812
  C      43.164821     22.570968     41.771523
  O      43.698550     23.701892     41.898339
  O      42.230396     22.145452     42.492222
  O      43.175716     20.457484     40.604387
  C      41.795190     20.478427     38.924884
  H      41.546449     19.421705     39.030248
  C      42.755751     20.873516     38.021052
  H      43.368402     20.142603     37.490344
  C      43.144318     22.226351     37.977798
  C      42.239176     23.230218     38.551938
  H      42.497846     24.273487     38.371317
  C      41.164374     22.877295     39.270595
  H      40.520590     23.646740     39.706811
  C      40.781408     21.442288     39.505699
  H      40.722591     21.281995     40.591946
  O      39.525763     21.187925     38.894894
  H      38.899137     20.740225     39.550344
  C      44.088311     22.699498     36.868918
  O      44.990959     21.937941     36.451401
  O      43.888477     23.870683     36.448081
24
Coordinates from ORCA-job neb_MEP_ALL.QMRegion E -1075.663974098450
  C      44.528254     22.079142     39.605518
  H      45.171957     21.331725     39.146493
  H      45.040226     23.007801     39.873848
  C      43.686813     21.598864     40.686767
  C      43.168396     22.570644     41.774925
  O      43.708378     23.696514     41.891585
  O      42.235558     22.145667     42.494294
  O      43.255605     20.443991     40.684071
  C      41.751486     20.472114     38.850226
  H      41.516142     19.415149     38.981170
  C      42.758870     20.862066     38.040632
  H      43.370798     20.138034     37.499436
  C      43.259979     22.232443     38.113055
  C      42.259844     23.230748     38.581186
  H      42.499747     24.276260     38.381324
  C      41.166115     22.871593     39.262359
  H      40.509160     23.640568     39.684339
  C      40.777412     21.434364     39.491176
  H      40.727062     21.267414     40.578250
  O      39.508236     21.203531     38.899505
  H      38.889929     20.742226     39.551901
  C      44.107186     22.698631     36.898884
  O      44.992469     21.935069     36.449938
  O      43.876769     23.855809     36.456285
24
Coordinates from ORCA-job neb_MEP_ALL.QMRegion E -1075.682251453822
  C      44.432582     22.073938     39.484594
  H      45.150675     21.319371     39.146800
  H      44.966122     22.985641     39.781259
  C      43.673371     21.589610     40.670586
  C      43.181681     22.568242     41.767167
  O      43.738939     23.680509     41.878022
  O      42.243420     22.151525     42.488684
  O      43.333516     20.415702     40.755341
  C      41.712767     20.467203     38.776674
  H      41.460242     19.410380     38.884107
  C      42.767184     20.853775     38.051830
  H      43.374026     20.132971     37.501185
  C      43.344678     22.227832     38.207499
  C      42.290954     23.224194     38.618364
  H      42.513088     24.273481     38.410608
  C      41.172466     22.860568     39.254183
  H      40.496136     23.628189     39.650889
  C      40.769725     21.423002     39.467766
  H      40.737276     21.239350     40.555064
  O      39.482527     21.225523     38.905823
  H      38.874198     20.751162     39.557230
  C      44.123288     22.696392     36.928336
  O      44.997756     21.935132     36.453131
  O      43.862381     23.841523     36.473226
24
Coordinates from ORCA-job neb_MEP_ALL.QMRegion E -1075.695468385615
  C      44.393748     21.995865     39.406876
  H      45.118985     21.237767     39.095502
  H      44.914365     22.920171     39.660406
  C      43.685065     21.526117     40.638927
  C      43.226340     22.535572     41.721449
  O      43.848426     23.612751     41.823113
  O      42.251634     22.178114     42.427564
  O      43.418195     20.340445     40.799096
  C      41.615963     20.445250     38.615639
  H      41.284192     19.405159     38.592714
  C      42.738369     20.823176     37.998801
  H      43.341939     20.111475     37.434953
  C      43.352207     22.180107     38.218620
  C      42.312165     23.181601     38.657202
  H      42.559684     24.234152     38.511223
  C      41.161347     22.819248     39.230997
  H      40.473328     23.585313     39.610554
  C      40.725300     21.384258     39.392023
  H      40.754925     21.140156     40.470731
  O      39.400953     21.256500     38.908074
  H      38.813887     20.780262     39.577471
  C      44.120787     22.681479     36.947416
  O      45.004364     21.939754     36.456580
  O      43.836736     23.826696     36.510302
24
Coordinates from ORCA-job neb_MEP_ALL.QMRegion E -1075.695943963545
  C      44.405697     21.939746     39.403612
  H      45.108610     21.179437     39.052869
  H      44.921228     22.874420     39.615957
  C      43.693817     21.473164     40.629967
  C      43.245447     22.515038     41.686611
  O      43.906049     23.570789     41.790664
  O      42.257105     22.184133     42.382877
  O      43.448355     20.304299     40.797046
  C      41.559187     20.434767     38.525990
  H      41.183947     19.415378     38.429713
  C      42.710285     20.802034     37.956355
  H      43.306816     20.097870     37.377950
  C      43.319531     22.149475     38.186397
  C      42.311460     23.151857     38.673846
  H      42.579548     24.201101     38.564593
  C      41.147408     22.791095     39.218243
  H      40.463459     23.555119     39.600459
  C      40.693394     21.360127     39.343405
  H      40.756927     21.078284     40.412387
  O      39.351550     21.261304     38.903533
  H      38.775224     20.792104     39.589285
  C      44.110084     22.668358     36.944476
  O      45.003721     21.937666     36.454037
  O      43.821884     23.820472     36.530303
24
Coordinates from ORCA-job neb_MEP_ALL.QMRegion E -1075.701067018986
  C      44.390000     21.903000     39.353000
  H      45.099000     21.130000     39.029000
  H      44.922000     22.831000     39.580000
  C      43.710000     21.442000     40.614000
  C      43.262000     22.496000     41.665000
  O      43.943000     23.540000     41.760000
  O      42.257000     22.185000     42.351000
  O      43.475000     20.264000     40.806000
  C      41.507000     20.433000     38.455000
  H      41.100000     19.433000     38.303000
  C      42.679000     20.788000     37.919000
  H      43.265000     20.078000     37.331000
  C      43.327000     22.119000     38.198000
  C      42.309000     23.122000     38.681000
  H      42.595000     24.169000     38.617000
  C      41.135000     22.768000     39.207000
  H      40.457000     23.534000     39.595000
  C      40.660000     21.343000     39.305000
  H      40.748000     21.027000     40.361000
  O      39.307000     21.259000     38.897000
  H      38.743000     20.794000     39.597000
  C      44.100000     22.655000     36.945000
  O      45.001000     21.934000     36.451000
  O      43.814000     23.812000     36.546000
24
Coordinates from ORCA-job neb_MEP_ALL.QMRegion E -1075.680500703602
  C      44.842000     22.068000     40.142000
  H      45.265000     21.440000     39.358000
  H      45.368000     22.976000     40.435000
  C      43.689000     21.758000     40.746000
  C      43.115000     22.623000     41.859000
  O      43.577000     23.785000     42.012000
  O      42.221000     22.117000     42.579000
  O      42.985000     20.610000     40.433000
  C      42.079000     20.646000     39.270000
  H      41.683000     19.622000     39.219000
  C      42.892000     20.975000     38.054000
  H      43.551000     20.209000     37.638000
  C      42.969000     22.244000     37.605000
  C      42.118000     23.281000     38.202000
  H      42.307000     24.301000     37.867000
  C      41.188000     23.002000     39.130000
  H      40.598000     23.809000     39.575000
  C      40.887000     21.588000     39.553000
  H      40.742000     21.566000     40.644000
  O      39.715000     21.144000     38.884000
  H      39.068000     20.737000     39.535000
  C      44.024000     22.694000     36.600000
  O      44.937000     21.905000     36.259000
  O      43.944000     23.900000     36.236000
24
Coordinates from ORCA-job neb_MEP_ALL.QMRegion E -1075.678505387696
  C      44.763363     22.027336     39.995488
  H      45.162223     21.407723     39.194994
  H      45.231618     22.987705     40.198441
  C      43.663167     21.693156     40.681795
  C      43.130168     22.582835     41.796515
  O      43.635100     23.726923     41.943665
  O      42.223226     22.116250     42.527885
  O      42.956046     20.537784     40.411128
  C      42.018207     20.554854     39.233702
  H      41.646479     19.522155     39.184956
  C      42.820147     20.921285     38.033098
  H      43.426093     20.160652     37.536557
  C      42.980745     22.223092     37.721930
  C      42.175648     23.244779     38.403532
  H      42.434545     24.282855     38.197406
  C      41.181094     22.923850     39.246335
  H      40.573147     23.707770     39.705509
  C      40.836653     21.494285     39.564844
  H      40.703359     21.406550     40.653059
  O      39.649263     21.126058     38.885920
  H      38.989281     20.723004     39.532276
  C      44.030727     22.700821     36.732087
  O      44.969283     21.938112     36.395001
  O      43.920566     23.902023     36.365129
24
Coordinates from ORCA-job neb_MEP_ALL.QMRegion E -1075.671817494729
  C      44.725081     22.003442     39.914337
  H      45.139964     21.369079     39.134990
  H      45.157249     22.990656     40.061863
  C      43.663047     21.644641     40.654932
  C      43.148769     22.561808     41.764513
  O      43.680637     23.694344     41.906073
  O      42.224355     22.126370     42.495222
  O      42.955448     20.490866     40.397076
  C      41.972090     20.506623     39.179620
  H      41.607535     19.469402     39.121162
  C      42.785022     20.899549     38.013358
  H      43.373857     20.148341     37.484451
  C      43.013502     22.213684     37.801332
  C      42.208744     23.225578     38.498586
  H      42.484914     24.267217     38.337762
  C      41.172662     22.886851     39.280890
  H      40.546814     23.660465     39.734280
  C      40.806623     21.452995     39.548323
  H      40.699113     21.325156     40.632691
  O      39.592826     21.141167     38.888368
  H      38.936557     20.728394     39.538509
  C      44.044998     22.700899     36.800967
  O      44.983312     21.947223     36.442772
  O      43.903688     23.894859     36.422937
24
Coordinates from ORCA-job neb_MEP_ALL.QMRegion E -1075.657775615150
  C      44.695834     22.022810     39.850850
  H      45.154198     21.350630     39.130502
  H      45.124208     23.011421     39.991445
  C      43.686032     21.619272     40.672819
  C      43.160150     22.565422     41.763965
  O      43.694491     23.696873     41.900359
  O      42.226451     22.139127     42.489345
  O      43.054721     20.468685     40.489784
  C      41.881968     20.487821     39.050189
  H      41.574417     19.436934     39.069752
  C      42.767878     20.887889     38.008545
  H      43.367639     20.145276     37.480323
  C      43.070840     22.217501     37.881454
  C      42.227587     23.225879     38.531738
  H      42.495432     24.268120     38.362975
  C      41.167803     22.879999     39.276947
  H      40.529908     23.649986     39.718771
  C      40.790460     21.446471     39.524694
  H      40.713455     21.296545     40.609541
  O      39.552192     21.167464     38.890874
  H      38.911898     20.736414     39.546403
  C      44.069974     22.699517     36.839860
  O      44.989079     21.941532     36.449428
  O      43.895011     23.882017     36.439811
24
Coordinates from ORCA-job neb_MEP_ALL.QMRegion E -1075.654464420124
  C      44.643762     22.053440     39.761398
  H      45.172122     21.340241     39.136203
  H      45.097701     23.023437     39.943352
  C      43.699245     21.605676     40.692896
  C      43.164101     22.572031     41.771777
  O      43.699431     23.702589     41.898128
  O      42.230008     22.144502     42.491918
  O      43.174704     20.456689     40.603591
  C      41.795224     20.478253     38.925028
  H      41.546681     19.421433     39.030602
  C      42.755838     20.873759     38.021125
  H      43.368387     20.142422     37.490130
  C      43.142129     22.226951     37.976139
  C      42.238966     23.230487     38.552224
  H      42.497505     24.272548     38.371326
  C      41.164409     22.877704     39.270439
  H      40.520934     23.646336     39.706977
  C      40.782775     21.442954     39.505791
  H      40.722482     21.281794     40.592517
  O      39.525166     21.187889     38.893762
  H      38.898684     20.739892     39.550942
  C      44.088850     22.699706     36.868739
  O      44.991110     21.937480     36.451210
  O      43.887983     23.870937     36.448121
24
Coordinates from ORCA-job neb_MEP_ALL.QMRegion E -1075.664151757010
  C      44.529251     22.079615     39.606295
  H      45.173293     21.330286     39.146051
  H      45.042375     23.009904     39.875486
  C      43.686476     21.597222     40.688431
  C      43.166905     22.572457     41.775465
  O      43.709708     23.697857     41.891363
  O      42.235119     22.143841     42.493931
  O      43.253784     20.442744     40.682682
  C      41.751482     20.472084     38.851060
  H      41.516473     19.414476     38.981912
  C      42.759101     20.862500     38.040962
  H      43.371074     20.137404     37.498943
  C      43.257435     22.234312     38.110559
  C      42.259198     23.231341     38.581254
  H      42.499341     24.274577     38.381358
  C      41.166249     22.872247     39.262428
  H      40.509749     23.639819     39.684418
  C      40.779018     21.435890     39.491624
  H      40.726946     21.267268     40.579248
  O      39.507438     21.203160     38.897714
  H      38.889549     20.741765     39.552706
  C      44.107508     22.698597     36.897896
  O      44.992880     21.934206     36.450018
  O      43.876101     23.856198     36.456799
24
Coordinates from ORCA-job neb_MEP_ALL.QMRegion E -1075.682578012648
  C      44.432950     22.075700     39.484411
  H      45.152575     21.318469     39.147026
  H      44.968029     22.988469     39.783394
  C      43.672630     21.586838     40.673827
  C      43.178920     22.570342     41.768505
  O      43.739988     23.683129     41.878170
  O      42.243410     22.149175     42.488477
  O      43.332708     20.416178     40.754326
  C      41.712913     20.467222     38.779142
  H      41.461374     19.409755     38.886049
  C      42.767340     20.854135     38.052167
  H      43.375175     20.132045     37.501267
  C      43.342993     22.231316     38.205972
  C      42.289812     23.225395     38.618218
  H      42.512689     24.271704     38.410201
  C      41.172626     22.861461     39.254585
  H      40.497059     23.627571     39.650785
  C      40.771514     21.425262     39.468557
  H      40.737479     21.239753     40.556205
  O      39.481870     21.225327     38.903816
  H      38.874212     20.750533     39.558138
  C      44.123234     22.695947     36.926985
  O      44.998480     21.934326     36.453520
  O      43.862042     23.841913     36.473953
24
Coordinates from ORCA-job neb_MEP_ALL.QMRegion E -1075.696033775234
  C      44.393024     21.997077     39.406137
  H      45.120599     21.236450     39.095233
  H      44.914997     22.922572     39.660884
  C      43.684190     21.522721     40.643397
  C      43.223759     22.538591     41.721356
  O      43.850712     23.614284     41.823169
  O      42.251895     22.175779     42.427228
  O      43.419234     20.340979     40.798783
  C      41.615737     20.445324     38.616865
  H      41.284274     19.405209     38.592142
  C      42.737920     20.823016     37.998754
  H      43.343209     20.110487     37.434902
  C      43.350912     22.182715     38.218354
  C      42.311248     23.182667     38.657791
  H      42.559794     24.232800     38.511345
  C      41.161605     22.819578     39.231517
  H      40.474291     23.584268     39.609553
  C      40.726688     21.386167     39.391899
  H      40.755613     21.140022     40.470471
  O      39.399775     21.256914     38.906593
  H      38.813506     20.779904     39.578520
  C      44.119967     22.680492     36.945564
  O      45.005698     21.939289     36.457269
  O      43.836585     23.827075     36.511513
24
Coordinates from ORCA-job neb_MEP_ALL.QMRegion E -1075.698814686236
  C      44.398921     21.943889     39.389886
  H      45.110375     21.177294     39.053396
  H      44.922617     22.876478     39.617467
  C      43.696706     21.473707     40.632017
  C      43.244192     22.517048     41.688008
  O      43.907374     23.571329     41.789952
  O      42.255437     22.182959     42.383579
  O      43.446403     20.300061     40.798379
  C      41.558428     20.434458     38.527089
  H      41.183915     19.414812     38.429301
  C      42.707716     20.802203     37.954156
  H      43.308161     20.096615     37.377348
  C      43.328988     22.149057     38.199402
  C      42.309250     23.151974     38.670967
  H      42.579927     24.200921     38.564969
  C      41.147172     22.791048     39.218992
  H      40.463618     23.554868     39.600572
  C      40.693919     21.361123     39.343730
  H      40.757386     21.078147     40.411619
  O      39.350668     21.261506     38.902507
  H      38.775145     20.791988     39.589904
  C      44.107538     22.667298     36.942299
  O      45.004494     21.938269     36.454691
  O      43.823155     23.821354     36.530350
24
Coordinates from ORCA-job neb_MEP_ALL.QMRegion E -1075.701067018986
  C      44.390000     21.903000     39.353000
  H      45.099000     21.130000     39.029000
  H      44.922000     22.831000     39.580000
  C      43.710000     21.442000     40.614000
  C      43.262000     22.496000     41.665000
  O      43.943000     23.540000     41.760000
  O      42.257000     22.185000     42.351000
  O      43.475000     20.264000     40.806000
  C      41.507000     20.433000     38.455000
  H      41.100000     19.433000     38.303000
  C      42.679000     20.788000     37.919000
  H      43.265000     20.078000     37.331000
  C      43.327000     22.119000     38.198000
  C      42.309000     23.122000     38.681000
  H      42.595000     24.169000     38.617000
  C      41.135000     22.768000     39.207000
  H      40.457000     23.534000     39.595000
  C      40.660000     21.343000     39.305000
  H      40.748000     21.027000     40.361000
  O      39.307000     21.259000     38.897000
  H      38.743000     20.794000     39.597000
  C      44.100000     22.655000     36.945000
  O      45.001000     21.934000     36.451000
  O      43.814000     23.812000     36.546000
24
Coordinates from ORCA-job neb_MEP_ALL.QMRegion E -1075.680500703602
  C      44.842000     22.068000     40.142000
  H      45.265000     21.440000     39.358000
  H      45.368000     22.976000     40.435000
  C      43.689000     21.758000     40.746000
  C      43.115000     22.623000     41.859000
  O      43.577000     23.785000     42.012000
  O      42.221000     22.117000     42.579000
  O      42.985000     20.610000     40.433000
  C      42.079000     20.646000     39.270000
  H      41.683000     19.622000     39.219000
  C      42.892000     20.975000     38.054000
  H      43.551000     20.209000     37.638000
  C      42.969000     22.244000     37.605000
  C      42.118000     23.281000     38.202000
  H      42.307000     24.301000     37.867000
  C      41.188000     23.002000     39.130000
  H      40.598000     23.809000     39.575000
  C      40.887000     21.588000     39.553000
  H      40.742000     21.566000     40.644000
  O      39.715000     21.144000     38.884000
  H      39.068000     20.737000     39.535000
  C      44.024000     22.694000     36.600000
  O      44.937000     21.905000     36.259000
  O      43.944000     23.900000     36.236000
24
Coordinates from ORCA-job neb_MEP_ALL.QMRegion E -1075.678833092576
  C      44.763120     22.026094     39.994957
  H      45.162071     21.405543     39.193750
  H      45.234676     22.986869     40.200026
  C      43.663544     21.689794     40.681908
  C      43.130531     22.583035     41.796709
  O      43.636197     23.727285     41.943247
  O      42.222700     22.115939     42.526604
  O      42.949876     20.535903     40.403830
  C      42.023182     20.552967     39.242832
  H      41.645309     19.520439     39.184429
  C      42.817581     20.922079     38.030118
  H      43.425041     20.159364     37.535167
  C      42.979622     22.224183     37.719779
  C      42.175075     23.244169     38.403670
  H      42.434001     24.281515     38.198860
  C      41.180965     22.923603     39.247030
  H      40.574094     23.707026     39.709159
  C      40.834855     21.493448     39.564615
  H      40.703175     21.404923     40.652702
  O      39.647353     21.125019     38.884135
  H      38.988631     20.721885     39.532475
  C      44.031274     22.701808     36.734111
  O      44.967724     21.937333     36.394438
  O      43.917608     23.902184     36.365146
24
Coordinates from ORCA-job neb_MEP_ALL.QMRegion E -1075.672255873964
  C      44.726578     22.001783     39.914760
  H      45.140589     21.366488     39.134243
  H      45.160336     22.990004     40.063861
  C      43.662237     21.643148     40.653419
  C      43.148510     22.561985     41.763410
  O      43.682048     23.693505     41.905787
  O      42.223748     22.126165     42.494202
  O      42.953496     20.488440     40.397622
  C      41.971937     20.506634     39.180234
  H      41.607762     19.468896     39.121521
  C      42.785063     20.900618     38.011488
  H      43.373557     20.147431     37.483081
  C      43.011451     22.214888     37.797311
  C      42.208610     23.225074     38.498127
  H      42.484077     24.266299     38.337341
  C      41.172622     22.886643     39.280942
  H      40.546991     23.659535     39.735355
  C      40.804857     21.453145     39.548573
  H      40.698899     21.324546     40.633848
  O      39.591667     21.140144     38.886898
  H      38.936822     20.728530     39.538732
  C      44.046832     22.702114     36.802765
  O      44.982018     21.946073     36.441652
  O      43.901388     23.895058     36.422345
24
Coordinates from ORCA-job neb_MEP_ALL.QMRegion E -1075.657848496791
  C      44.695375     22.023005     39.849780
  H      45.155590     21.349846     39.131095
  H      45.124639     23.010918     39.990969
  C      43.686635     21.619174     40.673750
  C      43.160149     22.565765     41.764114
  O      43.695324     23.697003     41.899912
  O      42.226119     22.138900     42.488658
  O      43.058134     20.468701     40.492347
  C      41.879771     20.487420     39.046967
  H      41.574044     19.436265     39.069071
  C      42.767422     20.887493     38.008776
  H      43.367665     20.145167     37.480537
  C      43.070957     22.217793     37.882836
  C      42.227652     23.226009     38.532683
  H      42.494862     24.267929     38.362899
  C      41.167438     22.879863     39.276670
  H      40.529843     23.649498     39.718944
  C      40.790784     21.446314     39.524327
  H      40.713412     21.295910     40.609383
  O      39.551386     21.167979     38.890583
  H      38.911070     20.736496     39.546823
  C      44.071372     22.700145     36.841680
  O      44.988785     21.941332     36.448794
  O      43.894307     23.881740     36.439516
24
Coordinates from ORCA-job neb_MEP_ALL.QMRegion E -1075.654525669059
  C      44.647098     22.052708     39.765235
  H      45.173172     21.338994     39.135882
  H      45.100631     23.024957     39.945614
  C      43.700109     21.604346     40.694285
  C      43.163251     22.573341     41.771887
  O      43.700532     23.703498     41.898026
  O      42.229283     22.143626     42.491316
  O      43.172563     20.455536     40.601914
  C      41.795659     20.478087     38.925558
  H      41.547225     19.420825     39.031536
  C      42.756036     20.874240     38.020685
  H      43.368137     20.142419     37.489816
  C      43.137615     22.227423     37.971596
  C      42.238533     23.230469     38.552282
  H      42.496903     24.271512     38.371174
  C      41.164313     22.878047     39.270503
  H      40.521427     23.645763     39.707754
  C      40.783570     21.443538     39.505890
  H      40.722303     21.281485     40.593113
  O      39.524715     21.187605     38.892875
  H      38.898169     20.739656     39.551519
  C      44.089190     22.699934     36.868283
  O      44.991073     21.937063     36.450945
  O      43.887369     23.871429     36.448073
24
Coordinates from ORCA-job neb_MEP_ALL.QMRegion E -1075.664030329647
  C      44.533867     22.079749     39.611118
  H      45.175232     21.328500     39.145676
  H      45.047026     23.013041     39.879549
  C      43.686595     21.594517     40.689907
  C      43.164886     22.574509     41.775880
  O      43.710954     23.699600     41.891510
  O      42.234332     22.141865     42.493471
  O      43.249541     20.441417     40.679436
  C      41.752405     20.472120     38.853000
  H      41.517495     19.413602     38.984111
  C      42.759753     20.863338     38.040817
  H      43.370978     20.137037     37.498444
  C      43.251369     22.235532     38.104014
  C      42.257945     23.231617     38.580460
  H      42.498599     24.272888     38.381033
  C      41.166205     22.872937     39.262981
  H      40.510509     23.638945     39.685329
  C      40.779742     21.437388     39.492399
  H      40.726563     21.267362     40.580750
  O      39.507182     21.202006     38.896080
  H      38.889405     20.741420     39.553373
  C      44.107427     22.698563     36.895934
  O      44.993176     21.933137     36.450159
  O      43.875352     23.857151     36.457179
24
Coordinates from ORCA-job neb_MEP_ALL.QMRegion E -1075.682588356766
  C      44.435936     22.078984     39.487076
  H      45.155489     21.318553     39.148182
  H      44.972222     22.993773     39.788847
  C      43.672452     21.583964     40.677395
  C      43.174587     22.573214     41.771194
  O      43.739734     23.687728     41.879390
  O      42.243267     22.146106     42.488956
  O      43.329980     20.416830     40.752584
  C      41.714424     20.467404     38.784635
  H      41.464553     19.409007     38.891909
  C      42.768806     20.855442     38.052484
  H      43.376863     20.131342     37.502637
  C      43.339128     22.234666     38.202395
  C      42.287762     23.226933     38.616921
  H      42.511756     24.270364     38.408581
  C      41.172837     22.862994     39.255704
  H      40.498337     23.627331     39.651432
  C      40.772632     21.428222     39.470318
  H      40.737668     21.241429     40.558513
  O      39.482280     21.224375     38.901889
  H      38.875185     20.749880     39.558866
  C      44.122927     22.695566     36.924443
  O      44.999284     21.933186     36.454403
  O      43.861882     23.842979     36.474486
24
Coordinates from ORCA-job neb_MEP_ALL.QMRegion E -1075.696329562070
  C      44.393530     21.998825     39.407019
  H      45.122294     21.235776     39.095354
  H      44.915538     22.926873     39.661763
  C      43.683967     21.518171     40.648192
  C      43.219947     22.543143     41.721811
  O      43.853911     23.617096     41.823740
  O      42.252088     22.172774     42.427272
  O      43.421517     20.341318     40.799890
  C      41.616046     20.445785     38.618921
  H      41.284260     19.405491     38.591145
  C      42.737970     20.823343     37.998569
  H      43.345559     20.109180     37.435803
  C      43.347998     22.184880     38.217162
  C      42.310218     23.184005     38.658352
  H      42.560257     24.231832     38.511513
  C      41.162199     22.819971     39.232639
  H      40.475424     23.582955     39.607760
  C      40.726988     21.388549     39.391489
  H      40.757208     21.140098     40.469433
  O      39.398424     21.257568     38.905430
  H      38.813360     20.779960     39.579821
  C      44.118467     22.678958     36.942810
  O      45.007829     21.938926     36.458823
  O      43.836552     23.827752     36.513361
24
Coordinates from ORCA-job neb_MEP_ALL.QMRegion E -1075.699993631038
  C      44.390239     21.949699     39.369807
  H      45.111215     21.176514     39.055323
  H      44.923493     22.877782     39.619290
  C      43.700713     21.472812     40.631299
  C      43.243675     22.518760     41.691382
  O      43.908740     23.572613     41.789072
  O      42.252510     22.182199     42.384756
  O      43.444827     20.296553     40.801356
  C      41.557578     20.434344     38.528009
  H      41.183482     19.413481     38.428637
  C      42.705579     20.803211     37.951741
  H      43.310065     20.094901     37.376912
  C      43.343041     22.148279     38.217653
  C      42.307342     23.151756     38.667084
  H      42.580324     24.200738     38.565388
  C      41.147149     22.791187     39.219649
  H      40.463260     23.554791     39.600800
  C      40.693411     21.362185     39.344261
  H      40.758388     21.077882     40.410617
  O      39.349637     21.261727     38.901640
  H      38.775375     20.792218     39.590566
  C      44.105001     22.666251     36.941353
  O      45.004894     21.939593     36.455333
  O      43.824670     23.821586     36.530197
24
Coordinates from ORCA-job neb_MEP_ALL.QMRegion E -1075.701067018986
  C      44.390000     21.903000     39.353000
  H      45.099000     21.130000     39.029000
  H      44.922000     22.831000     39.580000
  C      43.710000     21.442000     40.614000
  C      43.262000     22.496000     41.665000
  O      43.943000     23.540000     41.760000
  O      42.257000     22.185000     42.351000
  O      43.475000     20.264000     40.806000
  C      41.507000     20.433000     38.455000
  H      41.100000     19.433000     38.303000
  C      42.679000     20.788000     37.919000
  H      43.265000     20.078000     37.331000
  C      43.327000     22.119000     38.198000
  C      42.309000     23.122000     38.681000
  H      42.595000     24.169000     38.617000
  C      41.135000     22.768000     39.207000
  H      40.457000     23.534000     39.595000
  C      40.660000     21.343000     39.305000
  H      40.748000     21.027000     40.361000
  O      39.307000     21.259000     38.897000
  H      38.743000     20.794000     39.597000
  C      44.100000     22.655000     36.945000
  O      45.001000     21.934000     36.451000
  O      43.814000     23.812000     36.546000
24
Coordinates from ORCA-job neb_MEP_ALL.QMRegion E -1075.680500703602
  C      44.842000     22.068000     40.142000
  H      45.265000     21.440000     39.358000
  H      45.368000     22.976000     40.435000
  C      43.689000     21.758000     40.746000
  C      43.115000     22.623000     41.859000
  O      43.577000     23.785000     42.012000
  O      42.221000     22.117000     42.579000
  O      42.985000     20.610000     40.433000
  C      42.079000     20.646000     39.270000
  H      41.683000     19.622000     39.219000
  C      42.892000     20.975000     38.054000
  H      43.551000     20.209000     37.638000
  C      42.969000     22.244000     37.605000
  C      42.118000     23.281000     38.202000
  H      42.307000     24.301000     37.867000
  C      41.188000     23.002000     39.130000
  H      40.598000     23.809000     39.575000
  C      40.887000     21.588000     39.553000
  H      40.742000     21.566000     40.644000
  O      39.715000     21.144000     38.884000
  H      39.068000     20.737000     39.535000
  C      44.024000     22.694000     36.600000
  O      44.937000     21.905000     36.259000
  O      43.944000     23.900000     36.236000
24
Coordinates from ORCA-job neb_MEP_ALL.QMRegion E -1075.678944187413
  C      44.763287     22.024251     39.994731
  H      45.161650     21.403654     39.192766
  H      45.237490     22.984520     40.201854
  C      43.663448     21.687415     40.681155
  C      43.131146     22.582315     41.796333
  O      43.637054     23.726578     41.942681
  O      42.222290     22.116027     42.525338
  O      42.947152     20.534780     40.400496
  C      42.024437     20.551647     39.245851
  H      41.644595     19.519740     39.184274
  C      42.815497     20.921808     38.028681
  H      43.423340     20.158808     37.533826
  C      42.977698     22.223927     37.718174
  C      42.174152     23.243443     38.403885
  H      42.433467     24.280740     38.200250
  C      41.180458     22.922740     39.247966
  H      40.575340     23.706259     39.713098
  C      40.833889     21.491955     39.564529
  H      40.702271     21.403461     40.652598
  O      39.646260     21.123741     38.883044
  H      38.987957     20.720719     39.532269
  C      44.030837     22.702556     36.734811
  O      44.966269     21.937124     36.394052
  O      43.915304     23.902630     36.365187
24
Coordinates from ORCA-job neb_MEP_ALL.QMRegion E -1075.672511831770
  C      44.727574     22.000105     39.914642
  H      45.141343     21.364004     39.133975
  H      45.162867     22.988269     40.065223
  C      43.662201     21.641761     40.652416
  C      43.148461     22.561615     41.762200
  O      43.683503     23.692431     41.905316
  O      42.223317     22.126443     42.492842
  O      42.952979     20.487045     40.398385
  C      41.970888     20.506407     39.178883
  H      41.607699     19.468376     39.121267
  C      42.784576     20.900769     38.010126
  H      43.372937     20.147043     37.481898
  C      43.010241     22.215160     37.795408
  C      42.208026     23.224581     38.497807
  H      42.483334     24.265764     38.337097
  C      41.172316     22.886111     39.281004
  H      40.547101     23.658690     39.736423
  C      40.803798     21.452729     39.548478
  H      40.698499     21.323787     40.634315
  O      39.590503     21.139482     38.886069
  H      38.936571     20.728662     39.538824
  C      44.047409     22.702970     36.803315
  O      44.981088     21.945547     36.440863
  O      43.900006     23.895357     36.422010
24
Coordinates from ORCA-job neb_MEP_ALL.QMRegion E -1075.657711853290
  C      44.695863     22.022908     39.849586
  H      45.156851     21.349027     39.131763
  H      45.125594     23.010598     39.990998
  C      43.687302     21.618838     40.674498
  C      43.160188     22.566095     41.764053
  O      43.695991     23.697082     41.899686
  O      42.225757     22.138932     42.487966
  O      43.060581     20.468489     40.494291
  C      41.878018     20.487082     39.044423
  H      41.573881     19.435538     39.068741
  C      42.767027     20.887303     38.008669
  H      43.367652     20.145119     37.480688
  C      43.070860     22.218052     37.883345
  C      42.227560     23.225985     38.533214
  H      42.494259     24.267796     38.362760
  C      41.167068     22.879614     39.276678
  H      40.529753     23.649032     39.719328
  C      40.790607     21.446126     39.524080
  H      40.713355     21.295338     40.609194
  O      39.550852     21.168259     38.890523
  H      38.910396     20.736632     39.547103
  C      44.071939     22.700491     36.842623
  O      44.988529     21.941277     36.448430
  O      43.893830     23.881562     36.439441
24
Coordinates from ORCA-job neb_MEP_ALL.QMRegion E -1075.654513124554
  C      44.651221     22.051510     39.769859
  H      45.173857     21.338431     39.136149
  H      45.103380     23.025478     39.947961
  C      43.701321     21.603630     40.694960
  C      43.163106     22.573733     41.771715
  O      43.700897     23.703792     41.898156
  O      42.228728     22.143770     42.490674
  O      43.170820     20.454933     40.600404
  C      41.796085     20.477913     38.926351
  H      41.547801     19.420405     39.032415
  C      42.755974     20.874630     38.019847
  H      43.367888     20.142555     37.489511
  C      43.133598     22.227334     37.966845
  C      42.238009     23.230198     38.551877
  H      42.496411     24.271094     38.370956
  C      41.164122     22.877907     39.270813
  H      40.521713     23.645453     39.708816
  C      40.783296     21.443493     39.505891
  H      40.722196     21.281219     40.593210
  O      39.524563     21.187247     38.892853
  H      38.897887     20.739700     39.551692
  C      44.088723     22.700126     36.867598
  O      44.990860     21.937052     36.450820
  O      43.887198     23.871811     36.447979
24
Coordinates from ORCA-job neb_MEP_ALL.QMRegion E -1075.663308070449
  C      44.540104     22.079022     39.618199
  H      45.176492     21.327773     39.145672
  H      45.051338     23.014710     39.883775
  C      43.687463     21.593628     40.690265
  C      43.164126     22.575000     41.775597
  O      43.710802     23.700097     41.892006
  O      42.233718     22.141518     42.493167
  O      43.245387     20.440762     40.676089
  C      41.753626     20.472129     38.855066
  H      41.518771     19.413351     38.986495
  C      42.759775     20.863723     38.040184
  H      43.370649     20.137159     37.498169
  C      43.245396     22.235367     38.096923
  C      42.256623     23.231313     38.579149
  H      42.497978     24.272400     38.380474
  C      41.165956     22.872953     39.263616
  H      40.510863     23.638719     39.686781
  C      40.779410     21.437568     39.493025
  H      40.726091     21.267669     40.581604
  O      39.507558     21.200764     38.895736
  H      38.889556     20.741395     39.553426
  C      44.106606     22.698594     36.894287
  O      44.993034     21.932839     36.450159
  O      43.875285     23.857901     36.457024
24
Coordinates from ORCA-job neb_MEP_ALL.QMRegion E -1075.681911184434
  C      44.440618     22.081593     39.492289
  H      45.157672     21.320093     39.149663
  H      44.976513     22.997914     39.795034
  C      43.672693     21.582573     40.679262
  C      43.172622     22.574866     41.772752
  O      43.737034     23.690634     41.881319
  O      42.242696     22.144723     42.490376
  O      43.326780     20.418977     40.750356
  C      41.717634     20.468045     38.789480
  H      41.468432     19.408900     38.899097
  C      42.769118     20.856168     38.053454
  H      43.378059     20.131450     37.504503
  C      43.335606     22.235746     38.198381
  C      42.285931     23.227666     38.614851
  H      42.510709     24.270657     38.406393
  C      41.172751     22.864027     39.256806
  H      40.499009     23.628090     39.652979
  C      40.772804     21.429538     39.472246
  H      40.737439     21.243702     40.560677
  O      39.483881     21.223105     38.901366
  H      38.876573     20.749521     39.558835
  C      44.122222     22.695666     36.922583
  O      44.999441     21.932685     36.454987
  O      43.862345     23.844011     36.474019
24
Coordinates from ORCA-job neb_MEP_ALL.QMRegion E -1075.696364621105
  C      44.394791     22.000101     39.408691
  H      45.123000     21.236560     39.095898
  H      44.915403     22.930189     39.662612
  C      43.684515     21.516272     40.650299
  C      43.218541     22.545641     41.722183
  O      43.854874     23.618776     41.824753
  O      42.252064     22.171898     42.427964
  O      43.423896     20.341541     40.801909
  C      41.616792     20.446235     38.620103
  H      41.284263     19.406122     38.590489
  C      42.738168     20.823425     37.998640
  H      43.347465     20.108642     37.437485
  C      43.346289     22.185082     38.216105
  C      42.309842     23.184559     38.658326
  H      42.560831     24.232115     38.511613
  C      41.162670     22.820124     39.233435
  H      40.475648     23.582658     39.606504
  C      40.726391     21.389489     39.391017
  H      40.758665     21.140411     40.468356
  O      39.397855     21.258167     38.905424
  H      38.813511     20.780466     39.580546
  C      44.117427     22.678155     36.941616
  O      45.009140     21.939117     36.460194
  O      43.836744     23.828118     36.514379
24
Coordinates from ORCA-job neb_MEP_ALL.QMRegion E -1075.699955665025
  C      44.388553     21.951856     39.363061
  H      45.110526     21.177933     39.056758
  H      44.922753     22.877060     39.619676
  C      43.702766     21.475652     40.628301
  C      43.244902     22.518724     41.693454
  O      43.908734     23.573196     41.788969
  O      42.251099     22.182738     42.385240
  O      43.444880     20.292982     40.804148
  C      41.557493     20.434538     38.527458
  H      41.182901     19.412747     38.427894
  C      42.705860     20.803877     37.951721
  H      43.310993     20.094244     37.377210
  C      43.347711     22.148647     38.222870
  C      42.307754     23.151230     38.666062
  H      42.580436     24.200582     38.565495
  C      41.147373     22.791409     39.219489
  H      40.462640     23.554894     39.600727
  C      40.692678     21.362496     39.344293
  H      40.759269     21.077556     40.410238
  O      39.349149     21.261942     38.901561
  H      38.775593     20.792652     39.590911
  C      44.105084     22.666196     36.942892
  O      45.004703     21.940358     36.455409
  O      43.824787     23.820876     36.530141
24
Coordinates from ORCA-job neb_MEP_ALL.QMRegion E -1075.701067018986
  C      44.390000     21.903000     39.353000
  H      45.099000     21.130000     39.029000
  H      44.922000     22.831000     39.580000
  C      43.710000     21.442000     40.614000
  C      43.262000     22.496000     41.665000
  O      43.943000     23.540000     41.760000
  O      42.257000     22.185000     42.351000
  O      43.475000     20.264000     40.806000
  C      41.507000     20.433000     38.455000
  H      41.100000     19.433000     38.303000
  C      42.679000     20.788000     37.919000
  H      43.265000     20.078000     37.331000
  C      43.327000     22.119000     38.198000
  C      42.309000     23.122000     38.681000
  H      42.595000     24.169000     38.617000
  C      41.135000     22.768000     39.207000
  H      40.457000     23.534000     39.595000
  C      40.660000     21.343000     39.305000
  H      40.748000     21.027000     40.361000
  O      39.307000     21.259000     38.897000
  H      38.743000     20.794000     39.597000
  C      44.100000     22.655000     36.945000
  O      45.001000     21.934000     36.451000
  O      43.814000     23.812000     36.546000
24
Coordinates from ORCA-job neb_MEP_ALL.QMRegion E -1075.680500703602
  C      44.842000     22.068000     40.142000
  H      45.265000     21.440000     39.358000
  H      45.368000     22.976000     40.435000
  C      43.689000     21.758000     40.746000
  C      43.115000     22.623000     41.859000
  O      43.577000     23.785000     42.012000
  O      42.221000     22.117000     42.579000
  O      42.985000     20.610000     40.433000
  C      42.079000     20.646000     39.270000
  H      41.683000     19.622000     39.219000
  C      42.892000     20.975000     38.054000
  H      43.551000     20.209000     37.638000
  C      42.969000     22.244000     37.605000
  C      42.118000     23.281000     38.202000
  H      42.307000     24.301000     37.867000
  C      41.188000     23.002000     39.130000
  H      40.598000     23.809000     39.575000
  C      40.887000     21.588000     39.553000
  H      40.742000     21.566000     40.644000
  O      39.715000     21.144000     38.884000
  H      39.068000     20.737000     39.535000
  C      44.024000     22.694000     36.600000
  O      44.937000     21.905000     36.259000
  O      43.944000     23.900000     36.236000
24
Coordinates from ORCA-job neb_MEP_ALL.QMRegion E -1075.678935044046
  C      44.764649     22.017060     39.994295
  H      45.159915     21.397093     39.189534
  H      45.247389     22.973926     40.208903
  C      43.662858     21.680446     40.677914
  C      43.133400     22.578879     41.794189
  O      43.640131     23.722806     41.940360
  O      42.220789     22.116441     42.520856
  O      42.941344     20.531287     40.393240
  C      42.024630     20.547918     39.249728
  H      41.642359     19.517780     39.184144
  C      42.808560     20.919842     38.024880
  H      43.416603     20.157415     37.529027
  C      42.970026     22.221990     37.713049
  C      42.170025     23.240633     38.404757
  H      42.431408     24.278383     38.205043
  C      41.178427     22.919125     39.251540
  H      40.580338     23.703227     39.727592
  C      40.830925     21.486371     39.564415
  H      40.698204     21.398312     40.652443
  O      39.643322     21.118685     38.880078
  H      38.985589     20.716474     39.530935
  C      44.027506     22.704588     36.735565
  O      44.961144     21.937301     36.392819
  O      43.907948     23.904402     36.365429
24
Coordinates from ORCA-job neb_MEP_ALL.QMRegion E -1075.672506350984
  C      44.730877     21.994085     39.913600
  H      45.144237     21.355290     39.133678
  H      45.171306     22.980759     40.069322
  C      43.662821     21.636942     40.649719
  C      43.149171     22.560228     41.757752
  O      43.688677     23.688192     41.903289
  O      42.221503     22.127739     42.487724
  O      42.952533     20.483236     40.400670
  C      41.966417     20.505203     39.172604
  H      41.607058     19.466275     39.119576
  C      42.782175     20.900410     38.005779
  H      43.370445     20.146139     37.477859
  C      43.006929     22.215348     37.791082
  C      42.205582     23.222904     38.496737
  H      42.480673     24.264142     38.336432
  C      41.170784     22.883872     39.281338
  H      40.547419     23.655709     39.740241
  C      40.800590     21.450649     39.547655
  H      40.696905     21.320829     40.634904
  O      39.586945     21.137787     38.883768
  H      38.934715     20.728986     39.539195
  C      44.047871     22.704974     36.803855
  O      44.978070     21.944741     36.438463
  O      43.896236     23.896657     36.421092
24
Coordinates from ORCA-job neb_MEP_ALL.QMRegion E -1075.657569346856
  C      44.699103     22.021948     39.850650
  H      45.161121     21.346159     39.134338
  H      45.129870     23.009448     39.992053
  C      43.689936     21.617477     40.676697
  C      43.160415     22.566995     41.763597
  O      43.698041     23.697241     41.899191
  O      42.224442     22.139582     42.485380
  O      43.067642     20.467608     40.499943
  C      41.872649     20.485957     39.036754
  H      41.573716     19.433033     39.068130
  C      42.765574     20.886842     38.007866
  H      43.367568     20.145034     37.481037
  C      43.069818     22.218739     37.883660
  C      42.226767     23.225662     38.534464
  H      42.492032     24.267372     38.362164
  C      41.165939     22.878611     39.277000
  H      40.529397     23.647453     39.721109
  C      40.789623     21.445273     39.523382
  H      40.713091     21.293380     40.608559
  O      39.548874     21.168704     38.890753
  H      38.908391     20.737247     39.547754
  C      44.072831     22.701253     36.844587
  O      44.987580     21.941330     36.447525
  O      43.892465     23.881304     36.439354
24
Coordinates from ORCA-job neb_MEP_ALL.QMRegion E -1075.654491016604
  C      44.666961     22.046728     39.787514
  H      45.176100     21.337061     39.137688
  H      45.113150     23.026123     39.956558
  C      43.705900     21.601722     40.696877
  C      43.163444     22.574172     41.770864
  O      43.701534     23.704280     41.898772
  O      42.226812     22.145259     42.488192
  O      43.165296     20.453475     40.595160
  C      41.797595     20.477339     38.929511
  H      41.549865     19.419059     39.035376
  C      42.755177     20.875745     38.016443
  H      43.367093     20.143062     37.488307
  C      43.119502     22.226577     37.949857
  C      42.235814     23.228994     38.549868
  H      42.494713     24.270058     38.370164
  C      41.163389     22.877032     39.272116
  H      40.522624     23.644475     39.712943
  C      40.781656     21.442699     39.505751
  H      40.721910     21.280178     40.593066
  O      39.524136     21.186077     38.893141
  H      38.896808     20.739983     39.552192
  C      44.086315     22.700391     36.864643
  O      44.989827     21.937532     36.450600
  O      43.887042     23.873447     36.447500
24
Coordinates from ORCA-job neb_MEP_ALL.QMRegion E -1075.662495693977
  C      44.564462     22.075322     39.646671
  H      45.180572     21.326087     39.145905
  H      45.066686     23.019034     39.899315
  C      43.690862     21.590938     40.691052
  C      43.162363     22.574965     41.774104
  O      43.709109     23.700880     41.893917
  O      42.231772     22.141821     42.491827
  O      43.231387     20.440816     40.663631
  C      41.757790     20.471916     38.863214
  H      41.523678     19.413019     38.995171
  C      42.759196     20.864890     38.036965
  H      43.369403     20.137819     37.497181
  C      43.223184     22.233613     38.070691
  C      42.251780     23.230033     38.573796
  H      42.495737     24.271348     38.378305
  C      41.164591     22.872423     39.265973
  H      40.511949     23.638336     39.692555
  C      40.777805     21.437122     39.495032
  H      40.724333     21.268809     40.583960
  O      39.509527     21.196531     38.895081
  H      38.889940     20.741307     39.553422
  C      44.103015     22.698510     36.888553
  O      44.992016     21.932672     36.449973
  O      43.875764     23.860543     36.455844
24
Coordinates from ORCA-job neb_MEP_ALL.QMRegion E -1075.680974337481
  C      44.459261     22.089962     39.514393
  H      45.165486     21.326888     39.155156
  H      44.992830     23.011154     39.819021
  C      43.675516     21.583966     40.684426
  C      43.166088     22.577722     41.778210
  O      43.725126     23.699923     41.888780
  O      42.241349     22.142013     42.495261
  O      43.312746     20.424745     40.740966
  C      41.727884     20.469372     38.808517
  H      41.483919     19.409863     38.927014
  C      42.771412     20.858543     38.055701
  H      43.381422     20.132803     37.511621
  C      43.322653     22.238044     38.183349
  C      42.279161     23.229874     38.606405
  H      42.506492     24.272735     38.397736
  C      41.171934     22.867329     39.260581
  H      40.501064     23.631795     39.659922
  C      40.773818     21.432822     39.479332
  H      40.735876     21.252515     40.568579
  O      39.490954     21.217920     38.900508
  H      38.881801     20.748195     39.558058
  C      44.119303     22.696256     36.916346
  O      44.999032     21.931823     36.456501
  O      43.864822     23.847674     36.471013
24
Coordinates from ORCA-job neb_MEP_ALL.QMRegion E -1075.696269451183
  C      44.399024     22.004497     39.414621
  H      45.125085     21.240787     39.098276
  H      44.914130     22.940882     39.665811
  C      43.687333     21.513215     40.655635
  C      43.215180     22.551222     41.724092
  O      43.855952     23.623994     41.828834
  O      42.252568     22.171510     42.430486
  O      43.432596     20.342221     40.809917
  C      41.618936     20.447500     38.623468
  H      41.284425     19.408756     38.588681
  C      42.739541     20.823407     37.999256
  H      43.353880     20.107415     37.444411
  C      43.342217     22.184545     38.213320
  C      42.309246     23.185964     38.657573
  H      42.562882     24.233863     38.511916
  C      41.163970     22.820659     39.235610
  H      40.475517     23.582733     39.602665
  C      40.724465     21.391554     39.389288
  H      40.763602     21.141714     40.464843
  O      39.396612     21.260362     38.906248
  H      38.814152     20.782590     39.582740
  C      44.114691     22.676191     36.939374
  O      45.012814     21.940401     36.464791
  O      43.837563     23.829027     36.516985
24
Coordinates from ORCA-job neb_MEP_ALL.QMRegion E -1075.699547607182
  C      44.387712     21.955787     39.353235
  H      45.108047     21.183661     39.060622
  H      44.919604     22.874363     39.619851
  C      43.704984     21.476014     40.620635
  C      43.248970     22.517205     41.698565
  O      43.908298     23.575047     41.789763
  O      42.249052     22.185661     42.385471
  O      43.449875     20.292962     40.810870
  C      41.557405     20.435269     38.524446
  H      41.180984     19.411417     38.424931
  C      42.709058     20.805440     37.953410
  H      43.313434     20.093118     37.379166
  C      43.354675     22.150491     38.228357
  C      42.310432     23.149891     38.665567
  H      42.580680     24.199898     38.565623
  C      41.148364     22.792124     39.218213
  H      40.460602     23.555205     39.599866
  C      40.690721     21.362937     39.343595
  H      40.762305     21.076306     40.409236
  O      39.347919     21.262866     38.901887
  H      38.776120     20.794293     39.592016
  C      44.107429     22.667070     36.949109
  O      45.004079     21.942078     36.455617
  O      43.823832     23.818013     36.530430
24
Coordinates from ORCA-job neb_MEP_ALL.QMRegion E -1075.701067018986
  C      44.390000     21.903000     39.353000
  H      45.099000     21.130000     39.029000
  H      44.922000     22.831000     39.580000
  C      43.710000     21.442000     40.614000
  C      43.262000     22.496000     41.665000
  O      43.943000     23.540000     41.760000
  O      42.257000     22.185000     42.351000
  O      43.475000     20.264000     40.806000
  C      41.507000     20.433000     38.455000
  H      41.100000     19.433000     38.303000
  C      42.679000     20.788000     37.919000
  H      43.265000     20.078000     37.331000
  C      43.327000     22.119000     38.198000
  C      42.309000     23.122000     38.681000
  H      42.595000     24.169000     38.617000
  C      41.135000     22.768000     39.207000
  H      40.457000     23.534000     39.595000
  C      40.660000     21.343000     39.305000
  H      40.748000     21.027000     40.361000
  O      39.307000     21.259000     38.897000
  H      38.743000     20.794000     39.597000
  C      44.100000     22.655000     36.945000
  O      45.001000     21.934000     36.451000
  O      43.814000     23.812000     36.546000
24
Coordinates from ORCA-job neb_MEP_ALL.QMRegion E -1075.680500703602
  C      44.842000     22.068000     40.142000
  H      45.265000     21.440000     39.358000
  H      45.368000     22.976000     40.435000
  C      43.689000     21.758000     40.746000
  C      43.115000     22.623000     41.859000
  O      43.577000     23.785000     42.012000
  O      42.221000     22.117000     42.579000
  O      42.985000     20.610000     40.433000
  C      42.079000     20.646000     39.270000
  H      41.683000     19.622000     39.219000
  C      42.892000     20.975000     38.054000
  H      43.551000     20.209000     37.638000
  C      42.969000     22.244000     37.605000
  C      42.118000     23.281000     38.202000
  H      42.307000     24.301000     37.867000
  C      41.188000     23.002000     39.130000
  H      40.598000     23.809000     39.575000
  C      40.887000     21.588000     39.553000
  H      40.742000     21.566000     40.644000
  O      39.715000     21.144000     38.884000
  H      39.068000     20.737000     39.535000
  C      44.024000     22.694000     36.600000
  O      44.937000     21.905000     36.259000
  O      43.944000     23.900000     36.236000
24
Coordinates from ORCA-job neb_MEP_ALL.QMRegion E -1075.678867151407
  C      44.765673     22.016291     39.994907
  H      45.159735     21.397306     39.189959
  H      45.247390     22.971094     40.209819
  C      43.662789     21.682469     40.677510
  C      43.133179     22.577997     41.793309
  O      43.640273     23.721346     41.939973
  O      42.220743     22.116353     42.520889
  O      42.946042     20.531950     40.398762
  C      42.019594     20.549164     39.241781
  H      41.642652     19.518176     39.184700
  C      42.809218     20.918982     38.026220
  H      43.415954     20.157975     37.529062
  C      42.969048     22.220930     37.713803
  C      42.168978     23.240530     38.404553
  H      42.431016     24.278678     38.204602
  C      41.178043     22.918616     39.251961
  H      40.581168     23.702753     39.728053
  C      40.831315     21.486463     39.564676
  H      40.697196     21.398427     40.652683
  O      39.644649     21.118012     38.881195
  H      38.985685     20.716327     39.530184
  C      44.024992     22.703692     36.733136
  O      44.961168     21.938546     36.392915
  O      43.909124     23.904474     36.365549
24
Coordinates from ORCA-job neb_MEP_ALL.QMRegion E -1075.672412980422
  C      44.730328     21.994103     39.912880
  H      45.144621     21.355528     39.134525
  H      45.170376     22.979437     40.067923
  C      43.664100     21.637149     40.650858
  C      43.149742     22.559626     41.758147
  O      43.688898     23.688304     41.902852
  O      42.221515     22.128380     42.487052
  O      42.954654     20.484653     40.400170
  C      41.965367     20.504563     39.170721
  H      41.606363     19.465713     39.118348
  C      42.781275     20.899379     38.006477
  H      43.370170     20.146683     37.478135
  C      43.008485     22.214422     37.794564
  C      42.205169     23.223024     38.497154
  H      42.480685     24.264506     38.336811
  C      41.170403     22.883515     39.281351
  H      40.547191     23.655747     39.740141
  C      40.801302     21.449986     39.546987
  H      40.696831     21.320363     40.633286
  O      39.587243     21.138648     38.884926
  H      38.933534     20.728910     39.539119
  C      44.045686     22.704020     36.802274
  O      44.978725     21.945967     36.438981
  O      43.897762     23.896491     36.421684
24
Coordinates from ORCA-job neb_MEP_ALL.QMRegion E -1075.657239825473
  C      44.701318     22.021006     39.853204
  H      45.160712     21.346348     39.134642
  H      45.131103     23.009173     39.993569
  C      43.690076     21.617384     40.676033
  C      43.160732     22.566654     41.763221
  O      43.697505     23.696918     41.899576
  O      42.224286     22.140255     42.485236
  O      43.064902     20.467613     40.497616
  C      41.874308     20.486094     39.039395
  H      41.574412     19.433324     39.069014
  C      42.765520     20.887060     38.007300
  H      43.367524     20.145151     37.480709
  C      43.068584     22.218355     37.881439
  C      42.226168     23.225395     38.533354
  H      42.491900     24.267383     38.362010
  C      41.166108     22.878468     39.277485
  H      40.529432     23.647547     39.721701
  C      40.789347     21.445002     39.523681
  H      40.712971     21.293540     40.608712
  O      39.548916     21.167926     38.891182
  H      38.908902     20.737332     39.547352
  C      44.071176     22.700762     36.842561
  O      44.987556     21.941629     36.448011
  O      43.892980     23.881856     36.439525
24
Coordinates from ORCA-job neb_MEP_ALL.QMRegion E -1075.654436542024
  C      44.668014     22.046018     39.788681
  H      45.175938     21.337873     39.138483
  H      45.113180     23.024580     39.956887
  C      43.706188     21.602591     40.696459
  C      43.164487     22.573089     41.770721
  O      43.700823     23.703618     41.898871
  O      42.226844     22.146327     42.487832
  O      43.166343     20.454314     40.595350
  C      41.797575     20.477321     38.929939
  H      41.549817     19.419253     39.035019
  C      42.754378     20.875332     38.015925
  H      43.367237     20.143014     37.488106
  C      43.119896     22.226047     37.950194
  C      42.235335     23.228791     38.549065
  H      42.494760     24.270474     38.370203
  C      41.163315     22.876610     39.272330
  H      40.522563     23.644520     39.713350
  C      40.781143     21.442053     39.505549
  H      40.722051     21.279959     40.592483
  O      39.523812     21.186136     38.893545
  H      38.896714     20.740153     39.552028
  C      44.085084     22.700314     36.863881
  O      44.989699     21.937951     36.450818
  O      43.887669     23.873627     36.447399
24
Coordinates from ORCA-job neb_MEP_ALL.QMRegion E -1075.659871700187
  C      44.566393     22.073688     39.650137
  H      45.180180     21.327186     39.146264
  H      45.066452     23.016935     39.899636
  C      43.692172     21.593921     40.690645
  C      43.164167     22.573614     41.773419
  O      43.707774     23.699305     41.893796
  O      42.231505     22.143205     42.491728
  O      43.232284     20.441563     40.663425
  C      41.757745     20.471870     38.863549
  H      41.523871     19.413386     38.995052
  C      42.757820     20.864518     38.036174
  H      43.369490     20.137871     37.497057
  C      43.222336     22.232551     38.070093
  C      42.251350     23.229664     38.573369
  H      42.495717     24.272055     38.378182
  C      41.164376     22.871911     39.265759
  H      40.511783     23.638684     39.693171
  C      40.777568     21.436042     39.494697
  H      40.724320     21.268649     40.583038
  O      39.509666     21.196820     38.895709
  H      38.889671     20.741290     39.553220
  C      44.102126     22.698511     36.888849
  O      44.991610     21.933579     36.449658
  O      43.876618     23.860368     36.455202
24
Coordinates from ORCA-job neb_MEP_ALL.QMRegion E -1075.676998324239
  C      44.453536     22.089697     39.508860
  H      45.164618     21.328238     39.156014
  H      44.988337     23.008036     39.814894
  C      43.676976     21.592103     40.682324
  C      43.171198     22.578481     41.776458
  O      43.722931     23.695641     41.888539
  O      42.240306     22.143327     42.497011
  O      43.315921     20.420471     40.745042
  C      41.726950     20.469803     38.803844
  H      41.482341     19.410446     38.924044
  C      42.770243     20.857365     38.057997
  H      43.381783     20.132991     37.512440
  C      43.329820     22.237064     38.190972
  C      42.280764     23.229309     38.608258
  H      42.506821     24.273825     38.398523
  C      41.172367     22.866681     39.259583
  H      40.500026     23.632284     39.659214
  C      40.774115     21.431005     39.478568
  H      40.735840     21.251882     40.567494
  O      39.491079     21.219105     38.901889
  H      38.881170     20.748628     39.557933
  C      44.120059     22.697044     36.919289
  O      44.998719     21.932802     36.456025
  O      43.865034     23.846415     36.470773
24
Coordinates from ORCA-job neb_MEP_ALL.QMRegion E -1075.695750620511
  C      44.398892     22.005560     39.415889
  H      45.125569     21.243956     39.099705
  H      44.914339     22.940342     39.668749
  C      43.689859     21.526661     40.652503
  C      43.218667     22.549221     41.724965
  O      43.849981     23.622873     41.830097
  O      42.251538     22.173674     42.432617
  O      43.429200     20.336551     40.810572
  C      41.620541     20.447725     38.624861
  H      41.287843     19.408835     38.595125
  C      42.740233     20.823436     38.001341
  H      43.353949     20.108431     37.446490
  C      43.344923     22.184534     38.214534
  C      42.309398     23.185918     38.656066
  H      42.561845     24.235060     38.509909
  C      41.163745     22.821677     39.234746
  H      40.474825     23.584902     39.604494
  C      40.725959     21.390849     39.390855
  H      40.762626     21.143688     40.467281
  O      39.399285     21.259760     38.906924
  H      38.815200     20.782246     39.581944
  C      44.116124     22.677952     36.941738
  O      45.011382     21.940775     36.464039
  O      43.838081     23.828716     36.514837
24
Coordinates from ORCA-job neb_MEP_ALL.QMRegion E -1075.698769381338
  C      44.392169     21.951573     39.368982
  H      45.108932     21.183552     39.058769
  H      44.919493     22.875145     39.618852
  C      43.700137     21.468760     40.625506
  C      43.248402     22.516636     41.695130
  O      43.907993     23.574342     41.791085
  O      42.252385     22.186232     42.383974
  O      43.454379     20.303580     40.807221
  C      41.557723     20.435343     38.523488
  H      41.181388     19.413194     38.424543
  C      42.710895     20.804232     37.955056
  H      43.312644     20.094485     37.380221
  C      43.344224     22.150632     38.214740
  C      42.311386     23.150853     38.668888
  H      42.580612     24.199880     38.565374
  C      41.148160     22.791948     39.217715
  H      40.461134     23.554975     39.599005
  C      40.691894     21.362216     39.342574
  H      40.762140     21.076292     40.409402
  O      39.348831     21.263224     38.902373
  H      38.775606     20.794259     39.592052
  C      44.109406     22.667677     36.948676
  O      45.004423     21.940930     36.455928
  O      43.822381     23.818479     36.531006
24
Coordinates from ORCA-job neb_MEP_ALL.QMRegion E -1075.701067018986
  C      44.390000     21.903000     39.353000
  H      45.099000     21.130000     39.029000
  H      44.922000     22.831000     39.580000
  C      43.710000     21.442000     40.614000
  C      43.262000     22.496000     41.665000
  O      43.943000     23.540000     41.760000
  O      42.257000     22.185000     42.351000
  O      43.475000     20.264000     40.806000
  C      41.507000     20.433000     38.455000
  H      41.100000     19.433000     38.303000
  C      42.679000     20.788000     37.919000
  H      43.265000     20.078000     37.331000
  C      43.327000     22.119000     38.198000
  C      42.309000     23.122000     38.681000
  H      42.595000     24.169000     38.617000
  C      41.135000     22.768000     39.207000
  H      40.457000     23.534000     39.595000
  C      40.660000     21.343000     39.305000
  H      40.748000     21.027000     40.361000
  O      39.307000     21.259000     38.897000
  H      38.743000     20.794000     39.597000
  C      44.100000     22.655000     36.945000
  O      45.001000     21.934000     36.451000
  O      43.814000     23.812000     36.546000
24
Coordinates from ORCA-job neb_MEP_ALL.QMRegion E -1075.680500703602
  C      44.842000     22.068000     40.142000
  H      45.265000     21.440000     39.358000
  H      45.368000     22.976000     40.435000
  C      43.689000     21.758000     40.746000
  C      43.115000     22.623000     41.859000
  O      43.577000     23.785000     42.012000
  O      42.221000     22.117000     42.579000
  O      42.985000     20.610000     40.433000
  C      42.079000     20.646000     39.270000
  H      41.683000     19.622000     39.219000
  C      42.892000     20.975000     38.054000
  H      43.551000     20.209000     37.638000
  C      42.969000     22.244000     37.605000
  C      42.118000     23.281000     38.202000
  H      42.307000     24.301000     37.867000
  C      41.188000     23.002000     39.130000
  H      40.598000     23.809000     39.575000
  C      40.887000     21.588000     39.553000
  H      40.742000     21.566000     40.644000
  O      39.715000     21.144000     38.884000
  H      39.068000     20.737000     39.535000
  C      44.024000     22.694000     36.600000
  O      44.937000     21.905000     36.259000
  O      43.944000     23.900000     36.236000
24
Coordinates from ORCA-job neb_MEP_ALL.QMRegion E -1075.679175132643
  C      44.766257     22.015638     39.995116
  H      45.159635     21.397199     39.190068
  H      45.247457     22.969255     40.210218
  C      43.662814     21.683458     40.677285
  C      43.133026     22.577468     41.792685
  O      43.640597     23.720388     41.939612
  O      42.220678     22.116248     42.520752
  O      42.948517     20.532226     40.401582
  C      42.016803     20.549738     39.237446
  H      41.642649     19.518139     39.184845
  C      42.809445     20.918490     38.026810
  H      43.415425     20.158201     37.528911
  C      42.968486     22.220385     37.714347
  C      42.168297     23.240397     38.404617
  H      42.430782     24.278736     38.204617
  C      41.177815     22.918241     39.252302
  H      40.581658     23.702306     39.728548
  C      40.831363     21.486481     39.564811
  H      40.696550     21.398225     40.652760
  O      39.645303     21.117601     38.881773
  H      38.985567     20.716190     39.529761
  C      44.023398     22.703117     36.731773
  O      44.961112     21.939341     36.393028
  O      43.909718     23.904500     36.365757
24
Coordinates from ORCA-job neb_MEP_ALL.QMRegion E -1075.672187333302
  C      44.730138     21.994047     39.912571
  H      45.144903     21.355599     39.135049
  H      45.169928     22.978634     40.067074
  C      43.664864     21.637226     40.651523
  C      43.150378     22.559506     41.758313
  O      43.689009     23.688245     41.902560
  O      42.221318     22.128733     42.486673
  O      42.955761     20.485414     40.399612
  C      41.964894     20.504129     39.169852
  H      41.605922     19.465287     39.117570
  C      42.780736     20.898801     38.006854
  H      43.369988     20.146998     37.478274
  C      43.009326     22.213875     37.796575
  C      42.204952     23.223083     38.497427
  H      42.480636     24.264697     38.337049
  C      41.170160     22.883302     39.281384
  H      40.547026     23.655728     39.740109
  C      40.801756     21.449609     39.546584
  H      40.696800     21.320007     40.632269
  O      39.587122     21.139054     38.885766
  H      38.932899     20.728924     39.538969
  C      44.044471     22.703314     36.801362
  O      44.979040     21.946749     36.439302
  O      43.898614     23.896447     36.422048
24
Coordinates from ORCA-job neb_MEP_ALL.QMRegion E -1075.657405270728
  C      44.702856     22.020344     39.855003
  H      45.160519     21.346435     39.134865
  H      45.132047     23.008964     39.994678
  C      43.690240     21.617313     40.675661
  C      43.160879     22.566360     41.763035
  O      43.697224     23.696794     41.899814
  O      42.224171     22.140713     42.485061
  O      43.063135     20.467609     40.496064
  C      41.875393     20.486169     39.041133
  H      41.574860     19.433497     39.069570
  C      42.765460     20.887174     38.006917
  H      43.367483     20.145220     37.480462
  C      43.067617     22.218076     37.879881
  C      42.225715     23.225214     38.532598
  H      42.491787     24.267359     38.361911
  C      41.166217     22.878368     39.277785
  H      40.529482     23.647567     39.722136
  C      40.789102     21.444798     39.523830
  H      40.712905     21.293594     40.608800
  O      39.549300     21.167635     38.891130
  H      38.908951     20.737244     39.547345
  C      44.070064     22.700493     36.841234
  O      44.987537     21.941797     36.448301
  O      43.893310     23.882243     36.439610
24
Coordinates from ORCA-job neb_MEP_ALL.QMRegion E -1075.654480753644
  C      44.668777     22.045558     39.789608
  H      45.175943     21.338309     39.138966
  H      45.113367     23.023594     39.957220
  C      43.706443     21.603127     40.696296
  C      43.165076     22.572448     41.770694
  O      43.700486     23.703279     41.898903
  O      42.226818     22.146936     42.487512
  O      43.167014     20.454785     40.595429
  C      41.797568     20.477264     38.930234
  H      41.549772     19.419339     39.034767
  C      42.753888     20.875069     38.015553
  H      43.367310     20.142967     37.487942
  C      43.119962     22.225706     37.950298
  C      42.234958     23.228660     38.548530
  H      42.494755     24.270675     38.370234
  C      41.163258     22.876351     39.272447
  H      40.522566     23.644481     39.713661
  C      40.780819     21.441686     39.505394
  H      40.722148     21.279751     40.592117
  O      39.523644     21.186234     38.893683
  H      38.896528     20.740221     39.552013
  C      44.084381     22.700170     36.863355
  O      44.989531     21.938252     36.450968
  O      43.888033     23.873843     36.447290
24
Coordinates from ORCA-job neb_MEP_ALL.QMRegion E -1075.659880570418
  C      44.567676     22.072818     39.652200
  H      45.180063     21.327730     39.146481
  H      45.066382     23.015626     39.899812
  C      43.692687     21.594805     40.690650
  C      43.164795     22.572504     41.773264
  O      43.707258     23.698741     41.893669
  O      42.231555     22.144075     42.491356
  O      43.233361     20.442733     40.663400
  C      41.757516     20.471705     38.863756
  H      41.523926     19.413546     38.994852
  C      42.757135     20.864313     38.035503
  H      43.369506     20.137903     37.496994
  C      43.221673     22.231916     38.069804
  C      42.251182     23.229544     38.573069
  H      42.495662     24.272380     38.378151
  C      41.164091     22.871595     39.265690
  H      40.511736     23.638779     39.693538
  C      40.777423     21.435494     39.494426
  H      40.724353     21.268438     40.582422
  O      39.509513     21.196997     38.896124
  H      38.889477     20.741297     39.553087
  C      44.101671     22.698474     36.888994
  O      44.991340     21.934125     36.449492
  O      43.877092     23.860298     36.454846
24
Coordinates from ORCA-job neb_MEP_ALL.QMRegion E -1075.678116143177
  C      44.451101     22.089355     39.506446
  H      45.164051     21.329180     39.156572
  H      44.986023     23.005998     39.812737
  C      43.676231     21.591623     40.681552
  C      43.171491     22.576224     41.776547
  O      43.722670     23.695137     41.888491
  O      42.241250     22.144820     42.496667
  O      43.319048     20.423353     40.746524
  C      41.725482     20.469539     38.802154
  H      41.481665     19.410966     38.922549
  C      42.770825     20.857129     38.058440
  H      43.381744     20.133228     37.512961
  C      43.332961     22.236366     38.194808
  C      42.281972     23.229135     38.609163
  H      42.506851     24.274310     38.398900
  C      41.172259     22.866268     39.259157
  H      40.499563     23.632450     39.658936
  C      40.774441     21.430059     39.478151
  H      40.735751     21.251506     40.566905
  O      39.491109     21.219586     38.902769
  H      38.880861     20.748854     39.557769
  C      44.120743     22.697253     36.920927
  O      44.998332     21.933493     36.455709
  O      43.865095     23.845824     36.470508
24
Coordinates from ORCA-job neb_MEP_ALL.QMRegion E -1075.695721314446
  C      44.398940     22.006764     39.416341
  H      45.125916     21.246087     39.100790
  H      44.914397     22.940020     39.670522
  C      43.689221     21.525530     40.652257
  C      43.219196     22.547179     41.726248
  O      43.846924     23.623377     41.831037
  O      42.251798     22.175147     42.433238
  O      43.429226     20.342157     40.809601
  C      41.621304     20.447843     38.625934
  H      41.290058     19.408770     38.599335
  C      42.741174     20.823668     38.002613
  H      43.354073     20.109013     37.447933
  C      43.346530     22.184667     38.215630
  C      42.309606     23.186082     38.655150
  H      42.561146     24.235716     38.508584
  C      41.163479     22.822368     39.234171
  H      40.474488     23.586223     39.605599
  C      40.727040     21.390597     39.391967
  H      40.762044     21.144970     40.468895
  O      39.400868     21.259312     38.907424
  H      38.815962     20.782062     39.581377
  C      44.117301     22.679041     36.943169
  O      45.010473     21.941009     36.463633
  O      43.838329     23.828530     36.513509
24
Coordinates from ORCA-job neb_MEP_ALL.QMRegion E -1075.699857580647
  C      44.393548     21.949079     39.377098
  H      45.109718     21.183372     39.057654
  H      44.919520     22.875917     39.618558
  C      43.699679     21.473982     40.627044
  C      43.248413     22.516711     41.692897
  O      43.907809     23.573697     41.791738
  O      42.253723     22.186254     42.383564
  O      43.454979     20.300701     40.806651
  C      41.558138     20.435486     38.522954
  H      41.181710     19.414259     38.424340
  C      42.711456     20.803487     37.955963
  H      43.312399     20.095173     37.380849
  C      43.339319     22.150480     38.208456
  C      42.311608     23.151318     38.670600
  H      42.580648     24.200054     38.565227
  C      41.148109     22.791862     39.217458
  H      40.461494     23.554838     39.598474
  C      40.692699     21.361853     39.341999
  H      40.762050     21.076339     40.409396
  O      39.349199     21.263304     38.902880
  H      38.775434     20.794327     39.591939
  C      44.110011     22.668082     36.948099
  O      45.004949     21.940193     36.456115
  O      43.821742     23.818918     36.531324
24
Coordinates from ORCA-job neb_MEP_ALL.QMRegion E -1075.701067018986
  C      44.390000     21.903000     39.353000
  H      45.099000     21.130000     39.029000
  H      44.922000     22.831000     39.580000
  C      43.710000     21.442000     40.614000
  C      43.262000     22.496000     41.665000
  O      43.943000     23.540000     41.760000
  O      42.257000     22.185000     42.351000
  O      43.475000     20.264000     40.806000
  C      41.507000     20.433000     38.455000
  H      41.100000     19.433000     38.303000
  C      42.679000     20.788000     37.919000
  H      43.265000     20.078000     37.331000
  C      43.327000     22.119000     38.198000
  C      42.309000     23.122000     38.681000
  H      42.595000     24.169000     38.617000
  C      41.135000     22.768000     39.207000
  H      40.457000     23.534000     39.595000
  C      40.660000     21.343000     39.305000
  H      40.748000     21.027000     40.361000
  O      39.307000     21.259000     38.897000
  H      38.743000     20.794000     39.597000
  C      44.100000     22.655000     36.945000
  O      45.001000     21.934000     36.451000
  O      43.814000     23.812000     36.546000
24
Coordinates from ORCA-job neb_MEP_ALL.QMRegion E -1075.680500703602
  C      44.842000     22.068000     40.142000
  H      45.265000     21.440000     39.358000
  H      45.368000     22.976000     40.435000
  C      43.689000     21.758000     40.746000
  C      43.115000     22.623000     41.859000
  O      43.577000     23.785000     42.012000
  O      42.221000     22.117000     42.579000
  O      42.985000     20.610000     40.433000
  C      42.079000     20.646000     39.270000
  H      41.683000     19.622000     39.219000
  C      42.892000     20.975000     38.054000
  H      43.551000     20.209000     37.638000
  C      42.969000     22.244000     37.605000
  C      42.118000     23.281000     38.202000
  H      42.307000     24.301000     37.867000
  C      41.188000     23.002000     39.130000
  H      40.598000     23.809000     39.575000
  C      40.887000     21.588000     39.553000
  H      40.742000     21.566000     40.644000
  O      39.715000     21.144000     38.884000
  H      39.068000     20.737000     39.535000
  C      44.024000     22.694000     36.600000
  O      44.937000     21.905000     36.259000
  O      43.944000     23.900000     36.236000
24
Coordinates from ORCA-job neb_MEP_ALL.QMRegion E -1075.679381813512
  C      44.767188     22.013981     39.995170
  H      45.159534     21.396337     39.189902
  H      45.248003     22.965769     40.210730
  C      43.663018     21.684370     40.676945
  C      43.132760     22.576642     41.791446
  O      43.641740     23.718599     41.938701
  O      42.220435     22.115924     42.520094
  O      42.951716     20.532415     40.404926
  C      42.012783     20.550122     39.231559
  H      41.642200     19.517434     39.184643
  C      42.809322     20.917780     38.027191
  H      43.414198     20.158265     37.528217
  C      42.967492     22.219724     37.715311
  C      42.167025     23.240020     38.405036
  H      42.430270     24.278489     38.205237
  C      41.177368     22.917455     39.253151
  H      40.582501     23.701184     39.730062
  C      40.831017     21.486380     39.564997
  H      40.695341     21.397202     40.652735
  O      39.645876     21.116795     38.882488
  H      38.985008     20.715817     39.529058
  C      44.020513     22.702194     36.729724
  O      44.960760     21.940698     36.393252
  O      43.910311     23.904509     36.366392
24
Coordinates from ORCA-job neb_MEP_ALL.QMRegion E -1075.672388643934
  C      44.729976     21.993954     39.911850
  H      45.145716     21.355398     39.135965
  H      45.169198     22.977638     40.064919
  C      43.666413     21.637004     40.652752
  C      43.151682     22.559404     41.758691
  O      43.689489     23.688315     41.902017
  O      42.220870     22.129607     42.485766
  O      42.958254     20.486229     40.399003
  C      41.963616     20.503073     39.167794
  H      41.604822     19.464041     39.115673
  C      42.779703     20.897833     38.007377
  H      43.369614     20.147467     37.478422
  C      43.011037     22.213070     37.800423
  C      42.204874     23.223168     38.498343
  H      42.480509     24.264970     38.337737
  C      41.169724     22.882897     39.281447
  H      40.546478     23.655484     39.739973
  C      40.802220     21.448923     39.545633
  H      40.696976     21.318911     40.630265
  O      39.586447     21.140092     38.887068
  H      38.931358     20.729001     39.538948
  C      44.042828     22.702158     36.800461
  O      44.979603     21.947927     36.439873
  O      43.899771     23.896201     36.422917
24
Coordinates from ORCA-job neb_MEP_ALL.QMRegion E -1075.657772928037
  C      44.705852     22.019116     39.858347
  H      45.160485     21.346467     39.135416
  H      45.134143     23.008503     39.996921
  C      43.690827     21.617082     40.675312
  C      43.161241     22.565900     41.762846
  O      43.696833     23.696647     41.900181
  O      42.223794     22.141591     42.484555
  O      43.060537     20.467523     40.493640
  C      41.877008     20.486197     39.043794
  H      41.575526     19.433680     39.070327
  C      42.765188     20.887220     38.006205
  H      43.367365     20.145304     37.479939
  C      43.065635     22.217539     37.877047
  C      42.224743     23.224862     38.531173
  H      42.491508     24.267245     38.361778
  C      41.166366     22.878144     39.278288
  H      40.529633     23.647451     39.723065
  C      40.788716     21.444408     39.523943
  H      40.712857     21.293442     40.608806
  O      39.549537     21.167167     38.891022
  H      38.908874     20.737079     39.547387
  C      44.068070     22.700080     36.838872
  O      44.987398     21.942084     36.448802
  O      43.893862     23.883005     36.439720
24
Coordinates from ORCA-job neb_MEP_ALL.QMRegion E -1075.654553940387
  C      44.670442     22.044694     39.791638
  H      45.176281     21.338864     39.139831
  H      45.114226     23.021856     39.958160
  C      43.707108     21.603954     40.696377
  C      43.166087     22.571621     41.770755
  O      43.700171     23.702809     41.898882
  O      42.226533     22.147803     42.486732
  O      43.168387     20.455412     40.595596
  C      41.797499     20.477034     38.930626
  H      41.549596     19.419335     39.034173
  C      42.753013     20.874566     38.014817
  H      43.367382     20.142821     37.487541
  C      43.119640     22.225091     37.950196
  C      42.234118     23.228415     38.547503
  H      42.494637     24.270853     38.370316
  C      41.163097     22.875889     39.272598
  H      40.522672     23.644202     39.714378
  C      40.780281     21.441129     39.505033
  H      40.722344     21.279138     40.591433
  O      39.523078     21.186444     38.893833
  H      38.895972     20.740334     39.552075
  C      44.083133     22.699994     36.862378
  O      44.989137     21.938728     36.451182
  O      43.888603     23.874311     36.447038
24
Coordinates from ORCA-job neb_MEP_ALL.QMRegion E -1075.659895612212
  C      44.569991     22.071440     39.655597
  H      45.180262     21.328283     39.146862
  H      45.066605     23.013468     39.900150
  C      43.693783     21.595905     40.691291
  C      43.165759     22.571070     41.773211
  O      43.706813     23.698029     41.893231
  O      42.231388     22.145225     42.490461
  O      43.235866     20.444491     40.663744
  C      41.756910     20.471286     38.863659
  H      41.523783     19.413504     38.994151
  C      42.755879     20.863852     38.034253
  H      43.369504     20.137885     37.496840
  C      43.220338     22.231015     38.069401
  C      42.250776     23.229395     38.572673
  H      42.495476     24.272726     38.378208
  C      41.163536     22.871115     39.265496
  H      40.511736     23.638650     39.694205
  C      40.777031     21.434786     39.493767
  H      40.724513     21.267723     40.581222
  O      39.508875     21.197482     38.896682
  H      38.888850     20.741258     39.553016
  C      44.100972     22.698436     36.889207
  O      44.990910     21.934931     36.449237
  O      43.877776     23.860257     36.454363
24
Coordinates from ORCA-job neb_MEP_ALL.QMRegion E -1075.678741307128
  C      44.449569     22.087936     39.505706
  H      45.163386     21.330831     39.157421
  H      44.983568     23.002298     39.810642
  C      43.675528     21.591760     40.680556
  C      43.171842     22.572895     41.776631
  O      43.722343     23.694368     41.888152
  O      42.242202     22.146628     42.495932
  O      43.322568     20.427726     40.747283
  C      41.723630     20.469196     38.800390
  H      41.481183     19.411587     38.921202
  C      42.771815     20.857106     38.058775
  H      43.381412     20.133555     37.513443
  C      43.335397     22.235366     38.198469
  C      42.283533     23.228812     38.610459
  H      42.506490     24.274767     38.399166
  C      41.171980     22.865730     39.258440
  H      40.499185     23.632422     39.659075
  C      40.774963     21.428899     39.477716
  H      40.735322     21.250900     40.566199
  O      39.491353     21.219909     38.904019
  H      38.880297     20.748951     39.557486
  C      44.121684     22.697655     36.923192
  O      44.997602     21.934471     36.454882
  O      43.865190     23.845038     36.469858
24
Coordinates from ORCA-job neb_MEP_ALL.QMRegion E -1075.695871967485
  C      44.398488     22.009317     39.416622
  H      45.126923     21.250436     39.103080
  H      44.914276     22.939680     39.673962
  C      43.688504     21.525819     40.652144
  C      43.219900     22.544428     41.728878
  O      43.841656     23.624828     41.832720
  O      42.251776     22.176934     42.434686
  O      43.429039     20.350271     40.808192
  C      41.622853     20.448269     38.627989
  H      41.294232     19.408257     38.607464
  C      42.743366     20.824417     38.005442
  H      43.354691     20.109801     37.450859
  C      43.349812     22.185655     38.218520
  C      42.309971     23.186635     38.653759
  H      42.559794     24.236739     38.505975
  C      41.162987     22.823908     39.232949
  H      40.474144     23.588489     39.607461
  C      40.729184     21.390746     39.394230
  H      40.761043     21.147435     40.472162
  O      39.403880     21.258508     38.908260
  H      38.817413     20.781681     39.580401
  C      44.119640     22.681067     36.945711
  O      45.009131     21.941233     36.462925
  O      43.838678     23.828285     36.511159
24
Coordinates from ORCA-job neb_MEP_ALL.QMRegion E -1075.700246679190
  C      44.394774     21.946312     39.387383
  H      45.111168     21.183014     39.056197
  H      44.919581     22.877654     39.618431
  C      43.698800     21.478399     40.630815
  C      43.247435     22.517614     41.689739
  O      43.908123     23.573077     41.792737
  O      42.255666     22.185820     42.383058
  O      43.456552     20.299297     40.805434
  C      41.558766     20.435778     38.522582
  H      41.182514     19.416069     38.424097
  C      42.711797     20.802451     37.956832
  H      43.312583     20.095997     37.381993
  C      43.333343     22.149736     38.202088
  C      42.311532     23.152030     38.672506
  H      42.580862     24.200726     38.564988
  C      41.147933     22.791632     39.217266
  H      40.462172     23.554645     39.597531
  C      40.694086     21.361403     39.341259
  H      40.762039     21.076563     40.409023
  O      39.350022     21.263468     38.903719
  H      38.775227     20.794457     39.591782
  C      44.110197     22.668389     36.946290
  O      45.006169     21.939289     36.456689
  O      43.821211     23.820033     36.531756
24
Coordinates from ORCA-job neb_MEP_ALL.QMRegion E -1075.701067018986
  C      44.390000     21.903000     39.353000
  H      45.099000     21.130000     39.029000
  H      44.922000     22.831000     39.580000
  C      43.710000     21.442000     40.614000
  C      43.262000     22.496000     41.665000
  O      43.943000     23.540000     41.760000
  O      42.257000     22.185000     42.351000
  O      43.475000     20.264000     40.806000
  C      41.507000     20.433000     38.455000
  H      41.100000     19.433000     38.303000
  C      42.679000     20.788000     37.919000
  H      43.265000     20.078000     37.331000
  C      43.327000     22.119000     38.198000
  C      42.309000     23.122000     38.681000
  H      42.595000     24.169000     38.617000
  C      41.135000     22.768000     39.207000
  H      40.457000     23.534000     39.595000
  C      40.660000     21.343000     39.305000
  H      40.748000     21.027000     40.361000
  O      39.307000     21.259000     38.897000
  H      38.743000     20.794000     39.597000
  C      44.100000     22.655000     36.945000
  O      45.001000     21.934000     36.451000
  O      43.814000     23.812000     36.546000
24
Coordinates from ORCA-job neb_MEP_ALL.QMRegion E -1075.680500703602
  C      44.842000     22.068000     40.142000
  H      45.265000     21.440000     39.358000
  H      45.368000     22.976000     40.435000
  C      43.689000     21.758000     40.746000
  C      43.115000     22.623000     41.859000
  O      43.577000     23.785000     42.012000
  O      42.221000     22.117000     42.579000
  O      42.985000     20.610000     40.433000
  C      42.079000     20.646000     39.270000
  H      41.683000     19.622000     39.219000
  C      42.892000     20.975000     38.054000
  H      43.551000     20.209000     37.638000
  C      42.969000     22.244000     37.605000
  C      42.118000     23.281000     38.202000
  H      42.307000     24.301000     37.867000
  C      41.188000     23.002000     39.130000
  H      40.598000     23.809000     39.575000
  C      40.887000     21.588000     39.553000
  H      40.742000     21.566000     40.644000
  O      39.715000     21.144000     38.884000
  H      39.068000     20.737000     39.535000
  C      44.024000     22.694000     36.600000
  O      44.937000     21.905000     36.259000
  O      43.944000     23.900000     36.236000
24
Coordinates from ORCA-job neb_MEP_ALL.QMRegion E -1075.679409229402
  C      44.768058     22.011568     39.994892
  H      45.159572     21.394418     39.189257
  H      45.249406     22.961881     40.211146
  C      43.663376     21.683945     40.676546
  C      43.132634     22.575834     41.790066
  O      43.643620     23.716730     41.937469
  O      42.220018     22.115557     42.518774
  O      42.953296     20.532103     40.406067
  C      42.009934     20.549539     39.228079
  H      41.641176     19.516015     39.183843
  C      42.808365     20.917185     38.026733
  H      43.412514     20.157901     37.526924
  C      42.966324     22.219367     37.716006
  C      42.165704     23.239437     38.405780
  H      42.429515     24.277813     38.206585
  C      41.176778     22.916465     39.254388
  H      40.583300     23.699692     39.732634
  C      40.830162     21.485805     39.565101
  H      40.693990     21.395257     40.652530
  O      39.645581     21.115875     38.882667
  H      38.983949     20.715207     39.528431
  C      44.017759     22.701539     36.728342
  O      44.959920     21.941818     36.393392
  O      43.910043     23.904616     36.367274
24
Coordinates from ORCA-job neb_MEP_ALL.QMRegion E -1075.672197796219
  C      44.730504     21.993515     39.911663
  H      45.146841     21.354731     39.136831
  H      45.169127     22.977000     40.062715
  C      43.668005     21.636499     40.653666
  C      43.152961     22.559311     41.759026
  O      43.690347     23.688499     41.901526
  O      42.220299     22.130769     42.484484
  O      42.960023     20.486233     40.397841
  C      41.962790     20.501790     39.166529
  H      41.603669     19.462492     39.113613
  C      42.778806     20.897123     38.007605
  H      43.369177     20.147783     37.478335
  C      43.012268     22.212439     37.803421
  C      42.204999     23.223140     38.499510
  H      42.480206     24.265103     38.338561
  C      41.169341     22.882458     39.281576
  H      40.545725     23.654962     39.739938
  C      40.802301     21.448239     39.544645
  H      40.697314     21.317377     40.628385
  O      39.585174     21.141098     38.888090
  H      38.929655     20.729157     39.539089
  C      44.041780     22.701326     36.800301
  O      44.980041     21.948693     36.440331
  O      43.900343     23.895870     36.423913
24
Coordinates from ORCA-job neb_MEP_ALL.QMRegion E -1075.658105755944
  C      44.709224     22.017790     39.861952
  H      45.160981     21.346331     39.136240
  H      45.136925     23.007738     39.999654
  C      43.691837     21.616763     40.675459
  C      43.161778     22.565575     41.762847
  O      43.696667     23.696562     41.900433
  O      42.223109     22.142495     42.483713
  O      43.058834     20.467394     40.491686
  C      41.878201     20.486041     39.045866
  H      41.575968     19.433655     39.070710
  C      42.764711     20.887051     38.005404
  H      43.367167     20.145302     37.479269
  C      43.063181     22.216953     37.874027
  C      42.223544     23.224461     38.529632
  H      42.491084     24.266998     38.361686
  C      41.166360     22.877799     39.278717
  H      40.529913     23.647071     39.724273
  C      40.788326     21.443960     39.523826
  H      40.712897     21.292884     40.608562
  O      39.549258     21.166828     38.890886
  H      38.908463     20.736898     39.547544
  C      44.066133     22.699832     36.836685
  O      44.987029     21.942361     36.449188
  O      43.894316     23.883821     36.439696
24
Coordinates from ORCA-job neb_MEP_ALL.QMRegion E -1075.654590276395
  C      44.672728     22.043672     39.794204
  H      45.177110     21.339089     39.140779
  H      45.116045     23.020261     39.959735
  C      43.708127     21.604442     40.697026
  C      43.166972     22.571242     41.770929
  O      43.700308     23.702572     41.898819
  O      42.225911     22.148430     42.485629
  O      43.169920     20.455657     40.595783
  C      41.797360     20.476643     38.930787
  H      41.549260     19.419051     39.033377
  C      42.752192     20.874023     38.014008
  H      43.367327     20.142592     37.486962
  C      43.118565     22.224530     37.949391
  C      42.233078     23.228090     38.546379
  H      42.494331     24.270755     38.370414
  C      41.162811     22.875391     39.272660
  H      40.522914     23.643615     39.715408
  C      40.779748     21.440613     39.504555
  H      40.722561     21.278141     40.590687
  O      39.522146     21.186688     38.893901
  H      38.895075     20.740466     39.552246
  C      44.081844     22.700032     36.861434
  O      44.988611     21.939063     36.451264
  O      43.889011     23.874823     36.446720
24
Coordinates from ORCA-job neb_MEP_ALL.QMRegion E -1075.659856767860
  C      44.572475     22.070016     39.658807
  H      45.181048     21.328245     39.147297
  H      45.067658     23.011820     39.900734
  C      43.695654     21.596996     40.692648
  C      43.166696     22.570588     41.773334
  O      43.706943     23.697613     41.892589
  O      42.230708     22.145880     42.489337
  O      43.238738     20.444852     40.664651
  C      41.756019     20.470714     38.862909
  H      41.523283     19.412964     38.992979
  C      42.754577     20.863368     38.033043
  H      43.369453     20.137722     37.496542
  C      43.218688     22.230396     38.068732
  C      42.250145     23.229219     38.572427
  H      42.495160     24.272780     38.378413
  C      41.162951     22.870693     39.265190
  H      40.511792     23.638147     39.695005
  C      40.776436     21.434309     39.492838
  H      40.724808     21.266495     40.579872
  O      39.507591     21.198141     38.897070
  H      38.887850     20.741205     39.553120
  C      44.100312     22.698490     36.889317
  O      44.990538     21.935444     36.449062
  O      43.878212     23.860348     36.454122
24
Coordinates from ORCA-job neb_MEP_ALL.QMRegion E -1075.679154082939
  C      44.450041     22.086238     39.507842
  H      45.163610     21.331753     39.158052
  H      44.983043     22.998971     39.810281
  C      43.675971     21.593840     40.680342
  C      43.172664     22.571767     41.776316
  O      43.722153     23.693205     41.887447
  O      42.241833     22.147029     42.495377
  O      43.323812     20.429370     40.746600
  C      41.723242     20.469240     38.799276
  H      41.481206     19.411662     38.920845
  C      42.771798     20.857152     38.059073
  H      43.381002     20.133650     37.513391
  C      43.335340     22.234817     38.199301
  C      42.284218     23.228548     38.611603
  H      42.505754     24.274726     38.399144
  C      41.171763     22.865347     39.257832
  H      40.499274     23.631918     39.659778
  C      40.775185     21.428366     39.477545
  H      40.734745     21.250176     40.565738
  O      39.491412     21.219801     38.904802
  H      38.879652     20.748736     39.557327
  C      44.122206     22.698085     36.924505
  O      44.996967     21.935051     36.453968
  O      43.865189     23.844544     36.469336
24
Coordinates from ORCA-job neb_MEP_ALL.QMRegion E -1075.695701774212
  C      44.397810     22.012806     39.417248
  H      45.128636     21.255956     39.106123
  H      44.914122     22.940234     39.678339
  C      43.688476     21.530144     40.652522
  C      43.220065     22.543736     41.732134
  O      43.836058     23.627157     41.834760
  O      42.251081     22.177272     42.436928
  O      43.427972     20.355173     40.807180
  C      41.625349     20.449044     38.631092
  H      41.299560     19.407429     38.617713
  C      42.746277     20.825673     38.009366
  H      43.356096     20.110375     37.454690
  C      43.353319     22.187877     38.222005
  C      42.310198     23.187822     38.652693
  H      42.558115     24.237860     38.502546
  C      41.162623     22.825973     39.231684
  H      40.474272     23.590817     39.609250
  C      40.731651     21.391833     39.397218
  H      40.760090     21.150654     40.476259
  O      39.407449     21.257591     38.908963
  H      38.819286     20.781071     39.579431
  C      44.122200     22.683166     36.947919
  O      45.008171     21.941234     36.462375
  O      43.839052     23.828163     36.508825
24
Coordinates from ORCA-job neb_MEP_ALL.QMRegion E -1075.700164269522
  C      44.395765     21.945457     39.392908
  H      45.112255     21.183142     39.055678
  H      44.919314     22.879464     39.618798
  C      43.699568     21.483472     40.633692
  C      43.246073     22.519448     41.687983
  O      43.908848     23.572944     41.793437
  O      42.256364     22.184978     42.383254
  O      43.457254     20.295966     40.805527
  C      41.559150     20.436079     38.522872
  H      41.183474     19.417552     38.423944
  C      42.711702     20.801940     37.956963
  H      43.313588     20.096279     37.383202
  C      43.330407     22.148965     38.200590
  C      42.311107     23.152601     38.673008
  H      42.581206     24.201614     38.564789
  C      41.147824     22.791419     39.217273
  H      40.462728     23.554604     39.596629
  C      40.695233     21.361285     39.340909
  H      40.762298     21.076893     40.408352
  O      39.350951     21.263631     38.904432
  H      38.775226     20.794622     39.591690
  C      44.109494     22.668161     36.944277
  O      45.007436     21.939172     36.457450
  O      43.821451     23.821199     36.531915
24
Coordinates from ORCA-job neb_MEP_ALL.QMRegion E -1075.701067018986
  C      44.390000     21.903000     39.353000
  H      45.099000     21.130000     39.029000
  H      44.922000     22.831000     39.580000
  C      43.710000     21.442000     40.614000
  C      43.262000     22.496000     41.665000
  O      43.943000     23.540000     41.760000
  O      42.257000     22.185000     42.351000
  O      43.475000     20.264000     40.806000
  C      41.507000     20.433000     38.455000
  H      41.100000     19.433000     38.303000
  C      42.679000     20.788000     37.919000
  H      43.265000     20.078000     37.331000
  C      43.327000     22.119000     38.198000
  C      42.309000     23.122000     38.681000
  H      42.595000     24.169000     38.617000
  C      41.135000     22.768000     39.207000
  H      40.457000     23.534000     39.595000
  C      40.660000     21.343000     39.305000
  H      40.748000     21.027000     40.361000
  O      39.307000     21.259000     38.897000
  H      38.743000     20.794000     39.597000
  C      44.100000     22.655000     36.945000
  O      45.001000     21.934000     36.451000
  O      43.814000     23.812000     36.546000
24
Coordinates from ORCA-job neb_MEP_ALL.QMRegion E -1075.680500703602
  C      44.842000     22.068000     40.142000
  H      45.265000     21.440000     39.358000
  H      45.368000     22.976000     40.435000
  C      43.689000     21.758000     40.746000
  C      43.115000     22.623000     41.859000
  O      43.577000     23.785000     42.012000
  O      42.221000     22.117000     42.579000
  O      42.985000     20.610000     40.433000
  C      42.079000     20.646000     39.270000
  H      41.683000     19.622000     39.219000
  C      42.892000     20.975000     38.054000
  H      43.551000     20.209000     37.638000
  C      42.969000     22.244000     37.605000
  C      42.118000     23.281000     38.202000
  H      42.307000     24.301000     37.867000
  C      41.188000     23.002000     39.130000
  H      40.598000     23.809000     39.575000
  C      40.887000     21.588000     39.553000
  H      40.742000     21.566000     40.644000
  O      39.715000     21.144000     38.884000
  H      39.068000     20.737000     39.535000
  C      44.024000     22.694000     36.600000
  O      44.937000     21.905000     36.259000
  O      43.944000     23.900000     36.236000
24
Coordinates from ORCA-job neb_MEP_ALL.QMRegion E -1075.679364117292
  C      44.769939     22.005736     39.994078
  H      45.159815     21.389193     39.187491
  H      45.253533     22.953375     40.212077
  C      43.664204     21.681516     40.675388
  C      43.132930     22.574032     41.787070
  O      43.648090     23.712778     41.934700
  O      42.218927     22.115038     42.515289
  O      42.954492     20.530564     40.405925
  C      42.005488     20.547360     39.223562
  H      41.638539     19.512569     39.181626
  C      42.805384     20.915904     38.025030
  H      43.408445     20.156826     37.523642
  C      42.963444     22.218633     37.716768
  C      42.162885     23.237918     38.407691
  H      42.427602     24.276135     38.210023
  C      41.175453     22.914109     39.257297
  H      40.584814     23.696382     39.739269
  C      40.827930     21.483667     39.565187
  H      40.691005     21.390260     40.652006
  O      39.643917     21.113858     38.882388
  H      38.981264     20.713680     39.527204
  C      44.012660     22.700817     36.726544
  O      44.957498     21.943577     36.393404
  O      43.908233     23.905085     36.369193
24
Coordinates from ORCA-job neb_MEP_ALL.QMRegion E -1075.671910813173
  C      44.732866     21.991958     39.912271
  H      45.149406     21.352847     39.138561
  H      45.170230     22.975858     40.058973
  C      43.670811     21.635092     40.654879
  C      43.155475     22.559323     41.759274
  O      43.692465     23.688577     41.900652
  O      42.218876     22.133293     42.481539
  O      42.962076     20.485448     40.394572
  C      41.962116     20.499146     39.165467
  H      41.601646     19.459460     39.109714
  C      42.777347     20.895974     38.007731
  H      43.368234     20.148201     37.477743
  C      43.013579     22.211428     37.807490
  C      42.205314     23.222870     38.501806
  H      42.479342     24.265154     38.340247
  C      41.168614     22.881433     39.282004
  H      40.544103     23.653548     39.740160
  C      40.801928     21.446732     39.542820
  H      40.698036     21.313913     40.625169
  O      39.582548     21.142993     38.889434
  H      38.926046     20.729458     39.539732
  C      44.040386     22.700033     36.800663
  O      44.980556     21.949727     36.441097
  O      43.900743     23.895364     36.425877
24
Coordinates from ORCA-job neb_MEP_ALL.QMRegion E -1075.658357804073
  C      44.716231     22.015078     39.869171
  H      45.162820     21.345833     39.138330
  H      45.143412     23.005706     40.005700
  C      43.694439     21.616040     40.676468
  C      43.162936     22.565073     41.763095
  O      43.696805     23.696523     41.900793
  O      42.221396     22.144308     42.481488
  O      43.057091     20.467046     40.488800
  C      41.879793     20.485457     39.048753
  H      41.576407     19.433215     39.070813
  C      42.763527     20.886433     38.003708
  H      43.366647     20.145125     37.477742
  C      43.057894     22.215829     37.867960
  C      42.220854     23.223546     38.526588
  H      42.490025     24.266329     38.361540
  C      41.166091     22.876901     39.279337
  H      40.530633     23.645923     39.727098
  C      40.787428     21.442923     39.523254
  H      40.713092     21.291136     40.607672
  O      39.547964     21.166367     38.890731
  H      38.907142     20.736607     39.547954
  C      44.062511     22.699625     36.832888
  O      44.985915     21.942874     36.449684
  O      43.894978     23.885396     36.439433
24
Coordinates from ORCA-job neb_MEP_ALL.QMRegion E -1075.654606513893
  C      44.678160     22.041480     39.800037
  H      45.179444     21.339032     39.142832
  H      45.121095     23.017334     39.963778
  C      43.710802     21.604819     40.698879
  C      43.168246     22.570690     41.771441
  O      43.701201     23.702529     41.898800
  O      42.224464     22.149693     42.482876
  O      43.173130     20.455593     40.596297
  C      41.796799     20.475619     38.930694
  H      41.548348     19.418074     39.031500
  C      42.750763     20.872955     38.012350
  H      43.367027     20.142018     37.485554
  C      43.115412     22.223588     37.946634
  C      42.230785     23.227229     38.544118
  H      42.493449     24.270229     38.370594
  C      41.162036     22.874246     39.272670
  H      40.523516     23.642069     39.717944
  C      40.778601     21.439503     39.503425
  H      40.723009     21.275631     40.589094
  O      39.519909     21.187210     38.894012
  H      38.892824     20.740791     39.552710
  C      44.079492     22.700112     36.859583
  O      44.987198     21.939644     36.451292
  O      43.889482     23.875972     36.446015
24
Coordinates from ORCA-job neb_MEP_ALL.QMRegion E -1075.659804309649
  C      44.578274     22.067278     39.665342
  H      45.183298     21.327420     39.148326
  H      45.071146     23.009226     39.902417
  C      43.699756     21.597237     40.695999
  C      43.167938     22.569914     41.773863
  O      43.707982     23.697651     41.891422
  O      42.229244     22.147189     42.486460
  O      43.245168     20.445208     40.667049
  C      41.753743     20.469283     38.860974
  H      41.521853     19.411386     38.990072
  C      42.752344     20.862546     38.030599
  H      43.369187     20.137286     37.495726
  C      43.214679     22.229326     38.066383
  C      42.248792     23.228795     38.571853
  H      42.494346     24.272549     38.379001
  C      41.161530     22.869731     39.264627
  H      40.511893     23.636745     39.696916
  C      40.774883     21.433332     39.490661
  H      40.725550     21.263418     40.576982
  O      39.504448     21.199699     38.897569
  H      38.885298     20.741113     39.553593
  C      44.099063     22.698530     36.889295
  O      44.989663     21.936201     36.448926
  O      43.878735     23.860792     36.453941
24
Coordinates from ORCA-job neb_MEP_ALL.QMRegion E -1075.679118597223
  C      44.452713     22.083083     39.513396
  H      45.165220     21.332262     39.159229
  H      44.984574     22.993654     39.811374
  C      43.676541     21.593770     40.681551
  C      43.171925     22.569150     41.776435
  O      43.723007     23.692713     41.886064
  O      42.241595     22.147559     42.493017
  O      43.325729     20.434378     40.744025
  C      41.722060     20.468689     38.798806
  H      41.481727     19.411640     38.920657
  C      42.772259     20.857470     38.058207
  H      43.379932     20.133842     37.512951
  C      43.333351     22.234023     38.198904
  C      42.284873     23.228222     38.613263
  H      42.503984     24.274238     38.398964
  C      41.170931     22.864478     39.257243
  H      40.499815     23.630452     39.661742
  C      40.775240     21.427641     39.477178
  H      40.733656     21.248443     40.564878
  O      39.491019     21.219303     38.905767
  H      38.878243     20.748045     39.557237
  C      44.122713     22.698537     36.925804
  O      44.995789     21.935825     36.452407
  O      43.865017     23.844197     36.468635
24
Coordinates from ORCA-job neb_MEP_ALL.QMRegion E -1075.695306504166
  C      44.397140     22.021430     39.420245
  H      45.132969     21.268722     39.113420
  H      44.914145     22.943443     39.688583
  C      43.687293     21.535715     40.655274
  C      43.218065     22.544271     41.739622
  O      43.824544     23.634225     41.839992
  O      42.249840     22.176428     42.442199
  O      43.426165     20.368574     40.804581
  C      41.631855     20.450980     38.639954
  H      41.312484     19.405940     38.641769
  C      42.753250     20.828840     38.018431
  H      43.360126     20.111542     37.463998
  C      43.359765     22.193658     38.228650
  C      42.310592     23.191268     38.650861
  H      42.554251     24.240733     38.494279
  C      41.162139     22.830630     39.229713
  H      40.475190     23.595734     39.612645
  C      40.736973     21.395046     39.404175
  H      40.758370     21.158542     40.485520
  O      39.415352     21.255561     38.910181
  H      38.823892     20.779455     39.577453
  C      44.127222     22.687213     36.951501
  O      45.006872     21.941031     36.461712
  O      43.840028     23.828185     36.504274
24
Coordinates from ORCA-job neb_MEP_ALL.QMRegion E -1075.699889536946
  C      44.398148     21.945906     39.399671
  H      45.113934     21.184253     39.055917
  H      44.918452     22.883289     39.619948
  C      43.700182     21.482234     40.639392
  C      43.242689     22.522950     41.686741
  O      43.910440     23.573930     41.794863
  O      42.257070     22.183774     42.383938
  O      43.460335     20.299130     40.805625
  C      41.560081     20.436825     38.523861
  H      41.185407     19.419786     38.423841
  C      42.711487     20.801535     37.957078
  H      43.316420     20.096378     37.385895
  C      43.327339     22.147951     38.200678
  C      42.310223     23.153780     38.672876
  H      42.581884     24.203266     38.564350
  C      41.147898     22.791302     39.217269
  H      40.463508     23.554805     39.594899
  C      40.697047     21.361465     39.340695
  H      40.763259     21.077602     40.407107
  O      39.352724     21.263974     38.905590
  H      38.775609     20.794997     39.591606
  C      44.107804     22.667768     36.941234
  O      45.009620     21.939808     36.459022
  O      43.822528     23.822792     36.531940
24
Coordinates from ORCA-job neb_MEP_ALL.QMRegion E -1075.701067018986
  C      44.390000     21.903000     39.353000
  H      45.099000     21.130000     39.029000
  H      44.922000     22.831000     39.580000
  C      43.710000     21.442000     40.614000
  C      43.262000     22.496000     41.665000
  O      43.943000     23.540000     41.760000
  O      42.257000     22.185000     42.351000
  O      43.475000     20.264000     40.806000
  C      41.507000     20.433000     38.455000
  H      41.100000     19.433000     38.303000
  C      42.679000     20.788000     37.919000
  H      43.265000     20.078000     37.331000
  C      43.327000     22.119000     38.198000
  C      42.309000     23.122000     38.681000
  H      42.595000     24.169000     38.617000
  C      41.135000     22.768000     39.207000
  H      40.457000     23.534000     39.595000
  C      40.660000     21.343000     39.305000
  H      40.748000     21.027000     40.361000
  O      39.307000     21.259000     38.897000
  H      38.743000     20.794000     39.597000
  C      44.100000     22.655000     36.945000
  O      45.001000     21.934000     36.451000
  O      43.814000     23.812000     36.546000
24
Coordinates from ORCA-job neb_MEP_ALL.QMRegion E -1075.680500703602
  C      44.842000     22.068000     40.142000
  H      45.265000     21.440000     39.358000
  H      45.368000     22.976000     40.435000
  C      43.689000     21.758000     40.746000
  C      43.115000     22.623000     41.859000
  O      43.577000     23.785000     42.012000
  O      42.221000     22.117000     42.579000
  O      42.985000     20.610000     40.433000
  C      42.079000     20.646000     39.270000
  H      41.683000     19.622000     39.219000
  C      42.892000     20.975000     38.054000
  H      43.551000     20.209000     37.638000
  C      42.969000     22.244000     37.605000
  C      42.118000     23.281000     38.202000
  H      42.307000     24.301000     37.867000
  C      41.188000     23.002000     39.130000
  H      40.598000     23.809000     39.575000
  C      40.887000     21.588000     39.553000
  H      40.742000     21.566000     40.644000
  O      39.715000     21.144000     38.884000
  H      39.068000     20.737000     39.535000
  C      44.024000     22.694000     36.600000
  O      44.937000     21.905000     36.259000
  O      43.944000     23.900000     36.236000
24
Coordinates from ORCA-job neb_MEP_ALL.QMRegion E -1075.679256789131
  C      44.769876     22.005518     39.994044
  H      45.159987     21.388488     39.187332
  H      45.254565     22.953870     40.212325
  C      43.664168     21.680125     40.675174
  C      43.133426     22.574109     41.787379
  O      43.648119     23.713218     41.934854
  O      42.218851     22.115371     42.514885
  O      42.951946     20.529835     40.403097
  C      42.007787     20.546580     39.227344
  H      41.638367     19.512535     39.181408
  C      42.804692     20.916065     38.024384
  H      43.408375     20.156595     37.523445
  C      42.963172     22.218797     37.715735
  C      42.163131     23.237808     38.407635
  H      42.427338     24.276016     38.210091
  C      41.175423     22.914093     39.257363
  H      40.584567     23.696570     39.739893
  C      40.827704     21.482991     39.565079
  H      40.691155     21.389916     40.652003
  O      39.643085     21.113930     38.881665
  H      38.981129     20.713540     39.527425
  C      44.013915     22.701604     36.727831
  O      44.956964     21.942741     36.393003
  O      43.907061     23.905290     36.368970
24
Coordinates from ORCA-job neb_MEP_ALL.QMRegion E -1075.671598644245
  C      44.733675     21.991542     39.913050
  H      45.149485     21.352442     39.138257
  H      45.171333     22.976339     40.060046
  C      43.670179     21.634820     40.653999
  C      43.154738     22.559289     41.758857
  O      43.692761     23.688449     41.900914
  O      42.218962     22.133247     42.481442
  O      42.960773     20.484596     40.394807
  C      41.962711     20.499453     39.166390
  H      41.602162     19.459889     39.110369
  C      42.777890     20.896472     38.007314
  H      43.368311     20.147856     37.477350
  C      43.012357     22.211866     37.805055
  C      42.205383     23.222656     38.501562
  H      42.479257     24.264899     38.340161
  C      41.168795     22.881394     39.282086
  H      40.544158     23.653293     39.740382
  C      40.801386     21.446816     39.543226
  H      40.698043     21.313885     40.626232
  O      39.582326     21.142500     38.888676
  H      38.926512     20.729563     39.539891
  C      44.041473     22.700861     36.801588
  O      44.980150     21.948889     36.440828
  O      43.899810     23.895461     36.425642
24
Coordinates from ORCA-job neb_MEP_ALL.QMRegion E -1075.658759565867
  C      44.715322     22.015511     39.867881
  H      45.163539     21.345627     39.138504
  H      45.143420     23.005469     40.005340
  C      43.694672     21.616017     40.677128
  C      43.162918     22.565448     41.763287
  O      43.697319     23.696606     41.900583
  O      42.221243     22.143995     42.481262
  O      43.059432     20.466977     40.490595
  C      41.878500     20.485212     39.046653
  H      41.575786     19.432820     39.069976
  C      42.763479     20.886220     38.003889
  H      43.366585     20.144944     37.477786
  C      43.058415     22.216085     37.869063
  C      42.221028     23.223590     38.527147
  H      42.489940     24.266214     38.361612
  C      41.165771     22.876783     39.278979
  H      40.530701     23.645641     39.727103
  C      40.787480     21.442923     39.522946
  H      40.713189     21.290667     40.607357
  O      39.547218     21.166670     38.890948
  H      38.906799     20.736779     39.547964
  C      44.063479     22.699968     36.834204
  O      44.985639     21.942742     36.449280
  O      43.894545     23.885064     36.439238
24
Coordinates from ORCA-job neb_MEP_ALL.QMRegion E -1075.654614721656
  C      44.678310     22.041724     39.799798
  H      45.179844     21.338444     39.142703
  H      45.121902     23.018119     39.964143
  C      43.711045     21.604025     40.699260
  C      43.167988     22.571526     41.771299
  O      43.701605     23.702699     41.898919
  O      42.224146     22.149355     42.482934
  O      43.172777     20.454898     40.596419
  C      41.796587     20.475503     38.930093
  H      41.548202     19.417757     39.031455
  C      42.751215     20.873159     38.012620
  H      43.366843     20.141983     37.485506
  C      43.114805     22.223884     37.945787
  C      42.230961     23.227190     38.544487
  H      42.493263     24.269896     38.370549
  C      41.161918     22.874249     39.272551
  H      40.523551     23.641880     39.718075
  C      40.778704     21.439578     39.503415
  H      40.722943     21.275431     40.589239
  O      39.519759     21.187122     38.894010
  H      38.892696     20.740832     39.552748
  C      44.079920     22.700415     36.860000
  O      44.987201     21.939280     36.451038
  O      43.889023     23.875769     36.446106
24
Coordinates from ORCA-job neb_MEP_ALL.QMRegion E -1075.659652229371
  C      44.578143     22.067793     39.664369
  H      45.183756     21.326669     39.148344
  H      45.072209     23.010500     39.902784
  C      43.700139     21.596581     40.696103
  C      43.167880     22.571256     41.773729
  O      43.708393     23.697955     41.891706
  O      42.228808     22.146707     42.486623
  O      43.244275     20.443141     40.667369
  C      41.753818     20.469341     38.860453
  H      41.521561     19.411014     38.989894
  C      42.752829     20.862639     38.031275
  H      43.369066     20.137209     37.495577
  C      43.214669     22.229841     38.065637
  C      42.248679     23.228655     38.571993
  H      42.494284     24.272211     38.379108
  C      41.161713     22.869797     39.264647
  H      40.511842     23.636516     39.696977
  C      40.774733     21.433486     39.490691
  H      40.725575     21.263196     40.577276
  O      39.504153     21.199611     38.897267
  H      38.885148     20.741204     39.553747
  C      44.099211     22.698629     36.889026
  O      44.989775     21.935648     36.449132
  O      43.878253     23.860945     36.454358
24
Coordinates from ORCA-job neb_MEP_ALL.QMRegion E -1075.678604420617
  C      44.454515     22.083640     39.514484
  H      45.166292     21.330700     39.158903
  H      44.987406     22.996003     39.813565
  C      43.678652     21.597122     40.682370
  C      43.173392     22.573076     41.775561
  O      43.722759     23.692021     41.886115
  O      42.239536     22.145926     42.493955
  O      43.322178     20.427529     40.743642
  C      41.723812     20.469112     38.799499
  H      41.482067     19.410890     38.921527
  C      42.770556     20.857249     38.058207
  H      43.380107     20.133503     37.512305
  C      43.331606     22.234677     38.196143
  C      42.283343     23.228148     38.612446
  H      42.503956     24.273931     38.398788
  C      41.171166     22.864647     39.257728
  H      40.500067     23.630224     39.662203
  C      40.774555     21.428122     39.477352
  H      40.733842     21.248409     40.565145
  O      39.490519     21.219048     38.904873
  H      38.878289     20.747842     39.557527
  C      44.121684     22.698411     36.924104
  O      44.996241     21.935071     36.452835
  O      43.864940     23.844830     36.469157
24
Coordinates from ORCA-job neb_MEP_ALL.QMRegion E -1075.694054365346
  C      44.397676     22.021497     39.421785
  H      45.133405     21.268569     39.113540
  H      44.914487     22.945520     39.688735
  C      43.688925     21.543095     40.655391
  C      43.217440     22.547629     41.738787
  O      43.825382     23.634626     41.840309
  O      42.249093     22.174436     42.443152
  O      43.424298     20.359143     40.806128
  C      41.632863     20.451242     38.641418
  H      41.312923     19.406378     38.641784
  C      42.752965     20.828959     38.018539
  H      43.360990     20.111324     37.464340
  C      43.358290     22.194313     38.227284
  C      42.310298     23.191826     38.651568
  H      42.554344     24.241039     38.494059
  C      41.162734     22.830514     39.230708
  H      40.475792     23.595193     39.611807
  C      40.736475     21.395744     39.404094
  H      40.758886     21.158909     40.485174
  O      39.414948     21.255725     38.909705
  H      38.824062     20.779234     39.577806
  C      44.126047     22.686309     36.949926
  O      45.007919     21.940808     36.462324
  O      43.840189     23.828541     36.505198
24
Coordinates from ORCA-job neb_MEP_ALL.QMRegion E -1075.699609642298
  C      44.397526     21.948097     39.393348
  H      45.113306     21.185058     39.057280
  H      44.918236     22.882935     39.620456
  C      43.701087     21.479680     40.637021
  C      43.243537     22.522463     41.689120
  O      43.909849     23.574598     41.794551
  O      42.255527     22.184378     42.384655
  O      43.459733     20.300399     40.806984
  C      41.559867     20.436709     38.524302
  H      41.185191     19.418623     38.424210
  C      42.711779     20.802336     37.956768
  H      43.316877     20.095868     37.385842
  C      43.331499     22.148792     38.204755
  C      42.310451     23.153542     38.671475
  H      42.581754     24.202927     38.564340
  C      41.148056     22.791717     39.217336
  H      40.463019     23.555102     39.595279
  C      40.696263     21.361964     39.341244
  H      40.763590     21.077581     40.407510
  O      39.352463     21.263983     38.904999
  H      38.775945     20.794934     39.591800
  C      44.107887     22.667587     36.942844
  O      45.008824     21.940715     36.458850
  O      43.822964     23.822011     36.531491
24
Coordinates from ORCA-job neb_MEP_ALL.QMRegion E -1075.701067018986
  C      44.390000     21.903000     39.353000
  H      45.099000     21.130000     39.029000
  H      44.922000     22.831000     39.580000
  C      43.710000     21.442000     40.614000
  C      43.262000     22.496000     41.665000
  O      43.943000     23.540000     41.760000
  O      42.257000     22.185000     42.351000
  O      43.475000     20.264000     40.806000
  C      41.507000     20.433000     38.455000
  H      41.100000     19.433000     38.303000
  C      42.679000     20.788000     37.919000
  H      43.265000     20.078000     37.331000
  C      43.327000     22.119000     38.198000
  C      42.309000     23.122000     38.681000
  H      42.595000     24.169000     38.617000
  C      41.135000     22.768000     39.207000
  H      40.457000     23.534000     39.595000
  C      40.660000     21.343000     39.305000
  H      40.748000     21.027000     40.361000
  O      39.307000     21.259000     38.897000
  H      38.743000     20.794000     39.597000
  C      44.100000     22.655000     36.945000
  O      45.001000     21.934000     36.451000
  O      43.814000     23.812000     36.546000
24
Coordinates from ORCA-job neb_MEP_ALL.QMRegion E -1075.680500703602
  C      44.842000     22.068000     40.142000
  H      45.265000     21.440000     39.358000
  H      45.368000     22.976000     40.435000
  C      43.689000     21.758000     40.746000
  C      43.115000     22.623000     41.859000
  O      43.577000     23.785000     42.012000
  O      42.221000     22.117000     42.579000
  O      42.985000     20.610000     40.433000
  C      42.079000     20.646000     39.270000
  H      41.683000     19.622000     39.219000
  C      42.892000     20.975000     38.054000
  H      43.551000     20.209000     37.638000
  C      42.969000     22.244000     37.605000
  C      42.118000     23.281000     38.202000
  H      42.307000     24.301000     37.867000
  C      41.188000     23.002000     39.130000
  H      40.598000     23.809000     39.575000
  C      40.887000     21.588000     39.553000
  H      40.742000     21.566000     40.644000
  O      39.715000     21.144000     38.884000
  H      39.068000     20.737000     39.535000
  C      44.024000     22.694000     36.600000
  O      44.937000     21.905000     36.259000
  O      43.944000     23.900000     36.236000
24
Coordinates from ORCA-job neb_MEP_ALL.QMRegion E -1075.679464379075
  C      44.769865     22.005253     39.993985
  H      45.160122     21.387837     39.187192
  H      45.255418     22.954125     40.212478
  C      43.664141     21.678990     40.674921
  C      43.133887     22.574088     41.787557
  O      43.648196     23.713491     41.934936
  O      42.218774     22.115688     42.514495
  O      42.949910     20.529174     40.400844
  C      42.009549     20.545956     39.230221
  H      41.638210     19.512487     39.181197
  C      42.804103     20.916146     38.023874
  H      43.408232     20.156424     37.523237
  C      42.962901     22.218863     37.714941
  C      42.163276     23.237669     38.407681
  H      42.427121     24.275926     38.210229
  C      41.175394     22.914011     39.257451
  H      40.584367     23.696655     39.740470
  C      40.827484     21.482380     39.564987
  H      40.691229     21.389547     40.651993
  O      39.642406     21.113975     38.881106
  H      38.980966     20.713422     39.527583
  C      44.014875     22.702213     36.728893
  O      44.956509     21.942096     36.392688
  O      43.906096     23.905476     36.368828
24
Coordinates from ORCA-job neb_MEP_ALL.QMRegion E -1075.671834237781
  C      44.734353     21.991244     39.913606
  H      45.149615     21.352089     39.138050
  H      45.172241     22.976674     40.060918
  C      43.669713     21.634573     40.653352
  C      43.154305     22.559416     41.758402
  O      43.692985     23.688209     41.901111
  O      42.218912     22.133181     42.481408
  O      42.959955     20.483911     40.395258
  C      41.962980     20.499712     39.166801
  H      41.602558     19.460213     39.110836
  C      42.778303     20.896825     38.006944
  H      43.368362     20.147571     37.477007
  C      43.011420     22.212216     37.803192
  C      42.205417     23.222469     38.501357
  H      42.479207     24.264678     38.340146
  C      41.168909     22.881312     39.282167
  H      40.544199     23.653042     39.740570
  C      40.800923     21.446843     39.543533
  H      40.698058     21.313802     40.627072
  O      39.582115     21.142130     38.888081
  H      38.926841     20.729673     39.540035
  C      44.042371     22.701438     36.802323
  O      44.979775     21.948261     36.440659
  O      43.899079     23.895603     36.425455
24
Coordinates from ORCA-job neb_MEP_ALL.QMRegion E -1075.658674067954
  C      44.714595     22.015897     39.866798
  H      45.164187     21.345418     39.138676
  H      45.143506     23.005286     40.005070
  C      43.694911     21.615948     40.677665
  C      43.162880     22.565731     41.763418
  O      43.697775     23.696700     41.900451
  O      42.221125     22.143792     42.481054
  O      43.061449     20.466868     40.492189
  C      41.877325     20.484991     39.044760
  H      41.575246     19.432461     39.069246
  C      42.763448     20.886053     38.004034
  H      43.366521     20.144788     37.477816
  C      43.058896     22.216305     37.870002
  C      42.221165     23.223610     38.527625
  H      42.489852     24.266114     38.361670
  C      41.165499     22.876661     39.278678
  H      40.530745     23.645394     39.727140
  C      40.787447     21.442875     39.522662
  H      40.713276     21.290243     40.607084
  O      39.546770     21.167018     38.891013
  H      38.906382     20.736882     39.548077
  C      44.064231     22.700262     36.835285
  O      44.985432     21.942603     36.448933
  O      43.894168     23.884786     36.439098
24
Coordinates from ORCA-job neb_MEP_ALL.QMRegion E -1075.654674718949
  C      44.678507     22.041901     39.799675
  H      45.180196     21.337961     39.142639
  H      45.122639     23.018722     39.964498
  C      43.711303     21.603379     40.699526
  C      43.167634     22.571982     41.771230
  O      43.701981     23.702930     41.899054
  O      42.223989     22.149212     42.482876
  O      43.172503     20.454333     40.596540
  C      41.796377     20.475391     38.929580
  H      41.548074     19.417495     39.031390
  C      42.751593     20.873314     38.012816
  H      43.366681     20.141957     37.485458
  C      43.114276     22.224123     37.945055
  C      42.231082     23.227125     38.544788
  H      42.493094     24.269630     38.370506
  C      41.161820     22.874223     39.272463
  H      40.523575     23.641711     39.718220
  C      40.778749     21.439586     39.503392
  H      40.722891     21.275242     40.589341
  O      39.519686     21.187071     38.893979
  H      38.892541     20.740858     39.552812
  C      44.080313     22.700523     36.860297
  O      44.987132     21.939045     36.450850
  O      43.888633     23.875676     36.446165
24
Coordinates from ORCA-job neb_MEP_ALL.QMRegion E -1075.659750563910
  C      44.578246     22.068218     39.663755
  H      45.184134     21.326069     39.148391
  H      45.073171     23.011472     39.903160
  C      43.700241     21.595457     40.696145
  C      43.167510     22.571898     41.773723
  O      43.708820     23.698432     41.892013
  O      42.228701     22.146535     42.486541
  O      43.243726     20.442038     40.667570
  C      41.753770     20.469296     38.860189
  H      41.521331     19.410767     38.989727
  C      42.753397     20.862772     38.031705
  H      43.368932     20.137166     37.495452
  C      43.214491     22.230172     38.064904
  C      42.248658     23.228571     38.571999
  H      42.494213     24.271910     38.379200
  C      41.161750     22.869787     39.264746
  H      40.511810     23.636310     39.697066
  C      40.774610     21.433560     39.490706
  H      40.725588     21.262998     40.577504
  O      39.503924     21.199518     38.897035
  H      38.885005     20.741300     39.553868
  C      44.099335     22.698650     36.888763
  O      44.989806     21.935245     36.449310
  O      43.877864     23.861106     36.454676
24
Coordinates from ORCA-job neb_MEP_ALL.QMRegion E -1075.678469517896
  C      44.456511     22.084202     39.515594
  H      45.167126     21.329440     39.158690
  H      44.989962     22.997895     39.815477
  C      43.678970     21.594894     40.683317
  C      43.172482     22.573990     41.775765
  O      43.723219     23.692997     41.886370
  O      42.239265     22.145469     42.493600
  O      43.320588     20.426736     40.742882
  C      41.724380     20.468970     38.800783
  H      41.482477     19.410481     38.922310
  C      42.770117     20.857310     38.057499
  H      43.380063     20.133369     37.511847
  C      43.329767     22.235012     38.193699
  C      42.282297     23.228205     38.611498
  H      42.503878     24.273653     38.398627
  C      41.171038     22.864684     39.258304
  H      40.500278     23.630058     39.662678
  C      40.774075     21.428436     39.477468
  H      40.733990     21.248383     40.565342
  O      39.490073     21.218751     38.904209
  H      38.878369     20.747707     39.557698
  C      44.120968     22.698102     36.922643
  O      44.996428     21.934597     36.453237
  O      43.864877     23.845453     36.469503
24
Coordinates from ORCA-job neb_MEP_ALL.QMRegion E -1075.694276471324
  C      44.398430     22.021944     39.423085
  H      45.133738     21.268510     39.113772
  H      44.914788     22.947398     39.688827
  C      43.688416     21.541322     40.656668
  C      43.215813     22.549598     41.738528
  O      43.826297     23.635703     41.840807
  O      42.249286     22.173184     42.443460
  O      43.424482     20.358943     40.806410
  C      41.633623     20.451442     38.642939
  H      41.313438     19.406824     38.641951
  C      42.752937     20.829119     38.018522
  H      43.361759     20.111224     37.464789
  C      43.356908     22.194703     38.226119
  C      42.310141     23.192393     38.652081
  H      42.554397     24.241376     38.493827
  C      41.163214     22.830391     39.231645
  H      40.476278     23.594806     39.611093
  C      40.736123     21.396275     39.404077
  H      40.759348     21.159308     40.484873
  O      39.414579     21.255840     38.909360
  H      38.824294     20.779056     39.578055
  C      44.125150     22.685526     36.948607
  O      45.008738     21.940698     36.462908
  O      43.840342     23.828831     36.505960
24
Coordinates from ORCA-job neb_MEP_ALL.QMRegion E -1075.699964061216
  C      44.396734     21.949770     39.388465
  H      45.112939     21.185740     39.058346
  H      44.918100     22.882754     39.620925
  C      43.701958     21.479033     40.635001
  C      43.244280     22.521883     41.690995
  O      43.909239     23.575151     41.794371
  O      42.254397     22.184971     42.385191
  O      43.459088     20.300359     40.808231
  C      41.559909     20.436678     38.524567
  H      41.185057     19.417678     38.424600
  C      42.711997     20.802949     37.956738
  H      43.317257     20.095498     37.385876
  C      43.334879     22.149480     38.207847
  C      42.310611     23.153349     38.670492
  H      42.581634     24.202675     38.564278
  C      41.148271     22.792111     39.217323
  H      40.462613     23.555377     39.595578
  C      40.695704     21.362369     39.341686
  H      40.763862     21.077598     40.407923
  O      39.352139     21.263934     38.904613
  H      38.776300     20.794914     39.591889
  C      44.108023     22.667672     36.944231
  O      45.008257     21.941297     36.458679
  O      43.823241     23.821314     36.531159
24
Coordinates from ORCA-job neb_MEP_ALL.QMRegion E -1075.701067018986
  C      44.390000     21.903000     39.353000
  H      45.099000     21.130000     39.029000
  H      44.922000     22.831000     39.580000
  C      43.710000     21.442000     40.614000
  C      43.262000     22.496000     41.665000
  O      43.943000     23.540000     41.760000
  O      42.257000     22.185000     42.351000
  O      43.475000     20.264000     40.806000
  C      41.507000     20.433000     38.455000
  H      41.100000     19.433000     38.303000
  C      42.679000     20.788000     37.919000
  H      43.265000     20.078000     37.331000
  C      43.327000     22.119000     38.198000
  C      42.309000     23.122000     38.681000
  H      42.595000     24.169000     38.617000
  C      41.135000     22.768000     39.207000
  H      40.457000     23.534000     39.595000
  C      40.660000     21.343000     39.305000
  H      40.748000     21.027000     40.361000
  O      39.307000     21.259000     38.897000
  H      38.743000     20.794000     39.597000
  C      44.100000     22.655000     36.945000
  O      45.001000     21.934000     36.451000
  O      43.814000     23.812000     36.546000
24
Coordinates from ORCA-job neb_MEP_ALL.QMRegion E -1075.680500703602
  C      44.842000     22.068000     40.142000
  H      45.265000     21.440000     39.358000
  H      45.368000     22.976000     40.435000
  C      43.689000     21.758000     40.746000
  C      43.115000     22.623000     41.859000
  O      43.577000     23.785000     42.012000
  O      42.221000     22.117000     42.579000
  O      42.985000     20.610000     40.433000
  C      42.079000     20.646000     39.270000
  H      41.683000     19.622000     39.219000
  C      42.892000     20.975000     38.054000
  H      43.551000     20.209000     37.638000
  C      42.969000     22.244000     37.605000
  C      42.118000     23.281000     38.202000
  H      42.307000     24.301000     37.867000
  C      41.188000     23.002000     39.130000
  H      40.598000     23.809000     39.575000
  C      40.887000     21.588000     39.553000
  H      40.742000     21.566000     40.644000
  O      39.715000     21.144000     38.884000
  H      39.068000     20.737000     39.535000
  C      44.024000     22.694000     36.600000
  O      44.937000     21.905000     36.259000
  O      43.944000     23.900000     36.236000
24
Coordinates from ORCA-job neb_MEP_ALL.QMRegion E -1075.679559419801
  C      44.770446     22.002923     39.993635
  H      45.160737     21.384067     39.186593
  H      45.259750     22.953250     40.213210
  C      43.663935     21.673981     40.672969
  C      43.136399     22.573196     41.787585
  O      43.649121     23.713577     41.934811
  O      42.218259     22.117465     42.512073
  O      42.941863     20.525777     40.392051
  C      42.015589     20.543334     39.240231
  H      41.637464     19.512230     39.180124
  C      42.801285     20.915969     38.021853
  H      43.406745     20.155815     37.521830
  C      42.960874     22.218573     37.711687
  C      42.163287     23.236654     38.408407
  H      42.425834     24.275468     38.211390
  C      41.174955     22.912890     39.258410
  H      40.583733     23.696239     39.743894
  C      40.826232     21.479179     39.564670
  H      40.690888     21.387066     40.651979
  O      39.639521     21.113804     38.878988
  H      38.979819     20.712808     39.527921
  C      44.018074     22.704688     36.733238
  O      44.954118     21.939719     36.391282
  O      43.901766     23.906326     36.368590
24
Coordinates from ORCA-job neb_MEP_ALL.QMRegion E -1075.671954426806
  C      44.737300     21.990160     39.915353
  H      45.151049     21.350254     39.137687
  H      45.176553     22.977335     40.064968
  C      43.668554     21.633380     40.651177
  C      43.152613     22.560024     41.755913
  O      43.694406     23.686724     41.901833
  O      42.218343     22.133111     42.480830
  O      42.958909     20.481158     40.399751
  C      41.961969     20.500858     39.165113
  H      41.604042     19.461314     39.112148
  C      42.779707     20.897817     38.004946
  H      43.368474     20.146255     37.475206
  C      43.007948     22.213527     37.796369
  C      42.205071     23.221485     38.500424
  H      42.479151     24.263537     38.340644
  C      41.169094     22.880387     39.282590
  H      40.544381     23.651424     39.741599
  C      40.798743     21.446511     39.544642
  H      40.698169     21.312731     40.630384
  O      39.580881     21.140796     38.885834
  H      38.927705     20.730419     39.540791
  C      44.045777     22.703795     36.805167
  O      44.978005     21.945853     36.440288
  O      43.896349     23.896413     36.424814
24
Coordinates from ORCA-job neb_MEP_ALL.QMRegion E -1075.658559868891
  C      44.711868     22.017798     39.861881
  H      45.167727     21.344078     39.139859
  H      45.144994     23.004491     40.004397
  C      43.696428     21.615067     40.679990
  C      43.162681     22.566961     41.763678
  O      43.700063     23.697106     41.900282
  O      42.220563     22.143492     42.479803
  O      43.071302     20.465869     40.500423
  C      41.870989     20.483765     39.034625
  H      41.572579     19.430483     39.065547
  C      42.763380     20.885308     38.004595
  H      43.366089     20.144025     37.477845
  C      43.061440     22.217399     37.874415
  C      42.221683     23.223477     38.529872
  H      42.489188     24.265551     38.361885
  C      41.164122     22.875813     39.277368
  H      40.530858     23.644043     39.727780
  C      40.787038     21.442245     39.521238
  H      40.713694     21.287872     40.605721
  O      39.544393     21.168513     38.891485
  H      38.904209     20.737558     39.548611
  C      44.067358     22.701359     36.839845
  O      44.984402     21.941897     36.447329
  O      43.892228     23.883626     36.438672
24
Coordinates from ORCA-job neb_MEP_ALL.QMRegion E -1075.654701736631
  C      44.680421     22.042451     39.799945
  H      45.182101     21.335780     39.142904
  H      45.126862     23.020841     39.966785
  C      43.712949     21.600470     40.700365
  C      43.166354     22.573341     41.770715
  O      43.703560     23.703684     41.899948
  O      42.223271     22.149504     42.482147
  O      43.171632     20.451853     40.597354
  C      41.795073     20.474682     38.926891
  H      41.547348     19.416228     39.030686
  C      42.753175     20.873867     38.013480
  H      43.365876     20.141834     37.485089
  C      43.111627     22.224997     37.941393
  C      42.231408     23.226575     38.546029
  H      42.492120     24.268442     38.370262
  C      41.161288     22.873690     39.272266
  H      40.523645     23.640728     39.719336
  C      40.778659     21.439074     39.503111
  H      40.722677     21.274015     40.589553
  O      39.519149     21.186738     38.893978
  H      38.891596     20.741109     39.553151
  C      44.081706     22.700715     36.861154
  O      44.986613     21.938143     36.449963
  O      43.886869     23.875416     36.446485
24
Coordinates from ORCA-job neb_MEP_ALL.QMRegion E -1075.659786981877
  C      44.580838     22.069631     39.663469
  H      45.186005     21.323574     39.148953
  H      45.078691     23.015033     39.905969
  C      43.700733     21.589850     40.695763
  C      43.166275     22.573665     41.773195
  O      43.710383     23.700114     41.893890
  O      42.228341     22.146941     42.485613
  O      43.241235     20.438255     40.667788
  C      41.753640     20.468913     38.859516
  H      41.520291     19.409905     38.988781
  C      42.756088     20.863238     38.033449
  H      43.368165     20.137032     37.494643
  C      43.212211     22.231076     38.060068
  C      42.248228     23.227895     38.571473
  H      42.493725     24.270511     38.379610
  C      41.161707     22.869239     39.265417
  H      40.511678     23.635221     39.698069
  C      40.773923     21.433223     39.490780
  H      40.725498     21.261861     40.578374
  O      39.503036     21.198847     38.896158
  H      38.884044     20.741954     39.554377
  C      44.099380     22.698622     36.887217
  O      44.989586     21.933734     36.449960
  O      43.876306     23.861986     36.455857
24
Coordinates from ORCA-job neb_MEP_ALL.QMRegion E -1075.678248334172
  C      44.467629     22.086342     39.522163
  H      45.171009     21.323928     39.158053
  H      45.003172     23.005688     39.825545
  C      43.681806     21.586916     40.685993
  C      43.169393     22.576172     41.776351
  O      43.724095     23.696811     41.888147
  O      42.237949     22.145378     42.491645
  O      43.312467     20.421849     40.739534
  C      41.726028     20.467741     38.806681
  H      41.484730     19.408736     38.926487
  C      42.768480     20.857387     38.053961
  H      43.379241     20.133058     37.509513
  C      43.321008     22.235751     38.182095
  C      42.277196     23.227950     38.606118
  H      42.503226     24.272643     38.397763
  C      41.169980     22.864472     39.260959
  H      40.500846     23.629649     39.665947
  C      40.771876     21.428797     39.477923
  H      40.734322     21.248095     40.566138
  O      39.488377     21.217127     38.901506
  H      38.878440     20.747204     39.558253
  C      44.117289     22.696832     36.916287
  O      44.996637     21.932865     36.454751
  O      43.864973     23.848367     36.470454
24
Coordinates from ORCA-job neb_MEP_ALL.QMRegion E -1075.694380825551
  C      44.402419     22.025246     39.430309
  H      45.135838     21.269634     39.116025
  H      44.916294     22.958158     39.690736
  C      43.686865     21.537544     40.662024
  C      43.208342     22.557534     41.737595
  O      43.827743     23.641123     41.844570
  O      42.250492     22.168855     42.446286
  O      43.424221     20.356389     40.808994
  C      41.638453     20.452801     38.652592
  H      41.318126     19.409444     38.645824
  C      42.753010     20.829970     38.019121
  H      43.366337     20.111479     37.468801
  C      43.351060     22.196011     38.221069
  C      42.309599     23.195472     38.653657
  H      42.554212     24.244157     38.491804
  C      41.166024     22.830203     39.236907
  H      40.478344     23.593911     39.607872
  C      40.735122     21.398593     39.404621
  H      40.761501     21.162589     40.484126
  O      39.413803     21.256292     38.907920
  H      38.826120     20.777897     39.579016
  C      44.120680     22.681961     36.942986
  O      45.012518     21.940573     36.465882
  O      43.841647     23.830328     36.509000
24
Coordinates from ORCA-job neb_MEP_ALL.QMRegion E -1075.700127460669
  C      44.391962     21.956644     39.370615
  H      45.112579     21.189375     39.062844
  H      44.917625     22.882786     39.623392
  C      43.703932     21.477481     40.627677
  C      43.248105     22.518603     41.698592
  O      43.905105     23.577629     41.794596
  O      42.250907     22.188394     42.386957
  O      43.457531     20.301825     40.813081
  C      41.561104     20.436742     38.525518
  H      41.185202     19.413915     38.427414
  C      42.714362     20.805442     37.958294
  H      43.318924     20.094555     37.387165
  C      43.348204     22.152713     38.218318
  C      42.311961     23.152877     38.667631
  H      42.580883     24.201806     38.563377
  C      41.149278     22.794215     39.216926
  H      40.460906     23.556901     39.596629
  C      40.693967     21.364102     39.343478
  H      40.765170     21.078133     40.410562
  O      39.351085     21.263837     38.902987
  H      38.778098     20.794719     39.592270
  C      44.110438     22.669170     36.950842
  O      45.006064     21.942725     36.458027
  O      43.823315     23.818352     36.529902
24
Coordinates from ORCA-job neb_MEP_ALL.QMRegion E -1075.701067018986
  C      44.390000     21.903000     39.353000
  H      45.099000     21.130000     39.029000
  H      44.922000     22.831000     39.580000
  C      43.710000     21.442000     40.614000
  C      43.262000     22.496000     41.665000
  O      43.943000     23.540000     41.760000
  O      42.257000     22.185000     42.351000
  O      43.475000     20.264000     40.806000
  C      41.507000     20.433000     38.455000
  H      41.100000     19.433000     38.303000
  C      42.679000     20.788000     37.919000
  H      43.265000     20.078000     37.331000
  C      43.327000     22.119000     38.198000
  C      42.309000     23.122000     38.681000
  H      42.595000     24.169000     38.617000
  C      41.135000     22.768000     39.207000
  H      40.457000     23.534000     39.595000
  C      40.660000     21.343000     39.305000
  H      40.748000     21.027000     40.361000
  O      39.307000     21.259000     38.897000
  H      38.743000     20.794000     39.597000
  C      44.100000     22.655000     36.945000
  O      45.001000     21.934000     36.451000
  O      43.814000     23.812000     36.546000
24
Coordinates from ORCA-job neb_MEP_ALL.QMRegion E -1075.680500703602
  C      44.842000     22.068000     40.142000
  H      45.265000     21.440000     39.358000
  H      45.368000     22.976000     40.435000
  C      43.689000     21.758000     40.746000
  C      43.115000     22.623000     41.859000
  O      43.577000     23.785000     42.012000
  O      42.221000     22.117000     42.579000
  O      42.985000     20.610000     40.433000
  C      42.079000     20.646000     39.270000
  H      41.683000     19.622000     39.219000
  C      42.892000     20.975000     38.054000
  H      43.551000     20.209000     37.638000
  C      42.969000     22.244000     37.605000
  C      42.118000     23.281000     38.202000
  H      42.307000     24.301000     37.867000
  C      41.188000     23.002000     39.130000
  H      40.598000     23.809000     39.575000
  C      40.887000     21.588000     39.553000
  H      40.742000     21.566000     40.644000
  O      39.715000     21.144000     38.884000
  H      39.068000     20.737000     39.535000
  C      44.024000     22.694000     36.600000
  O      44.937000     21.905000     36.259000
  O      43.944000     23.900000     36.236000
24
Coordinates from ORCA-job neb_MEP_ALL.QMRegion E -1075.679551867431
  C      44.771636     21.999705     39.993788
  H      45.161457     21.380071     39.186357
  H      45.264693     22.950297     40.215052
  C      43.663780     21.669826     40.670915
  C      43.138411     22.571874     41.787066
  O      43.650542     23.712814     41.934322
  O      42.217628     22.118915     42.509458
  O      42.936721     20.523092     40.386456
  C      42.018569     20.541310     39.245938
  H      41.636935     19.512175     39.179498
  C      42.798810     20.915590     38.020253
  H      43.404970     20.155343     37.520424
  C      42.958145     22.218040     37.708721
  C      42.162341     23.235614     38.408718
  H      42.423945     24.274835     38.212057
  C      41.174255     22.911501     39.259711
  H      40.583770     23.695297     39.747721
  C      40.825079     21.476404     39.564695
  H      40.689885     21.384563     40.652134
  O      39.637525     21.112996     38.877406
  H      38.978768     20.712033     39.527767
  C      44.019207     22.706324     36.735778
  O      44.951527     21.938256     36.389809
  O      43.898161     23.907153     36.368483
24
Coordinates from ORCA-job neb_MEP_ALL.QMRegion E -1075.672067865168
  C      44.739486     21.989473     39.915988
  H      45.153258     21.348414     39.138034
  H      45.180551     22.977174     40.068399
  C      43.668682     21.632173     40.650213
  C      43.151257     22.560274     41.753989
  O      43.696154     23.685554     41.902267
  O      42.217751     22.133522     42.479502
  O      42.960322     20.479139     40.405026
  C      41.959401     20.501418     39.160955
  H      41.604763     19.461527     39.112213
  C      42.780285     20.898267     38.002982
  H      43.368431     20.145094     37.473474
  C      43.005990     22.214405     37.792427
  C      42.204356     23.220411     38.499846
  H      42.479140     24.262409     38.341570
  C      41.168918     22.879191     39.282878
  H      40.544492     23.649596     39.742749
  C      40.796966     21.445862     39.545118
  H      40.698372     21.310999     40.632414
  O      39.579198     21.139986     38.884577
  H      38.927726     20.731299     39.541456
  C      44.047855     22.705642     36.807303
  O      44.976580     21.944196     36.440166
  O      43.894541     23.897030     36.424519
24
Coordinates from ORCA-job neb_MEP_ALL.QMRegion E -1075.657950680060
  C      44.710490     22.019195     39.858127
  H      45.171255     21.342731     39.141395
  H      45.147455     23.003504     40.004663
  C      43.697954     21.613969     40.681826
  C      43.162890     22.568109     41.763578
  O      43.702096     23.697084     41.900404
  O      42.219809     22.143773     42.478382
  O      43.080113     20.464902     40.507845
  C      41.865012     20.482531     39.025071
  H      41.570255     19.428552     39.062106
  C      42.763171     20.884499     38.004905
  H      43.365632     20.143328     37.477669
  C      43.063655     22.218283     37.878109
  C      42.221910     23.223207     38.531620
  H      42.488310     24.264935     38.361995
  C      41.162827     22.874766     39.276468
  H      40.530950     23.642601     39.728849
  C      40.786458     21.441319     39.519913
  H      40.714053     21.285425     40.604488
  O      39.542268     21.169675     38.891828
  H      38.901997     20.738221     39.549219
  C      44.069532     22.702274     36.843098
  O      44.983392     21.941316     36.445900
  O      43.890504     23.882653     36.438471
24
Coordinates from ORCA-job neb_MEP_ALL.QMRegion E -1075.654730667155
  C      44.683092     22.042547     39.800903
  H      45.184140     21.333922     39.143697
  H      45.131378     23.021969     39.969429
  C      43.714662     21.598088     40.701030
  C      43.166119     22.574517     41.770002
  O      43.704823     23.703747     41.900783
  O      42.222177     22.150242     42.481159
  O      43.171538     20.449832     40.598305
  C      41.793639     20.473878     38.924128
  H      41.546520     19.414990     39.029527
  C      42.754155     20.874101     38.013823
  H      43.365185     20.141651     37.484586
  C      43.109225     22.225459     37.938176
  C      42.231408     23.225926     38.546899
  H      42.491043     24.267364     38.370055
  C      41.160749     22.872836     39.272332
  H      40.523717     23.639542     39.720731
  C      40.778326     21.438198     39.502665
  H      40.722545     21.272486     40.589441
  O      39.518332     21.186362     38.894023
  H      38.890467     20.741421     39.553547
  C      44.082164     22.701038     36.861445
  O      44.986182     21.937356     36.449042
  O      43.885466     23.875168     36.446832
24
Coordinates from ORCA-job neb_MEP_ALL.QMRegion E -1075.659622847949
  C      44.584886     22.069925     39.665588
  H      45.187946     21.321604     39.149708
  H      45.084580     23.017287     39.909525
  C      43.702266     21.587271     40.695267
  C      43.166154     22.575076     41.772253
  O      43.711489     23.700591     41.895531
  O      42.227453     22.147735     42.484490
  O      43.238520     20.433974     40.667301
  C      41.753833     20.468572     38.858941
  H      41.519325     19.409152     38.987690
  C      42.757830     20.863241     38.034863
  H      43.367495     20.136848     37.493685
  C      43.209002     22.231547     38.054707
  C      42.247248     23.226901     38.570780
  H      42.493117     24.269250     38.379944
  C      41.161637     22.868423     39.266038
  H      40.511652     23.633986     39.699505
  C      40.773283     21.432486     39.490830
  H      40.725275     21.260538     40.578941
  O      39.502180     21.197971     38.895602
  H      38.882916     20.742717     39.554774
  C      44.098783     22.698683     36.885688
  O      44.989217     21.932639     36.450178
  O      43.875206     23.862757     36.456627
24
Coordinates from ORCA-job neb_MEP_ALL.QMRegion E -1075.676561212689
  C      44.477052     22.088194     39.527018
  H      45.174558     21.319302     39.157920
  H      45.014776     23.011117     39.834093
  C      43.683345     21.576893     40.688066
  C      43.168381     22.578103     41.776355
  O      43.724179     23.698833     41.889773
  O      42.236294     22.146037     42.489808
  O      43.307820     20.421508     40.737046
  C      41.727788     20.466902     38.809874
  H      41.486268     19.406855     38.929599
  C      42.766100     20.856962     38.052127
  H      43.378446     20.132668     37.507270
  C      43.314656     22.235994     38.173584
  C      42.272539     23.227373     38.601746
  H      42.502478     24.271770     38.397203
  C      41.169165     22.864071     39.262845
  H      40.501059     23.629205     39.669221
  C      40.769920     21.428504     39.478289
  H      40.734409     21.247358     40.566542
  O      39.486700     21.215684     38.899609
  H      38.878112     20.746995     39.558585
  C      44.114370     22.696118     36.911458
  O      44.996344     21.931719     36.455757
  O      43.865147     23.850486     36.471089
24
Coordinates from ORCA-job neb_MEP_ALL.QMRegion E -1075.694093952363
  C      44.407129     22.030203     39.437764
  H      45.138423     21.272535     39.119634
  H      44.917949     22.969196     39.694656
  C      43.684337     21.530601     40.667673
  C      43.202019     22.564423     41.738033
  O      43.825520     23.646358     41.849162
  O      42.251359     22.165864     42.450268
  O      43.424168     20.361272     40.810684
  C      41.644409     20.454207     38.663814
  H      41.325448     19.411889     38.654238
  C      42.753571     20.831180     38.020998
  H      43.371403     20.112328     37.474398
  C      43.346308     22.197600     38.216999
  C      42.308907     23.198689     38.654032
  H      42.553246     24.247536     38.488545
  C      41.169107     22.830938     39.241944
  H      40.480081     23.594247     39.605678
  C      40.735228     21.401127     39.406549
  H      40.763067     21.167232     40.484971
  O      39.414772     21.256284     38.906855
  H      38.828734     20.776400     39.579436
  C      44.117385     22.679494     36.938504
  O      45.015251     21.940806     36.468679
  O      43.843303     23.831466     36.510954
24
Coordinates from ORCA-job neb_MEP_ALL.QMRegion E -1075.699845738864
  C      44.389778     21.962051     39.360248
  H      45.112672     21.193709     39.066807
  H      44.916741     22.883070     39.625731
  C      43.704743     21.478677     40.622784
  C      43.251451     22.516684     41.704229
  O      43.901062     23.579965     41.795588
  O      42.248414     22.190970     42.388550
  O      43.456835     20.302451     40.816919
  C      41.562559     20.436981     38.526740
  H      41.186272     19.411427     38.430757
  C      42.717545     20.807387     37.960623
  H      43.320699     20.094207     37.389285
  C      43.356529     22.156010     38.224028
  C      42.313675     23.152821     38.666177
  H      42.580169     24.201537     38.562061
  C      41.150011     22.796047     39.216540
  H      40.459716     23.558420     39.597121
  C      40.693313     21.365531     39.344946
  H      40.766357     21.079164     40.413032
  O      39.350855     21.263824     38.901881
  H      38.779804     20.794476     39.592498
  C      44.113537     22.670459     36.955923
  O      45.004656     21.943400     36.457852
  O      43.822741     23.816442     36.529035
24
Coordinates from ORCA-job neb_MEP_ALL.QMRegion E -1075.701067018986
  C      44.390000     21.903000     39.353000
  H      45.099000     21.130000     39.029000
  H      44.922000     22.831000     39.580000
  C      43.710000     21.442000     40.614000
  C      43.262000     22.496000     41.665000
  O      43.943000     23.540000     41.760000
  O      42.257000     22.185000     42.351000
  O      43.475000     20.264000     40.806000
  C      41.507000     20.433000     38.455000
  H      41.100000     19.433000     38.303000
  C      42.679000     20.788000     37.919000
  H      43.265000     20.078000     37.331000
  C      43.327000     22.119000     38.198000
  C      42.309000     23.122000     38.681000
  H      42.595000     24.169000     38.617000
  C      41.135000     22.768000     39.207000
  H      40.457000     23.534000     39.595000
  C      40.660000     21.343000     39.305000
  H      40.748000     21.027000     40.361000
  O      39.307000     21.259000     38.897000
  H      38.743000     20.794000     39.597000
  C      44.100000     22.655000     36.945000
  O      45.001000     21.934000     36.451000
  O      43.814000     23.812000     36.546000
24
Coordinates from ORCA-job neb_MEP_ALL.QMRegion E -1075.680500703602
  C      44.842000     22.068000     40.142000
  H      45.265000     21.440000     39.358000
  H      45.368000     22.976000     40.435000
  C      43.689000     21.758000     40.746000
  C      43.115000     22.623000     41.859000
  O      43.577000     23.785000     42.012000
  O      42.221000     22.117000     42.579000
  O      42.985000     20.610000     40.433000
  C      42.079000     20.646000     39.270000
  H      41.683000     19.622000     39.219000
  C      42.892000     20.975000     38.054000
  H      43.551000     20.209000     37.638000
  C      42.969000     22.244000     37.605000
  C      42.118000     23.281000     38.202000
  H      42.307000     24.301000     37.867000
  C      41.188000     23.002000     39.130000
  H      40.598000     23.809000     39.575000
  C      40.887000     21.588000     39.553000
  H      40.742000     21.566000     40.644000
  O      39.715000     21.144000     38.884000
  H      39.068000     20.737000     39.535000
  C      44.024000     22.694000     36.600000
  O      44.937000     21.905000     36.259000
  O      43.944000     23.900000     36.236000
24
Coordinates from ORCA-job neb_MEP_ALL.QMRegion E -1075.679294034857
  C      44.774128     21.994197     39.994585
  H      45.162658     21.373938     39.186437
  H      45.272732     22.943792     40.219088
  C      43.663643     21.664605     40.667990
  C      43.141060     22.569711     41.785760
  O      43.652999     23.710813     41.933291
  O      42.216482     22.120673     42.505500
  O      42.931706     20.519737     40.381035
  C      42.020360     20.539079     39.250553
  H      41.636316     19.512171     39.179079
  C      42.795395     20.914835     38.018297
  H      43.402136     20.154781     37.518427
  C      42.953375     22.217057     37.704505
  C      42.159830     23.233989     38.408696
  H      42.420448     24.273779     38.212318
  C      41.173101     22.909278     39.261822
  H      40.584510     23.693504     39.753831
  C      40.823446     21.472742     39.565051
  H      40.687754     21.380936     40.652542
  O      39.635501     21.111156     38.875545
  H      38.977363     20.710675     39.527056
  C      44.018852     22.708076     36.737643
  O      44.947442     21.936908     36.387455
  O      43.893491     23.908281     36.368387
24
Coordinates from ORCA-job neb_MEP_ALL.QMRegion E -1075.671778797505
  C      44.742129     21.988874     39.915947
  H      45.157252     21.345692     39.139233
  H      45.186193     22.976113     40.072892
  C      43.669983     21.630360     40.649936
  C      43.150200     22.560781     41.751434
  O      43.698869     23.683854     41.902642
  O      42.216466     22.134450     42.477095
  O      42.964548     20.476797     40.413259
  C      41.954328     20.501679     39.152735
  H      41.605095     19.460960     39.111112
  C      42.780390     20.898301     38.000123
  H      43.368182     20.143583     37.471016
  C      43.004472     22.215324     37.789314
  C      42.203056     23.218843     38.499321
  H      42.479102     24.260726     38.343305
  C      41.168259     22.877149     39.283217
  H      40.544584     23.646709     39.744594
  C      40.794644     21.444554     39.545206
  H      40.698764     21.307815     40.634151
  O      39.576583     21.139421     38.883455
  H      38.926768     20.732619     39.542520
  C      44.049878     22.707664     36.809741
  O      44.974663     21.942572     36.440223
  O      43.892675     23.897845     36.424381
24
Coordinates from ORCA-job neb_MEP_ALL.QMRegion E -1075.657411929363
  C      44.709707     22.020741     39.853833
  H      45.176485     21.340729     39.143983
  H      45.152051     23.001728     40.006030
  C      43.700263     21.612285     40.684037
  C      43.163285     22.569379     41.763204
  O      43.705017     23.696875     41.900836
  O      42.218642     22.144777     42.475960
  O      43.092040     20.463539     40.517900
  C      41.856618     20.480698     39.011691
  H      41.567188     19.425770     39.057298
  C      42.762708     20.883272     38.005073
  H      43.364947     20.142352     37.477190
  C      43.066575     22.219351     37.882852
  C      42.221864     23.222606     38.533724
  H      42.486799     24.264003     38.362038
  C      41.161068     22.873059     39.275494
  H      40.531079     23.640374     39.730868
  C      40.785508     21.439672     39.518093
  H      40.714521     21.281739     40.602788
  O      39.539128     21.170919     38.892382
  H      38.898843     20.739251     39.550053
  C      44.071837     22.703270     36.846701
  O      44.981875     21.940625     36.443936
  O      43.888166     23.881573     36.438289
24
Coordinates from ORCA-job neb_MEP_ALL.QMRegion E -1075.654685064923
  C      44.687670     22.042258     39.803017
  H      45.187335     21.331451     39.145347
  H      45.138341     23.022651     39.973664
  C      43.717358     21.595111     40.701813
  C      43.166103     22.575433     41.769054
  O      43.706653     23.703631     41.901969
  O      42.220589     22.151948     42.479131
  O      43.172211     20.447303     40.599884
  C      41.791298     20.472560     38.919999
  H      41.545186     19.413188     39.027331
  C      42.755085     20.874106     38.013937
  H      43.364264     20.141336     37.483724
  C      43.105919     22.225792     37.933929
  C      42.231061     23.224807     38.547843
  H      42.489353     24.265898     38.369793
  C      41.159980     22.871282     39.272654
  H      40.523818     23.637578     39.723071
  C      40.777587     21.436537     39.501831
  H      40.722441     21.269911     40.588946
  O      39.516850     21.185780     38.894125
  H      38.888597     20.741934     39.554202
  C      44.082275     22.701126     36.861302
  O      44.985348     21.936551     36.447758
  O      43.883690     23.875075     36.447279
24
Coordinates from ORCA-job neb_MEP_ALL.QMRegion E -1075.659214024947
  C      44.592318     22.069602     39.670856
  H      45.190906     21.319127     39.151012
  H      45.093532     23.019261     39.915328
  C      43.704401     21.583562     40.694554
  C      43.166226     22.576062     41.770807
  O      43.713047     23.700819     41.897774
  O      42.226171     22.149519     42.482221
  O      43.235459     20.429741     40.665969
  C      41.753906     20.467804     38.858559
  H      41.517946     19.408219     38.985815
  C      42.760070     20.863125     38.036175
  H      43.366552     20.136564     37.492205
  C      43.203295     22.231590     38.046508
  C      42.245614     23.225347     38.569484
  H      42.492062     24.267445     38.380403
  C      41.161243     22.866861     39.267069
  H      40.511722     23.631988     39.702001
  C      40.772345     21.431015     39.490806
  H      40.724864     21.258361     40.579432
  O      39.501060     21.196599     38.894992
  H      38.881008     20.743894     39.555348
  C      44.097544     22.698652     36.883425
  O      44.988383     21.931549     36.450165
  O      43.873964     23.863863     36.457368
24
Coordinates from ORCA-job neb_MEP_ALL.QMRegion E -1075.674784324153
  C      44.489193     22.090155     39.532616
  H      45.179481     21.313429     39.158199
  H      45.030381     23.016852     39.845337
  C      43.686732     21.567035     40.689918
  C      43.167526     22.579054     41.776432
  O      43.724138     23.701114     41.891976
  O      42.234157     22.148104     42.486709
  O      43.302283     20.419015     40.734743
  C      41.728742     20.465209     38.813122
  H      41.487995     19.404325     38.933081
  C      42.763596     20.856074     38.049765
  H      43.377035     20.132264     37.504273
  C      43.307443     22.235986     38.164062
  C      42.266652     23.226361     38.595987
  H      42.501240     24.270581     38.396679
  C      41.167626     22.863181     39.265239
  H      40.501100     23.628460     39.674022
  C      40.767401     21.427435     39.478480
  H      40.734323     21.245813     40.566789
  O      39.484512     21.213835     38.897455
  H      38.877130     20.746883     39.558975
  C      44.110636     22.695325     36.905919
  O      44.995521     21.930560     36.456697
  O      43.865481     23.853103     36.471634
24
Coordinates from ORCA-job neb_MEP_ALL.QMRegion E -1075.692917296162
  C      44.414247     22.038667     39.449009
  H      45.142910     21.278587     39.126218
  H      44.920689     22.985709     39.702713
  C      43.682296     21.528236     40.674714
  C      43.193404     22.572559     41.740166
  O      43.818924     23.654500     41.856676
  O      42.252205     22.162779     42.457311
  O      43.421837     20.365562     40.813632
  C      41.654181     20.456450     38.681893
  H      41.338878     19.415108     38.671348
  C      42.755066     20.833275     38.025064
  H      43.379270     20.114182     37.484194
  C      43.340715     22.200417     38.212066
  C      42.307912     23.203647     38.653253
  H      42.550991     24.253002     38.482469
  C      41.173548     22.832958     39.249189
  H      40.482378     23.595937     39.603558
  C      40.736604     21.405045     39.410727
  H      40.764712     21.175432     40.487993
  O      39.417957     21.255755     38.905704
  H      38.833401     20.773877     39.579463
  C      44.113430     22.676923     36.933286
  O      45.018460     21.941259     36.472424
  O      43.846066     23.833099     36.512571
24
Coordinates from ORCA-job neb_MEP_ALL.QMRegion E -1075.698886077814
  C      44.388315     21.968607     39.351985
  H      45.113550     21.200482     39.072082
  H      44.915346     22.884226     39.629186
  C      43.704626     21.480724     40.618381
  C      43.255077     22.514755     41.710945
  O      43.895410     23.583596     41.797841
  O      42.246188     22.194149     42.390446
  O      43.457031     20.304819     40.821207
  C      41.565382     20.437627     38.528684
  H      41.188731     19.408915     38.436208
  C      42.722494     20.809699     37.964914
  H      43.323533     20.094211     37.393186
  C      43.364502     22.160665     38.228140
  C      42.316116     23.153250     38.665387
  H      42.579171     24.201717     38.559732
  C      41.151097     22.798560     39.215902
  H      40.458466     23.560659     39.597319
  C      40.693316     21.367379     39.346831
  H      40.768006     21.081168     40.416503
  O      39.351275     21.263872     38.900763
  H      38.782257     20.794079     39.592675
  C      44.118185     22.672721     36.961883
  O      45.003595     21.943543     36.457961
  O      43.821511     23.814322     36.528198
24
Coordinates from ORCA-job neb_MEP_ALL.QMRegion E -1075.701067018986
  C      44.390000     21.903000     39.353000
  H      45.099000     21.130000     39.029000
  H      44.922000     22.831000     39.580000
  C      43.710000     21.442000     40.614000
  C      43.262000     22.496000     41.665000
  O      43.943000     23.540000     41.760000
  O      42.257000     22.185000     42.351000
  O      43.475000     20.264000     40.806000
  C      41.507000     20.433000     38.455000
  H      41.100000     19.433000     38.303000
  C      42.679000     20.788000     37.919000
  H      43.265000     20.078000     37.331000
  C      43.327000     22.119000     38.198000
  C      42.309000     23.122000     38.681000
  H      42.595000     24.169000     38.617000
  C      41.135000     22.768000     39.207000
  H      40.457000     23.534000     39.595000
  C      40.660000     21.343000     39.305000
  H      40.748000     21.027000     40.361000
  O      39.307000     21.259000     38.897000
  H      38.743000     20.794000     39.597000
  C      44.100000     22.655000     36.945000
  O      45.001000     21.934000     36.451000
  O      43.814000     23.812000     36.546000
24
Coordinates from ORCA-job neb_MEP_ALL.QMRegion E -1075.680500703602
  C      44.842000     22.068000     40.142000
  H      45.265000     21.440000     39.358000
  H      45.368000     22.976000     40.435000
  C      43.689000     21.758000     40.746000
  C      43.115000     22.623000     41.859000
  O      43.577000     23.785000     42.012000
  O      42.221000     22.117000     42.579000
  O      42.985000     20.610000     40.433000
  C      42.079000     20.646000     39.270000
  H      41.683000     19.622000     39.219000
  C      42.892000     20.975000     38.054000
  H      43.551000     20.209000     37.638000
  C      42.969000     22.244000     37.605000
  C      42.118000     23.281000     38.202000
  H      42.307000     24.301000     37.867000
  C      41.188000     23.002000     39.130000
  H      40.598000     23.809000     39.575000
  C      40.887000     21.588000     39.553000
  H      40.742000     21.566000     40.644000
  O      39.715000     21.144000     38.884000
  H      39.068000     20.737000     39.535000
  C      44.024000     22.694000     36.600000
  O      44.937000     21.905000     36.259000
  O      43.944000     23.900000     36.236000
24
Coordinates from ORCA-job neb_MEP_ALL.QMRegion E -1075.678915511563
  C      44.775407     21.993641     39.995940
  H      45.162759     21.374701     39.187528
  H      45.272954     22.939947     40.221684
  C      43.664030     21.668034     40.669170
  C      43.139584     22.569739     41.784893
  O      43.653280     23.709291     41.932827
  O      42.216250     22.119289     42.506154
  O      42.938600     20.521958     40.388493
  C      42.014259     20.541460     39.241196
  H      41.636773     19.512234     39.180474
  C      42.796625     20.914626     38.019639
  H      43.402353     20.155214     37.519189
  C      42.952607     22.216872     37.705677
  C      42.157643     23.234200     38.407258
  H      42.419307     24.273708     38.210173
  C      41.173020     22.909496     39.261802
  H      40.586082     23.693063     39.753650
  C      40.823997     21.474696     39.565749
  H      40.686665     21.382053     40.652877
  O      39.638239     21.109952     38.877018
  H      38.978120     20.710354     39.526027
  C      44.014002     22.706068     36.732499
  O      44.947588     21.939134     36.387405
  O      43.896032     23.907844     36.368433
24
Coordinates from ORCA-job neb_MEP_ALL.QMRegion E -1075.671017000399
  C      44.740250     21.989899     39.913870
  H      45.158063     21.346321     39.140607
  H      45.184415     22.974415     40.070546
  C      43.672276     21.630709     40.652565
  C      43.152489     22.560661     41.752926
  O      43.698644     23.684604     41.901992
  O      42.215941     22.135183     42.476408
  O      42.968280     20.478792     40.411843
  C      41.952834     20.500163     39.150232
  H      41.603279     19.458943     39.108533
  C      42.778588     20.896796     38.000942
  H      43.367777     20.144447     37.471838
  C      43.007999     22.214169     37.796326
  C      42.202833     23.219291     38.500313
  H      42.478941     24.261083     38.343669
  C      41.167505     22.877014     39.282921
  H      40.544376     23.646972     39.744604
  C      40.795934     21.444009     39.543730
  H      40.698907     21.307063     40.630691
  O      39.576733     21.140945     38.885500
  H      38.924693     20.732356     39.542412
  C      44.046922     22.705666     36.807487
  O      44.975619     21.944819     36.440629
  O      43.894908     23.897316     36.425130
24
Coordinates from ORCA-job neb_MEP_ALL.QMRegion E -1075.656714099863
  C      44.712913     22.019024     39.857975
  H      45.175348     21.341224     39.144179
  H      45.153340     23.001044     40.008245
  C      43.699732     21.612774     40.682324
  C      43.163447     22.568106     41.762763
  O      43.704208     23.696404     41.901231
  O      42.218684     22.145815     42.475670
  O      43.086475     20.464158     40.513029
  C      41.859876     20.481108     39.016979
  H      41.568890     19.426644     39.059153
  C      42.762386     20.883444     38.004236
  H      43.365103     20.142682     37.476720
  C      43.064971     22.218478     37.880030
  C      42.220884     23.222251     38.531968
  H      42.486593     24.264162     38.361698
  C      41.161828     22.873070     39.276594
  H      40.531098     23.640619     39.731514
  C      40.785584     21.439401     39.518897
  H      40.714227     21.282424     40.603502
  O      39.539771     21.169364     38.892449
  H      38.899946     20.739144     39.549618
  C      44.069098     22.702195     36.842989
  O      44.982083     21.941253     36.444681
  O      43.889244     23.882728     36.438485
24
Coordinates from ORCA-job neb_MEP_ALL.QMRegion E -1075.654559874666
  C      44.688051     22.041327     39.804129
  H      45.187119     21.332626     39.146103
  H      45.137424     23.020096     39.973432
  C      43.717131     21.597086     40.701276
  C      43.167179     22.573649     41.769448
  O      43.706148     23.702982     41.901502
  O      42.220788     22.152837     42.478312
  O      43.174170     20.448959     40.600005
  C      41.791244     20.472517     38.920752
  H      41.545166     19.413625     39.026566
  C      42.753573     20.873262     38.012959
  H      43.364738     20.141274     37.483630
  C      43.107365     22.224851     37.936272
  C      42.230314     23.224687     38.546786
  H      42.489496     24.266512     38.369999
  C      41.160220     22.870927     39.273122
  H      40.523779     23.637468     39.723190
  C      40.777174     21.436072     39.501571
  H      40.722699     21.269672     40.588228
  O      39.516389     21.185834     38.894229
  H      38.888545     20.741953     39.554198
  C      44.080779     22.700419     36.860016
  O      44.985141     21.937505     36.448187
  O      43.884840     23.875626     36.447051
24
Coordinates from ORCA-job neb_MEP_ALL.QMRegion E -1075.658452468510
  C      44.593690     22.067866     39.674396
  H      45.190556     21.320656     39.151166
  H      45.091965     23.015552     39.915154
  C      43.704036     21.585620     40.694875
  C      43.167267     22.573819     41.770872
  O      43.712500     23.699322     41.896670
  O      42.226128     22.150262     42.481501
  O      43.238410     20.434797     40.665048
  C      41.753505     20.467479     38.859314
  H      41.518252     19.408695     38.985461
  C      42.758363     20.862719     38.034207
  H      43.366971     20.136541     37.492401
  C      43.202725     22.230133     38.048107
  C      42.245423     23.225421     38.569358
  H      42.491940     24.268033     38.380248
  C      41.160829     22.866423     39.266972
  H      40.511920     23.632004     39.702292
  C      40.772517     21.430457     39.490560
  H      40.724800     21.258250     40.578431
  O      39.501521     21.196772     38.895641
  H      38.880855     20.743731     39.555215
  C      44.096975     22.698432     36.884036
  O      44.987954     21.933007     36.449338
  O      43.875151     23.863486     36.456308
24
Coordinates from ORCA-job neb_MEP_ALL.QMRegion E -1075.672210460104
  C      44.482533     22.087552     39.528495
  H      45.177719     21.317081     39.159169
  H      45.023374     23.009940     39.839774
  C      43.689992     21.585413     40.686508
  C      43.172057     22.577395     41.775339
  O      43.722843     23.696913     41.890703
  O      42.233341     22.149020     42.487828
  O      43.305334     20.410878     40.738475
  C      41.725765     20.465088     38.808404
  H      41.486354     19.405177     38.929919
  C      42.765329     20.855516     38.051764
  H      43.376937     20.132567     37.505491
  C      43.313845     22.235198     38.172837
  C      42.269842     23.225973     38.599227
  H      42.501155     24.271139     38.397408
  C      41.167597     22.862783     39.263466
  H      40.500461     23.628400     39.672999
  C      40.768734     21.426231     39.477681
  H      40.733769     21.245077     40.565928
  O      39.485721     21.214881     38.899424
  H      38.876135     20.747289     39.558664
  C      44.112628     22.696395     36.910929
  O      44.994912     21.931931     36.455041
  O      43.865653     23.851193     36.470575
24
Coordinates from ORCA-job neb_MEP_ALL.QMRegion E -1075.690475445971
  C      44.412704     22.039199     39.447000
  H      45.143662     21.281466     39.127685
  H      44.921006     22.981969     39.706660
  C      43.688367     21.553869     40.669135
  C      43.198468     22.566766     41.742970
  O      43.812051     23.652883     41.856445
  O      42.249913     22.166177     42.458957
  O      43.415518     20.351994     40.814492
  C      41.654312     20.456439     38.680924
  H      41.342077     19.413010     38.679045
  C      42.756335     20.833508     38.027494
  H      43.378211     20.115132     37.485449
  C      43.345721     22.201223     38.215866
  C      42.307953     23.202899     38.650218
  H      42.549435     24.252683     38.480763
  C      41.172113     22.834884     39.246676
  H      40.481217     23.598448     39.607042
  C      40.739285     21.404573     39.413062
  H      40.762547     21.176679     40.491914
  O      39.421708     21.254594     38.906957
  H      38.834195     20.773694     39.578009
  C      44.116674     22.680304     36.938024
  O      45.015641     21.941239     36.470443
  O      43.846110     23.832713     36.508953
24
Coordinates from ORCA-job neb_MEP_ALL.QMRegion E -1075.697375678872
  C      44.392189     21.963866     39.369991
  H      45.115340     21.199591     39.069527
  H      44.915682     22.886184     39.628611
  C      43.701810     21.480025     40.626402
  C      43.250960     22.517877     41.705516
  O      43.897558     23.583102     41.799173
  O      42.249917     22.191720     42.389175
  O      43.459861     20.308335     40.816845
  C      41.566128     20.438090     38.528881
  H      41.190390     19.412342     38.436222
  C      42.721874     20.807894     37.965555
  H      43.323524     20.095405     37.394170
  C      43.353047     22.158777     38.218013
  C      42.315167     23.154575     38.668441
  H      42.579562     24.203091     38.559379
  C      41.150723     22.797488     39.216056
  H      40.460058     23.560086     39.595975
  C      40.695586     21.366399     39.345728
  H      40.767393     21.081898     40.415176
  O      39.353242     21.264082     38.902169
  H      38.781472     20.794030     39.592309
  C      44.116967     22.672617     36.956490
  O      45.006205     21.941837     36.458949
  O      43.821176     23.816692     36.529310
24
Coordinates from ORCA-job neb_MEP_ALL.QMRegion E -1075.701067018986
  C      44.390000     21.903000     39.353000
  H      45.099000     21.130000     39.029000
  H      44.922000     22.831000     39.580000
  C      43.710000     21.442000     40.614000
  C      43.262000     22.496000     41.665000
  O      43.943000     23.540000     41.760000
  O      42.257000     22.185000     42.351000
  O      43.475000     20.264000     40.806000
  C      41.507000     20.433000     38.455000
  H      41.100000     19.433000     38.303000
  C      42.679000     20.788000     37.919000
  H      43.265000     20.078000     37.331000
  C      43.327000     22.119000     38.198000
  C      42.309000     23.122000     38.681000
  H      42.595000     24.169000     38.617000
  C      41.135000     22.768000     39.207000
  H      40.457000     23.534000     39.595000
  C      40.660000     21.343000     39.305000
  H      40.748000     21.027000     40.361000
  O      39.307000     21.259000     38.897000
  H      38.743000     20.794000     39.597000
  C      44.100000     22.655000     36.945000
  O      45.001000     21.934000     36.451000
  O      43.814000     23.812000     36.546000
24
Coordinates from ORCA-job neb_MEP_ALL.QMRegion E -1075.680500703602
  C      44.842000     22.068000     40.142000
  H      45.265000     21.440000     39.358000
  H      45.368000     22.976000     40.435000
  C      43.689000     21.758000     40.746000
  C      43.115000     22.623000     41.859000
  O      43.577000     23.785000     42.012000
  O      42.221000     22.117000     42.579000
  O      42.985000     20.610000     40.433000
  C      42.079000     20.646000     39.270000
  H      41.683000     19.622000     39.219000
  C      42.892000     20.975000     38.054000
  H      43.551000     20.209000     37.638000
  C      42.969000     22.244000     37.605000
  C      42.118000     23.281000     38.202000
  H      42.307000     24.301000     37.867000
  C      41.188000     23.002000     39.130000
  H      40.598000     23.809000     39.575000
  C      40.887000     21.588000     39.553000
  H      40.742000     21.566000     40.644000
  O      39.715000     21.144000     38.884000
  H      39.068000     20.737000     39.535000
  C      44.024000     22.694000     36.600000
  O      44.937000     21.905000     36.259000
  O      43.944000     23.900000     36.236000
24
Coordinates from ORCA-job neb_MEP_ALL.QMRegion E -1075.679723260961
  C      44.776075     21.993161     39.996417
  H      45.162897     21.374924     39.188001
  H      45.272710     22.937335     40.222685
  C      43.664566     21.670219     40.670074
  C      43.138407     22.569668     41.784068
  O      43.653957     23.708156     41.932281
  O      42.216102     22.118353     42.506339
  O      42.943225     20.523257     40.393331
  C      42.010047     20.542828     39.234704
  H      41.636780     19.511749     39.180959
  C      42.797328     20.914501     38.020295
  H      43.402302     20.155398     37.519421
  C      42.952426     22.216760     37.707066
  C      42.156357     23.234296     38.406726
  H      42.418768     24.273488     38.209458
  C      41.172861     22.909486     39.261972
  H      40.586962     23.692421     39.753542
  C      40.824129     21.475949     39.566097
  H      40.685983     21.382315     40.652973
  O      39.639737     21.109276     38.878038
  H      38.978300     20.710237     39.525420
  C      44.010706     22.704552     36.729309
  O      44.947801     21.940723     36.387670
  O      43.897766     23.907576     36.368811
24
Coordinates from ORCA-job neb_MEP_ALL.QMRegion E -1075.670814711227
  C      44.739008     21.990582     39.912476
  H      45.158695     21.346745     39.141607
  H      45.183221     22.973371     40.068743
  C      43.673958     21.630881     40.654344
  C      43.153988     22.560372     41.754216
  O      43.698579     23.685382     41.901584
  O      42.215708     22.135928     42.475724
  O      42.970779     20.480055     40.410497
  C      41.951908     20.498887     39.148702
  H      41.601903     19.457349     39.106547
  C      42.777268     20.895807     38.001543
  H      43.367478     20.145053     37.472406
  C      43.010580     22.213299     37.801366
  C      42.202778     23.219567     38.501214
  H      42.478770     24.261390     38.343924
  C      41.167030     22.876968     39.282703
  H      40.544149     23.647147     39.744645
  C      40.796842     21.443611     39.542604
  H      40.699092     21.306416     40.628123
  O      39.576414     21.141950     38.887072
  H      38.923263     20.732227     39.542264
  C      44.044885     22.704319     36.806101
  O      44.976406     21.946288     36.440802
  O      43.896354     23.896877     36.425707
24
Coordinates from ORCA-job neb_MEP_ALL.QMRegion E -1075.657093555234
  C      44.715475     22.017714     39.861245
  H      45.174535     21.341482     39.144280
  H      45.154456     23.000670     40.010000
  C      43.699409     21.613000     40.681122
  C      43.163788     22.567462     41.762366
  O      43.703575     23.695952     41.901502
  O      42.218492     22.146521     42.475530
  O      43.082168     20.464560     40.509282
  C      41.862306     20.481406     39.020971
  H      41.570184     19.427244     39.060548
  C      42.762157     20.883612     38.003598
  H      43.365212     20.142949     37.476349
  C      43.063571     22.217744     37.877719
  C      42.220204     23.222023     38.530610
  H      42.486398     24.264227     38.361456
  C      41.162406     22.873054     39.277511
  H      40.531112     23.640754     39.732009
  C      40.785506     21.439195     39.519454
  H      40.714031     21.282899     40.604034
  O      39.540747     21.168417     38.892105
  H      38.900487     20.738880     39.549596
  C      44.066925     22.701584     36.840165
  O      44.982333     21.941632     36.445191
  O      43.890066     23.883511     36.438684
24
Coordinates from ORCA-job neb_MEP_ALL.QMRegion E -1075.654752142329
  C      44.688404     22.040599     39.805021
  H      45.187031     21.333459     39.146660
  H      45.136845     23.018158     39.973349
  C      43.716941     21.598554     40.701034
  C      43.168232     22.572743     41.769631
  O      43.705812     23.702347     41.901083
  O      42.220670     22.153267     42.477767
  O      43.175602     20.450156     40.599981
  C      41.791287     20.472478     38.921366
  H      41.545135     19.413892     39.025963
  C      42.752404     20.872641     38.012226
  H      43.365108     20.141192     37.483524
  C      43.108367     22.224129     37.937931
  C      42.229747     23.224620     38.545969
  H      42.489572     24.266903     38.370166
  C      41.160382     22.870655     39.273466
  H      40.523778     23.637324     39.723312
  C      40.776863     21.435761     39.501378
  H      40.722890     21.269429     40.587692
  O      39.516100     21.185903     38.894229
  H      38.888428     20.741925     39.554258
  C      44.079518     22.700215     36.859140
  O      44.985087     21.938075     36.448401
  O      43.885708     23.875903     36.446891
24
Coordinates from ORCA-job neb_MEP_ALL.QMRegion E -1075.658789590462
  C      44.594475     22.066486     39.676765
  H      45.190401     21.321714     39.151285
  H      45.090821     23.012875     39.914993
  C      43.704452     21.588593     40.695257
  C      43.168146     22.572503     41.770920
  O      43.712225     23.698124     41.895711
  O      42.225860     22.150575     42.481024
  O      43.240225     20.437078     40.664534
  C      41.753333     20.467348     38.859478
  H      41.518381     19.408867     38.985083
  C      42.756732     20.862229     38.032919
  H      43.367350     20.136467     37.492537
  C      43.202620     22.229278     38.049469
  C      42.245206     23.225397     38.569431
  H      42.491838     24.268459     38.380155
  C      41.160622     22.866158     39.266828
  H      40.512053     23.631952     39.702504
  C      40.772633     21.430091     39.490355
  H      40.724778     21.258077     40.577669
  O      39.501621     21.196867     38.896167
  H      38.880774     20.743620     39.555102
  C      44.096490     22.698392     36.884564
  O      44.987741     21.933970     36.448676
  O      43.875996     23.863149     36.455599
24
Coordinates from ORCA-job neb_MEP_ALL.QMRegion E -1075.674088189712
  C      44.478906     22.085931     39.527126
  H      45.176429     21.319828     39.159817
  H      45.018616     23.004478     39.835957
  C      43.688196     21.586325     40.685233
  C      43.173104     22.574673     41.775236
  O      43.722815     23.695297     41.889899
  O      42.234133     22.150013     42.487319
  O      43.311095     20.417318     40.739386
  C      41.724109     20.465097     38.805511
  H      41.485288     19.405775     38.927908
  C      42.766697     20.855495     38.053176
  H      43.376824     20.132711     37.506242
  C      43.317096     22.234331     38.177950
  C      42.272100     23.225752     38.601719
  H      42.500921     24.271378     38.397775
  C      41.167582     22.862463     39.262072
  H      40.500157     23.628201     39.672423
  C      40.769782     21.425481     39.477359
  H      40.733277     21.244570     40.565329
  O      39.486395     21.215299     38.901011
  H      38.875541     20.747637     39.558273
  C      44.114444     22.697085     36.914289
  O      44.994190     21.933026     36.453816
  O      43.865672     23.849789     36.469743
24
Coordinates from ORCA-job neb_MEP_ALL.QMRegion E -1075.691084592131
  C      44.411710     22.040515     39.444993
  H      45.144063     21.283722     39.129001
  H      44.920932     22.978881     39.709074
  C      43.687726     21.551511     40.668362
  C      43.200944     22.562650     41.745698
  O      43.807603     23.652501     41.856368
  O      42.249149     22.168592     42.459265
  O      43.415899     20.362250     40.812230
  C      41.654064     20.456240     38.680136
  H      41.344354     19.411403     38.684663
  C      42.757880     20.833989     38.029233
  H      43.377465     20.115750     37.486467
  C      43.349417     22.201798     38.219192
  C      42.307958     23.202489     38.648300
  H      42.548307     24.252347     38.479528
  C      41.171052     22.836279     39.244521
  H      40.480398     23.600287     39.609573
  C      40.741305     21.404356     39.414996
  H      40.760987     21.177529     40.494826
  O      39.424444     21.253776     38.907948
  H      38.834826     20.773616     39.576896
  C      44.119639     22.682876     36.941438
  O      45.013413     21.941291     36.469109
  O      43.845999     23.832262     36.506393
24
Coordinates from ORCA-job neb_MEP_ALL.QMRegion E -1075.699181288112
  C      44.393974     21.960713     39.381559
  H      45.116757     21.198933     39.067814
  H      44.916016     22.887951     39.628481
  C      43.701049     21.483460     40.631569
  C      43.248246     22.520616     41.701426
  O      43.899122     23.582690     41.800086
  O      42.251891     22.189644     42.388838
  O      43.460885     20.307004     40.814483
  C      41.566534     20.438371     38.529395
  H      41.191802     19.414868     38.436415
  C      42.721315     20.806694     37.965698
  H      43.323731     20.096191     37.394960
  C      43.346055     22.157159     38.212620
  C      42.314347     23.155599     38.670220
  H      42.579863     24.204215     38.559113
  C      41.150363     22.796739     39.216343
  H      40.461281     23.559662     39.594987
  C      40.697307     21.365796     39.345029
  H      40.766955     21.082534     40.414136
  O      39.354609     21.264111     38.903335
  H      38.781049     20.794037     39.591925
  C      44.115739     22.671932     36.952463
  O      45.008056     21.941014     36.459748
  O      43.821255     23.818723     36.529888
24
Coordinates from ORCA-job neb_MEP_ALL.QMRegion E -1075.701067018986
  C      44.390000     21.903000     39.353000
  H      45.099000     21.130000     39.029000
  H      44.922000     22.831000     39.580000
  C      43.710000     21.442000     40.614000
  C      43.262000     22.496000     41.665000
  O      43.943000     23.540000     41.760000
  O      42.257000     22.185000     42.351000
  O      43.475000     20.264000     40.806000
  C      41.507000     20.433000     38.455000
  H      41.100000     19.433000     38.303000
  C      42.679000     20.788000     37.919000
  H      43.265000     20.078000     37.331000
  C      43.327000     22.119000     38.198000
  C      42.309000     23.122000     38.681000
  H      42.595000     24.169000     38.617000
  C      41.135000     22.768000     39.207000
  H      40.457000     23.534000     39.595000
  C      40.660000     21.343000     39.305000
  H      40.748000     21.027000     40.361000
  O      39.307000     21.259000     38.897000
  H      38.743000     20.794000     39.597000
  C      44.100000     22.655000     36.945000
  O      45.001000     21.934000     36.451000
  O      43.814000     23.812000     36.546000
24
Coordinates from ORCA-job neb_MEP_ALL.QMRegion E -1075.680500703602
  C      44.842000     22.068000     40.142000
  H      45.265000     21.440000     39.358000
  H      45.368000     22.976000     40.435000
  C      43.689000     21.758000     40.746000
  C      43.115000     22.623000     41.859000
  O      43.577000     23.785000     42.012000
  O      42.221000     22.117000     42.579000
  O      42.985000     20.610000     40.433000
  C      42.079000     20.646000     39.270000
  H      41.683000     19.622000     39.219000
  C      42.892000     20.975000     38.054000
  H      43.551000     20.209000     37.638000
  C      42.969000     22.244000     37.605000
  C      42.118000     23.281000     38.202000
  H      42.307000     24.301000     37.867000
  C      41.188000     23.002000     39.130000
  H      40.598000     23.809000     39.575000
  C      40.887000     21.588000     39.553000
  H      40.742000     21.566000     40.644000
  O      39.715000     21.144000     38.884000
  H      39.068000     20.737000     39.535000
  C      44.024000     22.694000     36.600000
  O      44.937000     21.905000     36.259000
  O      43.944000     23.900000     36.236000
24
Coordinates from ORCA-job neb_MEP_ALL.QMRegion E -1075.679997859619
  C      44.776379     21.992289     39.995823
  H      45.163337     21.374244     39.187956
  H      45.271905     22.934518     40.222149
  C      43.665795     21.671761     40.671440
  C      43.137066     22.569737     41.782707
  O      43.655815     23.706654     41.931146
  O      42.215775     22.117338     42.505857
  O      42.947642     20.524200     40.397239
  C      42.005860     20.543248     39.228394
  H      41.635961     19.509940     39.180256
  C      42.797540     20.914308     38.020260
  H      43.401784     20.155296     37.519003
  C      42.953084     22.216856     37.709794
  C      42.155342     23.234211     38.407192
  H      42.418569     24.272842     38.210317
  C      41.172493     22.909159     39.262475
  H      40.587379     23.691050     39.753702
  C      40.823721     21.476959     39.566135
  H      40.685424     21.381328     40.652664
  O      39.640248     21.108895     38.879034
  H      38.977637     20.710280     39.525023
  C      44.007264     22.702889     36.726694
  O      44.948166     21.942402     36.388508
  O      43.899423     23.907283     36.370020
24
Coordinates from ORCA-job neb_MEP_ALL.QMRegion E -1075.670873073869
  C      44.737864     21.991490     39.910770
  H      45.159792     21.347077     39.142849
  H      45.181895     22.973010     40.065684
  C      43.676182     21.630600     40.656350
  C      43.156236     22.560256     41.756100
  O      43.698649     23.686679     41.901286
  O      42.215375     22.137400     42.474681
  O      42.974020     20.480761     40.408518
  C      41.950548     20.496621     39.146758
  H      41.599746     19.454650     39.103294
  C      42.775583     20.894697     38.002311
  H      43.367040     20.145756     37.473035
  C      43.014203     22.212310     37.807985
  C      42.203432     23.219873     38.503134
  H      42.478405     24.261901     38.344376
  C      41.166537     22.876966     39.282501
  H      40.543496     23.647211     39.744696
  C      40.797486     21.442978     39.540741
  H      40.699749     21.305036     40.624610
  O      39.575265     21.143565     38.888647
  H      38.920979     20.732065     39.542466
  C      44.043266     22.702773     36.805500
  O      44.977514     21.947670     36.440709
  O      43.897409     23.896060     36.426666
24
Coordinates from ORCA-job neb_MEP_ALL.QMRegion E -1075.657548500703
  C      44.719217     22.015934     39.865741
  H      45.173707     21.341484     39.144354
  H      45.156306     23.000551     40.012421
  C      43.699420     21.612950     40.679996
  C      43.164311     22.566897     41.762036
  O      43.702951     23.695506     41.901731
  O      42.217940     22.147492     42.475170
  O      43.076777     20.464910     40.504585
  C      41.865099     20.481697     39.025768
  H      41.571763     19.427755     39.062083
  C      42.761733     20.883728     38.002740
  H      43.365340     20.143358     37.475832
  C      43.061353     22.216700     37.874412
  C      42.219360     23.221689     38.528902
  H      42.486044     24.264225     38.361232
  C      41.163326     22.872985     39.278892
  H      40.531096     23.640723     39.732674
  C      40.785330     21.438967     39.520026
  H      40.713901     21.283257     40.604544
  O      39.541642     21.167131     38.891604
  H      38.901147     20.738458     39.549669
  C      44.064153     22.700853     36.836492
  O      44.982641     21.942114     36.445804
  O      43.891118     23.884503     36.439032
24
Coordinates from ORCA-job neb_MEP_ALL.QMRegion E -1075.654851845809
  C      44.688971     22.039514     39.806293
  H      45.187231     21.334337     39.147365
  H      45.136503     23.015591     39.973510
  C      43.716771     21.600381     40.701183
  C      43.169433     22.572030     41.769915
  O      43.705881     23.701664     41.900365
  O      42.220236     22.153411     42.476799
  O      43.177489     20.451577     40.599717
  C      41.791455     20.472345     38.922226
  H      41.544982     19.414010     39.024970
  C      42.750862     20.871808     38.011207
  H      43.365610     20.140986     37.483285
  C      43.109459     22.223224     37.939897
  C      42.228943     23.224489     38.544890
  H      42.489560     24.267218     38.370448
  C      41.160574     22.870287     39.273846
  H      40.523844     23.636897     39.723595
  C      40.776492     21.435442     39.501116
  H      40.723147     21.268832     40.586961
  O      39.515571     21.185962     38.894183
  H      38.888130     20.741839     39.554402
  C      44.077995     22.700145     36.858247
  O      44.984888     21.938731     36.448514
  O      43.886742     23.876254     36.446591
24
Coordinates from ORCA-job neb_MEP_ALL.QMRegion E -1075.658948846120
  C      44.595091     22.064745     39.678958
  H      45.190537     21.322741     39.151468
  H      45.089462     23.009653     39.914600
  C      43.705457     21.592763     40.696392
  C      43.168991     22.571448     41.771239
  O      43.712552     23.696851     41.894134
  O      42.225214     22.150464     42.480179
  O      43.242930     20.439080     40.664369
  C      41.752747     20.467003     38.859143
  H      41.518239     19.408656     38.984103
  C      42.754463     20.861576     38.031075
  H      43.367945     20.136259     37.492773
  C      43.203118     22.228477     38.051803
  C      42.245098     23.225378     38.569879
  H      42.491602     24.268870     38.380145
  C      41.160331     22.865866     39.266634
  H      40.512192     23.631635     39.702757
  C      40.772657     21.429757     39.489892
  H      40.724885     21.257491     40.576575
  O      39.501369     21.197118     38.896715
  H      38.880542     20.743374     39.555141
  C      44.096060     22.698381     36.885403
  O      44.987545     21.935020     36.447786
  O      43.876879     23.862687     36.454910
24
Coordinates from ORCA-job neb_MEP_ALL.QMRegion E -1075.675373475614
  C      44.477402     22.083011     39.530764
  H      45.175442     21.323316     39.160188
  H      45.014572     22.997027     39.833313
  C      43.686010     21.586939     40.684968
  C      43.173479     22.572175     41.774772
  O      43.723566     23.693293     41.888576
  O      42.234677     22.150034     42.486026
  O      43.316544     20.427005     40.737270
  C      41.724052     20.465614     38.803190
  H      41.484595     19.406401     38.926626
  C      42.767535     20.855502     38.054900
  H      43.376559     20.132689     37.506661
  C      43.317480     22.233472     38.180036
  C      42.274398     23.225462     38.604784
  H      42.500076     24.271154     38.397613
  C      41.167389     22.862022     39.260340
  H      40.500429     23.627368     39.672421
  C      40.771106     21.424964     39.477445
  H      40.732284     21.244066     40.564962
  O      39.487599     21.215103     38.902665
  H      38.874691     20.747851     39.557845
  C      44.116314     22.697945     36.917443
  O      44.993201     21.934089     36.451873
  O      43.865636     23.848321     36.468455
24
Coordinates from ORCA-job neb_MEP_ALL.QMRegion E -1075.692014127918
  C      44.408536     22.042217     39.441078
  H      45.144680     21.287456     39.131072
  H      44.919842     22.974130     39.711689
  C      43.686810     21.549280     40.667968
  C      43.203957     22.558682     41.749677
  O      43.802536     23.652508     41.855895
  O      42.247612     22.170260     42.459725
  O      43.417274     20.375494     40.809397
  C      41.653841     20.455982     38.678051
  H      41.347095     19.408863     38.692078
  C      42.760459     20.834898     38.032524
  H      43.376825     20.116156     37.488008
  C      43.355891     22.203546     38.225593
  C      42.308145     23.202103     38.646715
  H      42.546898     24.251652     38.477910
  C      41.169335     22.838215     39.240976
  H      40.479561     23.602553     39.612751
  C      40.744083     21.404554     39.417889
  H      40.758919     21.178519     40.499124
  O      39.428168     21.252868     38.909389
  H      38.835726     20.773635     39.575402
  C      44.124114     22.686515     36.946091
  O      45.010751     21.941086     36.467336
  O      43.845597     23.831608     36.503187
24
Coordinates from ORCA-job neb_MEP_ALL.QMRegion E -1075.699731013290
  C      44.395488     21.958533     39.391951
  H      45.118390     21.198432     39.066507
  H      44.916363     22.890777     39.628950
  C      43.701013     21.485529     40.638028
  C      43.244011     22.524762     41.697175
  O      43.901390     23.582776     41.801174
  O      42.253373     22.186653     42.389296
  O      43.461764     20.306813     40.811962
  C      41.567038     20.438828     38.531105
  H      41.194145     19.417853     38.437287
  C      42.720036     20.805601     37.965133
  H      43.324797     20.096819     37.396182
  C      43.340214     22.154802     38.210650
  C      42.312932     23.156911     38.671052
  H      42.580287     24.206008     38.558732
  C      41.149996     22.795914     39.217059
  H      40.462859     23.559231     39.593780
  C      40.699359     21.365414     39.344667
  H      40.766524     21.083663     40.412662
  O      39.356626     21.264060     38.904722
  H      38.780784     20.793997     39.591391
  C      44.112909     22.670331     36.947393
  O      45.010326     21.941139     36.460825
  O      43.822542     23.821195     36.530144
24
Coordinates from ORCA-job neb_MEP_ALL.QMRegion E -1075.701067018986
  C      44.390000     21.903000     39.353000
  H      45.099000     21.130000     39.029000
  H      44.922000     22.831000     39.580000
  C      43.710000     21.442000     40.614000
  C      43.262000     22.496000     41.665000
  O      43.943000     23.540000     41.760000
  O      42.257000     22.185000     42.351000
  O      43.475000     20.264000     40.806000
  C      41.507000     20.433000     38.455000
  H      41.100000     19.433000     38.303000
  C      42.679000     20.788000     37.919000
  H      43.265000     20.078000     37.331000
  C      43.327000     22.119000     38.198000
  C      42.309000     23.122000     38.681000
  H      42.595000     24.169000     38.617000
  C      41.135000     22.768000     39.207000
  H      40.457000     23.534000     39.595000
  C      40.660000     21.343000     39.305000
  H      40.748000     21.027000     40.361000
  O      39.307000     21.259000     38.897000
  H      38.743000     20.794000     39.597000
  C      44.100000     22.655000     36.945000
  O      45.001000     21.934000     36.451000
  O      43.814000     23.812000     36.546000
24
Coordinates from ORCA-job neb_MEP_ALL.QMRegion E -1075.680500703602
  C      44.842000     22.068000     40.142000
  H      45.265000     21.440000     39.358000
  H      45.368000     22.976000     40.435000
  C      43.689000     21.758000     40.746000
  C      43.115000     22.623000     41.859000
  O      43.577000     23.785000     42.012000
  O      42.221000     22.117000     42.579000
  O      42.985000     20.610000     40.433000
  C      42.079000     20.646000     39.270000
  H      41.683000     19.622000     39.219000
  C      42.892000     20.975000     38.054000
  H      43.551000     20.209000     37.638000
  C      42.969000     22.244000     37.605000
  C      42.118000     23.281000     38.202000
  H      42.307000     24.301000     37.867000
  C      41.188000     23.002000     39.130000
  H      40.598000     23.809000     39.575000
  C      40.887000     21.588000     39.553000
  H      40.742000     21.566000     40.644000
  O      39.715000     21.144000     38.884000
  H      39.068000     20.737000     39.535000
  C      44.024000     22.694000     36.600000
  O      44.937000     21.905000     36.259000
  O      43.944000     23.900000     36.236000
24
Coordinates from ORCA-job neb_MEP_ALL.QMRegion E -1075.679994080613
  C      44.776282     21.991510     39.994657
  H      45.163782     21.373047     39.187494
  H      45.271327     22.933413     40.220547
  C      43.666599     21.671353     40.671982
  C      43.136816     22.569794     41.781840
  O      43.657431     23.705784     41.930264
  O      42.215468     22.117177     42.504954
  O      42.948924     20.524065     40.397693
  C      42.004395     20.542368     39.226379
  H      41.634964     19.508281     39.178880
  C      42.797055     20.913973     38.019805
  H      43.401107     20.155041     37.518201
  C      42.953955     22.216994     37.711741
  C      42.155297     23.233927     38.408389
  H      42.418775     24.272361     38.212062
  C      41.172176     22.908651     39.262927
  H      40.586972     23.690013     39.754157
  C      40.823170     21.476702     39.565845
  H      40.685326     21.379773     40.652159
  O      39.639396     21.109080     38.879291
  H      38.976561     20.710424     39.525106
  C      44.006315     22.702390     36.726594
  O      44.948272     21.942951     36.389233
  O      43.899712     23.907169     36.371157
24
Coordinates from ORCA-job neb_MEP_ALL.QMRegion E -1075.670488789337
  C      44.737980     21.991759     39.910506
  H      45.160523     21.347058     39.143404
  H      45.181632     22.973408     40.063928
  C      43.677239     21.630225     40.656933
  C      43.157513     22.560332     41.756941
  O      43.698896     23.687430     41.901329
  O      42.215080     22.138482     42.474036
  O      42.974737     20.480427     40.406521
  C      41.950373     20.495197     39.146660
  H      41.598583     19.452929     39.101359
  C      42.774955     20.894241     38.002645
  H      43.366753     20.146098     37.473205
  C      43.015850     22.211854     37.810859
  C      42.204248     23.220004     38.504576
  H      42.478049     24.262197     38.344642
  C      41.166432     22.876910     39.282570
  H      40.542937     23.647067     39.744787
  C      40.797513     21.442542     39.539690
  H      40.700311     21.303969     40.622853
  O      39.573934     21.144261     38.889302
  H      38.919801     20.732062     39.542652
  C      44.043194     22.702064     36.805819
  O      44.978003     21.948087     36.440440
  O      43.897344     23.895489     36.427318
24
Coordinates from ORCA-job neb_MEP_ALL.QMRegion E -1075.657966719385
  C      44.721511     22.014895     39.868289
  H      45.173524     21.341302     39.144458
  H      45.157579     23.000454     40.013823
  C      43.699800     21.612824     40.679848
  C      43.164544     22.566590     41.762059
  O      43.702916     23.695462     41.901708
  O      42.217470     22.148088     42.474650
  O      43.074376     20.465067     40.502306
  C      41.866298     20.481702     39.027980
  H      41.572436     19.427794     39.062542
  C      42.761352     20.883659     38.002213
  H      43.365412     20.143568     37.475507
  C      43.059855     22.216148     37.872433
  C      42.218909     23.221424     38.528098
  H      42.485774     24.264155     38.361200
  C      41.163870     22.872867     39.279688
  H      40.531099     23.640483     39.733081
  C      40.785148     21.438808     39.520158
  H      40.713936     21.283140     40.604594
  O      39.541896     21.166525     38.891288
  H      38.901338     20.738142     39.549840
  C      44.062857     22.700477     36.834821
  O      44.982686     21.942394     36.445995
  O      43.891625     23.885047     36.439179
24
Coordinates from ORCA-job neb_MEP_ALL.QMRegion E -1075.654894272102
  C      44.689351     22.038878     39.807036
  H      45.187654     21.334539     39.147749
  H      45.136792     23.014257     39.973846
  C      43.716876     21.601115     40.701520
  C      43.169739     22.571840     41.770111
  O      43.706375     23.701504     41.899948
  O      42.219914     22.153371     42.475975
  O      43.178482     20.452143     40.599493
  C      41.791525     20.472137     38.922616
  H      41.544771     19.413864     39.024216
  C      42.750186     20.871377     38.010622
  H      43.365840     20.140810     37.483079
  C      43.109828     22.222813     37.940704
  C      42.228510     23.224316     38.544370
  H      42.489444     24.267220     38.370652
  C      41.160617     22.870031     39.273977
  H      40.523908     23.636458     39.723890
  C      40.776299     21.435244     39.500939
  H      40.723279     21.268225     40.586545
  O      39.515190     21.185977     38.894156
  H      38.887820     20.741759     39.554536
  C      44.077464     22.700121     36.857985
  O      44.984562     21.939046     36.448460
  O      43.887120     23.876482     36.446378
24
Coordinates from ORCA-job neb_MEP_ALL.QMRegion E -1075.659052689021
  C      44.595424     22.063996     39.679720
  H      45.190907     21.322914     39.151611
  H      45.089104     23.008242     39.914371
  C      43.705851     21.593522     40.697384
  C      43.169176     22.571287     41.771533
  O      43.713214     23.696532     41.893233
  O      42.224736     22.150264     42.479460
  O      43.244937     20.440585     40.664615
  C      41.752189     20.466631     38.858689
  H      41.517931     19.408194     38.983211
  C      42.753355     20.861401     38.029925
  H      43.368281     20.136082     37.492910
  C      43.203549     22.228092     38.053100
  C      42.245183     23.225362     38.570341
  H      42.491365     24.268961     38.380226
  C      41.160189     22.865669     39.266536
  H      40.512197     23.631290     39.702974
  C      40.772510     21.429583     39.489502
  H      40.725059     21.256846     40.575893
  O      39.500870     21.197304     38.896946
  H      38.880340     20.743166     39.555283
  C      44.096072     22.698345     36.885850
  O      44.987395     21.935432     36.447353
  O      43.877129     23.862493     36.454748
24
Coordinates from ORCA-job neb_MEP_ALL.QMRegion E -1075.675835125335
  C      44.477730     22.081130     39.534279
  H      45.175627     21.324640     39.160162
  H      45.014023     22.993658     39.833376
  C      43.686563     21.591514     40.685509
  C      43.173206     22.571755     41.774261
  O      43.724598     23.692316     41.887711
  O      42.234372     22.149254     42.485159
  O      43.316697     20.427483     40.735048
  C      41.723784     20.465403     38.803639
  H      41.484600     19.406932     38.926308
  C      42.768548     20.855649     38.054568
  H      43.376299     20.132691     37.506776
  C      43.316362     22.233206     38.179599
  C      42.275216     23.225334     38.606198
  H      42.499352     24.270791     38.397256
  C      41.167210     22.861637     39.259763
  H      40.500891     23.626547     39.672797
  C      40.771777     21.424861     39.477562
  H      40.731671     21.243759     40.564959
  O      39.488126     21.214532     38.903253
  H      38.874273     20.747850     39.557730
  C      44.116834     22.698112     36.918126
  O      44.992765     21.934388     36.450773
  O      43.865551     23.847938     36.467841
24
Coordinates from ORCA-job neb_MEP_ALL.QMRegion E -1075.692302145388
  C      44.406196     22.043345     39.439213
  H      45.145148     21.290392     39.132641
  H      44.918862     22.971355     39.713236
  C      43.687280     21.553596     40.667668
  C      43.204592     22.557375     41.752333
  O      43.800074     23.653509     41.855789
  O      42.246820     22.170121     42.459987
  O      43.417145     20.377871     40.808402
  C      41.653836     20.455908     38.677358
  H      41.349168     19.407386     38.697238
  C      42.762926     20.835725     38.034936
  H      43.376782     20.116287     37.489324
  C      43.359834     22.205263     38.229752
  C      42.308511     23.202251     38.646476
  H      42.545972     24.251315     38.476612
  C      41.168099     22.839344     39.238871
  H      40.479410     23.603783     39.614500
  C      40.745789     21.404896     39.419809
  H      40.757765     21.179365     40.502112
  O      39.430508     21.252390     38.910191
  H      38.836510     20.773586     39.574545
  C      44.126854     22.688478     36.948501
  O      45.009475     21.940804     36.466407
  O      43.845305     23.831364     36.501493
24
Coordinates from ORCA-job neb_MEP_ALL.QMRegion E -1075.699787250412
  C      44.396576     21.958651     39.395004
  H      45.119004     21.198761     39.066636
  H      44.916263     22.892527     39.629689
  C      43.702172     21.488052     40.640154
  C      43.241682     22.527039     41.696197
  O      43.902148     23.583053     41.801714
  O      42.253462     22.185331     42.390144
  O      43.461343     20.305198     40.811746
  C      41.567607     20.439202     38.532586
  H      41.195719     19.418962     38.438363
  C      42.719190     20.805386     37.964796
  H      43.325948     20.096921     37.397110
  C      43.338883     22.153924     38.211718
  C      42.312107     23.157539     38.670678
  H      42.580465     24.207062     38.558437
  C      41.150160     22.795777     39.217475
  H      40.463522     23.559227     39.593243
  C      40.700248     21.365613     39.344940
  H      40.766446     21.084474     40.412148
  O      39.357741     21.263943     38.905300
  H      38.780974     20.793936     39.591070
  C      44.110967     22.669558     36.945460
  O      45.011262     21.941917     36.461322
  O      43.823887     23.821884     36.529987
24
Coordinates from ORCA-job neb_MEP_ALL.QMRegion E -1075.701067018986
  C      44.390000     21.903000     39.353000
  H      45.099000     21.130000     39.029000
  H      44.922000     22.831000     39.580000
  C      43.710000     21.442000     40.614000
  C      43.262000     22.496000     41.665000
  O      43.943000     23.540000     41.760000
  O      42.257000     22.185000     42.351000
  O      43.475000     20.264000     40.806000
  C      41.507000     20.433000     38.455000
  H      41.100000     19.433000     38.303000
  C      42.679000     20.788000     37.919000
  H      43.265000     20.078000     37.331000
  C      43.327000     22.119000     38.198000
  C      42.309000     23.122000     38.681000
  H      42.595000     24.169000     38.617000
  C      41.135000     22.768000     39.207000
  H      40.457000     23.534000     39.595000
  C      40.660000     21.343000     39.305000
  H      40.748000     21.027000     40.361000
  O      39.307000     21.259000     38.897000
  H      38.743000     20.794000     39.597000
  C      44.100000     22.655000     36.945000
  O      45.001000     21.934000     36.451000
  O      43.814000     23.812000     36.546000
24
Coordinates from ORCA-job neb_MEP_ALL.QMRegion E -1075.680500703602
  C      44.842000     22.068000     40.142000
  H      45.265000     21.440000     39.358000
  H      45.368000     22.976000     40.435000
  C      43.689000     21.758000     40.746000
  C      43.115000     22.623000     41.859000
  O      43.577000     23.785000     42.012000
  O      42.221000     22.117000     42.579000
  O      42.985000     20.610000     40.433000
  C      42.079000     20.646000     39.270000
  H      41.683000     19.622000     39.219000
  C      42.892000     20.975000     38.054000
  H      43.551000     20.209000     37.638000
  C      42.969000     22.244000     37.605000
  C      42.118000     23.281000     38.202000
  H      42.307000     24.301000     37.867000
  C      41.188000     23.002000     39.130000
  H      40.598000     23.809000     39.575000
  C      40.887000     21.588000     39.553000
  H      40.742000     21.566000     40.644000
  O      39.715000     21.144000     38.884000
  H      39.068000     20.737000     39.535000
  C      44.024000     22.694000     36.600000
  O      44.937000     21.905000     36.259000
  O      43.944000     23.900000     36.236000
24
Coordinates from ORCA-job neb_MEP_ALL.QMRegion E -1075.679921342270
  C      44.775962     21.990220     39.992585
  H      45.164501     21.370805     39.186538
  H      45.270559     22.932409     40.217425
  C      43.667675     21.669789     40.672244
  C      43.137042     22.569729     41.780646
  O      43.659921     23.704668     41.928978
  O      42.214977     22.117458     42.503237
  O      42.949396     20.523156     40.396771
  C      42.003306     20.540364     39.225102
  H      41.633301     19.505703     39.176340
  C      42.795953     20.913380     38.018915
  H      43.399892     20.154566     37.516680
  C      42.955351     22.217087     37.714472
  C      42.155765     23.233386     38.410696
  H      42.419289     24.271692     38.215341
  C      41.171625     22.907658     39.263717
  H      40.585899     23.688463     39.755065
  C      40.822210     21.475580     39.565206
  H      40.685363     21.376943     40.651267
  O      39.637343     21.109632     38.879383
  H      38.974609     20.710715     39.525452
  C      44.006027     22.702201     36.727754
  O      44.948317     21.943254     36.390309
  O      43.899475     23.907092     36.372950
24
Coordinates from ORCA-job neb_MEP_ALL.QMRegion E -1075.670236490070
  C      44.738930     21.991749     39.910895
  H      45.161500     21.346876     39.143988
  H      45.181814     22.974298     40.061912
  C      43.678239     21.629588     40.657101
  C      43.158926     22.560514     41.757711
  O      43.699442     23.688237     41.901535
  O      42.214673     22.140007     42.473128
  O      42.974504     20.479520     40.403212
  C      41.950789     20.493359     39.147527
  H      41.597316     19.450798     39.098996
  C      42.774507     20.893879     38.003000
  H      43.366398     20.146436     37.473185
  C      43.017387     22.211374     37.813416
  C      42.205555     23.220073     38.506596
  H      42.477485     24.262557     38.344980
  C      41.166475     22.876747     39.282843
  H      40.542120     23.646681     39.744963
  C      40.797159     21.441867     39.538441
  H      40.701112     21.302422     40.620996
  O      39.572297     21.145083     38.889599
  H      38.918229     20.732005     39.543173
  C      44.043627     22.701412     36.806733
  O      44.978556     21.948236     36.439900
  O      43.896756     23.894722     36.428202
24
Coordinates from ORCA-job neb_MEP_ALL.QMRegion E -1075.658141201755
  C      44.724402     22.013597     39.871364
  H      45.173617     21.340923     39.144690
  H      45.159365     23.000214     40.015568
  C      43.700624     21.612593     40.680105
  C      43.164954     22.566423     41.762195
  O      43.703134     23.695443     41.901538
  O      42.216655     22.148821     42.473751
  O      43.072181     20.465227     40.499961
  C      41.867400     20.481538     39.030133
  H      41.573006     19.427590     39.062665
  C      42.760771     20.883477     38.001514
  H      43.365498     20.143777     37.475073
  C      43.057843     22.215494     37.869983
  C      42.218394     23.221052     38.527277
  H      42.485376     24.263980     38.361261
  C      41.164486     22.872600     39.280631
  H      40.531127     23.639966     39.733632
  C      40.784893     21.438551     39.520136
  H      40.714069     21.282649     40.604416
  O      39.541819     21.165859     38.891007
  H      38.901447     20.737737     39.550084
  C      44.061536     22.700185     36.833206
  O      44.982612     21.942702     36.446052
  O      43.892142     23.885609     36.439327
24
Coordinates from ORCA-job neb_MEP_ALL.QMRegion E -1075.654895619660
  C      44.689954     22.038100     39.807924
  H      45.188460     21.334497     39.148248
  H      45.137644     23.012747     39.974508
  C      43.717196     21.601681     40.702130
  C      43.170012     22.571954     41.770234
  O      43.707295     23.701361     41.899480
  O      42.219328     22.153258     42.474805
  O      43.179597     20.452549     40.599194
  C      41.791596     20.471763     38.922898
  H      41.544380     19.413469     39.023096
  C      42.749548     20.870901     38.009967
  H      43.366060     20.140536     37.482750
  C      43.110055     22.222396     37.941351
  C      42.228013     23.224012     38.543851
  H      42.489192     24.267050     38.370945
  C      41.160598     22.869632     39.274057
  H      40.523998     23.635733     39.724397
  C      40.776073     21.434934     39.500695
  H      40.723423     21.267206     40.586033
  O      39.514621     21.185955     38.894163
  H      38.887317     20.741648     39.554727
  C      44.077009     22.700263     36.857898
  O      44.984061     21.939279     36.448242
  O      43.887383     23.876705     36.446134
24
Coordinates from ORCA-job neb_MEP_ALL.QMRegion E -1075.659093598234
  C      44.595857     22.063170     39.680327
  H      45.191644     21.322755     39.151860
  H      45.089177     23.006941     39.914196
  C      43.706779     21.594293     40.698771
  C      43.169313     22.571500     41.771880
  O      43.714339     23.696369     41.892198
  O      42.223980     22.150021     42.478422
  O      43.247224     20.441451     40.665242
  C      41.751424     20.466080     38.857754
  H      41.517362     19.407323     38.981826
  C      42.752056     20.861193     38.028587
  H      43.368662     20.135834     37.493047
  C      43.204197     22.227789     38.054513
  C      42.245393     23.225274     38.571045
  H      42.490983     24.268948     38.380406
  C      41.160027     22.865380     39.266451
  H      40.512140     23.630703     39.703348
  C      40.772166     21.429309     39.488902
  H      40.725360     21.255754     40.575012
  O      39.500029     21.197594     38.897114
  H      38.879969     20.742830     39.555601
  C      44.096176     22.698351     36.886362
  O      44.987232     21.935702     36.446860
  O      43.877222     23.862316     36.454773
24
Coordinates from ORCA-job neb_MEP_ALL.QMRegion E -1075.675652827308
  C      44.479518     22.079137     39.539519
  H      45.176439     21.325556     39.160034
  H      45.014972     22.990459     39.834697
  C      43.686621     21.593644     40.687063
  C      43.172296     22.571988     41.773550
  O      43.726346     23.691464     41.886742
  O      42.233729     22.147952     42.483786
  O      43.316324     20.429980     40.731213
  C      41.724550     20.465393     38.804832
  H      41.484791     19.407334     38.926264
  C      42.768841     20.855857     38.053966
  H      43.376139     20.132488     37.506620
  C      43.314013     22.232878     38.177704
  C      42.275661     23.225131     38.607614
  H      42.498280     24.270211     38.396620
  C      41.167091     22.861021     39.259403
  H      40.501627     23.625284     39.673620
  C      40.772263     21.424743     39.477908
  H      40.730922     21.243345     40.565056
  O      39.488685     21.213552     38.903521
  H      38.873763     20.747698     39.557800
  C      44.117028     22.698194     36.917998
  O      44.992320     21.934479     36.449468
  O      43.865385     23.847747     36.467271
24
Coordinates from ORCA-job neb_MEP_ALL.QMRegion E -1075.692167285921
  C      44.403359     22.045134     39.437781
  H      45.145801     21.294758     39.135030
  H      44.917553     22.968296     39.715274
  C      43.687067     21.557223     40.668238
  C      43.204786     22.557335     41.755524
  O      43.797058     23.655451     41.856103
  O      42.245786     22.168900     42.460601
  O      43.417531     20.382364     40.806902
  C      41.654647     20.456098     38.677170
  H      41.352403     19.405646     38.704695
  C      42.766318     20.836956     38.038641
  H      43.377190     20.116362     37.491415
  C      43.364485     22.207891     38.234807
  C      42.308991     23.202784     38.646864
  H      42.544691     24.251134     38.474558
  C      41.166663     22.840744     39.236329
  H      40.479527     23.605278     39.616579
  C      40.747922     21.405497     39.422504
  H      40.756420     21.180803     40.506221
  O      39.433545     21.251815     38.911110
  H      38.837800     20.773415     39.573504
  C      44.130199     22.690842     36.951106
  O      45.008206     21.940302     36.465393
  O      43.844982     23.831104     36.499612
24
Coordinates from ORCA-job neb_MEP_ALL.QMRegion E -1075.699684687042
  C      44.398060     21.960016     39.396540
  H      45.119606     21.199722     39.067573
  H      44.915946     22.894954     39.631014
  C      43.703572     21.488610     40.642103
  C      43.238998     22.529457     41.696196
  O      43.902488     23.583820     41.802457
  O      42.253026     22.184223     42.391643
  O      43.460901     20.305725     40.811932
  C      41.568435     20.439667     38.534896
  H      41.197904     19.419794     38.440308
  C      42.718500     20.805532     37.964460
  H      43.327775     20.096925     37.398590
  C      43.338770     22.153356     38.214396
  C      42.311332     23.158338     38.669572
  H      42.580577     24.208309     38.557961
  C      41.150524     22.795955     39.218015
  H      40.464124     23.559467     39.592700
  C      40.701131     21.366223     39.345682
  H      40.766525     21.085634     40.411970
  O      39.359140     21.263781     38.905733
  H      38.781520     20.793792     39.590705
  C      44.108801     22.668638     36.944107
  O      45.011970     21.943390     36.461893
  O      43.825804     23.822272     36.529497
24
Coordinates from ORCA-job neb_MEP_ALL.QMRegion E -1075.701067018986
  C      44.390000     21.903000     39.353000
  H      45.099000     21.130000     39.029000
  H      44.922000     22.831000     39.580000
  C      43.710000     21.442000     40.614000
  C      43.262000     22.496000     41.665000
  O      43.943000     23.540000     41.760000
  O      42.257000     22.185000     42.351000
  O      43.475000     20.264000     40.806000
  C      41.507000     20.433000     38.455000
  H      41.100000     19.433000     38.303000
  C      42.679000     20.788000     37.919000
  H      43.265000     20.078000     37.331000
  C      43.327000     22.119000     38.198000
  C      42.309000     23.122000     38.681000
  H      42.595000     24.169000     38.617000
  C      41.135000     22.768000     39.207000
  H      40.457000     23.534000     39.595000
  C      40.660000     21.343000     39.305000
  H      40.748000     21.027000     40.361000
  O      39.307000     21.259000     38.897000
  H      38.743000     20.794000     39.597000
  C      44.100000     22.655000     36.945000
  O      45.001000     21.934000     36.451000
  O      43.814000     23.812000     36.546000
24
Coordinates from ORCA-job neb_MEP_ALL.QMRegion E -1075.680500703602
  C      44.842000     22.068000     40.142000
  H      45.265000     21.440000     39.358000
  H      45.368000     22.976000     40.435000
  C      43.689000     21.758000     40.746000
  C      43.115000     22.623000     41.859000
  O      43.577000     23.785000     42.012000
  O      42.221000     22.117000     42.579000
  O      42.985000     20.610000     40.433000
  C      42.079000     20.646000     39.270000
  H      41.683000     19.622000     39.219000
  C      42.892000     20.975000     38.054000
  H      43.551000     20.209000     37.638000
  C      42.969000     22.244000     37.605000
  C      42.118000     23.281000     38.202000
  H      42.307000     24.301000     37.867000
  C      41.188000     23.002000     39.130000
  H      40.598000     23.809000     39.575000
  C      40.887000     21.588000     39.553000
  H      40.742000     21.566000     40.644000
  O      39.715000     21.144000     38.884000
  H      39.068000     20.737000     39.535000
  C      44.024000     22.694000     36.600000
  O      44.937000     21.905000     36.259000
  O      43.944000     23.900000     36.236000
24
Coordinates from ORCA-job neb_MEP_ALL.QMRegion E -1075.679831280897
  C      44.776237     21.985236     39.987571
  H      45.166501     21.363379     39.183868
  H      45.269758     22.929071     40.208544
  C      43.669498     21.664633     40.669810
  C      43.139708     22.567853     41.776928
  O      43.666751     23.701053     41.925594
  O      42.213417     22.120186     42.497386
  O      42.948277     20.518307     40.392813
  C      42.000890     20.534765     39.222073
  H      41.629218     19.499329     39.169282
  C      42.792987     20.911144     38.017052
  H      43.395670     20.153477     37.511755
  C      42.957538     22.215883     37.720712
  C      42.157503     23.231479     38.418057
  H      42.420508     24.270397     38.225019
  C      41.169807     22.903790     39.266598
  H      40.582375     23.683760     39.758407
  C      40.819389     21.470527     39.563348
  H      40.685105     21.368199     40.649043
  O      39.631261     21.111003     38.879585
  H      38.968681     20.711537     39.526399
  C      44.006572     22.702479     36.733133
  O      44.947957     21.943425     36.392616
  O      43.897675     23.907370     36.377765
24
Coordinates from ORCA-job neb_MEP_ALL.QMRegion E -1075.670147494598
  C      44.743426     21.990340     39.913473
  H      45.164440     21.346115     39.145508
  H      45.183449     22.976215     40.057863
  C      43.679924     21.627739     40.656313
  C      43.161103     22.561259     41.757743
  O      43.702122     23.688405     41.901845
  O      42.213460     22.143745     42.470273
  O      42.973484     20.477682     40.396035
  C      41.951482     20.489320     39.148487
  H      41.595188     19.446667     39.093267
  C      42.774245     20.893087     38.003830
  H      43.365710     20.146864     37.472086
  C      43.019886     22.210304     37.817443
  C      42.208639     23.219605     38.511746
  H      42.476230     24.263177     38.346512
  C      41.166954     22.875312     39.284264
  H      40.540034     23.644456     39.745263
  C      40.795909     21.439439     39.535982
  H      40.702868     21.297707     40.617671
  O      39.567961     21.146424     38.890269
  H      38.914636     20.732276     39.544473
  C      44.044630     22.700031     36.809399
  O      44.979824     21.948107     36.438631
  O      43.895136     23.893191     36.430739
24
Coordinates from ORCA-job neb_MEP_ALL.QMRegion E -1075.658340868396
  C      44.730671     22.010549     39.877590
  H      45.175302     21.339785     39.146193
  H      45.164478     22.998154     40.019723
  C      43.703589     21.611980     40.681639
  C      43.166386     22.566616     41.762280
  O      43.704748     23.695160     41.901024
  O      42.214201     22.150846     42.470457
  O      43.070760     20.465437     40.496925
  C      41.868719     20.480429     39.032420
  H      41.573065     19.426251     39.061009
  C      42.759386     20.882832     37.999592
  H      43.365609     20.143803     37.473876
  C      43.053498     22.214247     37.865175
  C      42.217165     23.219995     38.526093
  H      42.484263     24.263164     38.361825
  C      41.165096     22.871144     39.282026
  H      40.531344     23.637942     39.735464
  C      40.784188     21.437098     39.519452
  H      40.714528     21.279897     40.603165
  O      39.540668     21.164999     38.890954
  H      38.900771     20.736875     39.550764
  C      44.059574     22.700245     36.831262
  O      44.981708     21.943131     36.445485
  O      43.892727     23.886467     36.439550
24
Coordinates from ORCA-job neb_MEP_ALL.QMRegion E -1075.654893031145
  C      44.692503     22.036401     39.809639
  H      45.191214     21.333370     39.150006
  H      45.141676     23.009587     39.976959
  C      43.718791     21.601487     40.703236
  C      43.170952     22.572466     41.769508
  O      43.709827     23.700734     41.899189
  O      42.217505     22.154339     42.471564
  O      43.181757     20.452228     40.599111
  C      41.791389     20.470385     38.921951
  H      41.542936     19.411880     39.019589
  C      42.749003     20.869945     38.009015
  H      43.366212     20.139789     37.481706
  C      43.110021     22.221682     37.941569
  C      42.227061     23.222863     38.543354
  H      42.488194     24.266142     38.371769
  C      41.160163     22.867963     39.274098
  H      40.524070     23.633433     39.726248
  C      40.775406     21.433263     39.499939
  H      40.723658     21.263743     40.584776
  O      39.513047     21.185702     38.894507
  H      38.885691     20.741443     39.555233
  C      44.076330     22.700823     36.858087
  O      44.982718     21.939215     36.447287
  O      43.887206     23.877101     36.445985
24
Coordinates from ORCA-job neb_MEP_ALL.QMRegion E -1075.659145446169
  C      44.599131     22.061155     39.682945
  H      45.194120     21.321440     39.153108
  H      45.092255     23.004953     39.915270
  C      43.710696     21.596022     40.701168
  C      43.170421     22.572048     41.771686
  O      43.716696     23.696068     41.891179
  O      42.222037     22.151545     42.475309
  O      43.250288     20.439465     40.667039
  C      41.749656     20.464301     38.855191
  H      41.515872     19.405061     38.977947
  C      42.750185     20.860476     38.026114
  H      43.368988     20.135454     37.492906
  C      43.204227     22.227196     38.055039
  C      42.245782     23.224449     38.572288
  H      42.489824     24.268572     38.381088
  C      41.159595     22.864082     39.266667
  H      40.511870     23.628782     39.705054
  C      40.771051     21.427705     39.487185
  H      40.726160     21.252160     40.572854
  O      39.497522     21.198002     38.897588
  H      38.878712     20.741982     39.556464
  C      44.096014     22.698433     36.886892
  O      44.986627     21.935740     36.445880
  O      43.877021     23.862376     36.455379
24
Coordinates from ORCA-job neb_MEP_ALL.QMRegion E -1075.675151385776
  C      44.486295     22.076736     39.547927
  H      45.179573     21.325015     39.160632
  H      45.021531     22.987249     39.840006
  C      43.688375     21.595043     40.688468
  C      43.171448     22.572812     41.772096
  O      43.729476     23.689538     41.885914
  O      42.231167     22.147762     42.480615
  O      43.312094     20.431507     40.724528
  C      41.728703     20.466169     38.805829
  H      41.484937     19.406654     38.925850
  C      42.765430     20.855532     38.053522
  H      43.376392     20.131602     37.505660
  C      43.310971     22.231969     38.174009
  C      42.275877     23.223884     38.608841
  H      42.495650     24.269247     38.395373
  C      41.166881     22.858910     39.260422
  H      40.502626     23.622293     39.676571
  C      40.771995     21.423000     39.478768
  H      40.729480     21.241730     40.565206
  O      39.488887     21.210797     38.903447
  H      38.872871     20.747167     39.558418
  C      44.116066     22.698013     36.916631
  O      44.991371     21.934246     36.446673
  O      43.864982     23.847974     36.466581
24
Coordinates from ORCA-job neb_MEP_ALL.QMRegion E -1075.691779279914
  C      44.400498     22.050488     39.442885
  H      45.148036     21.307291     39.142581
  H      44.916904     22.967358     39.722812
  C      43.685424     21.566508     40.671116
  C      43.203009     22.560968     41.760763
  O      43.787099     23.662777     41.860963
  O      42.243983     22.164978     42.464894
  O      43.416893     20.391281     40.804320
  C      41.661991     20.457754     38.683842
  H      41.365084     19.403997     38.728362
  C      42.773567     20.839903     38.049382
  H      43.380673     20.117272     37.499221
  C      43.370728     22.214279     38.241456
  C      42.309909     23.205554     38.648959
  H      42.540746     24.253199     38.467203
  C      41.165149     22.843792     39.233517
  H      40.480882     23.608953     39.620971
  C      40.752809     21.407190     39.429812
  H      40.753965     21.187071     40.516625
  O      39.441182     21.250074     38.912588
  H      38.842570     20.771996     39.571311
  C      44.135463     22.695048     36.954933
  O      45.006674     21.939157     36.463999
  O      43.845485     23.831124     36.496048
24
Coordinates from ORCA-job neb_MEP_ALL.QMRegion E -1075.699548501615
  C      44.400244     21.964180     39.400958
  H      45.122600     21.203832     39.071204
  H      44.915183     22.902784     39.635619
  C      43.705007     21.492105     40.645208
  C      43.236336     22.531511     41.697894
  O      43.899119     23.586896     41.805569
  O      42.251324     22.184600     42.396156
  O      43.460408     20.309487     40.813702
  C      41.571919     20.440670     38.540606
  H      41.204022     19.420196     38.447808
  C      42.720477     20.806700     37.966857
  H      43.332521     20.097697     37.404262
  C      43.339516     22.154834     38.216246
  C      42.311430     23.160826     38.667924
  H      42.580198     24.210698     38.555862
  C      41.151682     22.798111     39.218652
  H      40.464812     23.561187     39.591609
  C      40.703371     21.368398     39.348159
  H      40.767217     21.089062     40.414723
  O      39.362434     21.263576     38.905873
  H      38.784018     20.793141     39.589914
  C      44.108444     22.668675     36.945116
  O      45.012695     21.945208     36.463232
  O      43.827967     23.822705     36.528058
24
Coordinates from ORCA-job neb_MEP_ALL.QMRegion E -1075.701067018986
  C      44.390000     21.903000     39.353000
  H      45.099000     21.130000     39.029000
  H      44.922000     22.831000     39.580000
  C      43.710000     21.442000     40.614000
  C      43.262000     22.496000     41.665000
  O      43.943000     23.540000     41.760000
  O      42.257000     22.185000     42.351000
  O      43.475000     20.264000     40.806000
  C      41.507000     20.433000     38.455000
  H      41.100000     19.433000     38.303000
  C      42.679000     20.788000     37.919000
  H      43.265000     20.078000     37.331000
  C      43.327000     22.119000     38.198000
  C      42.309000     23.122000     38.681000
  H      42.595000     24.169000     38.617000
  C      41.135000     22.768000     39.207000
  H      40.457000     23.534000     39.595000
  C      40.660000     21.343000     39.305000
  H      40.748000     21.027000     40.361000
  O      39.307000     21.259000     38.897000
  H      38.743000     20.794000     39.597000
  C      44.100000     22.655000     36.945000
  O      45.001000     21.934000     36.451000
  O      43.814000     23.812000     36.546000
24
Coordinates from ORCA-job neb_MEP_ALL.QMRegion E -1075.680500703602
  C      44.842000     22.068000     40.142000
  H      45.265000     21.440000     39.358000
  H      45.368000     22.976000     40.435000
  C      43.689000     21.758000     40.746000
  C      43.115000     22.623000     41.859000
  O      43.577000     23.785000     42.012000
  O      42.221000     22.117000     42.579000
  O      42.985000     20.610000     40.433000
  C      42.079000     20.646000     39.270000
  H      41.683000     19.622000     39.219000
  C      42.892000     20.975000     38.054000
  H      43.551000     20.209000     37.638000
  C      42.969000     22.244000     37.605000
  C      42.118000     23.281000     38.202000
  H      42.307000     24.301000     37.867000
  C      41.188000     23.002000     39.130000
  H      40.598000     23.809000     39.575000
  C      40.887000     21.588000     39.553000
  H      40.742000     21.566000     40.644000
  O      39.715000     21.144000     38.884000
  H      39.068000     20.737000     39.535000
  C      44.024000     22.694000     36.600000
  O      44.937000     21.905000     36.259000
  O      43.944000     23.900000     36.236000
24
Coordinates from ORCA-job neb_MEP_ALL.QMRegion E -1075.679639549282
  C      44.776590     21.984856     39.987859
  H      45.166443     21.363177     39.183942
  H      45.270430     22.929189     40.208918
  C      43.668804     21.663973     40.668982
  C      43.140200     22.567756     41.777051
  O      43.666518     23.700937     41.925733
  O      42.213437     22.120589     42.497124
  O      42.947139     20.517994     40.391910
  C      42.001619     20.534524     39.223354
  H      41.629606     19.499988     39.169538
  C      42.792982     20.910998     38.017126
  H      43.395631     20.153469     37.511658
  C      42.956960     22.215948     37.719724
  C      42.157524     23.231336     38.418082
  H      42.420374     24.270503     38.224871
  C      41.169907     22.903656     39.266653
  H      40.582288     23.683798     39.758605
  C      40.819442     21.470147     39.563492
  H      40.685051     21.368202     40.649220
  O      39.631128     21.110809     38.879404
  H      38.968809     20.711506     39.526381
  C      44.007242     22.702963     36.733652
  O      44.947645     21.943135     36.392330
  O      43.897189     23.907280     36.377630
24
Coordinates from ORCA-job neb_MEP_ALL.QMRegion E -1075.669685043916
  C      44.743887     21.989836     39.914297
  H      45.164370     21.345910     39.145248
  H      45.184099     22.975737     40.059174
  C      43.679377     21.628078     40.655619
  C      43.160277     22.561038     41.756787
  O      43.702505     23.687825     41.901786
  O      42.213350     22.143267     42.470323
  O      42.972546     20.477702     40.396784
  C      41.951854     20.490223     39.148807
  H      41.596022     19.447605     39.094227
  C      42.774881     20.893314     38.003373
  H      43.365840     20.146642     37.471732
  C      43.018566     22.210518     37.815378
  C      42.208246     23.219431     38.511003
  H      42.476345     24.262807     38.346593
  C      41.167070     22.874990     39.284425
  H      40.540278     23.644147     39.745308
  C      40.795707     21.439418     39.536661
  H      40.702536     21.297884     40.618828
  O      39.568988     21.146051     38.889623
  H      38.915003     20.732228     39.544643
  C      44.044960     22.700455     36.809163
  O      44.979268     21.947915     36.438807
  O      43.895053     23.893474     36.430544
24
Coordinates from ORCA-job neb_MEP_ALL.QMRegion E -1075.658650229164
  C      44.729637     22.011078     39.876059
  H      45.175861     21.339677     39.146399
  H      45.164312     22.997881     40.019173
  C      43.703589     21.611886     40.681940
  C      43.166170     22.566637     41.762237
  O      43.705212     23.695318     41.901079
  O      42.214384     22.150818     42.470231
  O      43.072787     20.465189     40.498670
  C      41.867757     20.480193     39.030490
  H      41.572442     19.426004     39.060234
  C      42.759592     20.882712     37.999848
  H      43.365541     20.143594     37.473946
  C      43.054382     22.214670     37.866380
  C      42.217333     23.219946     38.526667
  H      42.484318     24.263095     38.361969
  C      41.164632     22.870988     39.281497
  H      40.531382     23.637754     39.735457
  C      40.784281     21.436947     39.519234
  H      40.714558     21.279458     40.602963
  O      39.540170     21.165359     38.891267
  H      38.900455     20.737076     39.550700
  C      44.060427     22.700364     36.832435
  O      44.981483     21.942950     36.445243
  O      43.892303     23.886288     36.439461
24
Coordinates from ORCA-job neb_MEP_ALL.QMRegion E -1075.654902116753
  C      44.692567     22.036655     39.809347
  H      45.191377     21.332899     39.149938
  H      45.142192     23.010260     39.977092
  C      43.719006     21.600731     40.702986
  C      43.170563     22.572458     41.769395
  O      43.709942     23.700885     41.899492
  O      42.217648     22.154715     42.471530
  O      43.181298     20.451707     40.599373
  C      41.791105     20.470255     38.921390
  H      41.542892     19.411764     39.019594
  C      42.749639     20.870143     38.009299
  H      43.366017     20.139843     37.481716
  C      43.109657     22.221945     37.940966
  C      42.227283     23.222784     38.543777
  H      42.488112     24.265977     38.371745
  C      41.160039     22.867881     39.274057
  H      40.524034     23.633365     39.726296
  C      40.775491     21.433119     39.499934
  H      40.723593     21.263649     40.584939
  O      39.513094     21.185605     38.894556
  H      38.885674     20.741478     39.555225
  C      44.076810     22.700651     36.858210
  O      44.982664     21.939068     36.447239
  O      43.886826     23.877052     36.446183
24
Coordinates from ORCA-job neb_MEP_ALL.QMRegion E -1075.659138893415
  C      44.599729     22.061649     39.682916
  H      45.194251     21.320988     39.153191
  H      45.093220     23.005771     39.915717
  C      43.709755     21.592770     40.700701
  C      43.170260     22.572203     41.771455
  O      43.716666     23.696484     41.891858
  O      42.222238     22.152009     42.475213
  O      43.249962     20.440402     40.666927
  C      41.749927     20.464358     38.855320
  H      41.515885     19.405082     38.978051
  C      42.751067     20.860784     38.026832
  H      43.368782     20.135465     37.492640
  C      43.203484     22.227185     38.053749
  C      42.245599     23.224367     38.572082
  H      42.489845     24.268336     38.381176
  C      41.159716     22.863950     39.266763
  H      40.511858     23.628690     39.705168
  C      40.770993     21.427598     39.487322
  H      40.726133     21.252076     40.573100
  O      39.497670     21.197883     38.897390
  H      38.878594     20.742037     39.556517
  C      44.096091     22.698371     36.886487
  O      44.986521     21.935487     36.446144
  O      43.876765     23.862589     36.455612
24
Coordinates from ORCA-job neb_MEP_ALL.QMRegion E -1075.674047844896
  C      44.487498     22.077742     39.546704
  H      45.180122     21.323652     39.160721
  H      45.023410     22.989668     39.841119
  C      43.688497     21.592379     40.688411
  C      43.171568     22.572866     41.772265
  O      43.729122     23.690385     41.886584
  O      42.231021     22.148593     42.480667
  O      43.310978     20.430400     40.725373
  C      41.726138     20.464513     38.807741
  H      41.485357     19.406772     38.926048
  C      42.767667     20.855937     38.051287
  H      43.376001     20.131998     37.505767
  C      43.310611     22.232025     38.173366
  C      42.274797     23.223887     38.607783
  H      42.495827     24.269262     38.395511
  C      41.167152     22.858964     39.260965
  H      40.502383     23.622566     39.676868
  C      40.771664     21.422989     39.478490
  H      40.729819     21.241555     40.565289
  O      39.488620     21.210804     38.902904
  H      38.873024     20.746991     39.558626
  C      44.115633     22.697653     36.915576
  O      44.991352     21.934096     36.447294
  O      43.865022     23.848375     36.467019
24
Coordinates from ORCA-job neb_MEP_ALL.QMRegion E -1075.690464157270
  C      44.402083     22.051021     39.444650
  H      45.148253     21.306393     39.142496
  H      44.917700     22.970223     39.722847
  C      43.685483     21.566545     40.671654
  C      43.200940     22.562001     41.760149
  O      43.787677     23.663382     41.861873
  O      42.245169     22.164998     42.464970
  O      43.416211     20.388095     40.805528
  C      41.662063     20.457648     38.686684
  H      41.365550     19.405272     38.727600
  C      42.773616     20.839803     38.048060
  H      43.381363     20.117511     37.499689
  C      43.368360     22.213620     38.239401
  C      42.309877     23.206152     38.649076
  H      42.540900     24.253784     38.467257
  C      41.165981     22.843314     39.235497
  H      40.481277     23.608360     39.619958
  C      40.752191     21.407356     39.429252
  H      40.754695     21.187427     40.515460
  O      39.440423     21.250184     38.912046
  H      38.842645     20.771731     39.571798
  C      44.133877     22.693545     36.953118
  O      45.007436     21.939481     36.464898
  O      43.845911     23.831479     36.497087
24
Coordinates from ORCA-job neb_MEP_ALL.QMRegion E -1075.699227748783
  C      44.400217     21.965383     39.398702
  H      45.122384     21.204587     39.071941
  H      44.914846     22.902090     39.635729
  C      43.704122     21.489972     40.644048
  C      43.237117     22.530564     41.699919
  O      43.897921     23.587041     41.805539
  O      42.251590     22.185672     42.395607
  O      43.460727     20.311699     40.814145
  C      41.572252     20.440658     38.540318
  H      41.203789     19.419313     38.448299
  C      42.721313     20.807090     37.967665
  H      43.332464     20.097654     37.404432
  C      43.340926     22.155894     38.216287
  C      42.311942     23.160525     38.668004
  H      42.580047     24.210400     38.555693
  C      41.151898     22.798477     39.218322
  H      40.464335     23.561594     39.591919
  C      40.703016     21.368531     39.348462
  H      40.767393     21.089076     40.415492
  O      39.362115     21.263642     38.905472
  H      38.784312     20.793089     39.590018
  C      44.109866     22.669765     36.946427
  O      45.012215     21.944711     36.463112
  O      43.827271     23.821921     36.528193
24
Coordinates from ORCA-job neb_MEP_ALL.QMRegion E -1075.701067018986
  C      44.390000     21.903000     39.353000
  H      45.099000     21.130000     39.029000
  H      44.922000     22.831000     39.580000
  C      43.710000     21.442000     40.614000
  C      43.262000     22.496000     41.665000
  O      43.943000     23.540000     41.760000
  O      42.257000     22.185000     42.351000
  O      43.475000     20.264000     40.806000
  C      41.507000     20.433000     38.455000
  H      41.100000     19.433000     38.303000
  C      42.679000     20.788000     37.919000
  H      43.265000     20.078000     37.331000
  C      43.327000     22.119000     38.198000
  C      42.309000     23.122000     38.681000
  H      42.595000     24.169000     38.617000
  C      41.135000     22.768000     39.207000
  H      40.457000     23.534000     39.595000
  C      40.660000     21.343000     39.305000
  H      40.748000     21.027000     40.361000
  O      39.307000     21.259000     38.897000
  H      38.743000     20.794000     39.597000
  C      44.100000     22.655000     36.945000
  O      45.001000     21.934000     36.451000
  O      43.814000     23.812000     36.546000
24
Coordinates from ORCA-job neb_MEP_ALL.QMRegion E -1075.680500703602
  C      44.842000     22.068000     40.142000
  H      45.265000     21.440000     39.358000
  H      45.368000     22.976000     40.435000
  C      43.689000     21.758000     40.746000
  C      43.115000     22.623000     41.859000
  O      43.577000     23.785000     42.012000
  O      42.221000     22.117000     42.579000
  O      42.985000     20.610000     40.433000
  C      42.079000     20.646000     39.270000
  H      41.683000     19.622000     39.219000
  C      42.892000     20.975000     38.054000
  H      43.551000     20.209000     37.638000
  C      42.969000     22.244000     37.605000
  C      42.118000     23.281000     38.202000
  H      42.307000     24.301000     37.867000
  C      41.188000     23.002000     39.130000
  H      40.598000     23.809000     39.575000
  C      40.887000     21.588000     39.553000
  H      40.742000     21.566000     40.644000
  O      39.715000     21.144000     38.884000
  H      39.068000     20.737000     39.535000
  C      44.024000     22.694000     36.600000
  O      44.937000     21.905000     36.259000
  O      43.944000     23.900000     36.236000
24
Coordinates from ORCA-job neb_MEP_ALL.QMRegion E -1075.679696635182
  C      44.776850     21.984491     39.988251
  H      45.166415     21.362981     39.184016
  H      45.271079     22.929139     40.209390
  C      43.668330     21.663565     40.668272
  C      43.140519     22.567551     41.777082
  O      43.666388     23.700902     41.925859
  O      42.213429     22.120890     42.496921
  O      42.946170     20.517731     40.391202
  C      42.002242     20.534474     39.224387
  H      41.629960     19.500527     39.169840
  C      42.792998     20.911002     38.017173
  H      43.395623     20.153452     37.511592
  C      42.956385     22.215876     37.718855
  C      42.157503     23.231263     38.417976
  H      42.420192     24.270561     38.224656
  C      41.169955     22.903537     39.266744
  H      40.582273     23.683814     39.758787
  C      40.819479     21.469858     39.563632
  H      40.684965     21.368252     40.649418
  O      39.631179     21.110614     38.879219
  H      38.968922     20.711440     39.526373
  C      44.007665     22.703258     36.734001
  O      44.947384     21.942902     36.392046
  O      43.896812     23.907326     36.377453
24
Coordinates from ORCA-job neb_MEP_ALL.QMRegion E -1075.670109420256
  C      44.744263     21.989483     39.914708
  H      45.164367     21.345724     39.145091
  H      45.184599     22.975357     40.060193
  C      43.678945     21.628240     40.655218
  C      43.159638     22.560978     41.756063
  O      43.702802     23.687255     41.901697
  O      42.213274     22.142899     42.470289
  O      42.972275     20.477750     40.397932
  C      41.951793     20.490909     39.148489
  H      41.596648     19.448348     39.094903
  C      42.775279     20.893475     38.002996
  H      43.365977     20.146419     37.471421
  C      43.017649     22.210731     37.813826
  C      42.207856     23.219215     38.510422
  H      42.476491     24.262503     38.346738
  C      41.167169     22.874728     39.284527
  H      40.540469     23.643846     39.745326
  C      40.795637     21.439421     39.537204
  H      40.702283     21.297949     40.619733
  O      39.569309     21.145587     38.889408
  H      38.915516     20.732336     39.544566
  C      44.045116     22.700854     36.809081
  O      44.978902     21.947676     36.438955
  O      43.895025     23.893761     36.430384
24
Coordinates from ORCA-job neb_MEP_ALL.QMRegion E -1075.658543487662
  C      44.728751     22.011520     39.874806
  H      45.176354     21.339544     39.146564
  H      45.164223     22.997690     40.018729
  C      43.703621     21.611767     40.682130
  C      43.166133     22.566821     41.762135
  O      43.705552     23.695326     41.901135
  O      42.214447     22.150788     42.470097
  O      43.074473     20.464946     40.500160
  C      41.866894     20.479989     39.028816
  H      41.571928     19.425790     39.059579
  C      42.759802     20.882652     38.000062
  H      43.365482     20.143419     37.473996
  C      43.055140     22.214964     37.867416
  C      42.217487     23.219939     38.527137
  H      42.484352     24.263015     38.362098
  C      41.164240     22.870827     39.281073
  H      40.531403     23.637591     39.735466
  C      40.784319     21.436796     39.519042
  H      40.714586     21.279075     40.602803
  O      39.539893     21.165708     38.891431
  H      38.900111     20.737211     39.550721
  C      44.061075     22.700565     36.833354
  O      44.981331     21.942765     36.445039
  O      43.891959     23.886067     36.439435
24
Coordinates from ORCA-job neb_MEP_ALL.QMRegion E -1075.654951428053
  C      44.692705     22.036847     39.809116
  H      45.191512     21.332514     39.149905
  H      45.142640     23.010780     39.977228
  C      43.719155     21.600137     40.702804
  C      43.170438     22.572578     41.769201
  O      43.709997     23.700905     41.899737
  O      42.217633     22.154991     42.471563
  O      43.180902     20.451256     40.599569
  C      41.790920     20.470173     38.920891
  H      41.542857     19.411651     39.019590
  C      42.750102     20.870301     38.009573
  H      43.365874     20.139876     37.481705
  C      43.109358     22.222133     37.940443
  C      42.227449     23.222722     38.544127
  H      42.488038     24.265833     38.371729
  C      41.159951     22.867789     39.274034
  H      40.524002     23.633296     39.726349
  C      40.775546     21.432983     39.499936
  H      40.723542     21.263557     40.585068
  O      39.513145     21.185514     38.894582
  H      38.885651     20.741504     39.555229
  C      44.077075     22.700633     36.858311
  O      44.982706     21.938882     36.447160
  O      43.886536     23.876958     36.446370
24
Coordinates from ORCA-job neb_MEP_ALL.QMRegion E -1075.659188428505
  C      44.600181     22.061884     39.682983
  H      45.194389     21.320633     39.153265
  H      45.094074     23.006433     39.916174
  C      43.709652     21.591721     40.700256
  C      43.170247     22.572373     41.771210
  O      43.716609     23.696680     41.892384
  O      42.222291     22.152377     42.475183
  O      43.249102     20.439753     40.666818
  C      41.750175     20.464427     38.855352
  H      41.515916     19.405115     38.978139
  C      42.751718     20.860855     38.027463
  H      43.368598     20.135495     37.492413
  C      43.202901     22.227314     38.052661
  C      42.245448     23.224256     38.571862
  H      42.489864     24.268138     38.381253
  C      41.159766     22.863835     39.266878
  H      40.511870     23.628584     39.705278
  C      40.770995     21.427493     39.487435
  H      40.726094     21.251996     40.573322
  O      39.497718     21.197713     38.897299
  H      38.878533     20.742120     39.556507
  C      44.096029     22.698370     36.886166
  O      44.986486     21.935243     36.446320
  O      43.876582     23.862758     36.455798
24
Coordinates from ORCA-job neb_MEP_ALL.QMRegion E -1075.674113994154
  C      44.488675     22.078502     39.546132
  H      45.180609     21.322544     39.160784
  H      45.025048     22.991559     39.842151
  C      43.688873     21.590756     40.688248
  C      43.171802     22.573023     41.772385
  O      43.728728     23.690921     41.887119
  O      42.230830     22.149284     42.480697
  O      43.309840     20.429054     40.726001
  C      41.726006     20.464216     38.807980
  H      41.485587     19.406348     38.926388
  C      42.767424     20.855890     38.050931
  H      43.375969     20.132030     37.505542
  C      43.310255     22.232114     38.172481
  C      42.273963     23.223858     38.606785
  H      42.495960     24.269252     38.395612
  C      41.167224     22.859005     39.261454
  H      40.502218     23.622751     39.677169
  C      40.771276     21.422927     39.478444
  H      40.730066     21.241433     40.565337
  O      39.488251     21.210761     38.902531
  H      38.873198     20.746871     39.558727
  C      44.115157     22.697525     36.914798
  O      44.991404     21.933882     36.447726
  O      43.865080     23.848711     36.467334
24
Coordinates from ORCA-job neb_MEP_ALL.QMRegion E -1075.690713292171
  C      44.403447     22.051488     39.446057
  H      45.148429     21.305651     39.142471
  H      44.918373     22.972739     39.722898
  C      43.685216     21.565229     40.672299
  C      43.199780     22.563195     41.759333
  O      43.787981     23.663706     41.862654
  O      42.245713     22.164887     42.465392
  O      43.415942     20.386782     40.806424
  C      41.662811     20.457864     38.688737
  H      41.365918     19.406195     38.727010
  C      42.772922     20.839630     38.047381
  H      43.382085     20.117625     37.500048
  C      43.366498     22.213070     38.237685
  C      42.309673     23.206533     38.649201
  H      42.541042     24.254334     38.467306
  C      41.166902     22.842971     39.237100
  H      40.481561     23.607892     39.619122
  C      40.751635     21.407511     39.428858
  H      40.755302     21.187742     40.514477
  O      39.439788     21.250269     38.911602
  H      38.842713     20.771505     39.572202
  C      44.132410     22.692470     36.951715
  O      45.008192     21.939647     36.465593
  O      43.846289     23.831720     36.497969
24
Coordinates from ORCA-job neb_MEP_ALL.QMRegion E -1075.699337793772
  C      44.399896     21.966176     39.396956
  H      45.122295     21.205249     39.072535
  H      44.914632     22.901665     39.635893
  C      43.703790     21.490184     40.642899
  C      43.238161     22.529813     41.701159
  O      43.896941     23.587266     41.805575
  O      42.251374     22.186393     42.395510
  O      43.460634     20.311785     40.814747
  C      41.572465     20.440601     38.540150
  H      41.203664     19.418646     38.448770
  C      42.722120     20.807427     37.968336
  H      43.332430     20.097645     37.404626
  C      43.342180     22.156762     38.216364
  C      42.312432     23.160370     38.668072
  H      42.579911     24.210148     38.555534
  C      41.151958     22.798782     39.218114
  H      40.463988     23.561916     39.592146
  C      40.702791     21.368644     39.348680
  H      40.767529     21.089122     40.416143
  O      39.361869     21.263684     38.905188
  H      38.784575     20.793049     39.590080
  C      44.111066     22.670389     36.947534
  O      45.011841     21.944320     36.463035
  O      43.826660     23.821535     36.528225
24
Coordinates from ORCA-job neb_MEP_ALL.QMRegion E -1075.701067018986
  C      44.390000     21.903000     39.353000
  H      45.099000     21.130000     39.029000
  H      44.922000     22.831000     39.580000
  C      43.710000     21.442000     40.614000
  C      43.262000     22.496000     41.665000
  O      43.943000     23.540000     41.760000
  O      42.257000     22.185000     42.351000
  O      43.475000     20.264000     40.806000
  C      41.507000     20.433000     38.455000
  H      41.100000     19.433000     38.303000
  C      42.679000     20.788000     37.919000
  H      43.265000     20.078000     37.331000
  C      43.327000     22.119000     38.198000
  C      42.309000     23.122000     38.681000
  H      42.595000     24.169000     38.617000
  C      41.135000     22.768000     39.207000
  H      40.457000     23.534000     39.595000
  C      40.660000     21.343000     39.305000
  H      40.748000     21.027000     40.361000
  O      39.307000     21.259000     38.897000
  H      38.743000     20.794000     39.597000
  C      44.100000     22.655000     36.945000
  O      45.001000     21.934000     36.451000
  O      43.814000     23.812000     36.546000
24
Coordinates from ORCA-job neb_MEP_ALL.QMRegion E -1075.680500703602
  C      44.842000     22.068000     40.142000
  H      45.265000     21.440000     39.358000
  H      45.368000     22.976000     40.435000
  C      43.689000     21.758000     40.746000
  C      43.115000     22.623000     41.859000
  O      43.577000     23.785000     42.012000
  O      42.221000     22.117000     42.579000
  O      42.985000     20.610000     40.433000
  C      42.079000     20.646000     39.270000
  H      41.683000     19.622000     39.219000
  C      42.892000     20.975000     38.054000
  H      43.551000     20.209000     37.638000
  C      42.969000     22.244000     37.605000
  C      42.118000     23.281000     38.202000
  H      42.307000     24.301000     37.867000
  C      41.188000     23.002000     39.130000
  H      40.598000     23.809000     39.575000
  C      40.887000     21.588000     39.553000
  H      40.742000     21.566000     40.644000
  O      39.715000     21.144000     38.884000
  H      39.068000     20.737000     39.535000
  C      44.024000     22.694000     36.600000
  O      44.937000     21.905000     36.259000
  O      43.944000     23.900000     36.236000
24
Coordinates from ORCA-job neb_MEP_ALL.QMRegion E -1075.679736548317
  C      44.778662     21.982003     39.991209
  H      45.166420     21.361606     39.184676
  H      45.275334     22.926970     40.213437
  C      43.666150     21.662477     40.664769
  C      43.141660     22.566124     41.776435
  O      43.666258     23.700396     41.926360
  O      42.213028     22.121966     42.495812
  O      42.941254     20.516538     40.388121
  C      42.005300     20.535568     39.229020
  H      41.632161     19.503260     39.172240
  C      42.793246     20.911460     38.017287
  H      43.395644     20.153391     37.511379
  C      42.952529     22.215043     37.713779
  C      42.156561     23.230880     38.416544
  H      42.418566     24.270610     38.222757
  C      41.170237     22.902861     39.267469
  H      40.582704     23.683586     39.760019
  C      40.819716     21.468668     39.564709
  H      40.684038     21.368814     40.650949
  O      39.632344     21.108810     38.878400
  H      38.969943     20.710867     39.526004
  C      44.008312     22.704159     36.734627
  O      44.945962     21.941885     36.390198
  O      43.895162     23.908112     36.376269
24
Coordinates from ORCA-job neb_MEP_ALL.QMRegion E -1075.670261091583
  C      44.745336     21.988092     39.914940
  H      45.165064     21.344396     39.144769
  H      45.187199     22.973048     40.065388
  C      43.677594     21.628359     40.654360
  C      43.156669     22.561061     41.752766
  O      43.704448     23.684104     41.900945
  O      42.212811     22.141304     42.469374
  O      42.974923     20.478311     40.408027
  C      41.948660     20.494017     39.142315
  H      41.599371     19.451846     39.097453
  C      42.776380     20.894036     38.000780
  H      43.366868     20.144983     37.469689
  C      43.014161     22.211972     37.807283
  C      42.205306     23.217692     38.507232
  H      42.477593     24.260666     38.348194
  C      41.167308     22.873196     39.284838
  H      40.541490     23.641866     39.745443
  C      40.795243     21.439272     39.539592
  H      40.701110     21.297558     40.623950
  O      39.570808     21.143705     38.888475
  H      38.917680     20.732977     39.544367
  C      44.045224     22.702954     36.809050
  O      44.977221     21.946275     36.439915
  O      43.895391     23.895835     36.429468
24
Coordinates from ORCA-job neb_MEP_ALL.QMRegion E -1075.658440178273
  C      44.724301     22.013819     39.868168
  H      45.179250     21.338405     39.147494
  H      45.164402     22.996989     40.016627
  C      43.703896     21.610687     40.682628
  C      43.166195     22.568054     41.761269
  O      43.707421     23.695018     41.901645
  O      42.214556     22.151048     42.469323
  O      43.083306     20.463261     40.508430
  C      41.861719     20.478895     39.019133
  H      41.569292     19.424503     39.055967
  C      42.761211     20.882375     38.001288
  H      43.365146     20.142512     37.474144
  C      43.059482     22.216305     37.873186
  C      42.218250     23.219905     38.529653
  H      42.484420     24.262459     38.362882
  C      41.162290     22.869746     39.279007
  H      40.531381     23.636572     39.735728
  C      40.784441     21.435743     39.518050
  H      40.714774     21.276815     40.602044
  O      39.538296     21.167229     38.892308
  H      38.898286     20.738050     39.550823
  C      44.064153     22.701621     36.837552
  O      44.980596     21.941764     36.444078
  O      43.890149     23.884813     36.439660
24
Coordinates from ORCA-job neb_MEP_ALL.QMRegion E -1075.654968088616
  C      44.694128     22.037511     39.808160
  H      45.192320     21.330508     39.149973
  H      45.145266     23.012997     39.978177
  C      43.719817     21.597351     40.701884
  C      43.170340     22.573094     41.767899
  O      43.710427     23.700719     41.900910
  O      42.217116     22.156624     42.471506
  O      43.178948     20.448951     40.600503
  C      41.790041     20.469786     38.918052
  H      41.542695     19.410958     39.019289
  C      42.752137     20.870931     38.011031
  H      43.365281     20.139999     37.481502
  C      43.107840     22.222886     37.937774
  C      42.228166     23.222326     38.545918
  H      42.487568     24.265032     38.371744
  C      41.159596     22.867031     39.274151
  H      40.523803     23.632705     39.726777
  C      40.775710     21.432032     39.499925
  H      40.723345     21.262837     40.585612
  O      39.513323     21.184824     38.894667
  H      38.885475     20.741633     39.555318
  C      44.077865     22.700522     36.858622
  O      44.983105     21.937907     36.446638
  O      43.885198     23.876529     36.447435
24
Coordinates from ORCA-job neb_MEP_ALL.QMRegion E -1075.659173169240
  C      44.603571     22.062307     39.684708
  H      45.195297     21.318885     39.153736
  H      45.099078     23.009181     39.919315
  C      43.710525     21.590264     40.697860
  C      43.170463     22.572985     41.769680
  O      43.716470     23.697118     41.894953
  O      42.222172     22.154436     42.474731
  O      43.243186     20.433721     40.665576
  C      41.751174     20.464433     38.856061
  H      41.516294     19.405572     38.978496
  C      42.755501     20.860793     38.030265
  H      43.367559     20.135748     37.491092
  C      43.199069     22.228082     38.046355
  C      42.244385     23.223386     38.570347
  H      42.489934     24.267021     38.381729
  C      41.159780     22.863002     39.267682
  H      40.512101     23.627736     39.706116
  C      40.771192     21.426713     39.488022
  H      40.725797     21.251368     40.574554
  O      39.498171     21.196496     38.896901
  H      38.878097     20.742668     39.556387
  C      44.095147     22.698351     36.884362
  O      44.986282     21.934088     36.447003
  O      43.875877     23.863708     36.456606
24
Coordinates from ORCA-job neb_MEP_ALL.QMRegion E -1075.674062722946
  C      44.496774     22.081414     39.546853
  H      45.183428     21.317184     39.161200
  H      45.034407     22.999862     39.848584
  C      43.691631     21.583321     40.687033
  C      43.173261     22.573540     41.773144
  O      43.726355     23.693093     41.889753
  O      42.229842     22.153328     42.479993
  O      43.303856     20.422988     40.728254
  C      41.728292     20.464280     38.806969
  H      41.487034     19.403107     38.929013
  C      42.763218     20.854847     38.051617
  H      43.375852     20.131839     37.503503
  C      43.306215     22.232577     38.165540
  C      42.269960     23.223461     38.600734
  H      42.496444     24.269043     38.396049
  C      41.166322     22.859141     39.264114
  H      40.501643     23.623484     39.679394
  C      40.769352     21.422225     39.478440
  H      40.731143     21.240569     40.565508
  O      39.486564     21.210363     38.900929
  H      38.873912     20.746163     39.558991
  C      44.112427     22.696936     36.911350
  O      44.991520     21.932730     36.449480
  O      43.865581     23.850948     36.468314
24
Coordinates from ORCA-job neb_MEP_ALL.QMRegion E -1075.690852943825
  C      44.410913     22.053956     39.453030
  H      45.149650     21.301961     39.142927
  H      44.922169     22.987355     39.724061
  C      43.684430     21.559234     40.675412
  C      43.194788     22.568471     41.754978
  O      43.788514     23.665800     41.866925
  O      42.246967     22.164687     42.469190
  O      43.414091     20.380698     40.811756
  C      41.668495     20.459554     38.699691
  H      41.368654     19.410632     38.725115
  C      42.767609     20.838646     38.044929
  H      43.386652     20.118250     37.502600
  C      43.357428     22.210365     38.228980
  C      42.308431     23.208223     38.648995
  H      42.541593     24.257549     38.467479
  C      41.172335     22.841590     39.246129
  H      40.482792     23.605649     39.614912
  C      40.749052     21.408745     39.427307
  H      40.758382     21.189778     40.509525
  O      39.436900     21.250376     38.909486
  H      38.843313     20.770163     39.574195
  C      44.124315     22.687014     36.945206
  O      45.012322     21.940361     36.469160
  O      43.848415     23.833158     36.502383
24
Coordinates from ORCA-job neb_MEP_ALL.QMRegion E -1075.699390292420
  C      44.396181     21.969441     39.389555
  H      45.122653     21.209252     39.075738
  H      44.914018     22.900832     39.637278
  C      43.701833     21.491421     40.638399
  C      43.243490     22.526006     41.705681
  O      43.892525     23.590183     41.806612
  O      42.249332     22.189200     42.396105
  O      43.460636     20.313295     40.817203
  C      41.573967     20.440387     38.539894
  H      41.203900     19.415844     38.452137
  C      42.726727     20.809205     37.972319
  H      43.332663     20.097816     37.406313
  C      43.348912     22.160870     38.217166
  C      42.314819     23.160299     38.668908
  H      42.579182     24.209148     38.554394
  C      41.152018     22.800404     39.217275
  H      40.462637     23.563602     39.593009
  C      40.702199     21.369185     39.349716
  H      40.768198     21.089914     40.419515
  O      39.361253     21.263948     38.904032
  H      38.786057     20.792753     39.590274
  C      44.116831     22.672849     36.952744
  O      45.010655     21.942132     36.462838
  O      43.823565     23.820652     36.528233
24
Coordinates from ORCA-job neb_MEP_ALL.QMRegion E -1075.701067018986
  C      44.390000     21.903000     39.353000
  H      45.099000     21.130000     39.029000
  H      44.922000     22.831000     39.580000
  C      43.710000     21.442000     40.614000
  C      43.262000     22.496000     41.665000
  O      43.943000     23.540000     41.760000
  O      42.257000     22.185000     42.351000
  O      43.475000     20.264000     40.806000
  C      41.507000     20.433000     38.455000
  H      41.100000     19.433000     38.303000
  C      42.679000     20.788000     37.919000
  H      43.265000     20.078000     37.331000
  C      43.327000     22.119000     38.198000
  C      42.309000     23.122000     38.681000
  H      42.595000     24.169000     38.617000
  C      41.135000     22.768000     39.207000
  H      40.457000     23.534000     39.595000
  C      40.660000     21.343000     39.305000
  H      40.748000     21.027000     40.361000
  O      39.307000     21.259000     38.897000
  H      38.743000     20.794000     39.597000
  C      44.100000     22.655000     36.945000
  O      45.001000     21.934000     36.451000
  O      43.814000     23.812000     36.546000
24
Coordinates from ORCA-job neb_MEP_ALL.QMRegion E -1075.680500703602
  C      44.842000     22.068000     40.142000
  H      45.265000     21.440000     39.358000
  H      45.368000     22.976000     40.435000
  C      43.689000     21.758000     40.746000
  C      43.115000     22.623000     41.859000
  O      43.577000     23.785000     42.012000
  O      42.221000     22.117000     42.579000
  O      42.985000     20.610000     40.433000
  C      42.079000     20.646000     39.270000
  H      41.683000     19.622000     39.219000
  C      42.892000     20.975000     38.054000
  H      43.551000     20.209000     37.638000
  C      42.969000     22.244000     37.605000
  C      42.118000     23.281000     38.202000
  H      42.307000     24.301000     37.867000
  C      41.188000     23.002000     39.130000
  H      40.598000     23.809000     39.575000
  C      40.887000     21.588000     39.553000
  H      40.742000     21.566000     40.644000
  O      39.715000     21.144000     38.884000
  H      39.068000     20.737000     39.535000
  C      44.024000     22.694000     36.600000
  O      44.937000     21.905000     36.259000
  O      43.944000     23.900000     36.236000
24
Coordinates from ORCA-job neb_MEP_ALL.QMRegion E -1075.679889150341
  C      44.780053     21.980242     39.992540
  H      45.166562     21.360640     39.185300
  H      45.277839     22.924375     40.216359
  C      43.665129     21.662200     40.663833
  C      43.141593     22.565958     41.775883
  O      43.666674     23.699237     41.926176
  O      42.212770     22.122016     42.494856
  O      42.940205     20.516773     40.387789
  C      42.005707     20.536212     39.229844
  H      41.633349     19.504527     39.173670
  C      42.793340     20.911278     38.017201
  H      43.395587     20.153446     37.511370
  C      42.950495     22.215188     37.711289
  C      42.155269     23.230436     38.415459
  H      42.417373     24.270377     38.221518
  C      41.170467     22.902557     39.267847
  H      40.583232     23.683151     39.760886
  C      40.819814     21.468510     39.565512
  H      40.683263     21.369082     40.651843
  O      39.633482     21.107406     38.878116
  H      38.970586     20.710412     39.525636
  C      44.007498     22.704451     36.733388
  O      44.944968     21.941913     36.389375
  O      43.894755     23.908113     36.375997
24
Coordinates from ORCA-job neb_MEP_ALL.QMRegion E -1075.670253649789
  C      44.744699     21.988237     39.913905
  H      45.166143     21.343331     39.144963
  H      45.188385     22.971650     40.067313
  C      43.678462     21.628173     40.654972
  C      43.156248     22.560850     41.751616
  O      43.705396     23.683599     41.900672
  O      42.212108     22.141143     42.468564
  O      42.978236     20.478161     40.413880
  C      41.945867     20.494946     39.137433
  H      41.599794     19.452262     39.097487
  C      42.776381     20.893794     37.999371
  H      43.367100     20.144494     37.469132
  C      43.013656     22.212286     37.806512
  C      42.204117     23.217170     38.505955
  H      42.478092     24.259601     38.349247
  C      41.166946     22.872297     39.284680
  H      40.541837     23.640922     39.745774
  C      40.795228     21.439021     39.540097
  H      40.700857     21.296712     40.624837
  O      39.570638     21.143151     38.888665
  H      38.918254     20.733357     39.544200
  C      44.045677     22.703771     36.808607
  O      44.975961     21.946273     36.440595
  O      43.895812     23.896400     36.429309
24
Coordinates from ORCA-job neb_MEP_ALL.QMRegion E -1075.657863837327
  C      44.723225     22.014601     39.865456
  H      45.180645     21.337664     39.148053
  H      45.165057     22.996608     40.016134
  C      43.703856     21.609984     40.682658
  C      43.165907     22.568009     41.760814
  O      43.708586     23.695017     41.901972
  O      42.214629     22.151681     42.468557
  O      43.086773     20.462466     40.511840
  C      41.859280     20.478394     39.014678
  H      41.568393     19.423859     39.054352
  C      42.761734     20.881968     38.001868
  H      43.365073     20.142165     37.474032
  C      43.061517     22.216924     37.875663
  C      42.218462     23.219623     38.530578
  H      42.484325     24.262209     38.363287
  C      41.161620     22.869190     39.278499
  H      40.531301     23.635893     39.736056
  C      40.784347     21.435076     39.517648
  H      40.714919     21.275657     40.601798
  O      39.537708     21.167536     38.892497
  H      38.897460     20.738405     39.550980
  C      44.065013     22.701527     36.838785
  O      44.980301     21.941487     36.443736
  O      43.889469     23.884673     36.439872
24
Coordinates from ORCA-job neb_MEP_ALL.QMRegion E -1075.654967624767
  C      44.694945     22.037367     39.808310
  H      45.192905     21.329605     39.150149
  H      45.146591     23.013237     39.978729
  C      43.720198     21.596449     40.701367
  C      43.170069     22.572829     41.767655
  O      43.711016     23.700539     41.901141
  O      42.216976     22.157609     42.470721
  O      43.178643     20.448439     40.600868
  C      41.789341     20.469366     38.916989
  H      41.542649     19.410666     39.018722
  C      42.752850     20.870930     38.011154
  H      43.365154     20.140062     37.481345
  C      43.107315     22.222961     37.937120
  C      42.228326     23.221993     38.546510
  H      42.487292     24.264699     38.371900
  C      41.159513     22.866489     39.274479
  H      40.523709     23.632146     39.727093
  C      40.775676     21.431414     39.499788
  H      40.723372     21.262210     40.585647
  O      39.513248     21.184349     38.894643
  H      38.885303     20.741658     39.555442
  C      44.078085     22.700030     36.858376
  O      44.982987     21.937901     36.446485
  O      43.884829     23.876532     36.447882
24
Coordinates from ORCA-job neb_MEP_ALL.QMRegion E -1075.658836605007
  C      44.606469     22.062218     39.687148
  H      45.195823     21.318181     39.153944
  H      45.101530     23.009341     39.921098
  C      43.708846     21.585232     40.697164
  C      43.170387     22.572907     41.769035
  O      43.716884     23.697162     41.895773
  O      42.222021     22.155360     42.473826
  O      43.242662     20.436669     40.664153
  C      41.752210     20.464513     38.856727
  H      41.516471     19.405581     38.978476
  C      42.756578     20.861151     38.031238
  H      43.367419     20.135619     37.490246
  C      43.196402     22.227555     38.043026
  C      42.243481     23.222924     38.569677
  H      42.489878     24.266440     38.382010
  C      41.159909     22.862364     39.267962
  H      40.512259     23.627140     39.706777
  C      40.771188     21.426173     39.488437
  H      40.725675     21.250851     40.574932
  O      39.498451     21.195721     38.896739
  H      38.877811     20.742951     39.556338
  C      44.094748     22.698201     36.883426
  O      44.985862     21.933997     36.447146
  O      43.875791     23.864125     36.456749
24
Coordinates from ORCA-job neb_MEP_ALL.QMRegion E -1075.673085646593
  C      44.501015     22.081404     39.549113
  H      45.184846     21.315565     39.161501
  H      45.038552     23.001394     39.851767
  C      43.692848     21.581386     40.687197
  C      43.174160     22.573301     41.772929
  O      43.725818     23.693849     41.890531
  O      42.228955     22.154790     42.479201
  O      43.302230     20.421918     40.728197
  C      41.723835     20.461198     38.809815
  H      41.488359     19.403157     38.930026
  C      42.767391     20.855212     38.048215
  H      43.374640     20.132588     37.503064
  C      43.302884     22.232340     38.162146
  C      42.267166     23.222953     38.598982
  H      42.496456     24.268882     38.396160
  C      41.166632     22.859107     39.264100
  H      40.501408     23.623761     39.680941
  C      40.769230     21.421837     39.477997
  H      40.731446     21.239704     40.565503
  O      39.486357     21.209954     38.900676
  H      38.873880     20.745819     39.558892
  C      44.111592     22.696918     36.909856
  O      44.990964     21.932687     36.449963
  O      43.866070     23.851462     36.468490
24
Coordinates from ORCA-job neb_MEP_ALL.QMRegion E -1075.690761990043
  C      44.414635     22.055932     39.455972
  H      45.150752     21.300948     39.143819
  H      44.923856     22.993178     39.725861
  C      43.684680     21.557765     40.676495
  C      43.191819     22.569331     41.755772
  O      43.787146     23.666626     41.868460
  O      42.247952     22.165645     42.470302
  O      43.412767     20.380200     40.813748
  C      41.668973     20.459184     38.705957
  H      41.371338     19.412254     38.726800
  C      42.768159     20.838867     38.043198
  H      43.388423     20.119125     37.504810
  C      43.354039     22.209699     38.225868
  C      42.308133     23.209110     38.647777
  H      42.541272     24.258714     38.467141
  C      41.174269     22.841571     39.249972
  H      40.483114     23.605217     39.613960
  C      40.748942     21.409574     39.427409
  H      40.759197     21.191061     40.508578
  O      39.437005     21.249949     38.908896
  H      38.843915     20.769372     39.574716
  C      44.122237     22.685134     36.942942
  O      45.012884     21.941035     36.470733
  O      43.849294     23.833536     36.503741
24
Coordinates from ORCA-job neb_MEP_ALL.QMRegion E -1075.699301988974
  C      44.395065     21.971156     39.388801
  H      45.123154     21.211676     39.077340
  H      44.913464     22.900828     39.638167
  C      43.701125     21.492885     40.637810
  C      43.243719     22.526598     41.708097
  O      43.890483     23.590858     41.807473
  O      42.250103     22.189882     42.395622
  O      43.460795     20.313635     40.817877
  C      41.575364     20.440738     38.540472
  H      41.204966     19.415370     38.454355
  C      42.728405     20.809707     37.974329
  H      43.333369     20.098045     37.407703
  C      43.350646     22.162181     38.217860
  C      42.315396     23.160497     38.669653
  H      42.578967     24.209438     38.553635
  C      41.152374     22.800984     39.217022
  H      40.462462     23.564365     39.593036
  C      40.702535     21.369460     39.350235
  H      40.768439     21.090849     40.420639
  O      39.361679     21.264027     38.903928
  H      38.786779     20.792560     39.590192
  C      44.118416     22.674237     36.953458
  O      45.010721     21.941529     36.463097
  O      43.822996     23.819900     36.528588
24
Coordinates from ORCA-job neb_MEP_ALL.QMRegion E -1075.701067018986
  C      44.390000     21.903000     39.353000
  H      45.099000     21.130000     39.029000
  H      44.922000     22.831000     39.580000
  C      43.710000     21.442000     40.614000
  C      43.262000     22.496000     41.665000
  O      43.943000     23.540000     41.760000
  O      42.257000     22.185000     42.351000
  O      43.475000     20.264000     40.806000
  C      41.507000     20.433000     38.455000
  H      41.100000     19.433000     38.303000
  C      42.679000     20.788000     37.919000
  H      43.265000     20.078000     37.331000
  C      43.327000     22.119000     38.198000
  C      42.309000     23.122000     38.681000
  H      42.595000     24.169000     38.617000
  C      41.135000     22.768000     39.207000
  H      40.457000     23.534000     39.595000
  C      40.660000     21.343000     39.305000
  H      40.748000     21.027000     40.361000
  O      39.307000     21.259000     38.897000
  H      38.743000     20.794000     39.597000
  C      44.100000     22.655000     36.945000
  O      45.001000     21.934000     36.451000
  O      43.814000     23.812000     36.546000
24
Coordinates from ORCA-job neb_MEP_ALL.QMRegion E -1075.680500703602
  C      44.842000     22.068000     40.142000
  H      45.265000     21.440000     39.358000
  H      45.368000     22.976000     40.435000
  C      43.689000     21.758000     40.746000
  C      43.115000     22.623000     41.859000
  O      43.577000     23.785000     42.012000
  O      42.221000     22.117000     42.579000
  O      42.985000     20.610000     40.433000
  C      42.079000     20.646000     39.270000
  H      41.683000     19.622000     39.219000
  C      42.892000     20.975000     38.054000
  H      43.551000     20.209000     37.638000
  C      42.969000     22.244000     37.605000
  C      42.118000     23.281000     38.202000
  H      42.307000     24.301000     37.867000
  C      41.188000     23.002000     39.130000
  H      40.598000     23.809000     39.575000
  C      40.887000     21.588000     39.553000
  H      40.742000     21.566000     40.644000
  O      39.715000     21.144000     38.884000
  H      39.068000     20.737000     39.535000
  C      44.024000     22.694000     36.600000
  O      44.937000     21.905000     36.259000
  O      43.944000     23.900000     36.236000
24
Coordinates from ORCA-job neb_MEP_ALL.QMRegion E -1075.679971771206
  C      44.780083     21.979932     39.992580
  H      45.166693     21.360368     39.185373
  H      45.278050     22.923527     40.216775
  C      43.665442     21.662426     40.664171
  C      43.141258     22.565991     41.775599
  O      43.667094     23.698971     41.925955
  O      42.212626     22.121779     42.494660
  O      42.940903     20.517088     40.388426
  C      42.005137     20.536339     39.229003
  H      41.633337     19.504328     39.173741
  C      42.793253     20.911350     38.017059
  H      43.395557     20.153431     37.511353
  C      42.950436     22.215157     37.711423
  C      42.154933     23.230383     38.415231
  H      42.417169     24.270183     38.221468
  C      41.170409     22.902500     39.267956
  H      40.583381     23.682929     39.761042
  C      40.819790     21.468674     39.565608
  H      40.683098     21.369001     40.651902
  O      39.633703     21.107139     38.878199
  H      38.970631     20.710332     39.525537
  C      44.006850     22.704197     36.732746
  O      44.944878     21.942143     36.389413
  O      43.894954     23.908181     36.376104
24
Coordinates from ORCA-job neb_MEP_ALL.QMRegion E -1075.669756054192
  C      44.744348     21.988610     39.913141
  H      45.166497     21.343155     39.145239
  H      45.188395     22.971532     40.067013
  C      43.679043     21.627873     40.655593
  C      43.156790     22.560922     41.752033
  O      43.705388     23.683950     41.900706
  O      42.211976     22.141555     42.468230
  O      42.979262     20.477985     40.414207
  C      41.945297     20.494477     39.136544
  H      41.599325     19.451598     39.096834
  C      42.775998     20.893581     37.999320
  H      43.367036     20.144554     37.469235
  C      43.014378     22.212183     37.807671
  C      42.204094     23.217161     38.506179
  H      42.478065     24.259583     38.349404
  C      41.166748     22.872295     39.284506
  H      40.541760     23.640911     39.745942
  C      40.795235     21.438891     39.539696
  H      40.701049     21.296348     40.624202
  O      39.570445     21.143468     38.888793
  H      38.917813     20.733298     39.544331
  C      44.045484     22.703697     36.808660
  O      44.976071     21.946390     36.440535
  O      43.895937     23.896334     36.429384
24
Coordinates from ORCA-job neb_MEP_ALL.QMRegion E -1075.657636085092
  C      44.723726     22.014373     39.865891
  H      45.180669     21.337521     39.148085
  H      45.165407     22.996580     40.016452
  C      43.703871     21.609904     40.682469
  C      43.166044     22.568025     41.760710
  O      43.708621     23.694826     41.901968
  O      42.214438     22.151870     42.468443
  O      43.086306     20.462498     40.511479
  C      41.859295     20.478384     39.014848
  H      41.568618     19.423841     39.054428
  C      42.761660     20.881907     38.001807
  H      43.365129     20.142214     37.473925
  C      43.061431     22.216754     37.875487
  C      42.218375     23.219549     38.530402
  H      42.484238     24.262185     38.363308
  C      41.161792     22.869126     39.278787
  H      40.531256     23.635792     39.736182
  C      40.784281     21.435000     39.517691
  H      40.714950     21.275610     40.601857
  O      39.537741     21.167242     38.892409
  H      38.897532     20.738388     39.551007
  C      44.064605     22.701449     36.838278
  O      44.980367     21.941557     36.443781
  O      43.889605     23.884755     36.439983
24
Coordinates from ORCA-job neb_MEP_ALL.QMRegion E -1075.654956008562
  C      44.695116     22.037104     39.808582
  H      45.193004     21.329663     39.150262
  H      45.146623     23.012734     39.978791
  C      43.720185     21.596767     40.701440
  C      43.170310     22.572812     41.767651
  O      43.711171     23.700347     41.900947
  O      42.216768     22.157591     42.470463
  O      43.178982     20.448688     40.600797
  C      41.789331     20.469316     38.917056
  H      41.542643     19.410625     39.018477
  C      42.752531     20.870756     38.010951
  H      43.365285     20.140024     37.481278
  C      43.107478     22.222764     37.937440
  C      42.228192     23.221923     38.546371
  H      42.487262     24.264713     38.371993
  C      41.159593     22.866376     39.274607
  H      40.523703     23.631985     39.727167
  C      40.775594     21.431321     39.499730
  H      40.723441     21.262035     40.585505
  O      39.513144     21.184267     38.894605
  H      38.885245     20.741633     39.555491
  C      44.077784     22.700065     36.858245
  O      44.982980     21.938002     36.446452
  O      43.885009     23.876549     36.447864
24
Coordinates from ORCA-job neb_MEP_ALL.QMRegion E -1075.658609333689
  C      44.606847     22.061713     39.687949
  H      45.195933     21.318282     39.153940
  H      45.101586     23.008760     39.921320
  C      43.709356     21.586720     40.697328
  C      43.170470     22.572794     41.769027
  O      43.717112     23.696832     41.895446
  O      42.221756     22.155258     42.473590
  O      43.242619     20.436407     40.663828
  C      41.752265     20.464463     38.856797
  H      41.516498     19.405519     38.978335
  C      42.756180     20.860947     38.030875
  H      43.367545     20.135584     37.490218
  C      43.196210     22.227445     38.043049
  C      42.243411     23.222852     38.569630
  H      42.489822     24.266418     38.382045
  C      41.159803     22.862249     39.268009
  H      40.512311     23.626994     39.706912
  C      40.771201     21.426072     39.488426
  H      40.725670     21.250713     40.574846
  O      39.498489     21.195612     38.896765
  H      38.877755     20.742956     39.556351
  C      44.094557     22.698210     36.883474
  O      44.985828     21.934151     36.446959
  O      43.875958     23.864092     36.456621
24
Coordinates from ORCA-job neb_MEP_ALL.QMRegion E -1075.672452810884
  C      44.501241     22.080678     39.550556
  H      45.184919     21.316073     39.161519
  H      45.038382     22.999948     39.851843
  C      43.692976     21.582501     40.687474
  C      43.174125     22.573183     41.772751
  O      43.726126     23.693498     41.890212
  O      42.228850     22.154527     42.478813
  O      43.302787     20.422778     40.727478
  C      41.724907     20.461760     38.808963
  H      41.488359     19.402981     38.930097
  C      42.766458     20.854963     38.049175
  H      43.374704     20.132392     37.502768
  C      43.302328     22.232182     38.161792
  C      42.267386     23.222965     38.599217
  H      42.496287     24.268719     38.396120
  C      41.166281     22.858946     39.263815
  H      40.501580     23.623526     39.681148
  C      40.769374     21.421721     39.478103
  H      40.731294     21.239543     40.565407
  O      39.486534     21.209873     38.900922
  H      38.873679     20.745831     39.558775
  C      44.111719     22.697119     36.910181
  O      44.990786     21.932816     36.449646
  O      43.866167     23.851340     36.468226
24
Coordinates from ORCA-job neb_MEP_ALL.QMRegion E -1075.690361782299
  C      44.414595     22.056212     39.455732
  H      45.151049     21.301497     39.144238
  H      44.923843     22.992462     39.726656
  C      43.685035     21.558936     40.676388
  C      43.192569     22.568847     41.756582
  O      43.786116     23.666502     41.868215
  O      42.247194     22.165767     42.470608
  O      43.412445     20.381371     40.813332
  C      41.669419     20.459294     38.705511
  H      41.372025     19.411560     38.728473
  C      42.768172     20.839002     38.044046
  H      43.388425     20.119190     37.505151
  C      43.354909     22.210172     38.226474
  C      42.307953     23.208976     38.647318
  H      42.540948     24.258559     38.466834
  C      41.174134     22.842021     39.249412
  H      40.482940     23.605630     39.614670
  C      40.749482     21.409670     39.428082
  H      40.758763     21.191257     40.509497
  O      39.437807     21.249660     38.909176
  H      38.844139     20.769304     39.574421
  C      44.122959     22.685928     36.943709
  O      45.012400     21.940889     36.470423
  O      43.849219     23.833390     36.503224
24
Coordinates from ORCA-job neb_MEP_ALL.QMRegion E -1075.699175733324
  C      44.395324     21.971045     39.390353
  H      45.123364     21.211966     39.077385
  H      44.913411     22.901279     39.638355
  C      43.701201     21.493130     40.638846
  C      43.242926     22.527519     41.707442
  O      43.890811     23.591069     41.807811
  O      42.250249     22.189315     42.395852
  O      43.460941     20.313763     40.817543
  C      41.575534     20.440869     38.540993
  H      41.205551     19.415921     38.454713
  C      42.728296     20.809588     37.974287
  H      43.333721     20.098138     37.408063
  C      43.349844     22.161811     38.218014
  C      42.315235     23.160766     38.669743
  H      42.579021     24.209811     38.553529
  C      41.152360     22.800875     39.217221
  H      40.462766     23.564306     39.592788
  C      40.702917     21.369502     39.350228
  H      40.768403     21.091164     40.420371
  O      39.362106     21.264000     38.904178
  H      38.786795     20.792527     39.590092
  C      44.117820     22.673752     36.952718
  O      45.011071     21.941854     36.463285
  O      43.823423     23.820234     36.528560
24
Coordinates from ORCA-job neb_MEP_ALL.QMRegion E -1075.701067018986
  C      44.390000     21.903000     39.353000
  H      45.099000     21.130000     39.029000
  H      44.922000     22.831000     39.580000
  C      43.710000     21.442000     40.614000
  C      43.262000     22.496000     41.665000
  O      43.943000     23.540000     41.760000
  O      42.257000     22.185000     42.351000
  O      43.475000     20.264000     40.806000
  C      41.507000     20.433000     38.455000
  H      41.100000     19.433000     38.303000
  C      42.679000     20.788000     37.919000
  H      43.265000     20.078000     37.331000
  C      43.327000     22.119000     38.198000
  C      42.309000     23.122000     38.681000
  H      42.595000     24.169000     38.617000
  C      41.135000     22.768000     39.207000
  H      40.457000     23.534000     39.595000
  C      40.660000     21.343000     39.305000
  H      40.748000     21.027000     40.361000
  O      39.307000     21.259000     38.897000
  H      38.743000     20.794000     39.597000
  C      44.100000     22.655000     36.945000
  O      45.001000     21.934000     36.451000
  O      43.814000     23.812000     36.546000
24
Coordinates from ORCA-job neb_MEP_ALL.QMRegion E -1075.680500703602
  C      44.842000     22.068000     40.142000
  H      45.265000     21.440000     39.358000
  H      45.368000     22.976000     40.435000
  C      43.689000     21.758000     40.746000
  C      43.115000     22.623000     41.859000
  O      43.577000     23.785000     42.012000
  O      42.221000     22.117000     42.579000
  O      42.985000     20.610000     40.433000
  C      42.079000     20.646000     39.270000
  H      41.683000     19.622000     39.219000
  C      42.892000     20.975000     38.054000
  H      43.551000     20.209000     37.638000
  C      42.969000     22.244000     37.605000
  C      42.118000     23.281000     38.202000
  H      42.307000     24.301000     37.867000
  C      41.188000     23.002000     39.130000
  H      40.598000     23.809000     39.575000
  C      40.887000     21.588000     39.553000
  H      40.742000     21.566000     40.644000
  O      39.715000     21.144000     38.884000
  H      39.068000     20.737000     39.535000
  C      44.024000     22.694000     36.600000
  O      44.937000     21.905000     36.259000
  O      43.944000     23.900000     36.236000
24
Coordinates from ORCA-job neb_MEP_ALL.QMRegion E -1075.679999659047
  C      44.781687     21.975999     39.994070
  H      45.167774     21.357152     39.186332
  H      45.282205     22.915518     40.222155
  C      43.666373     21.663024     40.664976
  C      43.139615     22.565739     41.773053
  O      43.670384     23.696263     41.924379
  O      42.211181     22.120716     42.492165
  O      42.943550     20.518762     40.391428
  C      42.002439     20.537583     39.225185
  H      41.634383     19.504189     39.175387
  C      42.792489     20.911636     38.015925
  H      43.395169     20.153320     37.510983
  C      42.947903     22.214874     37.709579
  C      42.151666     23.229486     38.412968
  H      42.414701     24.268676     38.220310
  C      41.170209     22.901590     39.269119
  H      40.584632     23.680962     39.763158
  C      40.819649     21.469020     39.566929
  H      40.681308     21.368365     40.653122
  O      39.635862     21.104057     38.878290
  H      38.971374     20.709360     39.524640
  C      44.002336     22.703104     36.728270
  O      44.943267     21.943295     36.388695
  O      43.895415     23.908888     36.376491
24
Coordinates from ORCA-job neb_MEP_ALL.QMRegion E -1075.669746012748
  C      44.741932     21.990792     39.907444
  H      45.169917     21.340807     39.147167
  H      45.190063     22.969557     40.067297
  C      43.683418     21.625544     40.659837
  C      43.159521     22.561434     41.753326
  O      43.706482     23.685240     41.900675
  O      42.210469     22.144121     42.465098
  O      42.989085     20.476522     40.422608
  C      41.938687     20.492379     39.125685
  H      41.596962     19.447961     39.092767
  C      42.773690     20.892109     37.997603
  H      43.366977     20.144247     37.469060
  C      43.018188     22.212043     37.813516
  C      42.202799     23.216371     38.506346
  H      42.478421     24.258367     38.351557
  C      41.165151     22.871275     39.283402
  H      40.541626     23.639630     39.747385
  C      40.795053     21.437721     39.537723
  H      40.702074     21.293004     40.621398
  O      39.568816     21.144688     38.889595
  H      38.915731     20.733381     39.545041
  C      44.044836     22.704094     36.809083
  O      44.975562     21.946783     36.440683
  O      43.896876     23.896749     36.429635
24
Coordinates from ORCA-job neb_MEP_ALL.QMRegion E -1075.657675133432
  C      44.725358     22.013837     39.865461
  H      45.182618     21.335678     39.148935
  H      45.168361     22.995802     40.017780
  C      43.704197     21.608673     40.681468
  C      43.166638     22.568220     41.759569
  O      43.710339     23.693567     41.902194
  O      42.213203     22.153731     42.466705
  O      43.087924     20.461844     40.513487
  C      41.856296     20.477623     39.010409
  H      41.568855     19.422839     39.052798
  C      42.761759     20.881092     38.001977
  H      43.365408     20.142091     37.473144
  C      43.063220     22.216293     37.877404
  C      42.218113     23.218803     38.530544
  H      42.483553     24.261691     38.363957
  C      41.162084     22.867985     39.279933
  H      40.530876     23.634291     39.737370
  C      40.783768     21.433725     39.517396
  H      40.715359     21.273815     40.601798
  O      39.537110     21.165813     38.892125
  H      38.896948     20.738677     39.551384
  C      44.063357     22.701038     36.836875
  O      44.980332     21.941672     36.443542
  O      43.889580     23.884948     36.440887
24
Coordinates from ORCA-job neb_MEP_ALL.QMRegion E -1075.655000092933
  C      44.697334     22.035293     39.810383
  H      45.194370     21.328853     39.151197
  H      45.148599     23.009952     39.979950
  C      43.720603     21.597567     40.701455
  C      43.171496     22.572509     41.767122
  O      43.712981     23.699036     41.900089
  O      42.215154     22.158616     42.467942
  O      43.180497     20.449394     40.600678
  C      41.788646     20.468537     38.916131
  H      41.542516     19.409874     39.016284
  C      42.751374     20.869723     38.009948
  H      43.365946     20.139820     37.480625
  C      43.107719     22.221677     37.938329
  C      42.227584     23.221066     38.546277
  H      42.486708     24.264303     38.372771
  C      41.159954     22.865002     39.275725
  H      40.523562     23.630267     39.728080
  C      40.775067     21.429979     39.499240
  H      40.723884     21.260110     40.584683
  O      39.512413     21.183157     38.894352
  H      38.884654     20.741484     39.555948
  C      44.076256     22.699802     36.857349
  O      44.982802     21.938485     36.445965
  O      43.885568     23.876687     36.448253
24
Coordinates from ORCA-job neb_MEP_ALL.QMRegion E -1075.658661822985
  C      44.612632     22.058430     39.695601
  H      45.197327     21.317921     39.154191
  H      45.105112     23.005635     39.924911
  C      43.711383     21.591478     40.697550
  C      43.170901     22.572134     41.768136
  O      43.719105     23.694877     41.894442
  O      42.219819     22.155772     42.471051
  O      43.240929     20.436305     40.660293
  C      41.753284     20.463868     38.858208
  H      41.516891     19.405160     38.977348
  C      42.755470     20.860007     38.029327
  H      43.368035     20.135340     37.489147
  C      43.191916     22.226401     38.039155
  C      42.242043     23.221759     38.568571
  H      42.489367     24.265548     38.382621
  C      41.159235     22.860799     39.268710
  H      40.512784     23.625325     39.708585
  C      40.771307     21.424785     39.488717
  H      40.725521     21.249143     40.574799
  O      39.498974     21.193975     38.896699
  H      38.877059     20.743284     39.556421
  C      44.092912     22.698096     36.882654
  O      44.985186     21.934847     36.445965
  O      43.876779     23.864440     36.456094
24
Coordinates from ORCA-job neb_MEP_ALL.QMRegion E -1075.672495190458
  C      44.508189     22.076539     39.562410
  H      45.187301     21.316827     39.161914
  H      45.043051     22.993470     39.856651
  C      43.695418     21.586490     40.689352
  C      43.174557     22.572573     41.771596
  O      43.727468     23.692174     41.889237
  O      42.227220     22.154708     42.475272
  O      43.303561     20.426379     40.722764
  C      41.728057     20.462412     38.806711
  H      41.489883     19.401503     38.931915
  C      42.763799     20.853544     38.051681
  H      43.373975     20.131816     37.500152
  C      43.294794     22.231073     38.155048
  C      42.265814     23.222444     38.598004
  H      42.495184     24.267471     38.395968
  C      41.163859     22.857818     39.262693
  H      40.502516     23.622156     39.684324
  C      40.769844     21.420470     39.478340
  H      40.730766     21.237570     40.564859
  O      39.487211     21.208781     38.901829
  H      38.872419     20.745460     39.558072
  C      44.111126     22.697920     36.910218
  O      44.989256     21.933337     36.448256
  O      43.867255     23.851766     36.466769
24
Coordinates from ORCA-job neb_MEP_ALL.QMRegion E -1075.690405022568
  C      44.418412     22.060137     39.457999
  H      45.154339     21.304004     39.148025
  H      44.926077     22.994970     39.733959
  C      43.687303     21.564641     40.677670
  C      43.193448     22.567005     41.761788
  O      43.778542     23.667765     41.868876
  O      42.243356     22.166987     42.474074
  O      43.408787     20.387797     40.812742
  C      41.673671     20.459857     38.710054
  H      41.379767     19.409092     38.741493
  C      42.768453     20.840105     38.047878
  H      43.390707     20.120452     37.509827
  C      43.356451     22.212463     38.226734
  C      42.306466     23.209447     38.643304
  H      42.538469     24.259044     38.464248
  C      41.175232     22.844661     39.250429
  H      40.482494     23.607644     39.618080
  C      40.752688     21.411151     39.432609
  H      40.757017     21.194122     40.514355
  O      39.442910     21.247359     38.910157
  H      38.846425     20.767893     39.573182
  C      44.124617     22.688456     36.945828
  O      45.010506     21.940422     36.470158
  O      43.849785     23.833470     36.501434
24
Coordinates from ORCA-job neb_MEP_ALL.QMRegion E -1075.699205872220
  C      44.395754     21.972573     39.398260
  H      45.125198     21.216817     39.079854
  H      44.912435     22.904411     39.640781
  C      43.700833     21.495795     40.644179
  C      43.238972     22.532764     41.705996
  O      43.890476     23.594137     41.811071
  O      42.250979     22.186851     42.397542
  O      43.462007     20.315744     40.816589
  C      41.578230     20.442015     38.545022
  H      41.210463     19.418498     38.459730
  C      42.729774     20.809671     37.976542
  H      43.336908     20.098919     37.412052
  C      43.347481     22.161406     38.219750
  C      42.315107     23.162722     38.670935
  H      42.579040     24.212301     38.551986
  C      41.152772     22.801104     39.218159
  H      40.464297     23.564940     39.591343
  C      40.705540     21.370275     39.350976
  H      40.768565     21.094215     40.420305
  O      39.365182     21.263923     38.905406
  H      38.787889     20.792060     39.589427
  C      44.116123     22.672284     36.950018
  O      45.013294     21.943088     36.464580
  O      43.825271     23.821567     36.528533
24
Coordinates from ORCA-job neb_MEP_ALL.QMRegion E -1075.701067018986
  C      44.390000     21.903000     39.353000
  H      45.099000     21.130000     39.029000
  H      44.922000     22.831000     39.580000
  C      43.710000     21.442000     40.614000
  C      43.262000     22.496000     41.665000
  O      43.943000     23.540000     41.760000
  O      42.257000     22.185000     42.351000
  O      43.475000     20.264000     40.806000
  C      41.507000     20.433000     38.455000
  H      41.100000     19.433000     38.303000
  C      42.679000     20.788000     37.919000
  H      43.265000     20.078000     37.331000
  C      43.327000     22.119000     38.198000
  C      42.309000     23.122000     38.681000
  H      42.595000     24.169000     38.617000
  C      41.135000     22.768000     39.207000
  H      40.457000     23.534000     39.595000
  C      40.660000     21.343000     39.305000
  H      40.748000     21.027000     40.361000
  O      39.307000     21.259000     38.897000
  H      38.743000     20.794000     39.597000
  C      44.100000     22.655000     36.945000
  O      45.001000     21.934000     36.451000
  O      43.814000     23.812000     36.546000
24
Coordinates from ORCA-job neb_MEP_ALL.QMRegion E -1075.680500703602
  C      44.842000     22.068000     40.142000
  H      45.265000     21.440000     39.358000
  H      45.368000     22.976000     40.435000
  C      43.689000     21.758000     40.746000
  C      43.115000     22.623000     41.859000
  O      43.577000     23.785000     42.012000
  O      42.221000     22.117000     42.579000
  O      42.985000     20.610000     40.433000
  C      42.079000     20.646000     39.270000
  H      41.683000     19.622000     39.219000
  C      42.892000     20.975000     38.054000
  H      43.551000     20.209000     37.638000
  C      42.969000     22.244000     37.605000
  C      42.118000     23.281000     38.202000
  H      42.307000     24.301000     37.867000
  C      41.188000     23.002000     39.130000
  H      40.598000     23.809000     39.575000
  C      40.887000     21.588000     39.553000
  H      40.742000     21.566000     40.644000
  O      39.715000     21.144000     38.884000
  H      39.068000     20.737000     39.535000
  C      44.024000     22.694000     36.600000
  O      44.937000     21.905000     36.259000
  O      43.944000     23.900000     36.236000
24
Coordinates from ORCA-job neb_MEP_ALL.QMRegion E -1075.680135485376
  C      44.784113     21.970099     39.995355
  H      45.169532     21.351428     39.187399
  H      45.288544     22.904571     40.228760
  C      43.667467     21.662167     40.665200
  C      43.138713     22.565018     41.769461
  O      43.675335     23.692506     41.922136
  O      42.208816     22.120495     42.487606
  O      42.945719     20.519593     40.394017
  C      41.999606     20.538344     39.221236
  H      41.635590     19.503593     39.176793
  C      42.790728     20.911477     38.013967
  H      43.394131     20.153064     37.509816
  C      42.944325     22.214358     37.706838
  C      42.147569     23.227797     38.410849
  H      42.411519     24.266538     38.219986
  C      41.169776     22.899691     39.270878
  H      40.585717     23.677853     39.766700
  C      40.819145     21.468112     39.568412
  H      40.679009     21.366293     40.654510
  O      39.637727     21.099997     38.878067
  H      38.971757     20.708042     39.523714
  C      43.997470     22.702436     36.724104
  O      44.940775     21.944239     36.387573
  O      43.895093     23.910032     36.377263
24
Coordinates from ORCA-job neb_MEP_ALL.QMRegion E -1075.668524921447
  C      44.739906     21.992565     39.901314
  H      45.174668     21.337167     39.149629
  H      45.193801     22.966558     40.069270
  C      43.688795     21.622309     40.664331
  C      43.162439     22.562153     41.754092
  O      43.708675     23.686193     41.900722
  O      42.208123     22.147661     42.460435
  O      43.000685     20.474321     40.433565
  C      41.930585     20.489827     39.112084
  H      41.594742     19.443702     39.088030
  C      42.771260     20.890429     37.995023
  H      43.367092     20.143509     37.468151
  C      43.021671     22.212032     37.818711
  C      42.200888     23.214955     38.506155
  H      42.478796     24.256439     38.354522
  C      41.163120     22.869475     39.282337
  H      40.541631     23.637321     39.749719
  C      40.794535     21.435876     39.535616
  H      40.703369     21.288293     40.618707
  O      39.566528     21.145263     38.890247
  H      38.913603     20.733572     39.545937
  C      44.044475     22.704933     36.809784
  O      44.974354     21.946975     36.440679
  O      43.897630     23.897637     36.429837
24
Coordinates from ORCA-job neb_MEP_ALL.QMRegion E -1075.657598088274
  C      44.726869     22.013364     39.863523
  H      45.186210     21.332763     39.150454
  H      45.172635     22.994068     40.019208
  C      43.705064     21.606897     40.680756
  C      43.167299     22.568509     41.757950
  O      43.713656     23.691946     41.902352
  O      42.211369     22.156462     42.463552
  O      43.092808     20.460817     40.518285
  C      41.850770     20.476142     39.001793
  H      41.568468     19.420819     39.049347
  C      42.761869     20.879706     38.002175
  H      43.365794     20.141719     37.472081
  C      43.066388     22.215934     37.881257
  C      42.217952     23.217640     38.531527
  H      42.482519     24.260804     38.365131
  C      41.162109     22.866015     39.281122
  H      40.530359     23.631724     39.739165
  C      40.783033     21.431583     39.516575
  H      40.716086     21.270496     40.601247
  O      39.535716     21.164184     38.891885
  H      38.895574     20.739120     39.552068
  C      44.062750     22.700686     36.836452
  O      44.979909     21.941701     36.442722
  O      43.889025     23.884967     36.442024
24
Coordinates from ORCA-job neb_MEP_ALL.QMRegion E -1075.655033189583
  C      44.700761     22.032893     39.812454
  H      45.196717     21.326951     39.152573
  H      45.152356     23.006569     39.981861
  C      43.721593     21.597667     40.701478
  C      43.172688     22.572201     41.766037
  O      43.716100     23.697400     41.899228
  O      42.212825     22.160575     42.463991
  O      43.182223     20.449575     40.600829
  C      41.787387     20.467131     38.913960
  H      41.542142     19.408374     39.012856
  C      42.750420     20.868434     38.008777
  H      43.366698     20.139513     37.479625
  C      43.107652     22.220438     37.938824
  C      42.227016     23.219645     38.546697
  H      42.485742     24.263345     38.373996
  C      41.160253     22.862792     39.277209
  H      40.523296     23.627503     39.729594
  C      40.774393     21.427756     39.498469
  H      40.724464     21.256900     40.583593
  O      39.511324     21.181416     38.894067
  H      38.883641     20.741247     39.556644
  C      44.074826     22.699319     36.856533
  O      44.982352     21.938900     36.445078
  O      43.885771     23.876886     36.448997
24
Coordinates from ORCA-job neb_MEP_ALL.QMRegion E -1075.658319315286
  C      44.622023     22.054345     39.706360
  H      45.199640     21.316609     39.154711
  H      45.111627     23.002191     39.930594
  C      43.713431     21.594354     40.697654
  C      43.171329     22.571559     41.766478
  O      43.722258     23.692635     41.893767
  O      42.217088     22.157180     42.467011
  O      43.238171     20.436759     40.655314
  C      41.754736     20.462695     38.860276
  H      41.517343     19.404373     38.975725
  C      42.755445     20.859130     38.027444
  H      43.368567     20.134988     37.487372
  C      43.185013     22.224872     38.032043
  C      42.239975     23.219925     38.567127
  H      42.488628     24.263968     38.383641
  C      41.158642     22.858526     39.269823
  H      40.513329     23.622664     39.711270
  C      40.771325     21.422712     39.489118
  H      40.725365     21.246488     40.574904
  O      39.499454     21.191344     38.896431
  H      38.875955     20.743762     39.556626
  C      44.090821     22.697898     36.881088
  O      44.984145     21.935428     36.444783
  O      43.877503     23.865194     36.455765
24
Coordinates from ORCA-job neb_MEP_ALL.QMRegion E -1075.671368490710
  C      44.520392     22.071901     39.578451
  H      45.191624     21.315876     39.162544
  H      45.053024     22.987473     39.865568
  C      43.699461     21.589174     40.691910
  C      43.175031     22.572392     41.770050
  O      43.729337     23.690978     41.888606
  O      42.224393     22.155866     42.470068
  O      43.302324     20.429277     40.716569
  C      41.729474     20.461178     38.807141
  H      41.492599     19.399553     38.934649
  C      42.762883     20.852143     38.051374
  H      43.372572     20.131415     37.496521
  C      43.283322     22.229670     38.144146
  C      42.262043     23.221117     38.595122
  H      42.493665     24.265823     38.395806
  C      41.160981     22.856170     39.261946
  H      40.503625     23.620148     39.689460
  C      40.769957     21.418501     39.478338
  H      40.730436     21.234440     40.564241
  O      39.487512     21.206761     38.902250
  H      38.870839     20.744770     39.557398
  C      44.109219     22.698405     36.908694
  O      44.987326     21.933610     36.446825
  O      43.868776     23.853161     36.465284
24
Coordinates from ORCA-job neb_MEP_ALL.QMRegion E -1075.689862968462
  C      44.425054     22.066340     39.463882
  H      45.159721     21.307715     39.153976
  H      44.931168     23.001114     39.745684
  C      43.689845     21.571474     40.681299
  C      43.191875     22.566308     41.768309
  O      43.768087     23.671596     41.871423
  O      42.238911     22.167680     42.479086
  O      43.402654     20.395985     40.811611
  C      41.680256     20.460341     38.720582
  H      41.392899     19.406805     38.762169
  C      42.770039     20.842010     38.052517
  H      43.394690     20.122461     37.517223
  C      43.356595     22.215624     38.225791
  C      42.304032     23.211108     38.637993
  H      42.534571     24.260577     38.459561
  C      41.176863     22.847863     39.253539
  H      40.482766     23.610090     39.622812
  C      40.757016     21.413316     39.439307
  H      40.754968     21.199074     40.521314
  O      39.450057     21.243869     38.910973
  H      38.850351     20.765355     39.571668
  C      44.125404     22.690512     36.946752
  O      45.008642     21.939731     36.470318
  O      43.851144     23.834592     36.499352
24
Coordinates from ORCA-job neb_MEP_ALL.QMRegion E -1075.699064330754
  C      44.396161     21.976270     39.406455
  H      45.127877     21.224846     39.084670
  H      44.910771     22.909326     39.644998
  C      43.700375     21.500096     40.649574
  C      43.234930     22.538428     41.706266
  O      43.888188     23.599286     41.815918
  O      42.251078     22.184936     42.400513
  O      43.463113     20.319053     40.816761
  C      41.582678     20.443659     38.550913
  H      41.217567     19.420888     38.467984
  C      42.732958     20.810461     37.980916
  H      43.341925     20.099959     37.418411
  C      43.346579     22.162407     38.222339
  C      42.315569     23.165453     38.672323
  H      42.578833     24.215430     38.549577
  C      41.153853     22.802292     39.219189
  H      40.465832     23.566460     39.589607
  C      40.708824     21.371888     39.352688
  H      40.769165     21.098747     40.421514
  O      39.369248     21.263840     38.906502
  H      38.790092     20.791274     39.588607
  C      44.115278     22.671488     36.948753
  O      45.015891     21.944411     36.466247
  O      43.827233     23.822542     36.528366
24
Coordinates from ORCA-job neb_MEP_ALL.QMRegion E -1075.701067018986
  C      44.390000     21.903000     39.353000
  H      45.099000     21.130000     39.029000
  H      44.922000     22.831000     39.580000
  C      43.710000     21.442000     40.614000
  C      43.262000     22.496000     41.665000
  O      43.943000     23.540000     41.760000
  O      42.257000     22.185000     42.351000
  O      43.475000     20.264000     40.806000
  C      41.507000     20.433000     38.455000
  H      41.100000     19.433000     38.303000
  C      42.679000     20.788000     37.919000
  H      43.265000     20.078000     37.331000
  C      43.327000     22.119000     38.198000
  C      42.309000     23.122000     38.681000
  H      42.595000     24.169000     38.617000
  C      41.135000     22.768000     39.207000
  H      40.457000     23.534000     39.595000
  C      40.660000     21.343000     39.305000
  H      40.748000     21.027000     40.361000
  O      39.307000     21.259000     38.897000
  H      38.743000     20.794000     39.597000
  C      44.100000     22.655000     36.945000
  O      45.001000     21.934000     36.451000
  O      43.814000     23.812000     36.546000
24
Coordinates from ORCA-job neb_MEP_ALL.QMRegion E -1075.680500703602
  C      44.842000     22.068000     40.142000
  H      45.265000     21.440000     39.358000
  H      45.368000     22.976000     40.435000
  C      43.689000     21.758000     40.746000
  C      43.115000     22.623000     41.859000
  O      43.577000     23.785000     42.012000
  O      42.221000     22.117000     42.579000
  O      42.985000     20.610000     40.433000
  C      42.079000     20.646000     39.270000
  H      41.683000     19.622000     39.219000
  C      42.892000     20.975000     38.054000
  H      43.551000     20.209000     37.638000
  C      42.969000     22.244000     37.605000
  C      42.118000     23.281000     38.202000
  H      42.307000     24.301000     37.867000
  C      41.188000     23.002000     39.130000
  H      40.598000     23.809000     39.575000
  C      40.887000     21.588000     39.553000
  H      40.742000     21.566000     40.644000
  O      39.715000     21.144000     38.884000
  H      39.068000     20.737000     39.535000
  C      44.024000     22.694000     36.600000
  O      44.937000     21.905000     36.259000
  O      43.944000     23.900000     36.236000
24
Coordinates from ORCA-job neb_MEP_ALL.QMRegion E -1075.680176098436
  C      44.785073     21.965561     39.991757
  H      45.172213     21.343396     39.187113
  H      45.292737     22.897152     40.228630
  C      43.670695     21.657514     40.665490
  C      43.141305     22.564231     41.766867
  O      43.681110     23.689791     41.919718
  O      42.205907     22.123849     42.480785
  O      42.947231     20.515961     40.394123
  C      41.997122     20.534761     39.217486
  H      41.633866     19.499075     39.173016
  C      42.787047     20.909709     38.010869
  H      43.391686     20.152432     37.506854
  C      42.944167     22.213613     37.708811
  C      42.146259     23.225546     38.413190
  H      42.410756     24.264386     38.225304
  C      41.168039     22.896411     39.272461
  H      40.584514     23.673872     39.770726
  C      40.817458     21.464146     39.567413
  H      40.678468     21.360012     40.653247
  O      39.634723     21.098593     38.877713
  H      38.969071     20.707429     39.524160
  C      43.996891     22.703408     36.726050
  O      44.938772     21.944272     36.387713
  O      43.893424     23.910888     36.379644
24
Coordinates from ORCA-job neb_MEP_ALL.QMRegion E -1075.666849132496
  C      44.742295     21.991211     39.900959
  H      45.178223     21.334070     39.151879
  H      45.199467     22.963549     40.072346
  C      43.691663     21.619202     40.665441
  C      43.164979     22.562795     41.754328
  O      43.711452     23.686621     41.901321
  O      42.205418     22.151955     42.455555
  O      43.003570     20.472461     40.433254
  C      41.929173     20.486413     39.109004
  H      41.594036     19.439597     39.084733
  C      42.770127     20.889027     37.993966
  H      43.367043     20.143226     37.466675
  C      43.021683     22.211534     37.819494
  C      42.200261     23.213786     38.507052
  H      42.477805     24.255399     38.355881
  C      41.161932     22.867808     39.282395
  H      40.541600     23.635206     39.753009
  C      40.793879     21.433323     39.533687
  H      40.704862     21.284230     40.616352
  O      39.564228     21.143934     38.890125
  H      38.911953     20.733063     39.546792
  C      44.044454     22.705187     36.810232
  O      44.973500     21.947218     36.439064
  O      43.896822     23.897759     36.430215
24
Coordinates from ORCA-job neb_MEP_ALL.QMRegion E -1075.657346665924
  C      44.730297     22.011461     39.864126
  H      45.189643     21.329827     39.152105
  H      45.177489     22.991054     40.021557
  C      43.706968     21.605750     40.681448
  C      43.168177     22.568791     41.756741
  O      43.717621     23.690392     41.901658
  O      42.208707     22.159226     42.459125
  O      43.096581     20.460714     40.520830
  C      41.846828     20.474312     38.995633
  H      41.568447     19.418196     39.045964
  C      42.760703     20.878128     38.001006
  H      43.366416     20.141539     37.470929
  C      43.067125     22.215221     37.882620
  C      42.217746     23.216211     38.532492
  H      42.481175     24.259705     38.366337
  C      41.162529     22.863819     39.282829
  H      40.530012     23.628704     39.741228
  C      40.782309     21.429223     39.515486
  H      40.716990     21.266795     40.600054
  O      39.534215     21.162185     38.891580
  H      38.894367     20.738861     39.552950
  C      44.062483     22.700650     36.836663
  O      44.979190     21.941961     36.441246
  O      43.888532     23.885070     36.442703
24
Coordinates from ORCA-job neb_MEP_ALL.QMRegion E -1075.655032465378
  C      44.703890     22.030367     39.814002
  H      45.199622     21.324431     39.154112
  H      45.156890     23.002896     39.983818
  C      43.723283     21.596984     40.702102
  C      43.173479     22.572554     41.764623
  O      43.720162     23.695957     41.898503
  O      42.210310     22.162722     42.459190
  O      43.184220     20.449088     40.601101
  C      41.786293     20.465138     38.911549
  H      41.541287     19.406090     39.008683
  C      42.749733     20.867147     38.007255
  H      43.367405     20.138982     37.478497
  C      43.107683     22.219390     37.939184
  C      42.226593     23.217919     38.547307
  H      42.484659     24.261917     38.375624
  C      41.160231     22.860318     39.278143
  H      40.523008     23.624218     39.731496
  C      40.773777     21.425228     39.497483
  H      40.725056     21.252728     40.582228
  O      39.509930     21.179755     38.894004
  H      38.882218     20.740786     39.557388
  C      44.074404     22.699380     36.856791
  O      44.981316     21.938971     36.443907
  O      43.885426     23.877075     36.449589
24
Coordinates from ORCA-job neb_MEP_ALL.QMRegion E -1075.657721824219
  C      44.631054     22.050619     39.715185
  H      45.202262     21.314492     39.155431
  H      45.118506     22.999572     39.935287
  C      43.715668     21.594226     40.698452
  C      43.171739     22.571791     41.764811
  O      43.726194     23.690932     41.893091
  O      42.214156     22.159135     42.462246
  O      43.237046     20.437355     40.652025
  C      41.755561     20.460821     38.860928
  H      41.517036     19.402178     38.972901
  C      42.754500     20.858562     38.024548
  H      43.369440     20.134516     37.486048
  C      43.179743     22.223378     38.026127
  C      42.238999     23.217988     38.566995
  H      42.487553     24.262248     38.384984
  C      41.158105     22.856222     39.270899
  H      40.513360     23.619681     39.714118
  C      40.770842     21.420339     39.488798
  H      40.725601     21.242946     40.574353
  O      39.498910     21.188920     38.896092
  H      38.874770     20.743746     39.557278
  C      44.089798     22.697837     36.880157
  O      44.983201     21.935591     36.443527
  O      43.877580     23.865819     36.456083
24
Coordinates from ORCA-job neb_MEP_ALL.QMRegion E -1075.669335620621
  C      44.534036     22.067902     39.593439
  H      45.195830     21.313856     39.163003
  H      45.065294     22.983918     39.875428
  C      43.703087     21.589669     40.693988
  C      43.174285     22.572975     41.767852
  O      43.732749     23.689792     41.888250
  O      42.220791     22.157033     42.464881
  O      43.298334     20.430601     40.709466
  C      41.733748     20.460404     38.809975
  H      41.494664     19.397586     38.936363
  C      42.759872     20.851245     38.049149
  H      43.372301     20.130511     37.493151
  C      43.273157     22.228197     38.133112
  C      42.259005     23.219252     38.593002
  H      42.491595     24.263993     38.395511
  C      41.159087     22.853696     39.262540
  H      40.504717     23.616936     39.694578
  C      40.769008     21.416317     39.478666
  H      40.730134     21.231416     40.563919
  O      39.487159     21.203542     38.901360
  H      38.869264     20.744197     39.557536
  C      44.106852     22.698176     36.905758
  O      44.985681     21.933537     36.445325
  O      43.869656     23.854570     36.464673
24
Coordinates from ORCA-job neb_MEP_ALL.QMRegion E -1075.688633770409
  C      44.429719     22.072111     39.473024
  H      45.165978     21.315499     39.161491
  H      44.940020     23.001690     39.761136
  C      43.691132     21.580006     40.686464
  C      43.188057     22.568936     41.774622
  O      43.757099     23.678586     41.875640
  O      42.235398     22.165021     42.481589
  O      43.394460     20.405541     40.804601
  C      41.688703     20.460503     38.732320
  H      41.410439     19.403678     38.792096
  C      42.774784     20.844732     38.059681
  H      43.397392     20.123899     37.523560
  C      43.358302     22.220996     38.227932
  C      42.300618     23.213492     38.634695
  H      42.528769     24.262313     38.451019
  C      41.174898     22.850415     39.253418
  H      40.484803     23.613116     39.631533
  C      40.762220     21.414329     39.448436
  H      40.751485     21.205022     40.532657
  O      39.459096     21.239293     38.911796
  H      38.855858     20.762205     39.569097
  C      44.127627     22.693950     36.946554
  O      45.005726     21.938252     36.468496
  O      43.852926     23.836409     36.494964
24
Coordinates from ORCA-job neb_MEP_ALL.QMRegion E -1075.698622517327
  C      44.397774     21.981761     39.412069
  H      45.131364     21.232289     39.090397
  H      44.909197     22.917379     39.650645
  C      43.701323     21.503753     40.653260
  C      43.231427     22.542346     41.709469
  O      43.883881     23.603978     41.820575
  O      42.250042     22.185418     42.404776
  O      43.463389     20.324123     40.819042
  C      41.587297     20.445300     38.557718
  H      41.224978     19.421953     38.476905
  C      42.736159     20.811741     37.985151
  H      43.348157     20.100884     37.425760
  C      43.347612     22.164454     38.224861
  C      42.316223     23.168350     38.671944
  H      42.578608     24.218256     38.547491
  C      41.155668     22.804700     39.220235
  H      40.466698     23.568446     39.588016
  C      40.711477     21.374518     39.355219
  H      40.770317     21.103230     40.424062
  O      39.373040     21.263635     38.906754
  H      38.793085     20.790413     39.587904
  C      44.115416     22.671735     36.949991
  O      45.017372     21.946312     36.468201
  O      43.829289     23.822438     36.527811
24
Coordinates from ORCA-job neb_MEP_ALL.QMRegion E -1075.701067018986
  C      44.390000     21.903000     39.353000
  H      45.099000     21.130000     39.029000
  H      44.922000     22.831000     39.580000
  C      43.710000     21.442000     40.614000
  C      43.262000     22.496000     41.665000
  O      43.943000     23.540000     41.760000
  O      42.257000     22.185000     42.351000
  O      43.475000     20.264000     40.806000
  C      41.507000     20.433000     38.455000
  H      41.100000     19.433000     38.303000
  C      42.679000     20.788000     37.919000
  H      43.265000     20.078000     37.331000
  C      43.327000     22.119000     38.198000
  C      42.309000     23.122000     38.681000
  H      42.595000     24.169000     38.617000
  C      41.135000     22.768000     39.207000
  H      40.457000     23.534000     39.595000
  C      40.660000     21.343000     39.305000
  H      40.748000     21.027000     40.361000
  O      39.307000     21.259000     38.897000
  H      38.743000     20.794000     39.597000
  C      44.100000     22.655000     36.945000
  O      45.001000     21.934000     36.451000
  O      43.814000     23.812000     36.546000
24
Coordinates from ORCA-job neb_MEP_ALL.QMRegion E -1075.680500703602
  C      44.842000     22.068000     40.142000
  H      45.265000     21.440000     39.358000
  H      45.368000     22.976000     40.435000
  C      43.689000     21.758000     40.746000
  C      43.115000     22.623000     41.859000
  O      43.577000     23.785000     42.012000
  O      42.221000     22.117000     42.579000
  O      42.985000     20.610000     40.433000
  C      42.079000     20.646000     39.270000
  H      41.683000     19.622000     39.219000
  C      42.892000     20.975000     38.054000
  H      43.551000     20.209000     37.638000
  C      42.969000     22.244000     37.605000
  C      42.118000     23.281000     38.202000
  H      42.307000     24.301000     37.867000
  C      41.188000     23.002000     39.130000
  H      40.598000     23.809000     39.575000
  C      40.887000     21.588000     39.553000
  H      40.742000     21.566000     40.644000
  O      39.715000     21.144000     38.884000
  H      39.068000     20.737000     39.535000
  C      44.024000     22.694000     36.600000
  O      44.937000     21.905000     36.259000
  O      43.944000     23.900000     36.236000
24
Coordinates from ORCA-job neb_MEP_ALL.QMRegion E -1075.680143926270
  C      44.785000     21.965967     39.990535
  H      45.172315     21.342994     39.186687
  H      45.292036     22.898742     40.226383
  C      43.670704     21.656167     40.665113
  C      43.142485     22.564112     41.767201
  O      43.681168     23.690243     41.919843
  O      42.205809     22.125033     42.480297
  O      42.946302     20.514628     40.392523
  C      41.997814     20.533370     39.218455
  H      41.633124     19.498164     39.171544
  C      42.786762     20.909105     38.010847
  H      43.391287     20.152329     37.506295
  C      42.945081     22.213694     37.709909
  C      42.147194     23.225381     38.414831
  H      42.411568     24.264600     38.226882
  C      41.167832     22.896058     39.272297
  H      40.583777     23.673719     39.770749
  C      40.817119     21.463182     39.566697
  H      40.679079     21.358871     40.652444
  O      39.633257     21.099468     38.877601
  H      38.968124     20.707648     39.524618
  C      43.998317     22.703870     36.728192
  O      44.939093     21.943922     36.387999
  O      43.892953     23.910745     36.380072
24
Coordinates from ORCA-job neb_MEP_ALL.QMRegion E -1075.666648155043
  C      44.743461     21.990134     39.903289
  H      45.177828     21.334248     39.151463
  H      45.199766     22.964010     40.072149
  C      43.691098     21.619813     40.663914
  C      43.164430     22.562704     41.753661
  O      43.711866     23.686173     41.901439
  O      42.205379     22.151943     42.455854
  O      43.000900     20.472347     40.430325
  C      41.930773     20.486462     39.111706
  H      41.594543     19.439847     39.085148
  C      42.770868     20.889362     37.994455
  H      43.367023     20.143331     37.466496
  C      43.020715     22.211229     37.818298
  C      42.200968     23.213973     38.507584
  H      42.477427     24.255770     38.355408
  C      41.162349     22.867724     39.282974
  H      40.541517     23.635112     39.752978
  C      40.793697     21.433168     39.533832
  H      40.704923     21.284467     40.616709
  O      39.563913     21.143275     38.889941
  H      38.912233     20.732999     39.546688
  C      44.044967     22.704779     36.810335
  O      44.973539     21.947195     36.438710
  O      43.896138     23.897470     36.430437
24
Coordinates from ORCA-job neb_MEP_ALL.QMRegion E -1075.657263946667
  C      44.730604     22.011094     39.864831
  H      45.189535     21.329901     39.152110
  H      45.177546     22.990695     40.021718
  C      43.707294     21.605936     40.681879
  C      43.167935     22.568450     41.756941
  O      43.717872     23.690800     41.901500
  O      42.208708     22.159256     42.458703
  O      43.096259     20.460934     40.520167
  C      41.847540     20.474180     38.996586
  H      41.568461     19.418058     39.046034
  C      42.760473     20.878228     38.000562
  H      43.366423     20.141562     37.470949
  C      43.066266     22.215215     37.881738
  C      42.217736     23.216140     38.532594
  H      42.481151     24.259653     38.366324
  C      41.162502     22.863769     39.282731
  H      40.530125     23.628638     39.741264
  C      40.782363     21.429168     39.515411
  H      40.716994     21.266704     40.599846
  O      39.534330     21.162317     38.891569
  H      38.894336     20.738587     39.553028
  C      44.062887     22.700618     36.837071
  O      44.978984     21.942032     36.441080
  O      43.888448     23.885176     36.442482
24
Coordinates from ORCA-job neb_MEP_ALL.QMRegion E -1075.655082471176
  C      44.703747     22.030510     39.813659
  H      45.199711     21.324175     39.154092
  H      45.157153     23.003167     39.983804
  C      43.723474     21.596453     40.702149
  C      43.173054     22.572482     41.764564
  O      43.720389     23.696307     41.898737
  O      42.210502     22.162958     42.459017
  O      43.183999     20.448701     40.601179
  C      41.786372     20.464975     38.911450
  H      41.541164     19.405896     39.008640
  C      42.750126     20.867284     38.007306
  H      43.367281     20.138942     37.478487
  C      43.107553     22.219601     37.938888
  C      42.226738     23.217856     38.547461
  H      42.484657     24.261771     38.375692
  C      41.160020     22.860291     39.277896
  H      40.523021     23.624152     39.731572
  C      40.773870     21.425146     39.497456
  H      40.725005     21.252540     40.582255
  O      39.509929     21.179832     38.894107
  H      38.882133     20.740726     39.557364
  C      44.075009     22.699264     36.857128
  O      44.981058     21.938893     36.443910
  O      43.885118     23.877197     36.449549
24
Coordinates from ORCA-job neb_MEP_ALL.QMRegion E -1075.657404570744
  C      44.630823     22.051326     39.714093
  H      45.202285     21.314103     39.155482
  H      45.118563     23.000148     39.934754
  C      43.714688     21.590543     40.698594
  C      43.171656     22.571933     41.764783
  O      43.726284     23.691525     41.893409
  O      42.214375     22.159536     42.462089
  O      43.238158     20.439034     40.652772
  C      41.755142     20.460494     38.860564
  H      41.516820     19.401860     38.972617
  C      42.754768     20.858985     38.024411
  H      43.369418     20.134511     37.486196
  C      43.180230     22.223288     38.026442
  C      42.239207     23.217980     38.567562
  H      42.487507     24.262261     38.385068
  C      41.158402     22.856264     39.270744
  H      40.513140     23.619702     39.714090
  C      40.770680     21.420289     39.488571
  H      40.725742     21.242737     40.574147
  O      39.498529     21.189053     38.896090
  H      38.874796     20.743555     39.557397
  C      44.090340     22.697776     36.880248
  O      44.983196     21.935427     36.443691
  O      43.877269     23.865825     36.456394
24
Coordinates from ORCA-job neb_MEP_ALL.QMRegion E -1075.667342338310
  C      44.533887     22.068858     39.591574
  H      45.195826     21.312982     39.162908
  H      45.065866     22.985650     39.875352
  C      43.702710     21.588051     40.693552
  C      43.174181     22.573332     41.767850
  O      43.732856     23.689808     41.888553
  O      42.220716     22.157434     42.465108
  O      43.297354     20.429573     40.710013
  C      41.728548     20.457440     38.814355
  H      41.494797     19.398904     38.935578
  C      42.765347     20.852401     38.044247
  H      43.371736     20.131342     37.494257
  C      43.273886     22.228245     38.133981
  C      42.258725     23.218837     38.593532
  H      42.491587     24.264200     38.395557
  C      41.160217     22.853709     39.262866
  H      40.504433     23.616857     39.694378
  C      40.769150     21.416298     39.478183
  H      40.730234     21.231427     40.564133
  O      39.486986     21.203116     38.900995
  H      38.869440     20.744240     39.557808
  C      44.106696     22.697646     36.905307
  O      44.985970     21.933320     36.445461
  O      43.869331     23.854691     36.465130
24
Coordinates from ORCA-job neb_MEP_ALL.QMRegion E -1075.687155507255
  C      44.429556     22.072021     39.474122
  H      45.166002     21.316171     39.161672
  H      44.941671     23.000646     39.761921
  C      43.690265     21.578942     40.686805
  C      43.186496     22.569704     41.773814
  O      43.757749     23.679955     41.876569
  O      42.236404     22.164294     42.480489
  O      43.393813     20.405394     40.803070
  C      41.687754     20.459667     38.734388
  H      41.411649     19.404341     38.793868
  C      42.777032     20.845112     38.058797
  H      43.396763     20.123913     37.523012
  C      43.357855     22.221124     38.228242
  C      42.300803     23.214038     38.635392
  H      42.528207     24.262396     38.449947
  C      41.173734     22.849744     39.253403
  H      40.485538     23.612819     39.632287
  C      40.762095     21.413947     39.448548
  H      40.751407     21.205246     40.533114
  O      39.459110     21.239006     38.911432
  H      38.856114     20.761932     39.569063
  C      44.127459     22.693184     36.945654
  O      45.005621     21.938276     36.468092
  O      43.853117     23.837024     36.494525
24
Coordinates from ORCA-job neb_MEP_ALL.QMRegion E -1075.698191935258
  C      44.398236     21.982539     39.410184
  H      45.131453     21.231986     39.090657
  H      44.909103     22.917784     39.650930
  C      43.701751     21.504896     40.652044
  C      43.232289     22.541070     41.710725
  O      43.883058     23.603782     41.820285
  O      42.249510     22.186497     42.405030
  O      43.462809     20.323205     40.820095
  C      41.587393     20.445231     38.557448
  H      41.224628     19.421146     38.476883
  C      42.736166     20.811975     37.985281
  H      43.348268     20.100774     37.425827
  C      43.348754     22.165090     38.224723
  C      42.316328     23.168072     38.671426
  H      42.578610     24.217986     38.547654
  C      41.155945     22.805114     39.219980
  H      40.466233     23.568715     39.588274
  C      40.711058     21.374727     39.355528
  H      40.770491     21.103010     40.424668
  O      39.372656     21.263637     38.906346
  H      38.793324     20.790424     39.587993
  C      44.116006     22.672723     36.951295
  O      45.017068     21.945918     36.468080
  O      43.828929     23.821909     36.527777
24
Coordinates from ORCA-job neb_MEP_ALL.QMRegion E -1075.701067018986
  C      44.390000     21.903000     39.353000
  H      45.099000     21.130000     39.029000
  H      44.922000     22.831000     39.580000
  C      43.710000     21.442000     40.614000
  C      43.262000     22.496000     41.665000
  O      43.943000     23.540000     41.760000
  O      42.257000     22.185000     42.351000
  O      43.475000     20.264000     40.806000
  C      41.507000     20.433000     38.455000
  H      41.100000     19.433000     38.303000
  C      42.679000     20.788000     37.919000
  H      43.265000     20.078000     37.331000
  C      43.327000     22.119000     38.198000
  C      42.309000     23.122000     38.681000
  H      42.595000     24.169000     38.617000
  C      41.135000     22.768000     39.207000
  H      40.457000     23.534000     39.595000
  C      40.660000     21.343000     39.305000
  H      40.748000     21.027000     40.361000
  O      39.307000     21.259000     38.897000
  H      38.743000     20.794000     39.597000
  C      44.100000     22.655000     36.945000
  O      45.001000     21.934000     36.451000
  O      43.814000     23.812000     36.546000
24
Coordinates from ORCA-job neb_MEP_ALL.QMRegion E -1075.680500703602
  C      44.842000     22.068000     40.142000
  H      45.265000     21.440000     39.358000
  H      45.368000     22.976000     40.435000
  C      43.689000     21.758000     40.746000
  C      43.115000     22.623000     41.859000
  O      43.577000     23.785000     42.012000
  O      42.221000     22.117000     42.579000
  O      42.985000     20.610000     40.433000
  C      42.079000     20.646000     39.270000
  H      41.683000     19.622000     39.219000
  C      42.892000     20.975000     38.054000
  H      43.551000     20.209000     37.638000
  C      42.969000     22.244000     37.605000
  C      42.118000     23.281000     38.202000
  H      42.307000     24.301000     37.867000
  C      41.188000     23.002000     39.130000
  H      40.598000     23.809000     39.575000
  C      40.887000     21.588000     39.553000
  H      40.742000     21.566000     40.644000
  O      39.715000     21.144000     38.884000
  H      39.068000     20.737000     39.535000
  C      44.024000     22.694000     36.600000
  O      44.937000     21.905000     36.259000
  O      43.944000     23.900000     36.236000
24
Coordinates from ORCA-job neb_MEP_ALL.QMRegion E -1075.680170784390
  C      44.784784     21.966200     39.989674
  H      45.172415     21.342641     39.186271
  H      45.291421     22.900085     40.224409
  C      43.670898     21.655154     40.664653
  C      43.143388     22.563974     41.767438
  O      43.681300     23.690575     41.919920
  O      42.205731     22.126032     42.479865
  O      42.945523     20.513493     40.391172
  C      41.998334     20.532204     39.219177
  H      41.632496     19.497354     39.170287
  C      42.786584     20.908765     38.010842
  H      43.390952     20.152207     37.505777
  C      42.945825     22.213578     37.710960
  C      42.148106     23.225335     38.416178
  H      42.412254     24.264747     38.228270
  C      41.167549     22.895705     39.272286
  H      40.583168     23.673524     39.770741
  C      40.816838     21.462389     39.566073
  H      40.679590     21.357877     40.651768
  O      39.631989     21.100173     38.877563
  H      38.967319     20.707846     39.524977
  C      43.999493     22.704177     36.729928
  O      44.939362     21.943700     36.388287
  O      43.892591     23.910615     36.380484
24
Coordinates from ORCA-job neb_MEP_ALL.QMRegion E -1075.667143692704
  C      44.744782     21.989331     39.904969
  H      45.177481     21.334455     39.151181
  H      45.199899     22.964420     40.071770
  C      43.690321     21.620187     40.662837
  C      43.163970     22.562684     41.753118
  O      43.712250     23.685720     41.901508
  O      42.205405     22.151960     42.456057
  O      42.998878     20.472321     40.427961
  C      41.931965     20.486457     39.113749
  H      41.594899     19.440004     39.085356
  C      42.771453     20.889532     37.994914
  H      43.367007     20.143438     37.466368
  C      43.020123     22.211069     37.817494
  C      42.201580     23.214077     38.508199
  H      42.477111     24.256131     38.355029
  C      41.162792     22.867653     39.283441
  H      40.541396     23.634993     39.752902
  C      40.793447     21.432990     39.533887
  H      40.705003     21.284607     40.616936
  O      39.563885     21.142916     38.889616
  H      38.912215     20.732871     39.546774
  C      44.045218     22.704532     36.810544
  O      44.973764     21.947068     36.438357
  O      43.895570     23.897123     36.430704
24
Coordinates from ORCA-job neb_MEP_ALL.QMRegion E -1075.657326007708
  C      44.730942     22.010752     39.865515
  H      45.189417     21.329957     39.152120
  H      45.177637     22.990385     40.021899
  C      43.707557     21.606064     40.682222
  C      43.168048     22.568505     41.757014
  O      43.717947     23.690898     41.901354
  O      42.208536     22.159230     42.458435
  O      43.095857     20.461088     40.519500
  C      41.848254     20.474074     38.997507
  H      41.568500     19.417945     39.046127
  C      42.760268     20.878323     38.000180
  H      43.366430     20.141583     37.470949
  C      43.065491     22.215183     37.880904
  C      42.217730     23.216100     38.532634
  H      42.481129     24.259592     38.366317
  C      41.162461     22.863706     39.282667
  H      40.530230     23.628577     39.741308
  C      40.782442     21.429118     39.515358
  H      40.716989     21.266620     40.599679
  O      39.534328     21.162356     38.891643
  H      38.894388     20.738372     39.553029
  C      44.063073     22.700775     36.837333
  O      44.978890     21.942025     36.440933
  O      43.888413     23.885168     36.442349
24
Coordinates from ORCA-job neb_MEP_ALL.QMRegion E -1075.655176672726
  C      44.703675     22.030603     39.813437
  H      45.199781     21.323964     39.154083
  H      45.157396     23.003355     39.983821
  C      43.723623     21.596037     40.702172
  C      43.172990     22.572674     41.764410
  O      43.720483     23.696405     41.898918
  O      42.210491     22.163103     42.458957
  O      43.183766     20.448361     40.601190
  C      41.786521     20.464855     38.911390
  H      41.541078     19.405729     39.008619
  C      42.750408     20.867397     38.007378
  H      43.367191     20.138895     37.478455
  C      43.107438     22.219746     37.938599
  C      42.226814     23.217805     38.547581
  H      42.484661     24.261649     38.375754
  C      41.159868     22.860250     39.277674
  H      40.523037     23.624094     39.731656
  C      40.773945     21.425065     39.497442
  H      40.724960     21.252373     40.582277
  O      39.509933     21.179880     38.894197
  H      38.882069     20.740669     39.557339
  C      44.075316     22.699423     36.857393
  O      44.980969     21.938723     36.443865
  O      43.884906     23.877174     36.449560
24
Coordinates from ORCA-job neb_MEP_ALL.QMRegion E -1075.657609890916
  C      44.630384     22.051659     39.713173
  H      45.202335     21.313805     39.155535
  H      45.118621     23.000662     39.934328
  C      43.714848     21.589598     40.698637
  C      43.171766     22.572152     41.764730
  O      43.726293     23.691821     41.893607
  O      42.214426     22.159862     42.462030
  O      43.238386     20.438564     40.653467
  C      41.754906     20.460352     38.859953
  H      41.516636     19.401535     38.972372
  C      42.754707     20.859038     38.024463
  H      43.369408     20.134517     37.486320
  C      43.180811     22.223420     38.026818
  C      42.239533     23.218003     38.567948
  H      42.487464     24.262258     38.385152
  C      41.158477     22.856276     39.270722
  H      40.512989     23.619675     39.714047
  C      40.770553     21.420221     39.488347
  H      40.725854     21.242549     40.573958
  O      39.498241     21.189197     38.896076
  H      38.874787     20.743362     39.557522
  C      44.090642     22.697811     36.880386
  O      44.983293     21.935232     36.443773
  O      43.877044     23.865803     36.456664
24
Coordinates from ORCA-job neb_MEP_ALL.QMRegion E -1075.667715710498
  C      44.533958     22.069523     39.590535
  H      45.195792     21.312312     39.162797
  H      45.066374     22.987037     39.875349
  C      43.702560     21.587043     40.693099
  C      43.174083     22.573431     41.767759
  O      43.732973     23.689876     41.888821
  O      42.220620     22.157799     42.465283
  O      43.296313     20.428582     40.710258
  C      41.728920     20.457482     38.814801
  H      41.494544     19.398849     38.935198
  C      42.764977     20.852557     38.043736
  H      43.372046     20.131313     37.494509
  C      43.274651     22.228279     38.134158
  C      42.258873     23.218704     38.593737
  H      42.491538     24.264203     38.395609
  C      41.160765     22.853591     39.263367
  H      40.504276     23.616674     39.694199
  C      40.768897     21.416222     39.478255
  H      40.730243     21.231550     40.564264
  O      39.486826     21.202803     38.900606
  H      38.869559     20.744255     39.558083
  C      44.106588     22.697473     36.904973
  O      44.986188     21.933130     36.445525
  O      43.869069     23.854675     36.465501
24
Coordinates from ORCA-job neb_MEP_ALL.QMRegion E -1075.687192671727
  C      44.429411     22.071954     39.474979
  H      45.165998     21.316744     39.161844
  H      44.943133     22.999726     39.762628
  C      43.689677     21.578704     40.686865
  C      43.185916     22.570922     41.772861
  O      43.757983     23.680610     41.877334
  O      42.236789     22.163546     42.479870
  O      43.393033     20.404639     40.801870
  C      41.688396     20.459659     38.735362
  H      41.412613     19.404560     38.795505
  C      42.777430     20.845150     38.058984
  H      43.396419     20.123749     37.522363
  C      43.357755     22.221306     38.228481
  C      42.300550     23.214218     38.636203
  H      42.527716     24.262549     38.448982
  C      41.173267     22.849285     39.253166
  H      40.486079     23.612593     39.633014
  C      40.761869     21.413596     39.448765
  H      40.751301     21.205456     40.533516
  O      39.459054     21.238691     38.911143
  H      38.856340     20.761690     39.569008
  C      44.127146     22.693048     36.944932
  O      45.005627     21.938143     36.467632
  O      43.853339     23.837209     36.494249
24
Coordinates from ORCA-job neb_MEP_ALL.QMRegion E -1075.698270765590
  C      44.398582     21.983159     39.408733
  H      45.131576     21.231705     39.090857
  H      44.909060     22.918214     39.651172
  C      43.701837     21.504612     40.651326
  C      43.233003     22.540130     41.711694
  O      43.882408     23.603623     41.820063
  O      42.249047     22.187336     42.405256
  O      43.462598     20.323645     40.820746
  C      41.587301     20.445104     38.557301
  H      41.224367     19.420540     38.476867
  C      42.736359     20.812188     37.985284
  H      43.348342     20.100717     37.425925
  C      43.349623     22.165588     38.224622
  C      42.316520     23.167926     38.670956
  H      42.578616     24.217750     38.547800
  C      41.156002     22.805419     39.219832
  H      40.465886     23.568925     39.588467
  C      40.710756     21.374883     39.355744
  H      40.770631     21.102832     40.425168
  O      39.372386     21.263651     38.906030
  H      38.793516     20.790434     39.588060
  C      44.116732     22.673194     36.952241
  O      45.016664     21.945727     36.468110
  O      43.828569     23.821694     36.527705
24
Coordinates from ORCA-job neb_MEP_ALL.QMRegion E -1075.701067018986
  C      44.390000     21.903000     39.353000
  H      45.099000     21.130000     39.029000
  H      44.922000     22.831000     39.580000
  C      43.710000     21.442000     40.614000
  C      43.262000     22.496000     41.665000
  O      43.943000     23.540000     41.760000
  O      42.257000     22.185000     42.351000
  O      43.475000     20.264000     40.806000
  C      41.507000     20.433000     38.455000
  H      41.100000     19.433000     38.303000
  C      42.679000     20.788000     37.919000
  H      43.265000     20.078000     37.331000
  C      43.327000     22.119000     38.198000
  C      42.309000     23.122000     38.681000
  H      42.595000     24.169000     38.617000
  C      41.135000     22.768000     39.207000
  H      40.457000     23.534000     39.595000
  C      40.660000     21.343000     39.305000
  H      40.748000     21.027000     40.361000
  O      39.307000     21.259000     38.897000
  H      38.743000     20.794000     39.597000
  C      44.100000     22.655000     36.945000
  O      45.001000     21.934000     36.451000
  O      43.814000     23.812000     36.546000
24
Coordinates from ORCA-job neb_MEP_ALL.QMRegion E -1075.680500703602
  C      44.842000     22.068000     40.142000
  H      45.265000     21.440000     39.358000
  H      45.368000     22.976000     40.435000
  C      43.689000     21.758000     40.746000
  C      43.115000     22.623000     41.859000
  O      43.577000     23.785000     42.012000
  O      42.221000     22.117000     42.579000
  O      42.985000     20.610000     40.433000
  C      42.079000     20.646000     39.270000
  H      41.683000     19.622000     39.219000
  C      42.892000     20.975000     38.054000
  H      43.551000     20.209000     37.638000
  C      42.969000     22.244000     37.605000
  C      42.118000     23.281000     38.202000
  H      42.307000     24.301000     37.867000
  C      41.188000     23.002000     39.130000
  H      40.598000     23.809000     39.575000
  C      40.887000     21.588000     39.553000
  H      40.742000     21.566000     40.644000
  O      39.715000     21.144000     38.884000
  H      39.068000     20.737000     39.535000
  C      44.024000     22.694000     36.600000
  O      44.937000     21.905000     36.259000
  O      43.944000     23.900000     36.236000
24
Coordinates from ORCA-job neb_MEP_ALL.QMRegion E -1075.680170675019
  C      44.784063     21.966691     39.985585
  H      45.172897     21.340813     39.183810
  H      45.287668     22.906917     40.212974
  C      43.671784     21.650348     40.661790
  C      43.147655     22.563239     41.767952
  O      43.682834     23.691484     41.919975
  O      42.205224     22.131206     42.477360
  O      42.941727     20.507621     40.383971
  C      42.000448     20.526160     39.221899
  H      41.629136     19.492627     39.163354
  C      42.786284     20.907070     38.011237
  H      43.389004     20.151452     37.502612
  C      42.949866     22.212685     37.717386
  C      42.153185     23.225154     38.423990
  H      42.416071     24.265522     38.236210
  C      41.166099     22.893522     39.272560
  H      40.579867     23.671891     39.770552
  C      40.815181     21.458187     39.562691
  H      40.682263     21.352190     40.648125
  O      39.625391     21.103773     38.877590
  H      38.962601     20.708898     39.526881
  C      44.004977     22.705192     36.738593
  O      44.941156     21.943051     36.390207
  O      43.891049     23.909621     36.383342
24
Coordinates from ORCA-job neb_MEP_ALL.QMRegion E -1075.667446154473
  C      44.752340     21.985125     39.913434
  H      45.175812     21.335740     39.149864
  H      45.199897     22.966888     40.068091
  C      43.685864     21.622013     40.657421
  C      43.161626     22.562820     41.750238
  O      43.714776     23.682756     41.901468
  O      42.205627     22.152144     42.456792
  O      42.989029     20.472756     40.415390
  C      41.937697     20.486038     39.123463
  H      41.596331     19.440450     39.085393
  C      42.774253     20.890103     37.997558
  H      43.367004     20.144104     37.465837
  C      43.018522     22.210363     37.815114
  C      42.205420     23.214517     38.512440
  H      42.475323     24.258176     38.353241
  C      41.165379     22.867057     39.286180
  H      40.540432     23.633913     39.752050
  C      40.792308     21.431913     39.533926
  H      40.705504     21.284851     40.617494
  O      39.562927     21.141165     38.888572
  H      38.911676     20.732320     39.547055
  C      44.046183     22.702672     36.812060
  O      44.975483     21.946454     36.436484
  O      43.892596     23.894992     36.432665
24
Coordinates from ORCA-job neb_MEP_ALL.QMRegion E -1075.657376199524
  C      44.733531     22.008401     39.870128
  H      45.188509     21.330201     39.152219
  H      45.178631     22.988692     40.023304
  C      43.709067     21.606572     40.683739
  C      43.168907     22.568907     41.757345
  O      43.718198     23.691307     41.900709
  O      42.207499     22.159500     42.456708
  O      43.092378     20.461642     40.514854
  C      41.853147     20.473507     39.003749
  H      41.569010     19.417425     39.046942
  C      42.759216     20.878905     37.997962
  H      43.366459     20.141736     37.470770
  C      43.060738     22.214879     37.875518
  C      42.217485     23.215840     38.532504
  H      42.481023     24.259184     38.366362
  C      41.162280     22.863235     39.282349
  H      40.530873     23.628163     39.741711
  C      40.782854     21.428641     39.515144
  H      40.716914     21.266065     40.598843
  O      39.534578     21.162453     38.891981
  H      38.894751     20.736976     39.553043
  C      44.063413     22.701534     36.837858
  O      44.978449     21.942037     36.440395
  O      43.888470     23.885315     36.441831
24
Coordinates from ORCA-job neb_MEP_ALL.QMRegion E -1075.655186982763
  C      44.703471     22.030782     39.812453
  H      45.200142     21.322845     39.154134
  H      45.158758     23.003941     39.983936
  C      43.724373     21.594065     40.702113
  C      43.173049     22.573569     41.763556
  O      43.721017     23.696728     41.899807
  O      42.210232     22.164148     42.458366
  O      43.182578     20.446610     40.601109
  C      41.787558     20.464191     38.911176
  H      41.540690     19.404826     39.008394
  C      42.751783     20.867837     38.007772
  H      43.366790     20.138581     37.478128
  C      43.106956     22.220356     37.937266
  C      42.227014     23.217494     38.548094
  H      42.484743     24.261022     38.376221
  C      41.159073     22.859836     39.276494
  H      40.523154     23.623634     39.732193
  C      40.774311     21.424441     39.497347
  H      40.724761     21.251293     40.582290
  O      39.509912     21.180064     38.894689
  H      38.881700     20.740291     39.557207
  C      44.076515     22.700249     36.858526
  O      44.980564     21.937905     36.443686
  O      43.883999     23.877124     36.449672
24
Coordinates from ORCA-job neb_MEP_ALL.QMRegion E -1075.657672828982
  C      44.627626     22.052798     39.707935
  H      45.202648     21.312336     39.155949
  H      45.118633     23.002930     39.931720
  C      43.717339     21.588365     40.698983
  C      43.172778     22.573201     41.764591
  O      43.726344     23.693056     41.894353
  O      42.214533     22.161906     42.461413
  O      43.239103     20.433072     40.657607
  C      41.752912     20.459330     38.856240
  H      41.515716     19.399819     38.970755
  C      42.754451     20.858870     38.024451
  H      43.369291     20.134638     37.487069
  C      43.184353     22.224253     38.029777
  C      42.241531     23.218142     38.570052
  H      42.487264     24.262352     38.385750
  C      41.158617     22.856183     39.270758
  H      40.512268     23.619306     39.713753
  C      40.769990     21.419660     39.486814
  H      40.726525     21.241282     40.572605
  O      39.496471     21.190017     38.896264
  H      38.874741     20.742141     39.558164
  C      44.092055     22.697891     36.881353
  O      44.983903     21.934375     36.444117
  O      43.876043     23.865644     36.458123
24
Coordinates from ORCA-job neb_MEP_ALL.QMRegion E -1075.667792573968
  C      44.534759     22.072020     39.586224
  H      45.195282     21.309332     39.162237
  H      45.068582     22.993456     39.875022
  C      43.701322     21.581374     40.690604
  C      43.173869     22.573469     41.767205
  O      43.733629     23.689632     41.889987
  O      42.220192     22.160079     42.465685
  O      43.291230     20.425381     40.710589
  C      41.733793     20.459227     38.814322
  H      41.492944     19.397839     38.933157
  C      42.759961     20.852854     38.043781
  H      43.374191     20.130746     37.495587
  C      43.278165     22.228232     38.134764
  C      42.261475     23.218565     38.594461
  H      42.491035     24.263756     38.396029
  C      41.162286     22.852503     39.266810
  H      40.503665     23.615290     39.693114
  C      40.767882     21.415666     39.478968
  H      40.729883     21.232259     40.564965
  O      39.486380     21.200767     38.899002
  H      38.870228     20.744332     39.559436
  C      44.106735     22.696413     36.903685
  O      44.987023     21.932509     36.445508
  O      43.867551     23.854569     36.467155
24
Coordinates from ORCA-job neb_MEP_ALL.QMRegion E -1075.687158518586
  C      44.429374     22.071813     39.479035
  H      45.165886     21.319754     39.163000
  H      44.952639     22.994245     39.767537
  C      43.686066     21.576205     40.685760
  C      43.183000     22.575992     41.768107
  O      43.758461     23.684092     41.881618
  O      42.238519     22.160558     42.476201
  O      43.387796     20.402486     40.794788
  C      41.694179     20.460448     38.740629
  H      41.418914     19.404883     38.806458
  C      42.777752     20.845036     38.061318
  H      43.394350     20.122885     37.518273
  C      43.357787     22.222655     38.229583
  C      42.299634     23.214893     38.640001
  H      42.524122     24.263144     38.443023
  C      41.170828     22.846913     39.252574
  H      40.488941     23.611121     39.637895
  C      40.760769     21.411777     39.450410
  H      40.750259     21.206886     40.536036
  O      39.459250     21.236081     38.909414
  H      38.857507     20.759941     39.568576
  C      44.125930     22.692760     36.941402
  O      45.004813     21.937430     36.464560
  O      43.854505     23.837756     36.492431
24
Coordinates from ORCA-job neb_MEP_ALL.QMRegion E -1075.698312596737
  C      44.399887     21.985732     39.402738
  H      45.132774     21.230110     39.091686
  H      44.909005     22.921180     39.652632
  C      43.702629     21.504932     40.648375
  C      43.236311     22.535843     41.716083
  O      43.879469     23.602913     41.819022
  O      42.246549     22.191208     42.406572
  O      43.461438     20.324725     40.823947
  C      41.586888     20.444492     38.556445
  H      41.223169     19.417758     38.476788
  C      42.737351     20.813202     37.985302
  H      43.348829     20.100512     37.426681
  C      43.353846     22.167850     38.224191
  C      42.317260     23.167423     38.668688
  H      42.578815     24.216710     38.548620
  C      41.155961     22.806854     39.219021
  H      40.464313     23.570042     39.589349
  C      40.709556     21.375456     39.356650
  H      40.771269     21.101986     40.427668
  O      39.371300     21.263760     38.904721
  H      38.794490     20.790537     39.588262
  C      44.120335     22.675409     36.956134
  O      45.014865     21.944661     36.468640
  O      43.826730     23.821149     36.527447
24
Coordinates from ORCA-job neb_MEP_ALL.QMRegion E -1075.701067018986
  C      44.390000     21.903000     39.353000
  H      45.099000     21.130000     39.029000
  H      44.922000     22.831000     39.580000
  C      43.710000     21.442000     40.614000
  C      43.262000     22.496000     41.665000
  O      43.943000     23.540000     41.760000
  O      42.257000     22.185000     42.351000
  O      43.475000     20.264000     40.806000
  C      41.507000     20.433000     38.455000
  H      41.100000     19.433000     38.303000
  C      42.679000     20.788000     37.919000
  H      43.265000     20.078000     37.331000
  C      43.327000     22.119000     38.198000
  C      42.309000     23.122000     38.681000
  H      42.595000     24.169000     38.617000
  C      41.135000     22.768000     39.207000
  H      40.457000     23.534000     39.595000
  C      40.660000     21.343000     39.305000
  H      40.748000     21.027000     40.361000
  O      39.307000     21.259000     38.897000
  H      38.743000     20.794000     39.597000
  C      44.100000     22.655000     36.945000
  O      45.001000     21.934000     36.451000
  O      43.814000     23.812000     36.546000
24
Coordinates from ORCA-job neb_MEP_ALL.QMRegion E -1075.680500703602
  C      44.842000     22.068000     40.142000
  H      45.265000     21.440000     39.358000
  H      45.368000     22.976000     40.435000
  C      43.689000     21.758000     40.746000
  C      43.115000     22.623000     41.859000
  O      43.577000     23.785000     42.012000
  O      42.221000     22.117000     42.579000
  O      42.985000     20.610000     40.433000
  C      42.079000     20.646000     39.270000
  H      41.683000     19.622000     39.219000
  C      42.892000     20.975000     38.054000
  H      43.551000     20.209000     37.638000
  C      42.969000     22.244000     37.605000
  C      42.118000     23.281000     38.202000
  H      42.307000     24.301000     37.867000
  C      41.188000     23.002000     39.130000
  H      40.598000     23.809000     39.575000
  C      40.887000     21.588000     39.553000
  H      40.742000     21.566000     40.644000
  O      39.715000     21.144000     38.884000
  H      39.068000     20.737000     39.535000
  C      44.024000     22.694000     36.600000
  O      44.937000     21.905000     36.259000
  O      43.944000     23.900000     36.236000
24
Coordinates from ORCA-job neb_MEP_ALL.QMRegion E -1075.679918303965
  C      44.784610     21.965996     39.985567
  H      45.172916     21.340576     39.183394
  H      45.287066     22.907179     40.211123
  C      43.671473     21.650150     40.661110
  C      43.147665     22.563134     41.767349
  O      43.683814     23.690818     41.919667
  O      42.205022     22.131655     42.476792
  O      42.941584     20.507239     40.383119
  C      42.000207     20.525479     39.221409
  H      41.628842     19.491905     39.162463
  C      42.786814     20.906673     38.011717
  H      43.388651     20.151296     37.501935
  C      42.950376     22.212679     37.718512
  C      42.153759     23.225055     38.425373
  H      42.416541     24.265623     38.237424
  C      41.166073     22.893074     39.272768
  H      40.579454     23.671240     39.770517
  C      40.814969     21.457698     39.562372
  H      40.682465     21.351255     40.647705
  O      39.624659     21.103834     38.877866
  H      38.961849     20.708990     39.526952
  C      44.004794     22.704810     36.739021
  O      44.941614     21.943357     36.390666
  O      43.891152     23.909304     36.384183
24
Coordinates from ORCA-job neb_MEP_ALL.QMRegion E -1075.668489990439
  C      44.752946     21.984306     39.914854
  H      45.175793     21.335917     39.149775
  H      45.199581     22.967127     40.066717
  C      43.685798     21.622534     40.656495
  C      43.161432     22.562584     41.749751
  O      43.715624     23.682254     41.901110
  O      42.205500     22.152229     42.456521
  O      42.987662     20.473266     40.413186
  C      41.938619     20.485759     39.124645
  H      41.596359     19.440338     39.084824
  C      42.774443     20.890239     37.997750
  H      43.367089     20.144260     37.465846
  C      43.019080     22.210020     37.815969
  C      42.206275     23.214546     38.513448
  H      42.474986     24.258310     38.353245
  C      41.165806     22.866699     39.286684
  H      40.540122     23.633404     39.751661
  C      40.792334     21.431579     39.533833
  H      40.705466     21.284495     40.617181
  O      39.563209     21.141321     38.888583
  H      38.910965     20.732067     39.547273
  C      44.046199     22.702077     36.812126
  O      44.975754     21.946647     36.436395
  O      43.892407     23.894538     36.433277
24
Coordinates from ORCA-job neb_MEP_ALL.QMRegion E -1075.657681895720
  C      44.734609     22.007663     39.871554
  H      45.188183     21.330103     39.152248
  H      45.179252     22.988389     40.023857
  C      43.709324     21.606413     40.683692
  C      43.169118     22.568781     41.757278
  O      43.718282     23.691496     41.900778
  O      42.207251     22.159987     42.456145
  O      43.090762     20.461470     40.513288
  C      41.854728     20.473379     39.005756
  H      41.569345     19.417441     39.047263
  C      42.759215     20.879048     37.997531
  H      43.366452     20.141788     37.470550
  C      43.059570     22.214676     37.874009
  C      42.217236     23.215692     38.532164
  H      42.481045     24.259077     38.366496
  C      41.162296     22.863030     39.282320
  H      40.531028     23.627968     39.741924
  C      40.782962     21.428384     39.515182
  H      40.716873     21.265820     40.598769
  O      39.534609     21.162254     38.892104
  H      38.894970     20.736622     39.552957
  C      44.062890     22.701369     36.837174
  O      44.978401     21.942135     36.440586
  O      43.888693     23.885666     36.441904
24
Coordinates from ORCA-job neb_MEP_ALL.QMRegion E -1075.655193033116
  C      44.703619     22.030530     39.812479
  H      45.200216     21.322638     39.154202
  H      45.159002     23.003555     39.983939
  C      43.724389     21.593931     40.701970
  C      43.173180     22.573390     41.763496
  O      43.721286     23.696706     41.899820
  O      42.210110     22.164590     42.457868
  O      43.182566     20.446536     40.600990
  C      41.787765     20.463984     38.911307
  H      41.540721     19.404708     39.008196
  C      42.751980     20.867734     38.007716
  H      43.366804     20.138495     37.477944
  C      43.106990     22.220279     37.937359
  C      42.226911     23.217390     38.548008
  H      42.484808     24.260951     38.376451
  C      41.158925     22.859581     39.276406
  H      40.523211     23.623366     39.732341
  C      40.774338     21.424157     39.497274
  H      40.724790     21.250921     40.582182
  O      39.509857     21.179984     38.894750
  H      38.881619     20.740157     39.557199
  C      44.076427     22.700119     36.858398
  O      44.980445     21.938003     36.443770
  O      43.884061     23.877273     36.449716
24
Coordinates from ORCA-job neb_MEP_ALL.QMRegion E -1075.657952059872
  C      44.627418     22.052932     39.707168
  H      45.202723     21.312113     39.156060
  H      45.118318     23.002535     39.930945
  C      43.716593     21.585837     40.699305
  C      43.173143     22.573164     41.764652
  O      43.726588     23.693309     41.894255
  O      42.214477     22.162444     42.460856
  O      43.240861     20.434933     40.658364
  C      41.752388     20.459013     38.855523
  H      41.515599     19.399495     38.970231
  C      42.754430     20.859030     38.024355
  H      43.369356     20.134559     37.487095
  C      43.184899     22.223928     38.030723
  C      42.241601     23.218121     38.570639
  H      42.487290     24.262485     38.385992
  C      41.158854     22.855997     39.270581
  H      40.512181     23.619077     39.713720
  C      40.769835     21.419398     39.486404
  H      40.726739     21.240794     40.572033
  O      39.496138     21.190241     38.896390
  H      38.874645     20.741739     39.558310
  C      44.092257     22.697843     36.881636
  O      44.983924     21.934514     36.444147
  O      43.876072     23.865513     36.458356
24
Coordinates from ORCA-job neb_MEP_ALL.QMRegion E -1075.667919467086
  C      44.534744     22.071584     39.586224
  H      45.195135     21.309277     39.162135
  H      45.068221     22.993203     39.874507
  C      43.701552     21.582609     40.690314
  C      43.174245     22.573178     41.767032
  O      43.733959     23.689105     41.889787
  O      42.219970     22.160492     42.465310
  O      43.290497     20.424619     40.710093
  C      41.730594     20.457459     38.815751
  H      41.492982     19.398576     38.932417
  C      42.763178     20.853299     38.041544
  H      43.373838     20.131318     37.496417
  C      43.278303     22.228106     38.135274
  C      42.261070     23.217868     38.595797
  H      42.490969     24.263912     38.396150
  C      41.163688     22.852496     39.266415
  H      40.503443     23.615055     39.693038
  C      40.768425     21.415344     39.478787
  H      40.729555     21.232137     40.565083
  O      39.486929     21.200185     38.899193
  H      38.870274     20.744236     39.559586
  C      44.106853     22.696555     36.904008
  O      44.987277     21.932472     36.445009
  O      43.867375     23.854237     36.467249
24
Coordinates from ORCA-job neb_MEP_ALL.QMRegion E -1075.686661862773
  C      44.430077     22.072066     39.479052
  H      45.165969     21.319851     39.163272
  H      44.955703     22.992842     39.769466
  C      43.685698     21.577250     40.684305
  C      43.183272     22.575978     41.767621
  O      43.757579     23.683915     41.882165
  O      42.237980     22.160861     42.475529
  O      43.385326     20.401836     40.793210
  C      41.694022     20.459620     38.743374
  H      41.421393     19.404829     38.810306
  C      42.779482     20.845470     38.060826
  H      43.393320     20.123266     37.517504
  C      43.358142     22.223023     38.229599
  C      42.299587     23.214765     38.640063
  H      42.522573     24.262960     38.441360
  C      41.170904     22.846717     39.253115
  H      40.489279     23.610688     39.639640
  C      40.761095     21.411624     39.451049
  H      40.749562     21.207375     40.536819
  O      39.459931     21.234575     38.909071
  H      38.857689     20.759210     39.568297
  C      44.126081     22.692762     36.941295
  O      45.003985     21.937183     36.463440
  O      43.854560     23.837845     36.491697
24
Coordinates from ORCA-job neb_MEP_ALL.QMRegion E -1075.698303057103
  C      44.400257     21.985812     39.403560
  H      45.133240     21.230015     39.091730
  H      44.908943     22.921832     39.652888
  C      43.702455     21.504071     40.649249
  C      43.235863     22.536092     41.716231
  O      43.879618     23.602966     41.819071
  O      42.246585     22.191241     42.406557
  O      43.461749     20.325997     40.823784
  C      41.586977     20.444511     38.556245
  H      41.223194     19.417831     38.476750
  C      42.737397     20.813236     37.985338
  H      43.349038     20.100534     37.426994
  C      43.353780     22.167803     38.224232
  C      42.317032     23.167488     38.668678
  H      42.579027     24.216838     38.548789
  C      41.155822     22.806849     39.218798
  H      40.464346     23.570199     39.589326
  C      40.709744     21.375315     39.356646
  H      40.771274     21.101984     40.427723
  O      39.371508     21.263825     38.904854
  H      38.794549     20.790573     39.588176
  C      44.120238     22.675716     36.955749
  O      45.015164     21.944439     36.468902
  O      43.826722     23.821392     36.527540
24
Coordinates from ORCA-job neb_MEP_ALL.QMRegion E -1075.701067018986
  C      44.390000     21.903000     39.353000
  H      45.099000     21.130000     39.029000
  H      44.922000     22.831000     39.580000
  C      43.710000     21.442000     40.614000
  C      43.262000     22.496000     41.665000
  O      43.943000     23.540000     41.760000
  O      42.257000     22.185000     42.351000
  O      43.475000     20.264000     40.806000
  C      41.507000     20.433000     38.455000
  H      41.100000     19.433000     38.303000
  C      42.679000     20.788000     37.919000
  H      43.265000     20.078000     37.331000
  C      43.327000     22.119000     38.198000
  C      42.309000     23.122000     38.681000
  H      42.595000     24.169000     38.617000
  C      41.135000     22.768000     39.207000
  H      40.457000     23.534000     39.595000
  C      40.660000     21.343000     39.305000
  H      40.748000     21.027000     40.361000
  O      39.307000     21.259000     38.897000
  H      38.743000     20.794000     39.597000
  C      44.100000     22.655000     36.945000
  O      45.001000     21.934000     36.451000
  O      43.814000     23.812000     36.546000
24
Coordinates from ORCA-job neb_MEP_ALL.QMRegion E -1075.680500703602
  C      44.842000     22.068000     40.142000
  H      45.265000     21.440000     39.358000
  H      45.368000     22.976000     40.435000
  C      43.689000     21.758000     40.746000
  C      43.115000     22.623000     41.859000
  O      43.577000     23.785000     42.012000
  O      42.221000     22.117000     42.579000
  O      42.985000     20.610000     40.433000
  C      42.079000     20.646000     39.270000
  H      41.683000     19.622000     39.219000
  C      42.892000     20.975000     38.054000
  H      43.551000     20.209000     37.638000
  C      42.969000     22.244000     37.605000
  C      42.118000     23.281000     38.202000
  H      42.307000     24.301000     37.867000
  C      41.188000     23.002000     39.130000
  H      40.598000     23.809000     39.575000
  C      40.887000     21.588000     39.553000
  H      40.742000     21.566000     40.644000
  O      39.715000     21.144000     38.884000
  H      39.068000     20.737000     39.535000
  C      44.024000     22.694000     36.600000
  O      44.937000     21.905000     36.259000
  O      43.944000     23.900000     36.236000
24
Coordinates from ORCA-job neb_MEP_ALL.QMRegion E -1075.679890041750
  C      44.784741     21.965796     39.986259
  H      45.172857     21.340795     39.183729
  H      45.287647     22.906097     40.212749
  C      43.671329     21.650868     40.661430
  C      43.147000     22.563221     41.767176
  O      43.683719     23.690595     41.919619
  O      42.205049     22.130896     42.477095
  O      42.942129     20.508126     40.384141
  C      41.999884     20.526337     39.220984
  H      41.629354     19.492583     39.163467
  C      42.786911     20.906955     38.011679
  H      43.388928     20.151385     37.502348
  C      42.949778     22.212748     37.717590
  C      42.153057     23.225092     38.424244
  H      42.415970     24.265492     38.236306
  C      41.166266     22.893348     39.272785
  H      40.579923     23.671419     39.770564
  C      40.815204     21.458275     39.562868
  H      40.682059     21.352042     40.648246
  O      39.625669     21.103269     38.877844
  H      38.962482     20.708807     39.526685
  C      44.003942     22.704623     36.737727
  O      44.941353     21.943467     36.390401
  O      43.891373     23.909460     36.383810
24
Coordinates from ORCA-job neb_MEP_ALL.QMRegion E -1075.668646083263
  C      44.752006     21.984911     39.913562
  H      45.176034     21.335725     39.150005
  H      45.199567     22.966712     40.067191
  C      43.686330     21.622231     40.657328
  C      43.161846     22.562582     41.750129
  O      43.715303     23.682630     41.901080
  O      42.205431     22.152227     42.456332
  O      42.988972     20.473224     40.414868
  C      41.937900     20.485811     39.123346
  H      41.596169     19.440269     39.084778
  C      42.774044     20.890125     37.997335
  H      43.367097     20.144178     37.465916
  C      43.019344     22.210137     37.816326
  C      42.205729     23.214429     38.512893
  H      42.475241     24.257992     38.353548
  C      41.165477     22.866751     39.286281
  H      40.540232     23.633506     39.751761
  C      40.792569     21.431696     39.533849
  H      40.705369     21.284393     40.617093
  O      39.563200     21.141506     38.888872
  H      38.911111     20.732175     39.547148
  C      44.046027     22.702374     36.811923
  O      44.975539     21.946714     36.436669
  O      43.892856     23.894842     36.433028
24
Coordinates from ORCA-job neb_MEP_ALL.QMRegion E -1075.657796084938
  C      44.734311     22.007944     39.870979
  H      45.188307     21.330028     39.152231
  H      45.179175     22.988600     40.023684
  C      43.709126     21.606309     40.683460
  C      43.169060     22.568765     41.757198
  O      43.718264     23.691404     41.900872
  O      42.207343     22.159999     42.456343
  O      43.091159     20.461362     40.513850
  C      41.854128     20.473443     39.004989
  H      41.569296     19.417515     39.047139
  C      42.759400     20.878960     37.997847
  H      43.366451     20.141764     37.470540
  C      43.060184     22.214692     37.874691
  C      42.217253     23.215709     38.532144
  H      42.481070     24.259123     38.366527
  C      41.162316     22.863063     39.282366
  H      40.530946     23.627985     39.741885
  C      40.782899     21.428420     39.515210
  H      40.716887     21.265850     40.598882
  O      39.534615     21.162238     38.892028
  H      38.894900     20.736782     39.552976
  C      44.062767     22.701286     36.837040
  O      44.978474     21.942129     36.440682
  O      43.888712     23.885652     36.442004
24
Coordinates from ORCA-job neb_MEP_ALL.QMRegion E -1075.655214168781
  C      44.703673     22.030461     39.812641
  H      45.200179     21.322762     39.154194
  H      45.158838     23.003407     39.983926
  C      43.724286     21.594223     40.701974
  C      43.173240     22.573312     41.763585
  O      43.721248     23.696602     41.899671
  O      42.210078     22.164458     42.457906
  O      43.182737     20.446784     40.600975
  C      41.787644     20.464064     38.911341
  H      41.540791     19.404816     39.008200
  C      42.751778     20.867648     38.007664
  H      43.366875     20.138527     37.477960
  C      43.107065     22.220168     37.937556
  C      42.226857     23.217412     38.547930
  H      42.484802     24.261032     38.376417
  C      41.159050     22.859609     39.276573
  H      40.523197     23.623389     39.732284
  C      40.774282     21.424214     39.497281
  H      40.724827     21.251028     40.582166
  O      39.509852     21.179929     38.894675
  H      38.881665     20.740194     39.557221
  C      44.076195     22.700051     36.858225
  O      44.980525     21.938108     36.443786
  O      43.884210     23.877260     36.449717
24
Coordinates from ORCA-job neb_MEP_ALL.QMRegion E -1075.658063384388
  C      44.627722     22.052645     39.707925
  H      45.202714     21.312298     39.155999
  H      45.118326     23.002163     39.931299
  C      43.716583     21.586699     40.699244
  C      43.173056     22.573041     41.764664
  O      43.726626     23.693078     41.894100
  O      42.214387     22.162176     42.460903
  O      43.240589     20.435128     40.657817
  C      41.752725     20.459193     38.855908
  H      41.515735     19.399691     38.970423
  C      42.754350     20.858920     38.024424
  H      43.369384     20.134535     37.486967
  C      43.184473     22.223884     38.030364
  C      42.241375     23.218111     38.570311
  H      42.487322     24.262454     38.385944
  C      41.158760     22.855969     39.270613
  H      40.512302     23.619075     39.713766
  C      40.769920     21.419447     39.486593
  H      40.726658     21.240916     40.572186
  O      39.496338     21.190115     38.896390
  H      38.874652     20.741885     39.558214
  C      44.092011     22.697837     36.881531
  O      44.983854     21.934637     36.444087
  O      43.876230     23.865536     36.458161
24
Coordinates from ORCA-job neb_MEP_ALL.QMRegion E -1075.668021909178
  C      44.534694     22.071215     39.587020
  H      45.195232     21.309681     39.162186
  H      45.067874     22.992169     39.874507
  C      43.701612     21.583031     40.690731
  C      43.174269     22.573145     41.767079
  O      43.733967     23.689176     41.889591
  O      42.219999     22.160168     42.465163
  O      43.291341     20.425513     40.709915
  C      41.730994     20.457807     38.815005
  H      41.493111     19.398393     38.932717
  C      42.762737     20.853083     38.042409
  H      43.373744     20.131203     37.496097
  C      43.277815     22.228070     38.135094
  C      42.261008     23.218054     38.595560
  H      42.491018     24.263874     38.396136
  C      41.163152     22.852535     39.266108
  H      40.503589     23.615155     39.693170
  C      40.768512     21.415389     39.478779
  H      40.729590     21.232019     40.564948
  O      39.486963     21.200460     38.899438
  H      38.870196     20.744200     39.559402
  C      44.106904     22.696684     36.904199
  O      44.987108     21.932621     36.445010
  O      43.867585     23.854259     36.467006
24
Coordinates from ORCA-job neb_MEP_ALL.QMRegion E -1075.686503115998
  C      44.430189     22.072145     39.478440
  H      45.166022     21.319327     39.163099
  H      44.954631     22.993491     39.768937
  C      43.686076     21.577292     40.684464
  C      43.183617     22.575150     41.768310
  O      43.757490     23.683414     41.881534
  O      42.237655     22.161318     42.475949
  O      43.385925     20.402604     40.793996
  C      41.693768     20.459708     38.742539
  H      41.420733     19.404617     38.809181
  C      42.778981     20.845433     38.060816
  H      43.393606     20.123373     37.517969
  C      43.358246     22.222862     38.229404
  C      42.299628     23.214630     38.639521
  H      42.522917     24.262852     38.442053
  C      41.171389     22.847059     39.253258
  H      40.488881     23.610843     39.639123
  C      40.761270     21.411847     39.450973
  H      40.749604     21.207230     40.536549
  O      39.460036     21.234776     38.909272
  H      38.857532     20.759362     39.568336
  C      44.126245     22.692918     36.941761
  O      45.004040     21.937203     36.463757
  O      43.854391     23.837722     36.491931
24
Coordinates from ORCA-job neb_MEP_ALL.QMRegion E -1075.698300267552
  C      44.400150     21.985444     39.404547
  H      45.133085     21.230307     39.091645
  H      44.908919     22.921413     39.652706
  C      43.702447     21.504482     40.649679
  C      43.235387     22.536818     41.715546
  O      43.880061     23.603068     41.819248
  O      42.246897     22.190646     42.406408
  O      43.461840     20.325429     40.823388
  C      41.587023     20.444599     38.556374
  H      41.223384     19.418274     38.476746
  C      42.737289     20.813093     37.985333
  H      43.349002     20.100564     37.426919
  C      43.353121     22.167478     38.224334
  C      42.316948     23.167575     38.669011
  H      42.579019     24.217002     38.548693
  C      41.155789     22.806627     39.218914
  H      40.464595     23.570036     39.589181
  C      40.709947     21.375231     39.356506
  H      40.771184     21.102113     40.427331
  O      39.371690     21.263812     38.905063
  H      38.794408     20.790557     39.588140
  C      44.119715     22.675293     36.955167
  O      45.015423     21.944663     36.468854
  O      43.827016     23.821531     36.527552
24
Coordinates from ORCA-job neb_MEP_ALL.QMRegion E -1075.701067018986
  C      44.390000     21.903000     39.353000
  H      45.099000     21.130000     39.029000
  H      44.922000     22.831000     39.580000
  C      43.710000     21.442000     40.614000
  C      43.262000     22.496000     41.665000
  O      43.943000     23.540000     41.760000
  O      42.257000     22.185000     42.351000
  O      43.475000     20.264000     40.806000
  C      41.507000     20.433000     38.455000
  H      41.100000     19.433000     38.303000
  C      42.679000     20.788000     37.919000
  H      43.265000     20.078000     37.331000
  C      43.327000     22.119000     38.198000
  C      42.309000     23.122000     38.681000
  H      42.595000     24.169000     38.617000
  C      41.135000     22.768000     39.207000
  H      40.457000     23.534000     39.595000
  C      40.660000     21.343000     39.305000
  H      40.748000     21.027000     40.361000
  O      39.307000     21.259000     38.897000
  H      38.743000     20.794000     39.597000
  C      44.100000     22.655000     36.945000
  O      45.001000     21.934000     36.451000
  O      43.814000     23.812000     36.546000
24
Coordinates from ORCA-job neb_MEP_ALL.QMRegion E -1075.680500703602
  C      44.842000     22.068000     40.142000
  H      45.265000     21.440000     39.358000
  H      45.368000     22.976000     40.435000
  C      43.689000     21.758000     40.746000
  C      43.115000     22.623000     41.859000
  O      43.577000     23.785000     42.012000
  O      42.221000     22.117000     42.579000
  O      42.985000     20.610000     40.433000
  C      42.079000     20.646000     39.270000
  H      41.683000     19.622000     39.219000
  C      42.892000     20.975000     38.054000
  H      43.551000     20.209000     37.638000
  C      42.969000     22.244000     37.605000
  C      42.118000     23.281000     38.202000
  H      42.307000     24.301000     37.867000
  C      41.188000     23.002000     39.130000
  H      40.598000     23.809000     39.575000
  C      40.887000     21.588000     39.553000
  H      40.742000     21.566000     40.644000
  O      39.715000     21.144000     38.884000
  H      39.068000     20.737000     39.535000
  C      44.024000     22.694000     36.600000
  O      44.937000     21.905000     36.259000
  O      43.944000     23.900000     36.236000
24
Coordinates from ORCA-job neb_MEP_ALL.QMRegion E -1075.679954717052
  C      44.785053     21.965281     39.986716
  H      45.172851     21.340746     39.183729
  H      45.287799     22.905500     40.212909
  C      43.671102     21.651173     40.661240
  C      43.146621     22.563213     41.766740
  O      43.684185     23.690113     41.919429
  O      42.204923     22.130659     42.476952
  O      42.942314     20.508485     40.384318
  C      41.999652     20.526527     39.220608
  H      41.629554     19.492664     39.163669
  C      42.787186     20.906994     38.011827
  H      43.388945     20.151351     37.502264
  C      42.949636     22.212722     37.717487
  C      42.152938     23.225064     38.424160
  H      42.415813     24.265434     38.236202
  C      41.166360     22.893277     39.272935
  H      40.579992     23.671207     39.770615
  C      40.815246     21.458338     39.563026
  H      40.681897     21.352065     40.648403
  O      39.625974     21.102921     38.877902
  H      38.962496     20.708705     39.526579
  C      44.003413     22.704378     36.737191
  O      44.941363     21.943625     36.390431
  O      43.891488     23.909441     36.383962
24
Coordinates from ORCA-job neb_MEP_ALL.QMRegion E -1075.668595199702
  C      44.751870     21.984947     39.913261
  H      45.176183     21.335639     39.150128
  H      45.199436     22.966565     40.066835
  C      43.686498     21.622170     40.657498
  C      43.162079     22.562526     41.750120
  O      43.715502     23.682605     41.900909
  O      42.205320     22.152331     42.456013
  O      42.989142     20.473347     40.414935
  C      41.937883     20.485712     39.123072
  H      41.596078     19.440164     39.084453
  C      42.773914     20.890065     37.997160
  H      43.367146     20.144197     37.465933
  C      43.019749     22.210104     37.816854
  C      42.205790     23.214309     38.513046
  H      42.475268     24.257845     38.353797
  C      41.165489     22.866594     39.286248
  H      40.540129     23.633293     39.751633
  C      40.792732     21.431570     39.533824
  H      40.705300     21.284089     40.616926
  O      39.563151     21.141640     38.889124
  H      38.910967     20.732162     39.547116
  C      44.045960     22.702349     36.811927
  O      44.975561     21.946769     36.436790
  O      43.893028     23.894856     36.433160
24
Coordinates from ORCA-job neb_MEP_ALL.QMRegion E -1075.657763453361
  C      44.734602     22.007755     39.871263
  H      45.188264     21.329894     39.152226
  H      45.179427     22.988546     40.023801
  C      43.709155     21.606172     40.683324
  C      43.169166     22.568754     41.757104
  O      43.718341     23.691382     41.900931
  O      42.207234     22.160246     42.456155
  O      43.090731     20.461215     40.513498
  C      41.854469     20.473402     39.005411
  H      41.569401     19.417542     39.047143
  C      42.759540     20.878947     37.997866
  H      43.366456     20.141762     37.470408
  C      43.060018     22.214596     37.874423
  C      42.217153     23.215635     38.531982
  H      42.481106     24.259088     38.366654
  C      41.162327     22.862956     39.282374
  H      40.530968     23.627855     39.741962
  C      40.782901     21.428304     39.515227
  H      40.716891     21.265694     40.598890
  O      39.534652     21.162151     38.892009
  H      38.894915     20.736694     39.552976
  C      44.062465     22.701213     36.836700
  O      44.978490     21.942162     36.440818
  O      43.888826     23.885776     36.442109
24
Coordinates from ORCA-job neb_MEP_ALL.QMRegion E -1075.655219004501
  C      44.703791     22.030273     39.812759
  H      45.200210     21.322690     39.154208
  H      45.158899     23.003117     39.983930
  C      43.724256     21.594327     40.701926
  C      43.173360     22.573254     41.763564
  O      43.721406     23.696488     41.899574
  O      42.209938     22.164579     42.457666
  O      43.182802     20.446871     40.600885
  C      41.787694     20.464007     38.911406
  H      41.540858     19.404790     39.008096
  C      42.751746     20.867540     38.007624
  H      43.366935     20.138496     37.477860
  C      43.107107     22.220058     37.937670
  C      42.226771     23.217353     38.547860
  H      42.484825     24.261025     38.376528
  C      41.159071     22.859489     39.276628
  H      40.523213     23.623242     39.732336
  C      40.774261     21.424098     39.497250
  H      40.724868     21.250879     40.582103
  O      39.509823     21.179825     38.894650
  H      38.881650     20.740139     39.557234
  C      44.076006     22.700007     36.858094
  O      44.980532     21.938188     36.443811
  O      43.884316     23.877296     36.449750
24
Coordinates from ORCA-job neb_MEP_ALL.QMRegion E -1075.658033309491
  C      44.627738     22.052398     39.708045
  H      45.202783     21.312262     39.156004
  H      45.118260     23.001782     39.931197
  C      43.716701     21.586976     40.699329
  C      43.173183     22.573003     41.764676
  O      43.726812     23.692992     41.893933
  O      42.214235     22.162274     42.460653
  O      43.240866     20.435213     40.657855
  C      41.752705     20.459153     38.855747
  H      41.515783     19.399631     38.970284
  C      42.754259     20.858786     38.024433
  H      43.369420     20.134496     37.486887
  C      43.184514     22.223829     38.030562
  C      42.241344     23.218094     38.570320
  H      42.487350     24.262459     38.386058
  C      41.158720     22.855834     39.270603
  H      40.512352     23.618918     39.713797
  C      40.769913     21.419336     39.486498
  H      40.726717     21.240714     40.572019
  O      39.496262     21.190112     38.896453
  H      38.874618     20.741773     39.558218
  C      44.091920     22.697813     36.881602
  O      44.983837     21.934746     36.444063
  O      43.876325     23.865516     36.458168
24
Coordinates from ORCA-job neb_MEP_ALL.QMRegion E -1075.668022659176
  C      44.534791     22.070830     39.587634
  H      45.195279     21.309809     39.162141
  H      45.067608     22.991478     39.874318
  C      43.701657     21.583309     40.690920
  C      43.174400     22.573056     41.767015
  O      43.734221     23.689052     41.889388
  O      42.219882     22.160158     42.464827
  O      43.291555     20.426030     40.709500
  C      41.731023     20.457852     38.814470
  H      41.493114     19.398254     38.932598
  C      42.762648     20.852974     38.042767
  H      43.373767     20.131168     37.496070
  C      43.277583     22.227969     38.135053
  C      42.261151     23.218071     38.595736
  H      42.491001     24.263802     38.396231
  C      41.163019     22.852410     39.266034
  H      40.503655     23.615002     39.693201
  C      40.768678     21.415258     39.478777
  H      40.729498     21.231869     40.564880
  O      39.487120     21.200368     38.899626
  H      38.870201     20.744102     39.559384
  C      44.107017     22.696729     36.904376
  O      44.987060     21.932751     36.444851
  O      43.867626     23.854197     36.466919
24
Coordinates from ORCA-job neb_MEP_ALL.QMRegion E -1075.686578070188
  C      44.430611     22.072309     39.478119
  H      45.166131     21.318952     39.163084
  H      44.955550     22.993144     39.769556
  C      43.686001     21.577440     40.684076
  C      43.183731     22.574624     41.768482
  O      43.757169     23.683121     41.881368
  O      42.237191     22.161647     42.475766
  O      43.385120     20.403212     40.793527
  C      41.694209     20.459656     38.743064
  H      41.421629     19.404305     38.810567
  C      42.778899     20.845524     38.060970
  H      43.393362     20.123560     37.517795
  C      43.358538     22.222962     38.229288
  C      42.299608     23.214513     38.639236
  H      42.522313     24.262703     38.441601
  C      41.171721     22.847122     39.253667
  H      40.488848     23.610671     39.639705
  C      40.761534     21.411841     39.451363
  H      40.749230     21.207405     40.536836
  O      39.460514     21.234103     38.909203
  H      38.857552     20.759050     39.568218
  C      44.126385     22.693062     36.941854
  O      45.003681     21.937039     36.463378
  O      43.854316     23.837682     36.491757
24
Coordinates from ORCA-job neb_MEP_ALL.QMRegion E -1075.698318361760
  C      44.400318     21.985316     39.405424
  H      45.133187     21.230521     39.091691
  H      44.908850     22.921446     39.652751
  C      43.702491     21.504752     40.650188
  C      43.234988     22.537353     41.715218
  O      43.880354     23.603174     41.819404
  O      42.247006     22.190353     42.406378
  O      43.461929     20.325268     40.823211
  C      41.587080     20.444660     38.556374
  H      41.223503     19.418558     38.476704
  C      42.737287     20.813040     37.985360
  H      43.349112     20.100580     37.427033
  C      43.352743     22.167312     38.224459
  C      42.316857     23.167654     38.669186
  H      42.579112     24.217136     38.548739
  C      41.155706     22.806507     39.218889
  H      40.464751     23.570006     39.589079
  C      40.710136     21.375152     39.356427
  H      40.771155     21.102181     40.427116
  O      39.371872     21.263828     38.905225
  H      38.794363     20.790559     39.588089
  C      44.119403     22.675108     36.954773
  O      45.015654     21.944794     36.468941
  O      43.827211     23.821705     36.527562
24
Coordinates from ORCA-job neb_MEP_ALL.QMRegion E -1075.701067018986
  C      44.390000     21.903000     39.353000
  H      45.099000     21.130000     39.029000
  H      44.922000     22.831000     39.580000
  C      43.710000     21.442000     40.614000
  C      43.262000     22.496000     41.665000
  O      43.943000     23.540000     41.760000
  O      42.257000     22.185000     42.351000
  O      43.475000     20.264000     40.806000
  C      41.507000     20.433000     38.455000
  H      41.100000     19.433000     38.303000
  C      42.679000     20.788000     37.919000
  H      43.265000     20.078000     37.331000
  C      43.327000     22.119000     38.198000
  C      42.309000     23.122000     38.681000
  H      42.595000     24.169000     38.617000
  C      41.135000     22.768000     39.207000
  H      40.457000     23.534000     39.595000
  C      40.660000     21.343000     39.305000
  H      40.748000     21.027000     40.361000
  O      39.307000     21.259000     38.897000
  H      38.743000     20.794000     39.597000
  C      44.100000     22.655000     36.945000
  O      45.001000     21.934000     36.451000
  O      43.814000     23.812000     36.546000
