25
Coordinates from ORCA-job job
  C          44.78036551411158     20.62152063753442     40.41075918746432
  H          44.95922963343703     20.80771839075775     39.35144688948592
  H          45.55835688056069     20.90544975373460     41.12415459794781
  C          43.64810693874310     20.09860300969565     40.89153600502051
  C          43.30633962328332     19.86691005123055     42.36022010117546
  O          43.55763995228291     18.73388511546131     42.84382707963670
  O          42.60445702031143     20.77239871861041     42.89350813524145
  O          42.55888983847962     19.66464088050776     40.14094243782655
  C          41.96575506044948     20.54711418999008     39.14836211321487
  H          41.19350630633738     19.88694534481501     38.70172620235876
  C          42.89200000000000     20.97500000000000     38.05400000000000
  H          43.49371662226795     20.21634542648791     37.54537242189858
  C          42.96900000000000     22.24400000000000     37.60500000000000
  C          42.11800000000000     23.28100000000000     38.20199999999999
  H          42.23090259071753     24.27084514485023     37.75131362869804
  C          41.18800000000000     23.00200000000000     39.13000000000000
  H          40.55368638171306     23.78436402595607     39.56537552872687
  C          41.20626314941133     21.68295694269849     39.87191656244108
  H          41.71363674721629     21.84177125817039     40.84200363901137
  O          39.88821757312736     21.22086346978195     40.25173278294369
  H          39.34585721673649     21.31844821151858     39.45620699217304
  C          43.92320730786226     22.63396114135389     36.43899793777202
  O          44.66722939691464     21.71996434933692     36.02847105811154
  O          43.82253409891045     23.82499352256870     36.06413870548121
  N          40.83200000000000     18.75000000000000     42.55100000000000
