25
Coordinates from ORCA-job job E -836.340705524819
  C      44.842000     22.068000     40.142000
  H      45.265000     21.440000     39.358000
  H      45.368000     22.976000     40.435000
  C      43.689000     21.758000     40.746000
  C      43.115000     22.623000     41.859000
  O      43.577000     23.785000     42.012000
  O      42.221000     22.117000     42.579000
  O      42.985000     20.610000     40.433000
  C      42.079000     20.646000     39.270000
  H      41.683000     19.622000     39.219000
  C      42.892000     20.975000     38.054000
  H      43.551000     20.209000     37.638000
  C      42.969000     22.244000     37.605000
  C      42.118000     23.281000     38.202000
  H      42.307000     24.301000     37.867000
  C      41.188000     23.002000     39.130000
  H      40.598000     23.809000     39.575000
  C      40.887000     21.588000     39.553000
  H      40.742000     21.566000     40.644000
  O      39.715000     21.144000     38.884000
  H      39.068000     20.737000     39.535000
  C      44.024000     22.694000     36.600000
  O      44.937000     21.905000     36.259000
  O      43.944000     23.900000     36.236000
  N      40.832000     18.750000     42.551000
25
Coordinates from ORCA-job job E -836.379258176353
  C      44.668025     21.941798     40.672724
  H      45.206237     21.488105     39.838916
  H      45.118483     22.779900     41.203569
  C      43.458872     21.512602     41.053008
  C      42.685839     22.100251     42.232750
  O      43.063297     23.200392     42.695622
  O      41.725056     21.395909     42.665160
  O      42.811539     20.445979     40.467142
  C      42.034009     20.598477     39.228052
  H      41.635612     19.576562     39.099674
  C      42.892000     20.975000     38.054000
  H      43.553036     20.216273     37.627640
  C      42.969000     22.244000     37.605000
  C      42.118000     23.281000     38.202000
  H      42.320392     24.301469     37.874827
  C      41.188000     23.002000     39.130000
  H      40.597321     23.803027     39.584928
  C      40.856318     21.568014     39.501617
  H      40.679205     21.496496     40.589543
  O      39.681949     21.167060     38.788872
  H      39.038327     20.764542     39.405811
  C      44.037752     22.681523     36.601170
  O      44.922587     21.853528     36.281079
  O      43.959366     23.881622     36.223867
  N      40.832000     18.750000     42.551000
25
Coordinates from ORCA-job job E -836.073647656730
  C      44.447009     21.744658     41.079415
  H      45.057695     21.506521     40.205462
  H      44.816875     22.460898     41.813303
  C      43.239431     21.202884     41.269307
  C      42.326971     21.449046     42.483269
  O      42.583359     22.410743     43.222264
  O      41.394204     20.578872     42.629876
  O      42.666272     20.267560     40.451249
  C      41.995854     20.544846     39.179345
  H      41.606279     19.530151     38.973522
  C      42.892000     20.975000     38.054000
  H      43.556757     20.227223     37.613176
  C      42.969000     22.244000     37.605000
  C      42.118000     23.281000     38.202000
  H      42.333065     24.301750     37.880795
  C      41.188000     23.002000     39.130000
  H      40.593941     23.794570     39.595391
  C      40.830764     21.544226     39.448968
  H      40.619353     21.419515     40.526444
  O      39.656540     21.193145     38.693704
  H      39.013696     20.790765     39.283892
  C      44.051825     22.674577     36.601378
  O      44.913917     21.817763     36.303001
  O      43.976159     23.870963     36.221997
  N      40.832000     18.750000     42.551000
25
Coordinates from ORCA-job job E -836.385816501656
  C      44.545663     21.922713     40.716206
  H      45.091414     21.478099     39.880717
  H      44.982001     22.763556     41.255750
  C      43.337877     21.485027     41.086900
  C      42.558050     22.074303     42.276135
  O      42.944390     23.162351     42.729233
  O      41.593565     21.374711     42.707576
  O      42.726244     20.405897     40.470674
  C      42.003559     20.595685     39.211953
  H      41.590904     19.580845     39.058426
  C      42.892000     20.975000     38.054000
  H      43.553417     20.217221     37.625321
  C      42.969000     22.244000     37.605000
  C      42.118000     23.281000     38.202000
  H      42.327805     24.301090     37.875071
  C      41.188000     23.002000     39.130000
  H      40.596259     23.799726     39.589506
  C      40.839976     21.577517     39.481804
  H      40.648339     21.491267     40.566654
  O      39.661279     21.195702     38.748847
  H      39.028938     20.803948     39.357223
  C      44.046084     22.671695     36.593322
  O      44.904800     21.812871     36.290750
  O      43.968112     23.867066     36.210687
  N      40.832000     18.750000     42.551000
25
Coordinates from ORCA-job job E -836.388962627802
  C      44.538286     21.663280     40.789395
  H      45.081820     21.184468     39.971758
  H      45.005635     22.475321     41.347751
  C      43.283129     21.322503     41.098284
  C      42.497854     21.982130     42.253668
  O      42.984544     23.000964     42.760015
  O      41.389781     21.437896     42.554648
  O      42.634496     20.292115     40.435357
  C      41.955864     20.578115     39.169828
  H      41.502052     19.593689     38.952251
  C      42.892000     20.975000     38.054000
  H      43.551642     20.220081     37.617705
  C      42.969000     22.244000     37.605000
  C      42.118000     23.281000     38.202000
  H      42.335229     24.300856     37.877101
  C      41.188000     23.002000     39.130000
  H      40.595442     23.796736     39.593998
  C      40.810591     21.581075     39.446017
  H      40.594088     21.472146     40.522649
  O      39.634567     21.240305     38.683240
  H      38.988084     20.851549     39.287243
  C      44.026958     22.663509     36.557323
  O      44.832159     21.775865     36.200294
  O      43.923346     23.846043     36.149014
  N      40.832000     18.750000     42.551000
25
Coordinates from ORCA-job job E -836.391828404927
  C      44.524820     21.582530     40.772302
  H      45.038608     21.108305     39.933420
  H      45.010957     22.386809     41.326095
  C      43.268496     21.263029     41.103253
  C      42.534444     21.940927     42.285445
  O      43.114051     22.890357     42.826595
  O      41.435045     21.404293     42.632007
  O      42.604867     20.238670     40.429250
  C      41.937994     20.578985     39.161270
  H      41.447200     19.617499     38.912731
  C      42.892000     20.975000     38.054000
  H      43.547837     20.222167     37.608957
  C      42.969000     22.244000     37.605000
  C      42.118000     23.281000     38.202000
  H      42.335735     24.298962     37.869871
  C      41.188000     23.002000     39.130000
  H      40.591124     23.793766     39.594293
  C      40.802938     21.590168     39.439253
  H      40.574951     21.479279     40.513627
  O      39.626213     21.254872     38.662310
  H      38.985714     20.874609     39.273162
  C      44.004737     22.647765     36.515800
  O      44.793915     21.744117     36.165091
  O      43.911921     23.833480     36.120806
  N      40.832000     18.750000     42.551000
25
Coordinates from ORCA-job job E -836.392435998160
  C      44.560380     21.483109     40.682642
  H      45.002845     21.041646     39.787507
  H      45.091150     22.257999     41.237034
  C      43.326443     21.160765     41.092816
  C      42.703934     21.798965     42.359668
  O      43.329220     22.739323     42.858453
  O      41.578391     21.320469     42.708323
  O      42.615371     20.159735     40.415158
  C      41.936754     20.576576     39.163698
  H      41.402218     19.647619     38.878318
  C      42.892000     20.975000     38.054000
  H      43.547046     20.228744     37.597083
  C      42.969000     22.244000     37.605000
  C      42.118000     23.281000     38.202000
  H      42.332539     24.295919     37.856543
  C      41.188000     23.002000     39.130000
  H      40.585037     23.790132     39.594213
  C      40.817686     21.596336     39.460676
  H      40.602239     21.495277     40.539518
  O      39.622837     21.243444     38.701931
  H      39.011124     20.881052     39.341577
  C      43.959696     22.625474     36.452360
  O      44.734335     21.708004     36.109892
  O      43.901249     23.824125     36.102176
  N      40.832000     18.750000     42.551000
25
Coordinates from ORCA-job job E -836.392766002328
  C      44.621507     21.238064     40.584766
  H      44.997420     20.791623     39.662793
  H      45.217615     21.963799     41.138914
  C      43.389517     20.972889     41.043713
  C      42.859548     21.619525     42.348282
  O      43.622428     22.401382     42.914232
  O      41.721187     21.201329     42.727898
  O      42.592779     20.035384     40.362860
  C      41.920999     20.563745     39.144303
  H      41.338477     19.689295     38.796685
  C      42.892000     20.975000     38.054000
  H      43.553613     20.238443     37.590381
  C      42.969000     22.244000     37.605000
  C      42.118000     23.281000     38.202000
  H      42.335638     24.294290     37.851684
  C      41.188000     23.002000     39.130000
  H      40.583557     23.787584     39.598356
  C      40.830809     21.599197     39.479367
  H      40.639273     21.504564     40.563360
  O      39.607044     21.239597     38.757333
  H      39.022183     20.899261     39.435502
  C      43.909697     22.609803     36.394139
  O      44.527172     21.638442     35.915401
  O      43.765351     23.778045     35.982744
  N      40.832000     18.750000     42.551000
25
Coordinates from ORCA-job job E -836.394707950613
  C      44.582583     21.065657     40.711013
  H      45.022079     20.550698     39.856006
  H      45.169024     21.776497     41.294448
  C      43.297226     20.896147     41.048733
  C      42.662259     21.638043     42.252735
  O      43.417958     22.330256     42.934771
  O      41.461070     21.322834     42.519220
  O      42.495968     20.003928     40.329718
  C      41.887121     20.552479     39.102806
  H      41.312024     19.692287     38.722034
  C      42.892000     20.975000     38.054000
  H      43.560601     20.237023     37.601878
  C      42.969000     22.244000     37.605000
  C      42.118000     23.281000     38.202000
  H      42.344887     24.297420     37.868278
  C      41.188000     23.002000     39.130000
  H      40.592438     23.790873     39.603095
  C      40.808175     21.595941     39.454011
  H      40.618130     21.487009     40.535672
  O      39.578220     21.272433     38.737423
  H      38.968887     20.931242     39.413759
  C      43.921234     22.626912     36.415883
  O      44.636289     21.702501     35.981436
  O      43.861845     23.828907     36.081079
  N      40.832000     18.750000     42.551000
25
Coordinates from ORCA-job job E -836.396899293517
  C      44.573276     21.143680     40.688888
  H      44.991272     20.673908     39.797748
  H      45.168749     21.842304     41.277794
  C      43.308734     20.926747     41.072601
  C      42.720246     21.603556     42.337002
  O      43.469925     22.371560     42.952053
  O      41.534103     21.276715     42.649024
  O      42.500364     20.034630     40.357522
  C      41.892794     20.561599     39.116068
  H      41.321286     19.690590     38.746099
  C      42.892000     20.975000     38.054000
  H      43.559504     20.232479     37.607271
  C      42.969000     22.244000     37.605000
  C      42.118000     23.281000     38.202000
  H      42.344592     24.297882     37.871392
  C      41.188000     23.002000     39.130000
  H      40.596132     23.794338     39.601042
  C      40.809936     21.601789     39.466772
  H      40.636974     21.507669     40.552887
  O      39.571135     21.271206     38.767653
  H      38.964247     20.947288     39.444021
  C      43.940256     22.631665     36.440443
  O      44.663221     21.709017     36.011089
  O      43.882234     23.835181     36.099922
  N      40.832000     18.750000     42.551000
25
Coordinates from ORCA-job job E -836.398018110855
  C      44.615245     21.047058     40.647673
  H      44.991612     20.600711     39.725972
  H      45.246819     21.707257     41.243449
  C      43.359365     20.847128     41.065049
  C      42.824992     21.489985     42.373594
  O      43.613946     22.207159     42.993704
  O      41.628710     21.195387     42.698750
  O      42.501448     20.006759     40.351546
  C      41.897412     20.553115     39.116109
  H      41.328509     19.684769     38.735889
  C      42.892000     20.975000     38.054000
  H      43.559413     20.234975     37.602906
  C      42.969000     22.244000     37.605000
  C      42.118000     23.281000     38.202000
  H      42.344404     24.297412     37.868825
  C      41.188000     23.002000     39.130000
  H      40.594470     23.793715     39.600929
  C      40.817090     21.598490     39.476806
  H      40.659336     21.506401     40.564694
  O      39.564690     21.265946     38.798455
  H      38.969218     20.963350     39.487486
  C      43.944161     22.630321     36.444113
  O      44.652695     21.698767     36.012492
  O      43.884007     23.832289     36.101199
  N      40.832000     18.750000     42.551000
25
Coordinates from ORCA-job job E -836.399125389629
  C      44.575068     21.044287     40.666472
  H      44.947718     20.651872     39.719412
  H      45.206446     21.679069     41.288790
  C      43.325880     20.809051     41.085481
  C      42.809557     21.387893     42.429067
  O      43.616481     22.060853     43.079158
  O      41.604606     21.120878     42.742826
  O      42.459278     20.000395     40.352089
  C      41.888392     20.554022     39.106988
  H      41.315903     19.695648     38.711058
  C      42.892000     20.975000     38.054000
  H      43.554943     20.230620     37.604156
  C      42.969000     22.244000     37.605000
  C      42.118000     23.281000     38.202000
  H      42.343804     24.297786     37.870581
  C      41.188000     23.002000     39.130000
  H      40.597781     23.797821     39.599002
  C      40.818706     21.603295     39.490070
  H      40.695905     21.521410     40.584154
  O      39.547397     21.270662     38.855148
  H      38.953390     21.009937     39.565982
  C      43.957852     22.636573     36.468094
  O      44.658891     21.706018     36.021271
  O      43.897309     23.839508     36.124142
  N      40.832000     18.750000     42.551000
25
Coordinates from ORCA-job job E -836.399956060586
  C      44.578478     21.144032     40.697645
  H      44.964806     20.795079     39.738854
  H      45.186252     21.785930     41.335941
  C      43.339895     20.849534     41.110139
  C      42.802135     21.369769     42.474901
  O      43.614563     21.958462     43.193863
  O      41.568939     21.158374     42.733930
  O      42.502509     20.025188     40.371478
  C      41.916157     20.550496     39.126656
  H      41.354798     19.676870     38.751000
  C      42.892000     20.975000     38.054000
  H      43.547649     20.228664     37.596690
  C      42.969000     22.244000     37.605000
  C      42.118000     23.281000     38.202000
  H      42.330701     24.296361     37.858086
  C      41.188000     23.002000     39.130000
  H      40.591482     23.797967     39.590713
  C      40.844831     21.599456     39.521850
  H      40.758089     21.532447     40.619324
  O      39.560343     21.247247     38.934748
  H      38.975436     21.029604     39.668892
  C      43.956574     22.639013     36.471610
  O      44.662170     21.712098     36.023555
  O      43.901400     23.844151     36.133005
  N      40.832000     18.750000     42.551000
25
Coordinates from ORCA-job job E -836.400936958916
  C      44.572471     21.113179     40.693903
  H      44.949665     20.820562     39.712887
  H      45.179766     21.731542     41.355198
  C      43.343568     20.778918     41.109727
  C      42.818105     21.247033     42.501221
  O      43.667748     21.648290     43.301989
  O      41.556106     21.183483     42.699174
  O      42.504728     19.975588     40.352042
  C      41.918952     20.543349     39.125190
  H      41.335759     19.691504     38.733591
  C      42.892000     20.975000     38.054000
  H      43.537358     20.227544     37.583342
  C      42.969000     22.244000     37.605000
  C      42.118000     23.281000     38.202000
  H      42.320793     24.294286     37.846373
  C      41.188000     23.002000     39.130000
  H      40.582851     23.796777     39.581712
  C      40.866119     21.602635     39.550151
  H      40.824301     21.549906     40.650827
  O      39.559730     21.238566     39.025018
  H      38.986056     21.115744     39.789815
  C      43.947258     22.636294     36.458520
  O      44.652065     21.708765     36.008970
  O      43.912792     23.846908     36.138786
  N      40.832000     18.750000     42.551000
25
Coordinates from ORCA-job job E -836.402172403525
  C      44.570465     21.067013     40.708376
  H      44.944397     20.847944     39.707356
  H      45.178884     21.642204     41.406716
  C      43.349388     20.688697     41.112310
  C      42.823937     21.092986     42.523501
  O      43.675190     21.288069     43.397445
  O      41.555936     21.190682     42.661937
  O      42.503265     19.922443     40.327422
  C      41.918730     20.538632     39.122742
  H      41.311198     19.710566     38.717938
  C      42.892000     20.975000     38.054000
  H      43.525323     20.224691     37.570813
  C      42.969000     22.244000     37.605000
  C      42.118000     23.281000     38.202000
  H      42.311113     24.292568     37.836208
  C      41.188000     23.002000     39.130000
  H      40.575544     23.796278     39.573288
  C      40.892372     21.609118     39.587313
  H      40.915063     21.577720     40.689708
  O      39.559357     21.225168     39.154070
  H      38.997937     21.272036     39.937155
  C      43.947990     22.636348     36.456780
  O      44.655025     21.709143     36.008509
  O      43.927756     23.850124     36.148641
  N      40.832000     18.750000     42.551000
25
Coordinates from ORCA-job job E -836.404273666207
  C      44.588351     20.938143     40.722964
  H      44.954080     20.805360     39.703913
  H      45.216726     21.431400     41.465601
  C      43.364274     20.545664     41.105066
  C      42.850876     20.865212     42.538497
  O      43.671162     20.792044     43.461804
  O      41.613312     21.169562     42.639990
  O      42.487887     19.850398     40.288599
  C      41.910989     20.536252     39.115994
  H      41.270567     19.740902     38.695918
  C      42.892000     20.975000     38.054000
  H      43.512943     20.221238     37.559643
  C      42.969000     22.244000     37.605000
  C      42.118000     23.281000     38.202000
  H      42.303032     24.291191     37.828048
  C      41.188000     23.002000     39.130000
  H      40.571230     23.796037     39.569159
  C      40.925692     21.619122     39.630596
  H      41.029886     21.613831     40.729800
  O      39.568024     21.202178     39.320713
  H      39.024491     21.497388     40.061790
  C      43.953374     22.636355     36.457843
  O      44.662138     21.707781     36.013998
  O      43.942103     23.851467     36.155796
  N      40.832000     18.750000     42.551000
25
Coordinates from ORCA-job job E -836.406626417778
  C      44.646671     20.765143     40.704263
  H      44.992712     20.709980     39.670986
  H      45.314552     21.156488     41.473726
  C      43.413234     20.396923     41.077450
  C      42.931769     20.612249     42.531877
  O      43.690446     20.272255     43.452187
  O      41.759754     21.106306     42.642638
  O      42.484162     19.790010     40.247927
  C      41.906818     20.539149     39.113480
  H      41.236663     19.769615     38.689327
  C      42.892000     20.975000     38.054000
  H      43.504442     20.217965     37.554240
  C      42.969000     22.244000     37.605000
  C      42.118000     23.281000     38.202000
  H      42.298085     24.290671     37.823855
  C      41.188000     23.002000     39.130000
  H      40.573629     23.796784     39.573342
  C      40.967751     21.629465     39.674463
  H      41.150845     21.653545     40.765204
  O      39.600921     21.164912     39.490217
  H      39.065973     21.686060     40.102769
  C      43.959544     22.636513     36.460520
  O      44.665057     21.704825     36.018512
  O      43.941411     23.849458     36.151461
  N      40.832000     18.750000     42.551000
25
Coordinates from ORCA-job job E -836.408916605413
  C      44.741792     20.660606     40.647177
  H      45.053305     20.689529     39.601585
  H      45.450765     20.967727     41.419286
  C      43.514971     20.290931     41.035183
  C      43.069754     20.385332     42.501230
  O      43.734308     19.800496     43.374685
  O      41.990193     21.047769     42.656660
  O      42.534508     19.753626     40.217937
  C      41.927679     20.545798     39.130529
  H      41.229408     19.791760     38.722332
  C      42.892000     20.975000     38.054000
  H      43.495088     20.214556     37.548683
  C      42.969000     22.244000     37.605000
  C      42.118000     23.281000     38.202000
  H      42.285984     24.288530     37.812472
  C      41.188000     23.002000     39.130000
  H      40.575296     23.797172     39.577165
  C      41.038640     21.643984     39.736929
  H      41.319048     21.714706     40.807195
  O      39.676844     21.124367     39.707781
  H      39.134712     21.805635     40.127665
  C      43.956835     22.636059     36.457042
  O      44.655762     21.701609     36.012009
  O      43.922916     23.845173     36.135181
  N      40.832000     18.750000     42.551000
25
Coordinates from ORCA-job job E -836.410656373017
  C      44.804363     20.599671     40.567975
  H      45.069078     20.683596     39.512010
  H      45.552315     20.865528     41.318708
  C      43.593838     20.221752     40.993869
  C      43.192224     20.215865     42.469785
  O      43.783784     19.463463     43.267202
  O      42.187442     20.962407     42.711644
  O      42.568679     19.734408     40.201929
  C      41.947533     20.549922     39.144312
  H      41.229787     19.811235     38.740707
  C      42.892000     20.975000     38.054000
  H      43.493867     20.213724     37.549884
  C      42.969000     22.244000     37.605000
  C      42.118000     23.281000     38.202000
  H      42.276399     24.286315     37.803069
  C      41.188000     23.002000     39.130000
  H      40.580132     23.799706     39.580868
  C      41.096141     21.656146     39.783603
  H      41.452653     21.765278     40.829306
  O      39.742100     21.116156     39.870343
  H      39.189284     21.852218     40.161164
  C      43.949027     22.637175     36.454185
  O      44.644247     21.703158     36.004894
  O      43.901632     23.844410     36.125579
  N      40.832000     18.750000     42.551000
25
Coordinates from ORCA-job job E -836.412828267107
  C      44.792182     20.504086     40.511039
  H      45.018311     20.654030     39.453276
  H      45.567825     20.730489     41.246495
  C      43.596204     20.104932     40.958211
  C      43.217355     19.996615     42.439278
  O      43.624628     19.028259     43.111199
  O      42.377784     20.877155     42.820028
  O      42.537709     19.687106     40.175522
  C      41.950743     20.550261     39.144232
  H      41.199130     19.862020     38.715217
  C      42.892000     20.975000     38.054000
  H      43.489681     20.211892     37.548507
  C      42.969000     22.244000     37.605000
  C      42.118000     23.281000     38.202000
  H      42.261289     24.281805     37.786712
  C      41.188000     23.002000     39.130000
  H      40.581356     23.802709     39.578443
  C      41.157136     21.674004     39.832493
  H      41.612795     21.819986     40.833473
  O      39.815881     21.147759     40.066321
  H      39.249194     21.918127     40.189400
  C      43.936068     22.639681     36.449768
  O      44.633758     21.710741     35.995361
  O      43.889613     23.849848     36.129168
  N      40.832000     18.750000     42.551000
25
Coordinates from ORCA-job job E -836.403178626301
  C      44.747055     20.700181     40.215718
  H      44.805094     20.737221     39.126466
  H      45.553352     21.155803     40.795041
  C      43.678576     20.228800     40.862678
  C      43.398213     20.072441     42.364439
  O      43.854681     19.055209     42.936252
  O      42.462210     20.770551     42.856285
  O      42.576922     19.732912     40.190458
  C      41.987911     20.546069     39.158189
  H      41.223920     19.903571     38.683232
  C      42.892000     20.975000     38.054000
  H      43.520059     20.222265     37.575009
  C      42.969000     22.244000     37.605000
  C      42.118000     23.281000     38.202000
  H      42.237899     24.271942     37.757776
  C      41.188000     23.002000     39.130000
  H      40.607028     23.818938     39.583010
  C      41.235964     21.681017     39.889204
  H      41.770193     21.869289     40.838424
  O      39.884203     21.241326     40.199478
  H      39.357538     22.028422     40.364455
  C      43.881968     22.647006     36.436267
  O      44.583229     21.738418     35.956466
  O      43.779370     23.851953     36.096996
  N      40.832000     18.750000     42.551000
25
Coordinates from ORCA-job job E -836.413581993263
  C      44.836485     20.442509     40.386015
  H      45.011780     20.543347     39.315285
  H      45.640602     20.722892     41.071515
  C      43.663976     20.060264     40.902907
  C      43.324085     19.917516     42.386954
  O      43.655570     18.867139     42.981309
  O      42.523958     20.798424     42.832603
  O      42.551115     19.675717     40.169945
  C      41.969623     20.551723     39.158415
  H      41.192803     19.903619     38.711156
  C      42.892000     20.975000     38.054000
  H      43.498753     20.214689     37.555130
  C      42.969000     22.244000     37.605000
  C      42.118000     23.281000     38.202000
  H      42.240132     24.273973     37.761679
  C      41.188000     23.002000     39.130000
  H      40.589598     23.807723     39.580688
  C      41.219730     21.688682     39.876355
  H      41.744488     21.868882     40.835213
  O      39.897703     21.180448     40.210187
  H      39.336656     21.958125     40.334595
  C      43.908557     22.636500     36.430946
  O      44.616139     21.715140     35.977260
  O      43.832962     23.840025     36.088366
  N      40.832000     18.750000     42.551000
25
Coordinates from ORCA-job job E -836.414194601093
  C      44.795438     20.494911     40.396895
  H      44.971065     20.674668     39.335293
  H      45.596011     20.737063     41.100323
  C      43.634260     20.044274     40.884443
  C      43.294594     19.840569     42.356335
  O      43.507113     18.713312     42.867964
  O      42.615647     20.779487     42.866929
  O      42.531883     19.653457     40.137654
  C      41.956414     20.557771     39.150932
  H      41.159671     19.929360     38.707487
  C      42.892000     20.975000     38.054000
  H      43.481495     20.209035     37.542689
  C      42.969000     22.244000     37.605000
  C      42.118000     23.281000     38.202000
  H      42.234510     24.272253     37.755875
  C      41.188000     23.002000     39.130000
  H      40.576572     23.803076     39.572336
  C      41.240950     21.699074     39.889600
  H      41.810500     21.888309     40.823222
  O      39.946958     21.179917     40.297716
  H      39.351523     21.939592     40.311418
  C      43.918262     22.634885     36.435359
  O      44.628560     21.711434     35.987576
  O      43.849025     23.838269     36.092083
  N      40.832000     18.750000     42.551000
25
Coordinates from ORCA-job job E -836.414215041046
  C      44.775873     20.664154     40.438832
  H      44.947100     20.873751     39.382258
  H      45.553946     20.944045     41.153056
  C      43.645710     20.125078     40.910531
  C      43.312332     19.902221     42.382729
  O      43.621593     18.796858     42.894800
  O      42.590763     20.800905     42.903539
  O      42.571436     19.674634     40.152619
  C      41.969204     20.556466     39.160881
  H      41.178018     19.910401     38.732593
  C      42.892000     20.975000     38.054000
  H      43.475076     20.208828     37.535693
  C      42.969000     22.244000     37.605000
  C      42.118000     23.281000     38.202000
  H      42.229671     24.270358     37.750241
  C      41.188000     23.002000     39.130000
  H      40.565219     23.799121     39.563004
  C      41.242452     21.698396     39.893521
  H      41.811026     21.891818     40.827070
  O      39.949421     21.179449     40.300623
  H      39.353242     21.938882     40.315556
  C      43.921967     22.633425     36.437489
  O      44.642510     21.711098     36.002743
  O      43.853287     23.835526     36.090388
  N      40.832000     18.750000     42.551000
25
Coordinates from ORCA-job job E -836.414486229468
  C      44.801732     20.590332     40.412543
  H      44.974968     20.772928     39.351878
  H      45.587994     20.868019     41.119354
  C      43.662726     20.085035     40.897387
  C      43.322718     19.864616     42.369354
  O      43.572678     18.738260     42.867043
  O      42.616965     20.773879     42.893701
  O      42.569360     19.664668     40.149122
  C      41.972995     20.553451     39.161474
  H      41.181038     19.914314     38.725619
  C      42.892000     20.975000     38.054000
  H      43.484099     20.211828     37.541766
  C      42.969000     22.244000     37.605000
  C      42.118000     23.281000     38.202000
  H      42.229587     24.270100     37.749436
  C      41.188000     23.002000     39.130000
  H      40.569335     23.800288     39.566505
  C      41.249513     21.697262     39.896890
  H      41.820317     21.893637     40.827046
  O      39.952882     21.186495     40.305172
  H      39.353802     21.944217     40.295795
  C      43.919660     22.636872     36.438085
  O      44.643156     21.717801     36.003844
  O      43.839922     23.837178     36.087226
  N      40.832000     18.750000     42.551000
25
Coordinates from ORCA-job job E -836.414447176880
  C      44.773762     20.596659     40.429581
  H      44.960526     20.769044     39.368799
  H      45.550728     20.878463     41.144657
  C      43.630590     20.092516     40.904895
  C      43.277924     19.887851     42.377481
  O      43.547504     18.772326     42.889477
  O      42.557149     20.793112     42.886216
  O      42.547975     19.663303     40.145639
  C      41.960102     20.548972     39.150379
  H      41.176938     19.903844     38.707167
  C      42.892000     20.975000     38.054000
  H      43.490746     20.214079     37.545850
  C      42.969000     22.244000     37.605000
  C      42.118000     23.281000     38.202000
  H      42.236758     24.272385     37.756082
  C      41.188000     23.002000     39.130000
  H      40.569781     23.799356     39.568383
  C      41.219919     21.686246     39.878124
  H      41.762783     21.864937     40.828219
  O      39.907366     21.178307     40.235985
  H      39.320823     21.943750     40.247637
  C      43.927417     22.638227     36.443821
  O      44.655051     21.719455     36.015708
  O      43.846738     23.837658     36.090945
  N      40.832000     18.750000     42.551000
25
Coordinates from ORCA-job job E -836.414553213242
  C      44.785135     20.620978     40.420176
  H      44.961473     20.813243     39.361260
  H      45.565100     20.901095     41.132890
  C      43.653034     20.094064     40.897373
  C      43.309880     19.857088     42.364991
  O      43.543510     18.716256     42.840338
  O      42.620792     20.768183     42.904154
  O      42.566382     19.662840     40.143579
  C      41.969277     20.552116     39.158023
  H      41.178029     19.911360     38.722708
  C      42.892000     20.975000     38.054000
  H      43.487518     20.212928     37.543663
  C      42.969000     22.244000     37.605000
  C      42.118000     23.281000     38.202000
  H      42.231443     24.270441     37.750498
  C      41.188000     23.002000     39.130000
  H      40.568773     23.798675     39.568407
  C      41.243027     21.693996     39.892351
  H      41.808927     21.886546     40.826693
  O      39.943480     21.184095     40.291733
  H      39.339032     21.935428     40.250899
  C      43.924539     22.637943     36.441137
  O      44.654816     21.720337     36.014908
  O      43.840072     23.836262     36.085298
  N      40.832000     18.750000     42.551000
25
Coordinates from ORCA-job job E -836.414570624678
  C      44.784091     20.641579     40.426655
  H      44.960692     20.835735     39.368332
  H      45.559831     20.928819     41.141170
  C      43.656420     20.103862     40.902269
  C      43.313020     19.860662     42.369099
  O      43.554337     18.719843     42.840570
  O      42.619651     20.766251     42.912328
  O      42.572702     19.666391     40.147167
  C      41.972277     20.551575     39.160023
  H      41.182382     19.907666     38.727035
  C      42.892000     20.975000     38.054000
  H      43.488674     20.213451     37.544265
  C      42.969000     22.244000     37.605000
  C      42.118000     23.281000     38.202000
  H      42.230995     24.270177     37.749770
  C      41.188000     23.002000     39.130000
  H      40.568885     23.798201     39.569293
  C      41.242804     21.693536     39.892347
  H      41.806197     21.886773     40.827915
  O      39.941949     21.184948     40.289374
  H      39.335369     21.933900     40.235956
  C      43.923978     22.638148     36.440671
  O      44.657098     21.721623     36.017103
  O      43.836714     23.835569     36.082664
  N      40.832000     18.750000     42.551000
25
Coordinates from ORCA-job job E -836.414599217699
  C      44.777464     20.679571     40.437502
  H      44.954682     20.880668     39.380722
  H      45.545397     20.977063     41.156315
  C      43.659145     20.119006     40.908535
  C      43.314954     19.858737     42.371949
  O      43.554398     18.710501     42.826981
  O      42.624371     20.758441     42.927762
  O      42.581488     19.670131     40.149837
  C      41.976070     20.550723     39.162185
  H      41.187359     19.902769     38.733065
  C      42.892000     20.975000     38.054000
  H      43.491227     20.214404     37.545732
  C      42.969000     22.244000     37.605000
  C      42.118000     23.281000     38.202000
  H      42.230749     24.269835     37.748882
  C      41.188000     23.002000     39.130000
  H      40.569454     23.797011     39.572047
  C      41.242152     21.692491     39.891678
  H      41.801422     21.886491     40.829466
  O      39.939453     21.185763     40.285677
  H      39.324824     21.923415     40.187604
  C      43.923595     22.638876     36.440110
  O      44.662741     21.724686     36.022126
  O      43.829738     23.834146     36.077029
  N      40.832000     18.750000     42.551000
25
Coordinates from ORCA-job job E -836.414749949729
  C      44.747794     20.811427     40.475791
  H      44.925235     21.039749     39.425016
  H      45.487868     21.140880     41.209988
  C      43.666259     20.170884     40.929624
  C      43.323926     19.845705     42.378819
  O      43.554560     18.671811     42.771178
  O      42.645725     20.723494     42.981744
  O      42.611401     19.682776     40.157716
  C      41.989137     20.547634     39.168833
  H      41.205106     19.884992     38.753497
  C      42.892000     20.975000     38.054000
  H      43.499950     20.217645     37.550756
  C      42.969000     22.244000     37.605000
  C      42.118000     23.281000     38.202000
  H      42.230502     24.268865     37.746445
  C      41.188000     23.002000     39.130000
  H      40.572092     23.792304     39.583166
  C      41.237560     21.687900     39.887360
  H      41.778047     21.883002     40.835529
  O      39.926976     21.188101     40.267763
  H      39.289618     21.849942     39.974374
  C      43.920687     22.641493     36.436915
  O      44.680115     21.736116     36.037047
  O      43.803459     23.828990     36.056579
  N      40.832000     18.750000     42.551000
25
Coordinates from ORCA-job job E -836.415057061705
  C      44.715224     20.928761     40.513611
  H      44.889678     21.187697     39.469962
  H      45.428149     21.283760     41.262844
  C      43.673295     20.213866     40.948214
  C      43.337868     19.825336     42.381861
  O      43.555411     18.628591     42.710409
  O      42.678520     20.681758     43.033647
  O      42.639972     19.693456     40.163766
  C      42.002519     20.545654     39.175912
  H      41.221120     19.871728     38.773488
  C      42.892000     20.975000     38.054000
  H      43.505907     20.220062     37.553910
  C      42.969000     22.244000     37.605000
  C      42.118000     23.281000     38.202000
  H      42.228248     24.267332     37.742413
  C      41.188000     23.002000     39.130000
  H      40.572490     23.787314     39.591075
  C      41.238362     21.685687     39.886864
  H      41.766644     21.884177     40.840635
  O      39.923493     21.194973     40.266569
  H      39.283143     21.728125     39.781016
  C      43.916049     22.643482     36.432641
  O      44.691354     21.746015     36.046109
  O      43.779415     23.824272     36.038796
  N      40.832000     18.750000     42.551000
25
Coordinates from ORCA-job job E -836.415452993682
  C      44.695583     20.977767     40.536002
  H      44.868849     21.253469     39.496785
  H      45.394391     21.342087     41.294073
  C      43.673061     20.228073     40.957968
  C      43.341271     19.810373     42.383919
  O      43.552232     18.604645     42.683239
  O      42.692454     20.657383     43.058336
  O      42.651152     19.695544     40.164820
  C      42.008555     20.544878     39.178996
  H      41.227066     19.867471     38.781593
  C      42.892000     20.975000     38.054000
  H      43.507425     20.220915     37.554255
  C      42.969000     22.244000     37.605000
  C      42.118000     23.281000     38.202000
  H      42.225503     24.266029     37.738924
  C      41.188000     23.002000     39.130000
  H      40.568659     23.783180     39.591473
  C      41.240102     21.685470     39.887621
  H      41.762686     21.884972     40.843604
  O      39.924663     21.203286     40.273980
  H      39.295712     21.624803     39.675711
  C      43.910488     22.643330     36.427351
  O      44.688482     21.747861     36.041877
  O      43.766666     23.821942     36.029834
  N      40.832000     18.750000     42.551000
25
Coordinates from ORCA-job job E -836.416005140874
  C      44.695583     20.889769     40.546830
  H      44.878191     21.158882     39.507610
  H      45.406203     21.228095     41.305516
  C      43.641383     20.178729     40.960626
  C      43.298294     19.802853     42.399013
  O      43.508388     18.613101     42.747061
  O      42.643687     20.674720     43.039445
  O      42.615998     19.678385     40.156905
  C      41.995282     20.546234     39.171052
  H      41.210105     19.881672     38.757004
  C      42.892000     20.975000     38.054000
  H      43.498004     20.217603     37.547702
  C      42.969000     22.244000     37.605000
  C      42.118000     23.281000     38.202000
  H      42.222196     24.265688     37.737932
  C      41.188000     23.002000     39.130000
  H      40.555806     23.780456     39.573988
  C      41.233322     21.688437     39.886448
  H      41.750916     21.877508     40.844798
  O      39.920499     21.225314     40.287749
  H      39.308355     21.594259     39.634286
  C      43.902237     22.638628     36.420634
  O      44.660088     21.735576     36.012792
  O      43.770918     23.822981     36.034366
  N      40.832000     18.750000     42.551000
25
Coordinates from ORCA-job job E -836.416494331353
  C      44.708870     20.861935     40.519316
  H      44.875184     21.137909     39.478547
  H      45.441325     21.180068     41.265809
  C      43.650199     20.164825     40.944823
  C      43.330968     19.772614     42.382329
  O      43.539431     18.579919     42.718312
  O      42.688071     20.643117     43.037234
  O      42.610330     19.678959     40.153845
  C      41.992012     20.547179     39.168627
  H      41.208466     19.881851     38.751609
  C      42.892000     20.975000     38.054000
  H      43.496594     20.216563     37.547525
  C      42.969000     22.244000     37.605000
  C      42.118000     23.281000     38.202000
  H      42.222784     24.266315     37.739364
  C      41.188000     23.002000     39.130000
  H      40.554595     23.781314     39.571290
  C      41.231837     21.687556     39.886095
  H      41.748493     21.872718     40.846351
  O      39.919116     21.223368     40.287816
  H      39.316978     21.537799     39.599526
  C      43.901539     22.638258     36.421283
  O      44.653233     21.733125     36.007055
  O      43.775252     23.824988     36.039496
  N      40.832000     18.750000     42.551000
25
Coordinates from ORCA-job job E -836.416799928266
  C      44.719190     20.825242     40.497192
  H      44.873937     21.106687     39.455795
  H      45.467913     21.127285     41.233937
  C      43.653225     20.144017     40.930013
  C      43.347248     19.750259     42.369291
  O      43.551289     18.556967     42.705011
  O      42.710270     20.622181     43.028126
  O      42.599376     19.676657     40.150112
  C      41.986823     20.549039     39.165624
  H      41.204539     19.887141     38.741086
  C      42.892000     20.975000     38.054000
  H      43.493980     20.215201     37.546879
  C      42.969000     22.244000     37.605000
  C      42.118000     23.281000     38.202000
  H      42.224128     24.267367     37.741988
  C      41.188000     23.002000     39.130000
  H      40.554496     23.784051     39.567883
  C      41.231758     21.688401     39.887636
  H      41.752986     21.869091     40.846820
  O      39.920632     21.221120     40.291293
  H      39.326424     21.478334     39.573163
  C      43.904757     22.637824     36.425683
  O      44.650810     21.730501     36.006324
  O      43.787436     23.827537     36.049183
  N      40.832000     18.750000     42.551000
25
Coordinates from ORCA-job job E -836.417048275526
  C      44.729655     20.778802     40.476254
  H      44.878208     21.063463     39.434753
  H      45.491380     21.063623     41.206338
  C      43.654811     20.115299     40.915015
  C      43.356140     19.725007     42.357615
  O      43.555372     18.531792     42.695098
  O      42.727368     20.602154     43.018645
  O      42.585731     19.669400     40.145787
  C      41.982631     20.549296     39.162443
  H      41.200509     19.892167     38.730080
  C      42.892000     20.975000     38.054000
  H      43.492566     20.214867     37.545753
  C      42.969000     22.244000     37.605000
  C      42.118000     23.281000     38.202000
  H      42.223672     24.267410     37.741984
  C      41.188000     23.002000     39.130000
  H      40.552151     23.783860     39.564255
  C      41.231810     21.689377     39.888292
  H      41.755825     21.865123     40.846366
  O      39.922142     21.225074     40.298588
  H      39.345588     21.389029     39.539326
  C      43.906444     22.636743     36.426755
  O      44.645507     21.725827     36.002677
  O      43.799750     23.829750     36.057820
  N      40.832000     18.750000     42.551000
25
Coordinates from ORCA-job job E -836.416905394148
  C      44.778118     20.542466     40.365432
  H      44.908394     20.808896     39.315718
  H      45.598420     20.749703     41.056485
  C      43.653445     20.003281     40.848076
  C      43.382372     19.672494     42.312726
  O      43.581913     18.496032     42.701742
  O      42.760618     20.576387     42.944555
  O      42.524164     19.648022     40.129538
  C      41.957368     20.553380     39.145994
  H      41.177186     19.917634     38.680153
  C      42.892000     20.975000     38.054000
  H      43.485616     20.212133     37.542548
  C      42.969000     22.244000     37.605000
  C      42.118000     23.281000     38.202000
  H      42.229621     24.270919     37.751141
  C      41.188000     23.002000     39.130000
  H      40.555276     23.793325     39.554388
  C      41.227623     21.692528     39.888360
  H      41.772683     21.851257     40.838378
  O      39.923379     21.215859     40.302065
  H      39.338371     21.381654     39.550030
  C      43.927827     22.635201     36.446429
  O      44.647031     21.713428     36.010695
  O      43.861712     23.838486     36.101978
  N      40.832000     18.750000     42.551000
25
Coordinates from ORCA-job job E -836.417141419307
  C      44.761310     20.653134     40.417930
  H      44.907870     20.928029     39.373457
  H      45.549864     20.898443     41.133477
  C      43.658762     20.051946     40.877438
  C      43.369113     19.695362     42.331853
  O      43.564384     18.508239     42.693635
  O      42.749837     20.588461     42.978611
  O      42.553036     19.653497     40.135208
  C      41.971086     20.550676     39.153672
  H      41.186386     19.907429     38.703056
  C      42.892000     20.975000     38.054000
  H      43.489040     20.214428     37.542760
  C      42.969000     22.244000     37.605000
  C      42.118000     23.281000     38.202000
  H      42.224324     24.268060     37.743444
  C      41.188000     23.002000     39.130000
  H      40.548151     23.783654     39.558276
  C      41.234114     21.692412     39.890083
  H      41.773506     21.860146     40.840854
  O      39.932001     21.230211     40.320453
  H      39.380453     21.246716     39.524787
  C      43.919002     22.635748     36.436067
  O      44.645138     21.717061     36.005334
  O      43.833610     23.833663     36.079512
  N      40.832000     18.750000     42.551000
25
Coordinates from ORCA-job job E -836.417205271872
  C      44.755450     20.692970     40.436446
  H      44.910280     20.958206     39.390712
  H      45.531335     20.958133     41.159094
  C      43.658277     20.080090     40.892726
  C      43.356228     19.726798     42.345115
  O      43.560198     18.542953     42.712514
  O      42.723443     20.617256     42.982915
  O      42.566775     19.659641     40.139558
  C      41.975694     20.548239     39.156109
  H      41.192385     19.897908     38.713915
  C      42.892000     20.975000     38.054000
  H      43.491746     20.215619     37.543898
  C      42.969000     22.244000     37.605000
  C      42.118000     23.281000     38.202000
  H      42.225015     24.267937     37.743320
  C      41.188000     23.002000     39.130000
  H      40.550986     23.783003     39.563791
  C      41.230314     21.688862     39.886308
  H      41.760517     21.859985     40.841857
  O      39.922765     21.226536     40.302668
  H      39.353108     21.346216     39.529878
  C      43.914383     22.636352     36.431904
  O      44.649207     21.721607     36.008116
  O      43.817226     23.831205     36.068003
  N      40.832000     18.750000     42.551000
25
Coordinates from ORCA-job job E -836.417247417973
  C      44.765251     20.651535     40.416254
  H      44.920244     20.907832     39.368162
  H      45.549929     20.906006     41.133176
  C      43.657866     20.064296     40.881456
  C      43.357420     19.730068     42.338911
  O      43.565145     18.552067     42.722925
  O      42.720553     20.625977     42.964222
  O      42.556668     19.656084     40.136469
  C      41.971052     20.548751     39.152860
  H      41.187990     19.901897     38.705075
  C      42.892000     20.975000     38.054000
  H      43.490834     20.215421     37.543229
  C      42.969000     22.244000     37.605000
  C      42.118000     23.281000     38.202000
  H      42.226287     24.268608     37.745077
  C      41.188000     23.002000     39.130000
  H      40.550996     23.783885     39.562529
  C      41.228987     21.689158     39.885822
  H      41.762447     21.857258     40.840195
  O      39.922570     21.225808     40.303344
  H      39.355171     21.330730     39.526605
  C      43.919519     22.636055     36.436308
  O      44.653492     21.720052     36.013429
  O      43.827022     23.831619     36.073672
  N      40.832000     18.750000     42.551000
25
Coordinates from ORCA-job job E -836.417304220739
  C      44.780221     20.593727     40.389706
  H      44.942834     20.824065     39.336552
  H      45.571996     20.841499     41.101309
  C      43.656302     20.051422     40.869176
  C      43.348717     19.761873     42.334985
  O      43.571070     18.600242     42.759535
  O      42.693174     20.666754     42.925900
  O      42.545640     19.652551     40.132797
  C      41.965004     20.548143     39.147858
  H      41.183440     19.903241     38.694342
  C      42.892000     20.975000     38.054000
  H      43.491193     20.216044     37.542793
  C      42.969000     22.244000     37.605000
  C      42.118000     23.281000     38.202000
  H      42.228384     24.269549     37.747620
  C      41.188000     23.002000     39.130000
  H      40.551112     23.783805     39.562914
  C      41.223886     21.687739     39.882466
  H      41.756843     21.851337     40.837999
  O      39.916875     21.225198     40.296420
  H      39.356190     21.312428     39.512465
  C      43.926604     22.635458     36.442033
  O      44.664367     21.719228     36.025701
  O      43.835096     23.829924     36.076071
  N      40.832000     18.750000     42.551000
25
Coordinates from ORCA-job job E -836.417340603733
  C      44.788592     20.568775     40.381900
  H      44.962709     20.770894     39.324738
  H      45.578461     20.823825     41.093286
  C      43.653029     20.058902     40.869042
  C      43.330725     19.814227     42.339995
  O      43.572518     18.672751     42.807453
  O      42.649094     20.723781     42.891919
  O      42.543621     19.653743     40.132651
  C      41.961801     20.546931     39.144827
  H      41.183037     19.899167     38.690457
  C      42.892000     20.975000     38.054000
  H      43.492670     20.217009     37.543156
  C      42.969000     22.244000     37.605000
  C      42.118000     23.281000     38.202000
  H      42.230135     24.270278     37.749653
  C      41.188000     23.002000     39.130000
  H      40.551708     23.783061     39.565014
  C      41.216241     21.685163     39.877351
  H      41.742222     21.845434     40.837351
  O      39.905790     21.224270     40.280660
  H      39.352621     21.309134     39.490962
  C      43.929736     22.634605     36.444358
  O      44.673545     21.719599     36.035620
  O      43.833614     23.826436     36.071382
  N      40.832000     18.750000     42.551000
25
Coordinates from ORCA-job job E -836.417359215952
  C      44.785429     20.588659     40.394109
  H      44.965609     20.781294     39.336266
  H      45.568076     20.857156     41.108630
  C      43.649649     20.077084     40.878814
  C      43.316122     19.844133     42.349193
  O      43.564715     18.709343     42.829650
  O      42.622597     20.752813     42.887486
  O      42.549525     19.657685     40.135376
  C      41.962787     20.546159     39.145385
  H      41.186356     19.893495     38.694240
  C      42.892000     20.975000     38.054000
  H      43.494100     20.217469     37.544124
  C      42.969000     22.244000     37.605000
  C      42.118000     23.281000     38.202000
  H      42.230489     24.270411     37.750069
  C      41.188000     23.002000     39.130000
  H      40.552219     23.782487     39.566578
  C      41.211242     21.683436     39.874174
  H      41.729209     21.843124     40.838590
  O      39.897205     21.223668     40.267613
  H      39.348892     21.314615     39.475253
  C      43.927223     22.634086     36.442118
  O      44.673856     21.720361     36.035572
  O      43.826139     23.824272     36.065101
  N      40.832000     18.750000     42.551000
25
Coordinates from ORCA-job job E -836.417366490683
  C      44.781604     20.609343     40.404613
  H      44.962628     20.799346     39.346439
  H      45.559856     20.887649     41.120154
  C      43.648247     20.089782     40.886477
  C      43.308979     19.857286     42.355631
  O      43.558490     18.723390     42.837881
  O      42.611069     20.764608     42.890943
  O      42.555324     19.660828     40.137817
  C      41.964513     20.546151     39.146862
  H      41.189954     19.889633     38.698593
  C      42.892000     20.975000     38.054000
  H      43.494611     20.217328     37.544943
  C      42.969000     22.244000     37.605000
  C      42.118000     23.281000     38.202000
  H      42.230544     24.270502     37.750348
  C      41.188000     23.002000     39.130000
  H      40.553007     23.782882     39.567012
  C      41.208602     21.682800     39.872724
  H      41.720789     21.842520     40.840148
  O      39.892086     21.222469     40.258778
  H      39.345957     21.321708     39.466042
  C      43.924218     22.633903     36.439733
  O      44.671285     21.720835     36.032569
  O      43.820926     23.823729     36.061934
  N      40.832000     18.750000     42.551000
25
Coordinates from ORCA-job job E -836.417368733408
  C      44.780973     20.615556     40.407921
  H      44.961323     20.803551     39.349240
  H      45.558736     20.897032     41.122664
  C      43.648116     20.094299     40.889127
  C      43.307084     19.862808     42.358037
  O      43.557473     18.729685     42.841734
  O      42.606839     20.769440     42.891643
  O      42.557392     19.662559     40.139163
  C      41.965145     20.546537     39.147583
  H      41.191756     19.888143     38.700259
  C      42.892000     20.975000     38.054000
  H      43.494370     20.216943     37.545244
  C      42.969000     22.244000     37.605000
  C      42.118000     23.281000     38.202000
  H      42.230650     24.270652     37.750760
  C      41.188000     23.002000     39.130000
  H      40.553459     23.783517     39.566531
  C      41.207368     21.682799     39.872242
  H      41.716987     21.842152     40.841044
  O      39.889923     21.221673     40.254856
  H      39.345341     21.321947     39.461210
  C      43.923432     22.633856     36.439224
  O      44.669737     21.720672     36.030983
  O      43.820599     23.824010     36.062134
  N      40.832000     18.750000     42.551000
25
Coordinates from ORCA-job job E -836.417369943390
  C      44.780115     20.622249     40.411118
  H      44.959210     20.808833     39.351923
  H      45.557797     20.906328     41.124804
  C      43.648031     20.098698     40.891637
  C      43.306167     19.866716     42.360240
  O      43.557361     18.733639     42.843773
  O      42.604262     20.772177     42.893608
  O      42.559125     19.664499     40.140736
  C      41.965786     20.547089     39.148367
  H      41.193466     19.886977     38.701816
  C      42.892000     20.975000     38.054000
  H      43.493874     20.216418     37.545449
  C      42.969000     22.244000     37.605000
  C      42.118000     23.281000     38.202000
  H      42.230811     24.270811     37.751204
  C      41.188000     23.002000     39.130000
  H      40.553718     23.784252     39.565597
  C      41.206344     21.682951     39.871930
  H      41.713717     21.841873     40.841966
  O      39.888253     21.220916     40.251743
  H      39.345662     21.319194     39.456453
  C      43.922957     22.633939     36.438873
  O      44.667572     21.720227     36.028760
  O      43.821503     23.824719     36.063362
  N      40.832000     18.750000     42.551000
25
Coordinates from ORCA-job job E -836.417370091921
  C      44.780366     20.621521     40.410759
  H      44.959230     20.807718     39.351447
  H      45.558357     20.905450     41.124155
  C      43.648107     20.098603     40.891536
  C      43.306340     19.866910     42.360220
  O      43.557640     18.733885     42.843827
  O      42.604457     20.772399     42.893508
  O      42.558890     19.664641     40.140942
  C      41.965755     20.547114     39.148362
  H      41.193506     19.886945     38.701726
  C      42.892000     20.975000     38.054000
  H      43.493717     20.216345     37.545372
  C      42.969000     22.244000     37.605000
  C      42.118000     23.281000     38.202000
  H      42.230903     24.270845     37.751314
  C      41.188000     23.002000     39.130000
  H      40.553686     23.784364     39.565376
  C      41.206263     21.682957     39.871917
  H      41.713637     21.841771     40.842004
  O      39.888218     21.220863     40.251733
  H      39.345857     21.318448     39.456207
  C      43.923207     22.633961     36.438998
  O      44.667229     21.719964     36.028471
  O      43.822534     23.824994     36.064139
  N      40.832000     18.750000     42.551000
