26
frame 41786 TS + spheres +0.5 and -0.5
C      44.70379052    22.03027296    39.81275914
H      45.20020973    21.32269008    39.15420796
H      45.15889864    23.00311738    39.98393007
C      43.72425635    21.59432659    40.70192600
C      43.17336027    22.57325449    41.76356390
O      43.72140636    23.69648776    41.89957433
O      42.20993835    22.16457862    42.45766578
O      43.18280246    20.44687051    40.60088548
C      41.78769414    20.46400695    38.91140584
H      41.54085831    19.40479005    39.00809600
C      42.75174571    20.86754005    38.00762368
H      43.36693525    20.13849608    37.47785961
C      43.10710658    22.22005834    37.93767025
C      42.22677073    23.21735280    38.54786036
H      42.48482481    24.26102502    38.37652753
C      41.15907140    22.85948863    39.27662794
H      40.52321273    23.62324191    39.73233625
C      40.77426067    21.42409828    39.49724974
H      40.72486813    21.25087906    40.58210260
O      39.50982323    21.17982523    38.89464957
H      38.88165035    20.74013889    39.55723441
C      44.07600637    22.70000689    36.85809396
O      44.98053199    21.93818806    36.44381127
O      43.88431578    23.87729649    36.44974994
N      40.83200000    18.75000000    42.55100000
N      44.52500000    25.58000000    44.86300000
