37
Coordinates from ORCA-job job
  C          44.44016243721174     18.85919544953538     39.84637860806498
  H          44.56285291430301     18.75183564902954     38.76821226785879
  H          45.29403838640143     18.71360264292231     40.50938642619344
  C          43.27358302931020     19.19052605503184     40.41103651630661
  C          43.12532322727376     19.32643056732510     41.93290242251385
  O          44.06761668935672     18.98633897357958     42.65039072968305
  O          41.99336457266325     19.77982460326918     42.31634997256138
  O          42.09915040347216     19.33088399076138     39.69243553416662
  C          41.81474351842115     20.55436176365830     38.98010578752260
  H          40.90671863227244     20.28436961369256     38.39318594029244
  C          42.89200000000000     20.97500000000000     38.05400000000000
  H          43.50167197873629     20.23269368134675     37.53294551780015
  C          42.96900000000000     22.24400000000000     37.60500000000000
  C          42.11800000000000     23.28100000000000     38.20199999999999
  H          42.20852341511634     24.25942298830667     37.72058548885207
  C          41.18800000000000     23.00200000000000     39.13000000000000
  H          40.53895885696853     23.75705793715500     39.58764758764209
  C          41.41168496243506     21.70303584503711     39.90087477781341
  H          42.28706006303101     21.89365859713412     40.56044337893095
  O          40.33462122342866     21.31028821901620     40.72469445071440
  H          40.81407354513210     20.69864662706596     41.35094308109843
  C          43.94725837800278     22.64585718028489     36.46028858230395
  O          44.61781081902907     21.71312900787521     35.97370990410710
  O          43.92507317069083     23.86351674126061     36.16428116402475
  C          39.38800000000000     20.55700000000000     43.51300000000000
  H          39.58792508999999     20.54988523000000     44.58448464000000
  H          38.39445382576663     20.98945189526414     43.34529829356818
  H          40.14068046006066     21.22593041647611     43.08197605074199
  N          39.49108748741134     19.18959246130949     42.97333145272870
  H          40.43376287175911     18.85349236040989     43.18502687323056
  C          39.07822512230789     18.78421535127159     41.77416779156576
  N          38.21199599824571     19.52262347397722     41.09916895134135
  H          37.43673435454676     19.92599166486418     41.59422613229165
  H          38.64591581116305     20.20210188600451     40.47033402429579
  N          39.97155602904628     18.14037915845553     41.04993322747954
  H          40.94435413346011     18.41628799834015     41.21175538526583
  H          39.82740230672623     18.02022141804025     40.06060501554060
