37
Coordinates from ORCA-job job E -836.392772778956
  C      44.842000     22.068000     40.142000
  H      45.265000     21.440000     39.358000
  H      45.368000     22.976000     40.435000
  C      43.689000     21.758000     40.746000
  C      43.115000     22.623000     41.859000
  O      43.577000     23.785000     42.012000
  O      42.221000     22.117000     42.579000
  O      42.985000     20.610000     40.433000
  C      42.079000     20.646000     39.270000
  H      41.683000     19.622000     39.219000
  C      42.892000     20.975000     38.054000
  H      43.551000     20.209000     37.638000
  C      42.969000     22.244000     37.605000
  C      42.118000     23.281000     38.202000
  H      42.307000     24.301000     37.867000
  C      41.188000     23.002000     39.130000
  H      40.598000     23.809000     39.575000
  C      40.887000     21.588000     39.553000
  H      40.742000     21.566000     40.644000
  O      39.715000     21.144000     38.884000
  H      39.068000     20.737000     39.535000
  C      44.024000     22.694000     36.600000
  O      44.937000     21.905000     36.259000
  O      43.944000     23.900000     36.236000
  C      39.388000     20.557000     43.513000
  H      39.587925     20.549885     44.584485
  H      38.481000     19.989000     43.303000
  H      39.228000     21.585000     43.184000
  N      40.526000     20.009000     42.765000
  H      41.208000     20.692000     42.431000
  C      40.832000     18.750000     42.551000
  N      40.096000     17.780000     43.009000
  H      39.254000     17.999000     43.497000
  H      40.384000     16.830000     42.804000
  N      41.894000     18.432000     41.873000
  H      42.451000     19.181000     41.462000
  H      42.094000     17.464000     41.688000
37
Coordinates from ORCA-job job E -836.403794924124
  C      44.849303     22.079255     40.238481
  H      45.279147     21.482459     39.431429
  H      45.356712     22.989132     40.557404
  C      43.687374     21.758570     40.818720
  C      43.090844     22.602179     41.951754
  O      43.583412     23.733623     42.137841
  O      42.178274     22.064508     42.642755
  O      42.991170     20.608895     40.462249
  C      42.101377     20.652510     39.285013
  H      41.700237     19.623644     39.237012
  C      42.892000     20.975000     38.054000
  H      43.549196     20.212213     37.628426
  C      42.969000     22.244000     37.605000
  C      42.118000     23.281000     38.202000
  H      42.301619     24.297227     37.850459
  C      41.188000     23.002000     39.130000
  H      40.584865     23.801967     39.570701
  C      40.904931     21.590068     39.563330
  H      40.752392     21.565929     40.657591
  O      39.730078     21.119608     38.891050
  H      39.133256     20.722512     39.536223
  C      43.997214     22.659103     36.545948
  O      44.808351     21.784781     36.160667
  O      43.865449     23.831593     36.103888
  C      39.388000     20.557000     43.513000
  H      39.587925     20.549885     44.584485
  H      38.464431     20.007168     43.303843
  H      39.246244     21.596291     43.190707
  N      40.524587     19.989174     42.768690
  H      41.212461     20.684603     42.449571
  C      40.837882     18.726249     42.542084
  N      40.094754     17.739518     42.992714
  H      39.245644     17.944167     43.488384
  H      40.361620     16.787539     42.798132
  N      41.918267     18.436739     41.857550
  H      42.469784     19.197132     41.453309
  H      42.164254     17.488560     41.641127
37
Coordinates from ORCA-job job E -836.406294718590
  C      44.859022     22.050630     40.270480
  H      45.273083     21.466394     39.444587
  H      45.370431     22.954125     40.602466
  C      43.695960     21.743398     40.854358
  C      43.110222     22.585048     42.013790
  O      43.637737     23.684585     42.204079
  O      42.178245     22.038391     42.686738
  O      42.991032     20.598321     40.472880
  C      42.115637     20.654324     39.290835
  H      41.706671     19.624074     39.244530
  C      42.892000     20.975000     38.054000
  H      43.548564     20.218906     37.615782
  C      42.969000     22.244000     37.605000
  C      42.118000     23.281000     38.202000
  H      42.298099     24.293484     37.834115
  C      41.188000     23.002000     39.130000
  H      40.571687     23.793206     39.569137
  C      40.921195     21.592155     39.569943
  H      40.765070     21.563198     40.665945
  O      39.736708     21.098011     38.902632
  H      39.185014     20.708874     39.561726
  C      43.974921     22.627441     36.494235
  O      44.813996     21.739987     36.221422
  O      43.911897     23.824808     36.124246
  C      39.388000     20.557000     43.513000
  H      39.587925     20.549885     44.584485
  H      38.447009     20.029485     43.306395
  H      39.268295     21.606562     43.199071
  N      40.517160     19.964932     42.771098
  H      41.216427     20.672019     42.465080
  C      40.830122     18.696509     42.534205
  N      40.072284     17.699374     42.981501
  H      39.218905     17.894801     43.484583
  H      40.306442     16.740236     42.802587
  N      41.928136     18.430913     41.843829
  H      42.476805     19.199495     41.442037
  H      42.222223     17.506416     41.594639
37
Coordinates from ORCA-job job E -836.407392028988
  C      44.854052     22.012768     40.227860
  H      45.229378     21.434066     39.380876
  H      45.381866     22.910087     40.553332
  C      43.706077     21.720261     40.847302
  C      43.160344     22.567784     42.035616
  O      43.724104     23.642833     42.227001
  O      42.209968     22.041812     42.699396
  O      42.984826     20.582006     40.468003
  C      42.117938     20.652386     39.290242
  H      41.697004     19.628346     39.242838
  C      42.892000     20.975000     38.054000
  H      43.546146     20.224945     37.603042
  C      42.969000     22.244000     37.605000
  C      42.118000     23.281000     38.202000
  H      42.294743     24.290844     37.822446
  C      41.188000     23.002000     39.130000
  H      40.559690     23.786507     39.564606
  C      40.932036     21.595973     39.576758
  H      40.780062     21.566424     40.671050
  O      39.732958     21.091042     38.928435
  H      39.202864     20.692050     39.626428
  C      43.931617     22.610617     36.431659
  O      44.647027     21.662534     36.042984
  O      43.776351     23.763428     35.975245
  C      39.388000     20.557000     43.513000
  H      39.587925     20.549885     44.584485
  H      38.442511     20.037713     43.307351
  H      39.276145     21.609934     43.208609
  N      40.513656     19.959756     42.770241
  H      41.221457     20.671755     42.476101
  C      40.826738     18.690739     42.526539
  N      40.060726     17.691355     42.971676
  H      39.210004     17.880490     43.481547
  H      40.274471     16.724536     42.803529
  N      41.933839     18.437152     41.835556
  H      42.480539     19.208341     41.428516
  H      42.258372     17.526762     41.569879
37
Coordinates from ORCA-job job E -836.408783365618
  C      44.854734     22.019919     40.262869
  H      45.247888     21.451346     39.418792
  H      45.372267     22.918289     40.601431
  C      43.700355     21.709105     40.862938
  C      43.137294     22.538222     42.048091
  O      43.711465     23.608780     42.286368
  O      42.184205     22.011700     42.697297
  O      42.986592     20.572946     40.473580
  C      42.116617     20.651538     39.292769
  H      41.690010     19.632433     39.238175
  C      42.892000     20.975000     38.054000
  H      43.540776     20.221400     37.600427
  C      42.969000     22.244000     37.605000
  C      42.118000     23.281000     38.202000
  H      42.292878     24.291541     37.825733
  C      41.188000     23.002000     39.130000
  H      40.559448     23.788817     39.559517
  C      40.930593     21.597357     39.581189
  H      40.781437     21.571923     40.674389
  O      39.731252     21.101942     38.936846
  H      39.192678     20.690468     39.631747
  C      43.906684     22.619637     36.418790
  O      44.660570     21.706534     36.015903
  O      43.775482     23.791688     35.998361
  C      39.388000     20.557000     43.513000
  H      39.587925     20.549885     44.584485
  H      38.451934     20.025824     43.305226
  H      39.264422     21.605519     43.208103
  N      40.518602     19.975400     42.767706
  H      41.219553     20.679036     42.477331
  C      40.830906     18.710120     42.524296
  N      40.070369     17.716402     42.965142
  H      39.224448     17.907657     43.475471
  H      40.298051     16.751655     42.787832
  N      41.929573     18.444575     41.838129
  H      42.478058     19.211104     41.430078
  H      42.233147     17.522222     41.585046
37
Coordinates from ORCA-job job E -836.409261661119
  C      44.891537     21.972658     40.245762
  H      45.267757     21.397273     39.398569
  H      45.430679     22.857654     40.585518
  C      43.737959     21.680788     40.857045
  C      43.209740     22.515541     42.053209
  O      43.816206     23.569160     42.293175
  O      42.237412     22.022308     42.697701
  O      42.996696     20.560195     40.472099
  C      42.121873     20.650924     39.294140
  H      41.688357     19.634831     39.234415
  C      42.892000     20.975000     38.054000
  H      43.536334     20.221030     37.593537
  C      42.969000     22.244000     37.605000
  C      42.118000     23.281000     38.202000
  H      42.291739     24.291150     37.824441
  C      41.188000     23.002000     39.130000
  H      40.554876     23.787167     39.555939
  C      40.937129     21.597873     39.586626
  H      40.792344     21.570187     40.679867
  O      39.733555     21.102546     38.947943
  H      39.212686     20.678674     39.637376
  C      43.893393     22.618234     36.409491
  O      44.654799     21.710740     36.009406
  O      43.773276     23.797505     36.005229
  C      39.388000     20.557000     43.513000
  H      39.587925     20.549885     44.584485
  H      38.449329     20.030499     43.305258
  H      39.270711     21.606073     43.207819
  N      40.514643     19.969611     42.769223
  H      41.224398     20.669467     42.485589
  C      40.817513     18.702421     42.525912
  N      40.047853     17.715181     42.960910
  H      39.203105     17.911654     43.470769
  H      40.270943     16.749208     42.784956
  N      41.918725     18.427172     41.850475
  H      42.473068     19.190364     41.442438
  H      42.218334     17.502255     41.602348
37
Coordinates from ORCA-job job E -836.409808651069
  C      44.898755     21.937818     40.240716
  H      45.260749     21.371060     39.381373
  H      45.450598     22.809896     40.593192
  C      43.749973     21.647589     40.861669
  C      43.246462     22.467138     42.080467
  O      43.890594     23.490159     42.347481
  O      42.250938     21.995541     42.704631
  O      42.993816     20.539805     40.469084
  C      42.122716     20.647502     39.292422
  H      41.679415     19.635784     39.224779
  C      42.892000     20.975000     38.054000
  H      43.532975     20.223022     37.585031
  C      42.969000     22.244000     37.605000
  C      42.118000     23.281000     38.202000
  H      42.290594     24.290279     37.820994
  C      41.188000     23.002000     39.130000
  H      40.548753     23.784307     39.552344
  C      40.943746     21.599729     39.592740
  H      40.806713     21.572089     40.687326
  O      39.730218     21.103983     38.967043
  H      39.236666     20.657770     39.659263
  C      43.882987     22.614298     36.398927
  O      44.630865     21.699532     35.992961
  O      43.760163     23.792778     35.995826
  C      39.388000     20.557000     43.513000
  H      39.587925     20.549885     44.584485
  H      38.446910     20.033993     43.305975
  H      39.274439     21.607473     43.210044
  N      40.511875     19.966258     42.768186
  H      41.228087     20.665083     42.495249
  C      40.809015     18.697461     42.522384
  N      40.032062     17.713013     42.952847
  H      39.190197     17.910320     43.467858
  H      40.247668     16.745222     42.779286
  N      41.913590     18.418887     41.852836
  H      42.468407     19.180265     41.441771
  H      42.218142     17.495832     41.604006
37
Coordinates from ORCA-job job E -836.410888502080
  C      44.924017     21.859833     40.225806
  H      45.248505     21.322458     39.333457
  H      45.504548     22.700673     40.606482
  C      43.787654     21.568554     40.869352
  C      43.343708     22.346885     42.138452
  O      44.089800     23.271057     42.487461
  O      42.294293     21.940301     42.714724
  O      42.991764     20.495538     40.461955
  C      42.126330     20.640887     39.290026
  H      41.661774     19.639595     39.205270
  C      42.892000     20.975000     38.054000
  H      43.526708     20.227619     37.568697
  C      42.969000     22.244000     37.605000
  C      42.118000     23.281000     38.202000
  H      42.286195     24.288247     37.813157
  C      41.188000     23.002000     39.130000
  H      40.536840     23.778627     39.545020
  C      40.960255     21.604680     39.609604
  H      40.847097     21.579990     40.707406
  O      39.723471     21.111214     39.018885
  H      39.300109     20.588747     39.706718
  C      43.870093     22.611130     36.387131
  O      44.596142     21.687238     35.966344
  O      43.741478     23.788822     35.984817
  C      39.388000     20.557000     43.513000
  H      39.587925     20.549885     44.584485
  H      38.444980     20.036741     43.306595
  H      39.277899     21.608907     43.212932
  N      40.509394     19.963800     42.767836
  H      41.239841     20.659138     42.523758
  C      40.798014     18.692470     42.519672
  N      40.007901     17.713476     42.937302
  H      39.172498     17.911545     43.462947
  H      40.216587     16.743641     42.768157
  N      41.912735     18.404617     41.871788
  H      42.466400     19.161126     41.450731
  H      42.225003     17.481803     41.631939
37
Coordinates from ORCA-job job E -836.411554826348
  C      44.940783     21.823272     40.215247
  H      45.240801     21.311730     39.299594
  H      45.539415     22.642672     40.613912
  C      43.812962     21.526685     40.871895
  C      43.403714     22.274330     42.170121
  O      44.193482     23.146299     42.557971
  O      42.319810     21.917466     42.713587
  O      42.992521     20.476073     40.457480
  C      42.127707     20.638243     39.289065
  H      41.655346     19.640840     39.197257
  C      42.892000     20.975000     38.054000
  H      43.525942     20.229320     37.565022
  C      42.969000     22.244000     37.605000
  C      42.118000     23.281000     38.202000
  H      42.283622     24.287449     37.810140
  C      41.188000     23.002000     39.130000
  H      40.534247     23.777226     39.543458
  C      40.967899     21.607428     39.619259
  H      40.871810     21.587393     40.719040
  O      39.720329     21.118061     39.048357
  H      39.341203     20.537667     39.717816
  C      43.875731     22.613023     36.392982
  O      44.602691     21.689637     35.971802
  O      43.750644     23.792160     35.992070
  C      39.388000     20.557000     43.513000
  H      39.587925     20.549885     44.584485
  H      38.446312     20.034264     43.306527
  H      39.275528     21.608347     43.211806
  N      40.511211     19.965453     42.769607
  H      41.246825     20.659202     42.542007
  C      40.801303     18.693548     42.524137
  N      40.008275     17.714857     42.935463
  H      39.175324     17.912252     43.465359
  H      40.221482     16.745605     42.768884
  N      41.923827     18.402454     41.891918
  H      42.473830     19.156613     41.462765
  H      42.239036     17.477698     41.663984
37
Coordinates from ORCA-job job E -836.412496154145
  C      44.966780     21.782847     40.196939
  H      45.232893     21.312819     39.249294
  H      45.589497     22.573037     40.617120
  C      43.850675     21.477856     40.870434
  C      43.482981     22.188148     42.200506
  O      44.338169     22.963147     42.652404
  O      42.361342     21.899094     42.707968
  O      42.996783     20.458285     40.449806
  C      42.128841     20.636195     39.287896
  H      41.652400     19.640545     39.191133
  C      42.892000     20.975000     38.054000
  H      43.528274     20.230117     37.567177
  C      42.969000     22.244000     37.605000
  C      42.118000     23.281000     38.202000
  H      42.280939     24.286985     37.807989
  C      41.188000     23.002000     39.130000
  H      40.535737     23.777638     39.544702
  C      40.975992     21.610803     39.631561
  H      40.906288     21.600852     40.733735
  O      39.717963     21.128691     39.086125
  H      39.404850     20.457014     39.706303
  C      43.895906     22.617198     36.412259
  O      44.636435     21.697824     36.002464
  O      43.779654     23.797761     36.010321
  C      39.388000     20.557000     43.513000
  H      39.587925     20.549885     44.584485
  H      38.449490     20.028688     43.306085
  H      39.270138     21.606357     43.206993
  N      40.516096     19.967898     42.775774
  H      41.256809     20.660345     42.569979
  C      40.814441     18.695966     42.539036
  N      40.020607     17.714749     42.943469
  H      39.188341     17.911107     43.475073
  H      40.245707     16.747331     42.781994
  N      41.950860     18.404693     41.931667
  H      42.493489     19.156362     41.489226
  H      42.271128     17.476752     41.725449
37
Coordinates from ORCA-job job E -836.413324948322
  C      44.997890     21.736250     40.179110
  H      45.226566     21.327161     39.194346
  H      45.650882     22.484660     40.629409
  C      43.896905     21.414153     40.870099
  C      43.573913     22.068416     42.238965
  O      44.486086     22.727405     42.758835
  O      42.406201     21.880452     42.688645
  O      43.002470     20.435807     40.440575
  C      42.129404     20.633835     39.286927
  H      41.650565     19.639096     39.184189
  C      42.892000     20.975000     38.054000
  H      43.532514     20.229578     37.574092
  C      42.969000     22.244000     37.605000
  C      42.118000     23.281000     38.202000
  H      42.278269     24.286803     37.806188
  C      41.188000     23.002000     39.130000
  H      40.539496     23.779713     39.546765
  C      40.984974     21.614290     39.647691
  H      40.952174     21.621377     40.752572
  O      39.716409     21.141632     39.135764
  H      39.501957     20.349183     39.647878
  C      43.920580     22.621168     36.435982
  O      44.686326     21.709370     36.052321
  O      43.809707     23.799997     36.027279
  C      39.388000     20.557000     43.513000
  H      39.587925     20.549885     44.584485
  H      38.455125     20.019145     43.305458
  H      39.260571     21.603233     43.200644
  N      40.524045     19.973145     42.784489
  H      41.268882     20.665705     42.602316
  C      40.838402     18.701866     42.563446
  N      40.046327     17.716053     42.963457
  H      39.212452     17.911169     43.492990
  H      40.286013     16.750440     42.811635
  N      41.993771     18.415530     41.987575
  H      42.525223     19.163970     41.526114
  H      42.325592     17.485741     41.810409
37
Coordinates from ORCA-job job E -836.413588028139
  C      45.011935     21.701827     40.169852
  H      45.223453     21.326616     39.167834
  H      45.681775     22.425279     40.636513
  C      43.918864     21.370419     40.868737
  C      43.619087     21.992144     42.258236
  O      44.563843     22.563082     42.821342
  O      42.432066     21.863623     42.677674
  O      43.003376     20.415908     40.432581
  C      42.128766     20.631084     39.284527
  H      41.646823     19.637707     39.175277
  C      42.892000     20.975000     38.054000
  H      43.533764     20.228731     37.577200
  C      42.969000     22.244000     37.605000
  C      42.118000     23.281000     38.202000
  H      42.276501     24.286526     37.804657
  C      41.188000     23.002000     39.130000
  H      40.540357     23.780606     39.546737
  C      40.990363     21.615312     39.656291
  H      40.979611     21.632980     40.762076
  O      39.715894     21.145697     39.164900
  H      39.564435     20.290624     39.591752
  C      43.922935     22.620989     36.437436
  O      44.698998     21.712694     36.066051
  O      43.803032     23.794792     36.018800
  C      39.388000     20.557000     43.513000
  H      39.587925     20.549885     44.584485
  H      38.456327     20.017359     43.304885
  H      39.259720     21.602378     43.198430
  N      40.525799     19.972531     42.789921
  H      41.274400     20.663356     42.619040
  C      40.844519     18.701140     42.578408
  N      40.049859     17.716189     42.977006
  H      39.213348     17.913322     43.501417
  H      40.289440     16.749560     42.831144
  N      42.008299     18.415995     42.018893
  H      42.536066     19.160904     41.546996
  H      42.348249     17.486584     41.855532
37
Coordinates from ORCA-job job E -836.413718710435
  C      45.017309     21.681576     40.169804
  H      45.226665     21.317143     39.163353
  H      45.693771     22.395670     40.641903
  C      43.925262     21.349004     40.869295
  C      43.632165     21.961121     42.264716
  O      44.585755     22.502970     42.840824
  O      42.437892     21.858773     42.671489
  O      43.003467     20.403350     40.428082
  C      42.127417     20.629300     39.282957
  H      41.644645     19.636118     39.169461
  C      42.892000     20.975000     38.054000
  H      43.534222     20.226992     37.580633
  C      42.969000     22.244000     37.605000
  C      42.118000     23.281000     38.202000
  H      42.275791     24.286640     37.804730
  C      41.188000     23.002000     39.130000
  H      40.542403     23.782103     39.547267
  C      40.991374     21.614897     39.659353
  H      40.990536     21.640458     40.765168
  O      39.716084     21.143115     39.176793
  H      39.595159     20.261880     39.557164
  C      43.919121     22.620379     36.433124
  O      44.702719     21.715849     36.068962
  O      43.786507     23.788813     36.004586
  C      39.388000     20.557000     43.513000
  H      39.587925     20.549885     44.584485
  H      38.456060     20.018182     43.304159
  H      39.261660     21.602329     43.197677
  N      40.525757     19.970355     42.793005
  H      41.274300     20.660101     42.621093
  C      40.845226     18.699672     42.587515
  N      40.049964     17.716288     42.988533
  H      39.208859     17.915707     43.504431
  H      40.285692     16.748448     42.844205
  N      42.009392     18.415330     42.030912
  H      42.537477     19.157163     41.554847
  H      42.352806     17.486295     41.872344
37
Coordinates from ORCA-job job E -836.413856416121
  C      45.016418     21.664527     40.170635
  H      45.228697     21.301245     39.164251
  H      45.695117     22.377234     40.641985
  C      43.923730     21.333393     40.869437
  C      43.631310     21.947012     42.264634
  O      44.588709     22.476667     42.844982
  O      42.433823     21.858814     42.666444
  O      43.002983     20.389198     40.423348
  C      42.125292     20.627456     39.281435
  H      41.640929     19.635155     39.162857
  C      42.892000     20.975000     38.054000
  H      43.533916     20.224423     37.584315
  C      42.969000     22.244000     37.605000
  C      42.118000     23.281000     38.202000
  H      42.275440     24.287019     37.805603
  C      41.188000     23.002000     39.130000
  H      40.545241     23.784080     39.548079
  C      40.991832     21.614479     39.662192
  H      40.999149     21.649166     40.768104
  O      39.715697     21.138121     39.188705
  H      39.621298     20.238894     39.530675
  C      43.910547     22.618981     36.424198
  O      44.700516     21.718634     36.065381
  O      43.761101     23.781170     35.985144
  C      39.388000     20.557000     43.513000
  H      39.587925     20.549885     44.584485
  H      38.454674     20.021049     43.303005
  H      39.266206     21.602962     43.197965
  N      40.525146     19.966375     42.795466
  H      41.271925     20.655637     42.613358
  C      40.843838     18.696052     42.596822
  N      40.049022     17.715193     43.003561
  H      39.199001     17.917568     43.503292
  H      40.277771     16.745705     42.859229
  N      42.004704     18.411623     42.037102
  H      42.535372     19.150101     41.559245
  H      42.351407     17.483295     41.881220
37
Coordinates from ORCA-job job E -836.413964762028
  C      45.015151     21.652314     40.176807
  H      45.233470     21.283854     39.173612
  H      45.692999     22.367347     40.645794
  C      43.918797     21.324850     40.871606
  C      43.621603     21.945396     42.262537
  O      44.578079     22.478296     42.841430
  O      42.423155     21.862126     42.662862
  O      43.002594     20.377694     40.421045
  C      42.123819     20.626561     39.281134
  H      41.636727     19.636026     39.158102
  C      42.892000     20.975000     38.054000
  H      43.532982     20.222282     37.586539
  C      42.969000     22.244000     37.605000
  C      42.118000     23.281000     38.202000
  H      42.275065     24.287353     37.806409
  C      41.188000     23.002000     39.130000
  H      40.547431     23.785556     39.548753
  C      40.993113     21.615263     39.665730
  H      41.006621     21.657356     40.771688
  O      39.714672     21.136376     39.201298
  H      39.637278     20.227367     39.520249
  C      43.905323     22.618026     36.418966
  O      44.698646     21.720289     36.062554
  O      43.745704     23.776699     35.974129
  C      39.388000     20.557000     43.513000
  H      39.587925     20.549885     44.584485
  H      38.452958     20.024352     43.302158
  H      39.270799     21.603709     43.198545
  N      40.524399     19.962355     42.796180
  H      41.268108     20.651302     42.598882
  C      40.842643     18.691300     42.603960
  N      40.049398     17.712393     43.017146
  H      39.189120     17.917017     43.498103
  H      40.273375     16.741965     42.871983
  N      41.999731     18.405576     42.038659
  H      42.533316     19.142392     41.561766
  H      42.348634     17.477604     41.885485
37
Coordinates from ORCA-job job E -836.414078250813
  C      45.010576     21.640028     40.184095
  H      45.233451     21.263480     39.184781
  H      45.686476     22.359289     40.649049
  C      43.909875     21.317185     40.874286
  C      43.605645     21.947356     42.258880
  O      44.560061     22.488129     42.834449
  O      42.407454     21.865328     42.659886
  O      42.999498     20.365259     40.419355
  C      42.121413     20.625668     39.280638
  H      41.629401     19.638281     39.152087
  C      42.892000     20.975000     38.054000
  H      43.531531     20.220823     37.586994
  C      42.969000     22.244000     37.605000
  C      42.118000     23.281000     38.202000
  H      42.273978     24.287410     37.806230
  C      41.188000     23.002000     39.130000
  H      40.548222     23.786290     39.548663
  C      40.995400     21.617365     39.670658
  H      41.016301     21.665813     40.776518
  O      39.711450     21.138898     39.218702
  H      39.646416     20.223816     39.522669
  C      43.903233     22.617264     36.416921
  O      44.694344     21.718984     36.057897
  O      43.743057     23.776548     35.973197
  C      39.388000     20.557000     43.513000
  H      39.587925     20.549885     44.584485
  H      38.450154     20.029334     43.301988
  H      39.276642     21.604601     43.199167
  N      40.522078     19.956719     42.794830
  H      41.261536     20.644355     42.576050
  C      40.839350     18.683643     42.609800
  N      40.047691     17.707115     43.030722
  H      39.175460     17.914336     43.488682
  H      40.268168     16.736122     42.884385
  N      41.991953     18.394414     42.036385
  H      42.528872     19.131116     41.563109
  H      42.342149     17.466262     41.887323
37
Coordinates from ORCA-job job E -836.414167173219
  C      45.009443     21.622423     40.194220
  H      45.233459     21.239772     39.197515
  H      45.685690     22.341243     40.658871
  C      43.903584     21.305495     40.879063
  C      43.594192     21.940835     42.259756
  O      44.548091     22.483026     42.835534
  O      42.395355     21.862683     42.659181
  O      42.993815     20.353754     40.419250
  C      42.119102     20.624539     39.279813
  H      41.621238     19.640911     39.145412
  C      42.892000     20.975000     38.054000
  H      43.529834     20.220953     37.584552
  C      42.969000     22.244000     37.605000
  C      42.118000     23.281000     38.202000
  H      42.272898     24.287097     37.805032
  C      41.188000     23.002000     39.130000
  H      40.546997     23.785730     39.547849
  C      40.998538     21.619969     39.675683
  H      41.027307     21.671453     40.781272
  O      39.707465     21.144816     39.236750
  H      39.647479     20.227626     39.536579
  C      43.906396     22.617015     36.419830
  O      44.690149     21.714669     36.054606
  O      43.757173     23.780952     35.983831
  C      39.388000     20.557000     43.513000
  H      39.587925     20.549885     44.584485
  H      38.446627     20.035218     43.303069
  H      39.282395     21.605243     43.199186
  N      40.517493     19.950207     42.791420
  H      41.253913     20.635003     42.553540
  C      40.832438     18.674657     42.611884
  N      40.040172     17.700920     43.038397
  H      39.159799     17.911342     43.479218
  H      40.258904     16.729616     42.891681
  N      41.981389     18.380298     42.031143
  H      42.521240     19.118351     41.563047
  H      42.330979     17.451192     41.886671
37
Coordinates from ORCA-job job E -836.414231650273
  C      45.009041     21.602070     40.200964
  H      45.228587     21.219319     39.203293
  H      45.688350     22.315933     40.668526
  C      43.900484     21.289176     40.883314
  C      43.591115     21.922607     42.264820
  O      44.547632     22.455386     42.845444
  O      42.390564     21.852751     42.660455
  O      42.985734     20.343545     40.419191
  C      42.116456     20.622750     39.277906
  H      41.613288     19.642712     39.137658
  C      42.892000     20.975000     38.054000
  H      43.528269     20.222410     37.580126
  C      42.969000     22.244000     37.605000
  C      42.118000     23.281000     38.202000
  H      42.272340     24.286563     37.803375
  C      41.188000     23.002000     39.130000
  H      40.544608     23.784365     39.546785
  C      41.001309     21.622114     39.679470
  H      41.038356     21.673771     40.784684
  O      39.703363     21.151253     39.252564
  H      39.642297     20.235544     39.557653
  C      43.911191     22.617162     36.424332
  O      44.683595     21.708599     36.049373
  O      43.779710     23.787962     36.000879
  C      39.388000     20.557000     43.513000
  H      39.587925     20.549885     44.584485
  H      38.442775     20.041459     43.305097
  H      39.287741     21.605562     43.198529
  N      40.511134     19.943263     42.787012
  H      41.246794     20.624165     42.536266
  C      40.822259     18.665646     42.610851
  N      40.027008     17.695179     43.040147
  H      39.144229     17.909629     43.474260
  H      40.244669     16.723414     42.894778
  N      41.968172     18.365830     42.024367
  H      42.510231     19.105740     41.561283
  H      42.315779     17.435351     41.883886
37
Coordinates from ORCA-job job E -836.414282196797
  C      45.011639     21.578667     40.207447
  H      45.225637     21.200597     39.206897
  H      45.695787     22.283565     40.681470
  C      43.901253     21.268433     40.888025
  C      43.595320     21.894501     42.273915
  O      44.556525     22.408818     42.863346
  O      42.391845     21.837898     42.663090
  O      42.977960     20.333523     40.419169
  C      42.114374     20.620485     39.275723
  H      41.606876     19.643652     39.129656
  C      42.892000     20.975000     38.054000
  H      43.526622     20.224239     37.574949
  C      42.969000     22.244000     37.605000
  C      42.118000     23.281000     38.202000
  H      42.272630     24.286073     37.802079
  C      41.188000     23.002000     39.130000
  H      40.542406     23.782965     39.546076
  C      41.003861     21.623523     39.682515
  H      41.050050     21.674678     40.787312
  O      39.700462     21.155626     39.267069
  H      39.635460     20.243869     39.583642
  C      43.915022     22.617441     36.427875
  O      44.676375     21.703144     36.043354
  O      43.799854     23.794123     36.016349
  C      39.388000     20.557000     43.513000
  H      39.587925     20.549885     44.584485
  H      38.439042     20.047497     43.307390
  H      39.292617     21.605687     43.197537
  N      40.504241     19.936466     42.782712
  H      41.240899     20.613320     42.524575
  C      40.810952     18.657549     42.609054
  N      40.011518     17.690616     43.039431
  H      39.130992     17.909510     43.475861
  H      40.228070     16.718049     42.897536
  N      41.953812     18.353103     42.017852
  H      42.497714     19.094328     41.558715
  H      42.299355     17.421343     41.880573
37
Coordinates from ORCA-job job E -836.414337126028
  C      45.014110     21.552970     40.212266
  H      45.221514     21.184638     39.206773
  H      45.703996     22.246429     40.694907
  C      43.903395     21.242696     40.892240
  C      43.603837     21.856643     42.285459
  O      44.571390     22.344616     42.886465
  O      42.396861     21.818109     42.666827
  O      42.970013     20.321699     40.418072
  C      42.112104     20.617598     39.272856
  H      41.600420     19.644231     39.120122
  C      42.892000     20.975000     38.054000
  H      43.524674     20.226039     37.569383
  C      42.969000     22.244000     37.605000
  C      42.118000     23.281000     38.202000
  H      42.273413     24.285621     37.801043
  C      41.188000     23.002000     39.130000
  H      40.540692     23.781803     39.545676
  C      41.006566     21.624641     39.685774
  H      41.065182     21.675975     40.789978
  O      39.698071     21.158371     39.284685
  H      39.626221     20.254603     39.621982
  C      43.916714     22.617801     36.429355
  O      44.667459     21.698608     36.035096
  O      43.814993     23.799355     36.028847
  C      39.388000     20.557000     43.513000
  H      39.587925     20.549885     44.584485
  H      38.435066     20.054049     43.309787
  H      39.297945     21.605781     43.196416
  N      40.496632     19.929064     42.778402
  H      41.235135     20.601623     42.514731
  C      40.798602     18.649234     42.608288
  N      39.994678     17.686432     43.040040
  H      39.120286     17.910316     43.486055
  H      40.210105     16.712660     42.904509
  N      41.937009     18.340589     42.011043
  H      42.482742     19.082472     41.555083
  H      42.281031     17.407755     41.876980
37
Coordinates from ORCA-job job E -836.414407123675
  C      45.017722     21.524533     40.216859
  H      45.219420     21.170555     39.205174
  H      45.713911     22.204130     40.710280
  C      43.907365     21.211599     40.896232
  C      43.616659     21.809044     42.299185
  O      44.591623     22.263346     42.913722
  O      42.405909     21.793747     42.672133
  O      42.963268     20.306979     40.415773
  C      42.110015     20.614252     39.269727
  H      41.593579     19.645075     39.109378
  C      42.892000     20.975000     38.054000
  H      43.522314     20.227337     37.564092
  C      42.969000     22.244000     37.605000
  C      42.118000     23.281000     38.202000
  H      42.274234     24.285227     37.800202
  C      41.188000     23.002000     39.130000
  H      40.539775     23.781165     39.545592
  C      41.010328     21.625834     39.690434
  H      41.086525     21.679190     40.793685
  O      39.696667     21.159417     39.309415
  H      39.614486     20.270509     39.681618
  C      43.916253     22.617975     36.428613
  O      44.660076     21.696036     36.027922
  O      43.821121     23.802150     36.034561
  C      39.388000     20.557000     43.513000
  H      39.587925     20.549885     44.584485
  H      38.431069     20.060825     43.311899
  H      39.303708     21.605946     43.195444
  N      40.489020     19.921435     42.774546
  H      41.229790     20.589746     42.506315
  C      40.786879     18.640865     42.610403
  N      39.979384     17.682518     43.045354
  H      39.115487     17.911435     43.508821
  H      40.194388     16.707256     42.919968
  N      41.918731     18.328634     42.004344
  H      42.466274     19.070295     41.550441
  H      42.262683     17.395195     41.874005
37
Coordinates from ORCA-job job E -836.414496641832
  C      45.021524     21.495447     40.219302
  H      45.218261     21.161639     39.199830
  H      45.724096     22.159975     40.724392
  C      43.913081     21.175250     40.898626
  C      43.633447     21.751140     42.313401
  O      44.616807     22.164088     42.943123
  O      42.419485     21.765298     42.677865
  O      42.959126     20.287864     40.411060
  C      42.108259     20.610669     39.266500
  H      41.585153     19.647232     39.097623
  C      42.892000     20.975000     38.054000
  H      43.519437     20.227404     37.560033
  C      42.969000     22.244000     37.605000
  C      42.118000     23.281000     38.202000
  H      42.273736     24.284700     37.798660
  C      41.188000     23.002000     39.130000
  H      40.539513     23.781179     39.545350
  C      41.016807     21.627801     39.698500
  H      41.118898     21.686201     40.799999
  O      39.696747     21.159549     39.348238
  H      39.601742     20.296212     39.772937
  C      43.912367     22.618462     36.424889
  O      44.655241     21.696958     36.022092
  O      43.813948     23.802324     36.031146
  C      39.388000     20.557000     43.513000
  H      39.587925     20.549885     44.584485
  H      38.427617     20.066900     43.313251
  H      39.309376     21.606230     43.194940
  N      40.482613     19.914522     42.771872
  H      41.225360     20.579130     42.499034
  C      40.778780     18.633076     42.618471
  N      39.970743     17.679137     43.061211
  H      39.122183     17.912523     43.550017
  H      40.187569     16.702422     42.950935
  N      41.901389     18.317622     41.999646
  H      42.450180     19.057956     41.545514
  H      42.248023     17.384332     41.875096
37
Coordinates from ORCA-job job E -836.414598009526
  C      45.025477     21.471625     40.217789
  H      45.218965     21.158052     39.191266
  H      45.733524     22.123918     40.731326
  C      43.920094     21.141948     40.897834
  C      43.651821     21.697082     42.323153
  O      44.642840     22.071471     42.964608
  O      42.436561     21.739093     42.683258
  O      42.959793     20.267198     40.404149
  C      42.107320     20.607883     39.264244
  H      41.575672     19.651165     39.088241
  C      42.892000     20.975000     38.054000
  H      43.516836     20.225707     37.559237
  C      42.969000     22.244000     37.605000
  C      42.118000     23.281000     38.202000
  H      42.270903     24.284083     37.796153
  C      41.188000     23.002000     39.130000
  H      40.539732     23.781850     39.544666
  C      41.026032     21.630839     39.709675
  H      41.157800     21.696809     40.808263
  O      39.698955     21.159308     39.397655
  H      39.592922     20.330567     39.883414
  C      43.907612     22.618812     36.420447
  O      44.658849     21.701750     36.024253
  O      43.795034     23.798431     36.017716
  C      39.388000     20.557000     43.513000
  H      39.587925     20.549885     44.584485
  H      38.425855     20.070246     43.313077
  H      39.313438     21.606645     43.195209
  N      40.479997     19.910417     42.771938
  H      41.223967     20.572833     42.496176
  C      40.778263     18.627900     42.632436
  N      39.974422     17.676988     43.088095
  H      39.142773     17.913029     43.603995
  H      40.195620     16.699544     42.994187
  N      41.890853     18.309676     41.999030
  H      42.439637     19.047659     41.541401
  H      42.242728     17.377382     41.881674
37
Coordinates from ORCA-job job E -836.414717639001
  C      45.030908     21.446578     40.211800
  H      45.220640     21.153461     39.178441
  H      45.745095     22.088198     40.730365
  C      43.929507     21.106758     40.893573
  C      43.673873     21.640811     42.328484
  O      44.672759     21.975773     42.979528
  O      42.459066     21.712310     42.687200
  O      42.964403     20.241469     40.393834
  C      42.106879     20.605700     39.262712
  H      41.562692     19.658005     39.080236
  C      42.892000     20.975000     38.054000
  H      43.514265     20.222204     37.561496
  C      42.969000     22.244000     37.605000
  C      42.118000     23.281000     38.202000
  H      42.264868     24.283184     37.791944
  C      41.188000     23.002000     39.130000
  H      40.539779     23.782763     39.543273
  C      41.039995     21.635775     39.725701
  H      41.207083     21.711819     40.819508
  O      39.703959     21.160438     39.463888
  H      39.594438     20.372621     40.012220
  C      43.903391     22.619013     36.416844
  O      44.670782     21.709951     36.034506
  O      43.769486     23.790955     35.997992
  C      39.388000     20.557000     43.513000
  H      39.587925     20.549885     44.584485
  H      38.425674     20.070949     43.311609
  H      39.315986     21.607131     43.196061
  N      40.480875     19.908729     42.774651
  H      41.225879     20.569738     42.497771
  C      40.784543     18.624749     42.652343
  N      39.989939     17.676248     43.127869
  H      39.175246     17.914161     43.669459
  H      40.217318     16.698812     43.050178
  N      41.886571     18.302367     42.003149
  H      42.433924     19.036705     41.538136
  H      42.245495     17.371528     41.895862
37
Coordinates from ORCA-job job E -836.414845227445
  C      45.038632     21.412287     40.203158
  H      45.222003     21.137043     39.163606
  H      45.761184     22.042902     40.723651
  C      43.940421     21.066447     40.887138
  C      43.698116     21.580452     42.330088
  O      44.704839     21.875261     42.988845
  O      42.485424     21.682431     42.689512
  O      42.969149     20.210364     40.380663
  C      42.106033     20.603792     39.261291
  H      41.545451     19.667476     39.072183
  C      42.892000     20.975000     38.054000
  H      43.511572     20.217946     37.565055
  C      42.969000     22.244000     37.605000
  C      42.118000     23.281000     38.202000
  H      42.256710     24.282016     37.786482
  C      41.188000     23.002000     39.130000
  H      40.538982     23.783196     39.541420
  C      41.057706     21.642409     39.744579
  H      41.261009     21.728857     40.831805
  O      39.711624     21.164481     39.539542
  H      39.610474     20.411746     40.136347
  C      43.901946     22.619016     36.416273
  O      44.686369     21.718350     36.049177
  O      43.749355     23.782941     35.981025
  C      39.388000     20.557000     43.513000
  H      39.587925     20.549885     44.584485
  H      38.426037     20.070683     43.309950
  H      39.317994     21.607511     43.196763
  N      40.482827     19.907536     42.778520
  H      41.229771     20.566515     42.502876
  C      40.791475     18.621730     42.672481
  N      40.008416     17.676367     43.172505
  H      39.206501     17.916923     43.731836
  H      40.240123     16.699131     43.106060
  N      41.883813     18.292265     42.009238
  H      42.429149     19.021930     41.534570
  H      42.248308     17.362298     41.913827
37
Coordinates from ORCA-job job E -836.414996650555
  C      45.049487     21.355914     40.193246
  H      45.221333     21.097583     39.147273
  H      45.785062     21.970358     40.714840
  C      43.952616     21.010935     40.879693
  C      43.726383     21.502796     42.330858
  O      44.741682     21.750863     42.996203
  O      42.517745     21.639578     42.692957
  O      42.969347     20.170393     40.364386
  C      42.103563     20.601047     39.258842
  H      41.521928     19.679858     39.060337
  C      42.892000     20.975000     38.054000
  H      43.507831     20.213961     37.567062
  C      42.969000     22.244000     37.605000
  C      42.118000     23.281000     38.202000
  H      42.247626     24.280485     37.779981
  C      41.188000     23.002000     39.130000
  H      40.536836     23.782538     39.539415
  C      41.079287     21.650824     39.765648
  H      41.319636     21.747213     40.844365
  O      39.722459     21.172310     39.624577
  H      39.639837     20.448780     40.259271
  C      43.903203     22.618744     36.418618
  O      44.698334     21.723081     36.061534
  O      43.742195     23.778016     35.973345
  C      39.388000     20.557000     43.513000
  H      39.587925     20.549885     44.584485
  H      38.425120     20.072572     43.309345
  H      39.321818     21.607720     43.196610
  N      40.482205     19.903427     42.781536
  H      41.233867     20.557844     42.510130
  C      40.790926     18.615144     42.688071
  N      40.019401     17.675632     43.216766
  H      39.226970     17.921515     43.787255
  H      40.250304     16.697895     43.155051
  N      41.873208     18.274267     42.011864
  H      42.417126     18.998195     41.526886
  H      42.239282     17.343705     41.929188
37
Coordinates from ORCA-job job E -836.415210131228
  C      45.064584     21.257914     40.182340
  H      45.216968     21.021235     39.128216
  H      45.821295     21.842910     40.707562
  C      43.966363     20.922464     40.871077
  C      43.762533     21.382780     42.333522
  O      44.787609     21.564691     43.005628
  O      42.561343     21.567424     42.700097
  O      42.959532     20.113909     40.342771
  C      42.098241     20.596065     39.253662
  H      41.488299     19.697264     39.038899
  C      42.892000     20.975000     38.054000
  H      43.501592     20.210878     37.564623
  C      42.969000     22.244000     37.605000
  C      42.118000     23.281000     38.202000
  H      42.238264     24.278349     37.772102
  C      41.188000     23.002000     39.130000
  H      40.533230     23.780303     39.537988
  C      41.107791     21.661392     39.790498
  H      41.392653     21.767863     40.857183
  O      39.740282     21.184107     39.730231
  H      39.688024     20.490835     40.401249
  C      43.906302     22.618119     36.422853
  O      44.699984     21.720729     36.064897
  O      43.752423     23.779288     35.979324
  C      39.388000     20.557000     43.513000
  H      39.587925     20.549885     44.584485
  H      38.421143     20.079706     43.311018
  H      39.329913     21.607627     43.194780
  N      40.475348     19.892691     42.782055
  H      41.236682     20.537634     42.518045
  C      40.774913     18.600749     42.697209
  N      40.014561     17.672487     43.261979
  H      39.231746     17.929042     43.840972
  H      40.236428     16.692716     43.198997
  N      41.843518     18.242147     42.006281
  H      42.387421     18.958548     41.510435
  H      42.205899     17.308984     41.937902
37
Coordinates from ORCA-job job E -836.415556416281
  C      45.080870     21.097020     40.165775
  H      45.203588     20.890498     39.101576
  H      45.869558     21.631757     40.697524
  C      43.978187     20.783867     40.857460
  C      43.806620     21.198979     42.335126
  O      44.841839     21.289983     43.010230
  O      42.619765     21.447040     42.712888
  O      42.931761     20.034203     40.312358
  C      42.087470     20.587955     39.244221
  H      41.439777     19.723120     39.002690
  C      42.892000     20.975000     38.054000
  H      43.491810     20.209207     37.555761
  C      42.969000     22.244000     37.605000
  C      42.118000     23.281000     38.202000
  H      42.229394     24.275404     37.762590
  C      41.188000     23.002000     39.130000
  H      40.528493     23.776309     39.537879
  C      41.145364     21.674923     39.819712
  H      41.485046     21.794195     40.868428
  O      39.770660     21.200551     39.864913
  H      39.764836     20.543830     40.574151
  C      43.910432     22.617098     36.427802
  O      44.685684     21.709350     36.053342
  O      43.782977     23.788324     36.002111
  C      39.388000     20.557000     43.513000
  H      39.587925     20.549885     44.584485
  H      38.412370     20.095692     43.315831
  H      39.345375     21.607019     43.190485
  N      40.458822     19.871347     42.779073
  H      41.237672     20.499174     42.528539
  C      40.733588     18.573939     42.695178
  N      39.985271     17.664662     43.306695
  H      39.214293     17.939379     43.893083
  H      40.183850     16.680589     43.233244
  N      41.781785     18.189950     41.985665
  H      42.327633     18.896100     41.477910
  H      42.132991     17.251567     41.931883
37
Coordinates from ORCA-job job E -836.416044265415
  C      45.093430     20.842137     40.138794
  H      45.180241     20.687172     39.062605
  H      45.925244     21.290091     40.685010
  C      43.981044     20.566362     40.830729
  C      43.850989     20.909965     42.328431
  O      44.887117     20.858104     43.005930
  O      42.693306     21.259817     42.718300
  O      42.876005     19.921087     40.265218
  C      42.071388     20.576507     39.225979
  H      41.372403     19.766316     38.942061
  C      42.892000     20.975000     38.054000
  H      43.476720     20.209183     37.538429
  C      42.969000     22.244000     37.605000
  C      42.118000     23.281000     38.202000
  H      42.221583     24.271429     37.751203
  C      41.188000     23.002000     39.130000
  H      40.524875     23.770567     39.542733
  C      41.203538     21.689528     39.856159
  H      41.633812     21.822279     40.871231
  O      39.837173     21.217835     40.058959
  H      39.912964     20.603798     40.802264
  C      43.913104     22.615872     36.430518
  O      44.652895     21.691736     36.023865
  O      43.827513     23.802469     36.037767
  C      39.388000     20.557000     43.513000
  H      39.587925     20.549885     44.584485
  H      38.400036     20.118375     43.325290
  H      39.365022     21.605130     43.182614
  N      40.431210     19.840589     42.772010
  H      41.234174     20.441773     42.532936
  C      40.665654     18.536683     42.691594
  N      39.937050     17.658322     43.369935
  H      39.186129     17.962368     43.967640
  H      40.097238     16.667989     43.286327
  N      41.679369     18.117629     41.953992
  H      42.226630     18.808001     41.427598
  H      42.016563     17.173119     41.921663
37
Coordinates from ORCA-job job E -836.415998281150
  C      45.077491     20.570960     40.112604
  H      45.130668     20.446682     39.030939
  H      45.946396     20.926601     40.668724
  C      43.953174     20.362343     40.808550
  C      43.865373     20.659203     42.320480
  O      44.910093     20.535592     42.973258
  O      42.730818     21.041057     42.749264
  O      42.790986     19.839197     40.235636
  C      42.038410     20.565750     39.216161
  H      41.309013     19.798557     38.888868
  C      42.892000     20.975000     38.054000
  H      43.465698     20.216583     37.514760
  C      42.969000     22.244000     37.605000
  C      42.118000     23.281000     38.202000
  H      42.226708     24.268511     37.745129
  C      41.188000     23.002000     39.130000
  H      40.521734     23.767251     39.542887
  C      41.216104     21.709552     39.871556
  H      41.650981     21.889332     40.871504
  O      39.853411     21.253356     40.132189
  H      39.964498     20.629074     40.864405
  C      43.914267     22.614666     36.429564
  O      44.589907     21.668558     35.964894
  O      43.894748     23.820967     36.094528
  C      39.388000     20.557000     43.513000
  H      39.587925     20.549885     44.584485
  H      38.374820     20.175320     43.335471
  H      39.416336     21.601791     43.172383
  N      40.381206     19.780971     42.760158
  H      41.221261     20.344398     42.563224
  C      40.530581     18.472333     42.619589
  N      39.796975     17.616251     43.321540
  H      39.046936     17.946774     43.905802
  H      39.880046     16.623405     43.179096
  N      41.525394     18.031169     41.873056
  H      42.084467     18.714907     41.351926
  H      41.822857     17.074288     41.824058
37
Coordinates from ORCA-job job E -836.416880238167
  C      45.081462     20.524817     40.109821
  H      45.144095     20.430469     39.025706
  H      45.952462     20.852677     40.679497
  C      43.952736     20.310759     40.797259
  C      43.866991     20.577205     42.315090
  O      44.892420     20.381481     42.980617
  O      42.749240     21.018713     42.729642
  O      42.783355     19.815640     40.221162
  C      42.043687     20.565211     39.205498
  H      41.302061     19.815258     38.868378
  C      42.892000     20.975000     38.054000
  H      43.462131     20.215201     37.512797
  C      42.969000     22.244000     37.605000
  C      42.118000     23.281000     38.202000
  H      42.223751     24.267728     37.742815
  C      41.188000     23.002000     39.130000
  H      40.524840     23.767351     39.548647
  C      41.246730     21.703560     39.881725
  H      41.751536     21.874924     40.854532
  O      39.907183     21.237609     40.211741
  H      40.057481     20.634892     40.954808
  C      43.907478     22.615660     36.423490
  O      44.593358     21.674510     35.965874
  O      43.868455     23.818536     36.078845
  C      39.388000     20.557000     43.513000
  H      39.587925     20.549885     44.584485
  H      38.379447     20.163005     43.335836
  H      39.405570     21.601060     43.169409
  N      40.387849     19.786826     42.768061
  H      41.223268     20.351627     42.555489
  C      40.550577     18.477259     42.662511
  N      39.832644     17.630477     43.390024
  H      39.105647     17.967536     43.999342
  H      39.929093     16.634630     43.281956
  N      41.530531     18.031236     41.901180
  H      42.080059     18.709366     41.361936
  H      41.846848     17.079565     41.873393
37
Coordinates from ORCA-job job E -836.417286430927
  C      45.078018     20.512507     40.109307
  H      45.153991     20.432202     39.024695
  H      45.947449     20.828441     40.688166
  C      43.946572     20.294896     40.791744
  C      43.865134     20.553458     42.312781
  O      44.883123     20.333987     42.982423
  O      42.755080     21.016947     42.720675
  O      42.774125     19.812698     40.219123
  C      42.041091     20.566021     39.199187
  H      41.299179     19.819628     38.855506
  C      42.892000     20.975000     38.054000
  H      43.464714     20.214467     37.516295
  C      42.969000     22.244000     37.605000
  C      42.118000     23.281000     38.202000
  H      42.223817     24.268015     37.743642
  C      41.188000     23.002000     39.130000
  H      40.527452     23.770262     39.548316
  C      41.244595     21.698945     39.878752
  H      41.773047     21.873611     40.837948
  O      39.912741     21.236418     40.211559
  H      40.060966     20.628431     40.950139
  C      43.898941     22.617106     36.415287
  O      44.602893     21.684221     35.971592
  O      43.829324     23.813639     36.053338
  C      39.388000     20.557000     43.513000
  H      39.587925     20.549885     44.584485
  H      38.380565     20.162354     43.331008
  H      39.410007     21.600690     43.168548
  N      40.393665     19.783941     42.781284
  H      41.229717     20.347955     42.567017
  C      40.559354     18.472305     42.684168
  N      39.838469     17.625635     43.406633
  H      39.132061     17.962768     44.039660
  H      39.943390     16.628786     43.316473
  N      41.536109     18.028709     41.916238
  H      42.078992     18.707442     41.369852
  H      41.863993     17.080783     41.888638
37
Coordinates from ORCA-job job E -836.417652219638
  C      45.043044     20.290776     40.049144
  H      45.113177     20.247601     38.961923
  H      45.933924     20.531806     40.631776
  C      43.907096     20.116110     40.737097
  C      43.865867     20.337860     42.265781
  O      44.870221     20.023472     42.917876
  O      42.797561     20.871642     42.696961
  O      42.698982     19.732987     40.174282
  C      42.018055     20.562674     39.178217
  H      41.239840     19.872669     38.797805
  C      42.892000     20.975000     38.054000
  H      43.455629     20.213475     37.508105
  C      42.969000     22.244000     37.605000
  C      42.118000     23.281000     38.202000
  H      42.217342     24.264875     37.735480
  C      41.188000     23.002000     39.130000
  H      40.527433     23.769962     39.549485
  C      41.283252     21.706914     39.898289
  H      41.893731     21.901202     40.806317
  O      39.989087     21.257745     40.346445
  H      40.196963     20.690580     41.102466
  C      43.884006     22.615992     36.400581
  O      44.580733     21.683301     35.949416
  O      43.803347     23.812058     36.037780
  C      39.388000     20.557000     43.513000
  H      39.587925     20.549885     44.584485
  H      38.373814     20.180398     43.329751
  H      39.432969     21.598640     43.164615
  N      40.381304     19.758773     42.792458
  H      41.236555     20.299606     42.584130
  C      40.508667     18.442549     42.694479
  N      39.803875     17.616184     43.452949
  H      39.147812     17.971446     44.128853
  H      39.882693     16.615968     43.371353
  N      41.444421     17.978069     41.890963
  H      41.979588     18.643759     41.322806
  H      41.771924     17.029548     41.867265
37
Coordinates from ORCA-job job E -836.417930548075
  C      45.025379     20.181536     40.035337
  H      45.110614     20.132355     38.949594
  H      45.920108     20.393045     40.623785
  C      43.881850     20.049770     40.721205
  C      43.861300     20.286490     42.250145
  O      44.870960     19.968397     42.892724
  O      42.804057     20.831091     42.687539
  O      42.659741     19.710978     40.167012
  C      42.000750     20.561946     39.173208
  H      41.217410     19.884897     38.776410
  C      42.892000     20.975000     38.054000
  H      43.455642     20.212922     37.509547
  C      42.969000     22.244000     37.605000
  C      42.118000     23.281000     38.202000
  H      42.216261     24.264698     37.735278
  C      41.188000     23.002000     39.130000
  H      40.529444     23.775150     39.543321
  C      41.263817     21.709816     39.896497
  H      41.873377     21.928757     40.797975
  O      39.967008     21.284876     40.325250
  H      40.152210     20.661341     41.041449
  C      43.871485     22.613035     36.387083
  O      44.577851     21.684755     35.946224
  O      43.764127     23.802041     36.005855
  C      39.388000     20.557000     43.513000
  H      39.587925     20.549885     44.584485
  H      38.367813     20.202740     43.318833
  H      39.465872     21.597293     43.166346
  N      40.378477     19.734477     42.812458
  H      41.243823     20.263162     42.606447
  C      40.471552     18.415737     42.688015
  N      39.735874     17.591448     43.416491
  H      39.103025     17.946166     44.114580
  H      39.799059     16.590355     43.329746
  N      41.393938     17.947106     41.872204
  H      41.931539     18.611159     41.308000
  H      41.712797     16.996096     41.827770
37
Coordinates from ORCA-job job E -836.418212955857
  C      45.006373     20.058717     40.014901
  H      45.083457     20.024612     38.928347
  H      45.909970     20.223168     40.604596
  C      43.859514     19.961874     40.700658
  C      43.845940     20.168375     42.233554
  O      44.840769     19.797595     42.870908
  O      42.810944     20.750880     42.678486
  O      42.622144     19.675772     40.142526
  C      41.991169     20.560491     39.163437
  H      41.192450     19.909852     38.752345
  C      42.892000     20.975000     38.054000
  H      43.450949     20.213298     37.504735
  C      42.969000     22.244000     37.605000
  C      42.118000     23.281000     38.202000
  H      42.214428     24.264024     37.732912
  C      41.188000     23.002000     39.130000
  H      40.529172     23.772055     39.548233
  C      41.284887     21.713897     39.902781
  H      41.915771     21.931314     40.789235
  O      39.998248     21.291939     40.374623
  H      40.209410     20.641177     41.060507
  C      43.880941     22.612330     36.395384
  O      44.570156     21.676128     35.941188
  O      43.802157     23.808544     36.030767
  C      39.388000     20.557000     43.513000
  H      39.587925     20.549885     44.584485
  H      38.362435     20.215554     43.323997
  H      39.476824     21.594936     43.161821
  N      40.362093     19.719202     42.810465
  H      41.237193     20.228164     42.611307
  C      40.426847     18.400070     42.674781
  N      39.689285     17.585786     43.414668
  H      39.064236     17.950451     44.114577
  H      39.729720     16.584987     43.314075
  N      41.334040     17.916364     41.849328
  H      41.875390     18.576409     41.281644
  H      41.637898     16.960556     41.807060
37
Coordinates from ORCA-job job E -836.418436824072
  C      44.967756     19.873320     39.969953
  H      45.026190     19.836806     38.882653
  H      45.885331     19.981502     40.550684
  C      43.823790     19.844909     40.665456
  C      43.834227     20.033626     42.198694
  O      44.825633     19.621868     42.815954
  O      42.824764     20.640679     42.670213
  O      42.568085     19.630286     40.109510
  C      41.973964     20.559815     39.150151
  H      41.152686     19.949231     38.722592
  C      42.892000     20.975000     38.054000
  H      43.444304     20.214129     37.497709
  C      42.969000     22.244000     37.605000
  C      42.118000     23.281000     38.202000
  H      42.210194     24.262863     37.729093
  C      41.188000     23.002000     39.130000
  H      40.526565     23.767681     39.551632
  C      41.305778     21.720807     39.908440
  H      41.959646     21.932982     40.779820
  O      40.029061     21.306317     40.424896
  H      40.266755     20.698310     41.141640
  C      43.889166     22.611705     36.403635
  O      44.551421     21.666030     35.925650
  O      43.848583     23.816825     36.064007
  C      39.388000     20.557000     43.513000
  H      39.587925     20.549885     44.584485
  H      38.355299     20.235744     43.327365
  H      39.496563     21.591507     43.157147
  N      40.342728     19.696396     42.812027
  H      41.225833     20.183046     42.611620
  C      40.365788     18.381250     42.656888
  N      39.614905     17.578969     43.399226
  H      39.027356     17.951447     44.126941
  H      39.634144     16.579159     43.285321
  N      41.231666     17.879888     41.799110
  H      41.785297     18.532025     41.233190
  H      41.508159     16.916218     41.749955
37
Coordinates from ORCA-job job E -836.418714127190
  C      44.908756     19.650731     39.918776
  H      44.956852     19.610014     38.831355
  H      45.835200     19.690418     40.493899
  C      43.770792     19.706240     40.621837
  C      43.802825     19.884714     42.156096
  O      44.770365     19.407629     42.764535
  O      42.833602     20.546895     42.635136
  O      42.498033     19.583110     40.072625
  C      41.953811     20.559835     39.133231
  H      41.112087     19.993855     38.682184
  C      42.892000     20.975000     38.054000
  H      43.440692     20.214690     37.494013
  C      42.969000     22.244000     37.605000
  C      42.118000     23.281000     38.202000
  H      42.206119     24.261968     37.726221
  C      41.188000     23.002000     39.130000
  H      40.526328     23.765589     39.554738
  C      41.324446     21.724142     39.913534
  H      42.009389     21.934117     40.761911
  O      40.062121     21.321599     40.469755
  H      40.316964     20.658774     41.129939
  C      43.888400     22.611428     36.403506
  O      44.529840     21.660876     35.906711
  O      43.868315     23.821696     36.081301
  C      39.388000     20.557000     43.513000
  H      39.587925     20.549885     44.584485
  H      38.349456     20.255093     43.327620
  H      39.518840     21.587481     43.153088
  N      40.327523     19.672335     42.821340
  H      41.222605     20.135363     42.615825
  C      40.305389     18.360279     42.640780
  N      39.531112     17.570384     43.373214
  H      38.977062     17.946589     44.124947
  H      39.525027     16.572102     43.246058
  N      41.134945     17.845216     41.753792
  H      41.694863     18.490095     41.186325
  H      41.391296     16.876513     41.695106
37
Coordinates from ORCA-job job E -836.419165106477
  C      44.793166     19.316953     39.844097
  H      44.817131     19.237529     38.758285
  H      45.727099     19.263996     40.405736
  C      43.680260     19.520081     40.559264
  C      43.747669     19.712129     42.092048
  O      44.689722     19.172886     42.689362
  O      42.831376     20.438445     42.578810
  O      42.395921     19.525112     40.020547
  C      41.921035     20.559345     39.106755
  H      41.058702     20.053919     38.621321
  C      42.892000     20.975000     38.054000
  H      43.441649     20.216906     37.492715
  C      42.969000     22.244000     37.605000
  C      42.118000     23.281000     38.202000
  H      42.202839     24.261821     37.725398
  C      41.188000     23.002000     39.130000
  H      40.526159     23.763897     39.557090
  C      41.334360     21.724856     39.913752
  H      42.047283     21.925167     40.739921
  O      40.082306     21.336970     40.494911
  H      40.339094     20.619852     41.094604
  C      43.886872     22.615115     36.403976
  O      44.503612     21.662264     35.881613
  O      43.887608     23.831748     36.106082
  C      39.388000     20.557000     43.513000
  H      39.587925     20.549885     44.584485
  H      38.341138     20.286658     43.325868
  H      39.555488     21.579815     43.146670
  N      40.304978     19.634104     42.839793
  H      41.212226     20.068472     42.618231
  C      40.213899     18.331187     42.615577
  N      39.386635     17.564151     43.314094
  H      38.896376     17.935113     44.111569
  H      39.347607     16.569094     43.169192
  N      40.980382     17.804410     41.677319
  H      41.556753     18.438175     41.113970
  H      41.201067     16.828598     41.594813
37
Coordinates from ORCA-job job E -836.419722547547
  C      44.561186     18.875687     39.720131
  H      44.525030     18.739151     38.640089
  H      45.497004     18.698551     40.252348
  C      43.520051     19.280766     40.456548
  C      43.652779     19.497418     41.983262
  O      44.564395     18.886790     42.559574
  O      42.812841     20.300135     42.485627
  O      42.240001     19.456508     39.939100
  C      41.870158     20.562406     39.064076
  H      40.987839     20.147202     38.529296
  C      42.892000     20.975000     38.054000
  H      43.450201     20.219534     37.497841
  C      42.969000     22.244000     37.605000
  C      42.118000     23.281000     38.202000
  H      42.201905     24.262249     37.726402
  C      41.188000     23.002000     39.130000
  H      40.527346     23.762347     39.561592
  C      41.347440     21.723679     39.910779
  H      42.102406     21.907112     40.702521
  O      40.118343     21.346731     40.536945
  H      40.386973     20.591054     41.081120
  C      43.889071     22.624229     36.408084
  O      44.483636     21.673429     35.859269
  O      43.907672     23.847801     36.138955
  C      39.388000     20.557000     43.513000
  H      39.587925     20.549885     44.584485
  H      38.330696     20.330143     43.326616
  H      39.601990     21.567569     43.137130
  N      40.268267     19.583788     42.857805
  H      41.187228     19.982818     42.610297
  C      40.083588     18.300630     42.579135
  N      39.199996     17.572167     43.248679
  H      38.800083     17.925918     44.102779
  H      39.107809     16.584619     43.078351
  N      40.752108     17.771957     41.567866
  H      41.346696     18.387978     41.004213
  H      40.926653     16.789967     41.452142
37
Coordinates from ORCA-job job E -836.420275815515
  C      44.328150     18.565516     39.617712
  H      44.216412     18.377762     38.548841
  H      45.263505     18.302971     40.114062
  C      43.374192     19.127662     40.368716
  C      43.569450     19.381818     41.884706
  O      44.473413     18.742263     42.441612
  O      42.779713     20.226839     42.400875
  O      42.112641     19.414737     39.864342
  C      41.822306     20.565742     39.021249
  H      40.939253     20.216026     38.442802
  C      42.892000     20.975000     38.054000
  H      43.477028     20.221630     37.521975
  C      42.969000     22.244000     37.605000
  C      42.118000     23.281000     38.202000
  H      42.207877     24.264692     37.733328
  C      41.188000     23.002000     39.130000
  H      40.531438     23.764347     39.564679
  C      41.336427     21.716878     39.898159
  H      42.108263     21.877150     40.678044
  O      40.115276     21.341808     40.535161
  H      40.390457     20.576187     41.060725
  C      43.908956     22.639922     36.427846
  O      44.524562     21.699356     35.887573
  O      43.915508     23.865829     36.165783
  C      39.388000     20.557000     43.513000
  H      39.587925     20.549885     44.584485
  H      38.322684     20.369898     43.327897
  H      39.640522     21.555676     43.129506
  N      40.232849     19.543434     42.867488
  H      41.158628     19.916225     42.599631
  C      39.970855     18.283250     42.539517
  N      39.043933     17.590007     43.185217
  H      38.711175     17.918115     44.077756
  H      38.893612     16.615276     42.984827
  N      40.558673     17.768059     41.470891
  H      41.168913     18.368031     40.905677
  H      40.692236     16.784049     41.321352
37
Coordinates from ORCA-job job E -836.420910862941
  C      44.235804     18.479636     39.571616
  H      44.090622     18.281467     38.507199
  H      45.175533     18.196234     40.047759
  C      43.312558     19.087847     40.325828
  C      43.529104     19.362869     41.835167
  O      44.440063     18.727659     42.384764
  O      42.751120     20.217887     42.355277
  O      42.060914     19.396690     39.818491
  C      41.797940     20.565171     38.993215
  H      40.924828     20.238847     38.388491
  C      42.892000     20.975000     38.054000
  H      43.502132     20.223281     37.547220
  C      42.969000     22.244000     37.605000
  C      42.118000     23.281000     38.202000
  H      42.217331     24.266876     37.740522
  C      41.188000     23.002000     39.130000
  H      40.537480     23.768571     39.567272
  C      41.317749     21.707443     39.883924
  H      42.089920     21.849553     40.667634
  O      40.096799     21.328029     40.517887
  H      40.384832     20.584871     41.068281
  C      43.932777     22.650583     36.449436
  O      44.593298     21.720927     35.946697
  O      43.908360     23.872121     36.165814
  C      39.388000     20.557000     43.513000
  H      39.587925     20.549885     44.584485
  H      38.318729     20.390273     43.331546
  H      39.655190     21.550250     43.125523
  N      40.209942     19.529139     42.861688
  H      41.139887     19.886214     42.593064
  C      39.912976     18.281987     42.511753
  N      38.985966     17.595527     43.161449
  H      38.666750     17.917499     44.061026
  H      38.785602     16.635313     42.935837
  N      40.472571     17.775077     41.425577
  H      41.085296     18.366251     40.852767
  H      40.588970     16.790995     41.262181
37
Coordinates from ORCA-job job E -836.414170965526
  C      43.174053     17.585859     39.145710
  H      42.844169     17.494546     38.103047
  H      43.979060     16.943121     39.535904
  C      42.604646     18.546719     39.917936
  C      42.972563     18.753304     41.419363
  O      43.719452     17.901441     41.928959
  O      42.452460     19.789631     41.955414
  O      41.511840     19.290072     39.430520
  C      41.627759     20.602345     38.791117
  H      40.811490     20.592055     38.023148
  C      42.892000     20.975000     38.054000
  H      43.574920     20.230958     37.640172
  C      42.969000     22.244000     37.605000
  C      42.118000     23.281000     38.202000
  H      42.255994     24.269996     37.755611
  C      41.188000     23.002000     39.130000
  H      40.573616     23.777991     39.605177
  C      41.303589     21.671277     39.806051
  H      42.157903     21.679323     40.518196
  O      40.161942     21.304720     40.587583
  H      40.588711     20.650469     41.174499
  C      44.023853     22.669154     36.530421
  O      44.781646     21.761270     36.131595
  O      43.958036     23.872015     36.175626
  C      39.388000     20.557000     43.513000
  H      39.587925     20.549885     44.584485
  H      38.293562     20.601655     43.398444
  H      39.796551     21.492208     43.098851
  N      39.922805     19.410035     42.745050
  H      40.901348     19.524326     42.457521
  C      39.246801     18.376460     42.189983
  N      38.313276     17.749370     42.882296
  H      38.121673     18.021345     43.833892
  H      37.690017     17.038541     42.462847
  N      39.582293     17.927631     40.985363
  H      40.263142     18.445878     40.415487
  H      39.501906     16.958630     40.712848
37
Coordinates from ORCA-job job E -836.420417226050
  C      43.607814     17.888595     39.298573
  H      43.339722     17.717441     38.250783
  H      44.489610     17.400199     39.727562
  C      42.875804     18.748087     40.038390
  C      43.204637     19.035053     41.521419
  O      44.071503     18.315284     42.039516
  O      42.556811     19.993636     42.057949
  O      41.700132     19.290693     39.531243
  C      41.679728     20.578040     38.847031
  H      40.838647     20.465736     38.121399
  C      42.892000     20.975000     38.054000
  H      43.563361     20.231691     37.619569
  C      42.969000     22.244000     37.605000
  C      42.118000     23.281000     38.202000
  H      42.243141     24.268196     37.747585
  C      41.188000     23.002000     39.130000
  H      40.569146     23.780163     39.593252
  C      41.302131     21.671703     39.831313
  H      42.141897     21.738998     40.561419
  O      40.141435     21.308591     40.574686
  H      40.535290     20.653075     41.181500
  C      44.007258     22.658935     36.515090
  O      44.758837     21.748850     36.108295
  O      43.940927     23.860435     36.159178
  C      39.388000     20.557000     43.513000
  H      39.587925     20.549885     44.584485
  H      38.299613     20.538733     43.361411
  H      39.761559     21.507984     43.104693
  N      40.029941     19.436133     42.807870
  H      41.002437     19.627892     42.534332
  C      39.463322     18.331711     42.313196
  N      38.565737     17.668050     43.022191
  H      38.301712     17.998097     43.937119
  H      38.028894     16.891671     42.630131
  N      39.871430     17.847975     41.154575
  H      40.516968     18.384396     40.564293
  H      39.861980     16.864073     40.935996
37
Coordinates from ORCA-job job E -836.388960525846
  C      43.363287     17.996827     39.276163
  H      43.101036     17.886714     38.213620
  H      44.138664     17.493797     39.717533
  C      42.754935     18.795497     40.023415
  C      43.077668     19.022125     41.529911
  O      43.858392     18.283797     42.080560
  O      42.480862     19.966440     42.032882
  O      41.679046     19.362862     39.515500
  C      41.687544     20.606916     38.852603
  H      40.871320     20.523156     38.162834
  C      42.892000     20.975000     38.054000
  H      43.543290     20.222165     37.617205
  C      42.969000     22.244000     37.605000
  C      42.118000     23.281000     38.202000
  H      42.235979     24.267362     37.744246
  C      41.188000     23.002000     39.130000
  H      40.569587     23.777500     39.596620
  C      41.310831     21.680027     39.830620
  H      42.140604     21.735127     40.554225
  O      40.141353     21.319511     40.573133
  H      40.500536     20.670034     41.165724
  C      43.994429     22.646381     36.506920
  O      44.730198     21.738071     36.095015
  O      43.939949     23.836911     36.142856
  C      39.388000     20.557000     43.513000
  H      39.587925     20.549885     44.584485
  H      38.306613     20.561244     43.370755
  H      39.774321     21.499900     43.111395
  N      39.991359     19.441304     42.782744
  H      40.955486     19.600664     42.506086
  C      39.411267     18.400453     42.271162
  N      38.512910     17.722212     42.967617
  H      38.250473     18.006532     43.883924
  H      37.984457     17.023199     42.579239
  N      39.822310     17.959609     41.112812
  H      40.482252     18.507613     40.558786
  H      39.797301     16.993274     40.871315
37
Coordinates from ORCA-job job E -836.418064771592
  C      43.563067     17.917311     39.276654
  H      43.315244     17.759462     38.221752
  H      44.416801     17.410878     39.726507
  C      42.860794     18.773150     40.042013
  C      43.180722     19.037215     41.536116
  O      44.033725     18.291523     42.080586
  O      42.523576     20.010466     42.049298
  O      41.716334     19.332363     39.536724
  C      41.694095     20.594965     38.865968
  H      40.852970     20.493264     38.174087
  C      42.892000     20.975000     38.054000
  H      43.547296     20.224964     37.612044
  C      42.969000     22.244000     37.605000
  C      42.118000     23.281000     38.202000
  H      42.232086     24.267286     37.742796
  C      41.188000     23.002000     39.130000
  H      40.564496     23.775709     39.592225
  C      41.312823     21.684438     39.840941
  H      42.140465     21.761927     40.570784
  O      40.141730     21.320343     40.569150
  H      40.524946     20.669666     41.180631
  C      43.992376     22.650576     36.505987
  O      44.729634     21.740809     36.092812
  O      43.933649     23.846363     36.152324
  C      39.388000     20.557000     43.513000
  H      39.587925     20.549885     44.584485
  H      38.310015     20.536573     43.360196
  H      39.759055     21.504283     43.110438
  N      40.029340     19.448680     42.812412
  H      40.990236     19.633608     42.542396
  C      39.482622     18.373853     42.312216
  N      38.597969     17.675831     43.008980
  H      38.334293     17.969253     43.934133
  H      38.103510     16.940226     42.629597
  N      39.903039     17.914135     41.154292
  H      40.548892     18.466148     40.581872
  H      39.902439     16.937227     40.929284
37
Coordinates from ORCA-job job E -836.411034361731
  C      43.652343     17.879116     39.324180
  H      43.423123     17.708357     38.278999
  H      44.525357     17.388940     39.783102
  C      42.897963     18.733069     40.059569
  C      43.190007     19.021191     41.536598
  O      43.994643     18.339755     42.040012
  O      42.540616     19.970087     42.056562
  O      41.717250     19.280489     39.539298
  C      41.687450     20.578927     38.859161
  H      40.823323     20.470568     38.135279
  C      42.892000     20.975000     38.054000
  H      43.555117     20.226399     37.608702
  C      42.969000     22.244000     37.605000
  C      42.118000     23.281000     38.202000
  H      42.234719     24.268124     37.744711
  C      41.188000     23.002000     39.130000
  H      40.566614     23.778069     39.593203
  C      41.308656     21.677191     39.840256
  H      42.139683     21.752001     40.564076
  O      40.152174     21.303804     40.571784
  H      40.542406     20.642853     41.187332
  C      43.995501     22.658935     36.505710
  O      44.743339     21.738658     36.087512
  O      43.927374     23.872910     36.165776
  C      39.388000     20.557000     43.513000
  H      39.587925     20.549885     44.584485
  H      38.293902     20.551524     43.355242
  H      39.778101     21.508625     43.106653
  N      40.028185     19.420472     42.820976
  H      41.005782     19.606485     42.552284
  C      39.460581     18.313988     42.304810
  N      38.563748     17.639213     43.008197
  H      38.298249     17.960510     43.928830
  H      38.014348     16.858154     42.590275
  N      39.886939     17.836084     41.143707
  H      40.543132     18.386249     40.567539
  H      39.887465     16.855789     40.916491
37
Coordinates from ORCA-job job E -836.386267043231
  C      43.680064     17.947494     39.412536
  H      43.454963     17.805356     38.362345
  H      44.532365     17.504298     39.891512
  C      42.938039     18.715216     40.105512
  C      43.247480     18.988322     41.608281
  O      44.154592     18.249745     42.235223
  O      42.578561     19.922091     42.098512
  O      41.745670     19.228625     39.555835
  C      41.687948     20.562014     38.860917
  H      40.802784     20.434494     38.107325
  C      42.892000     20.975000     38.054000
  H      43.561414     20.225944     37.602815
  C      42.969000     22.244000     37.605000
  C      42.118000     23.281000     38.202000
  H      42.234401     24.268038     37.743061
  C      41.188000     23.002000     39.130000
  H      40.563846     23.780976     39.586495
  C      41.302355     21.674397     39.852992
  H      42.146255     21.768763     40.579511
  O      40.147733     21.280553     40.586096
  H      40.556469     20.611798     41.196585
  C      43.987536     22.670035     36.498190
  O      44.746822     21.743202     36.071902
  O      43.887693     23.894818     36.172080
  C      39.388000     20.557000     43.513000
  H      39.587925     20.549885     44.584485
  H      38.272758     20.578280     43.347353
  H      39.811045     21.514879     43.107340
  N      40.020487     19.381280     42.828831
  H      41.019154     19.579212     42.574841
  C      39.441159     18.251013     42.305270
  N      38.525951     17.607346     43.007816
  H      38.258967     17.946925     43.925772
  H      37.909009     16.784088     42.547585
  N      39.885820     17.776455     41.152300
  H      40.554801     18.325941     40.579631
  H      39.901050     16.802646     40.916278
37
Coordinates from ORCA-job job E -836.415836372919
  C      43.692169     17.956947     39.346990
  H      43.465477     17.799403     38.284839
  H      44.550874     17.502432     39.813120
  C      42.934098     18.768849     40.080024
  C      43.240058     19.050941     41.575905
  O      44.135345     18.313479     42.166733
  O      42.569987     19.994486     42.086563
  O      41.761878     19.281238     39.554705
  C      41.699040     20.576998     38.873010
  H      40.832245     20.450073     38.162612
  C      42.892000     20.975000     38.054000
  H      43.550792     20.226189     37.604169
  C      42.969000     22.244000     37.605000
  C      42.118000     23.281000     38.202000
  H      42.229996     24.266911     37.742672
  C      41.188000     23.002000     39.130000
  H      40.560622     23.776521     39.587192
  C      41.313475     21.682315     39.855504
  H      42.152576     21.781163     40.579354
  O      40.149296     21.302147     40.589639
  H      40.547988     20.658397     41.189051
  C      43.982458     22.660772     36.498894
  O      44.723470     21.754875     36.080197
  O      43.899077     23.859931     36.159405
  C      39.388000     20.557000     43.513000
  H      39.587925     20.549885     44.584485
  H      38.294804     20.543370     43.350220
  H      39.776876     21.512624     43.114241
  N      40.042849     19.422393     42.832021
  H      41.020183     19.631365     42.573219
  C      39.501278     18.318547     42.326356
  N      38.603147     17.640299     43.024998
  H      38.329498     17.958208     43.939829
  H      38.067516     16.864812     42.602742
  N      39.939041     17.842544     41.169925
  H      40.586553     18.388807     40.590024
  H      39.954595     16.866412     40.942617
37
Coordinates from ORCA-job job E -836.420482521800
  C      43.729136     17.966215     39.355041
  H      43.512296     17.811468     38.301764
  H      44.606352     17.500589     39.841101
  C      42.951870     18.778622     40.087620
  C      43.249311     19.059744     41.576240
  O      44.086545     18.363230     42.104086
  O      42.572452     20.008728     42.091494
  O      41.769954     19.290130     39.555854
  C      41.700541     20.579410     38.874270
  H      40.841826     20.447480     38.171881
  C      42.892000     20.975000     38.054000
  H      43.551402     20.225846     37.605553
  C      42.969000     22.244000     37.605000
  C      42.118000     23.281000     38.202000
  H      42.230417     24.267401     37.743076
  C      41.188000     23.002000     39.130000
  H      40.559681     23.776696     39.586343
  C      41.309299     21.682873     39.850447
  H      42.147433     21.782522     40.574002
  O      40.141284     21.314086     40.573878
  H      40.549494     20.657358     41.193003
  C      43.984293     22.658711     36.493966
  O      44.728578     21.745814     36.073428
  O      43.906265     23.864423     36.151560
  C      39.388000     20.557000     43.513000
  H      39.587925     20.549885     44.584485
  H      38.298903     20.540653     43.347760
  H      39.775470     21.510915     43.116412
  N      40.046356     19.425626     42.835492
  H      41.020897     19.636339     42.581846
  C      39.509789     18.322312     42.328585
  N      38.611183     17.638899     43.019991
  H      38.334845     17.952817     43.940639
  H      38.087506     16.876730     42.607872
  N      39.952435     17.850229     41.176646
  H      40.597120     18.397450     40.595496
  H      39.971920     16.873325     40.950477
37
Coordinates from ORCA-job job E -836.417079254878
  C      43.751395     18.008302     39.361179
  H      43.556849     17.813812     38.342235
  H      44.610804     17.563900     39.810933
  C      42.961310     18.828049     40.083162
  C      43.220885     19.124239     41.538843
  O      44.089002     18.407203     42.077646
  O      42.555645     20.048720     42.085628
  O      41.788350     19.330331     39.570006
  C      41.717247     20.586524     38.897095
  H      40.860066     20.449291     38.233858
  C      42.892000     20.975000     38.054000
  H      43.541260     20.228116     37.588731
  C      42.969000     22.244000     37.605000
  C      42.118000     23.281000     38.202000
  H      42.225049     24.266943     37.739691
  C      41.188000     23.002000     39.130000
  H      40.550836     23.767356     39.588383
  C      41.331861     21.690121     39.857993
  H      42.142711     21.788066     40.577227
  O      40.184888     21.316738     40.573470
  H      40.564604     20.696704     41.178340
  C      43.997321     22.655710     36.500472
  O      44.711764     21.722917     36.046957
  O      43.977361     23.880469     36.180687
  C      39.388000     20.557000     43.513000
  H      39.587925     20.549885     44.584485
  H      38.316961     20.509688     43.344492
  H      39.744314     21.504783     43.115581
  N      40.068920     19.452386     42.845350
  H      41.029878     19.676108     42.594825
  C      39.554597     18.341712     42.326329
  N      38.662537     17.653078     43.006981
  H      38.385204     17.955279     43.920860
  H      38.170335     16.876788     42.589215
  N      40.001235     17.869803     41.179687
  H      40.637335     18.425907     40.594864
  H      40.019326     16.882434     40.964659
37
Coordinates from ORCA-job job E -836.420689940118
  C      43.726000     18.018215     39.338640
  H      43.500640     17.847612     38.257563
  H      44.597434     17.564513     39.797723
  C      42.962531     18.815411     40.091131
  C      43.246110     19.094521     41.581835
  O      44.125522     18.375847     42.143602
  O      42.568798     20.026122     42.113132
  O      41.793299     19.318121     39.577617
  C      41.718528     20.584646     38.900060
  H      40.846169     20.447390     38.234151
  C      42.892000     20.975000     38.054000
  H      43.535570     20.227440     37.587397
  C      42.969000     22.244000     37.605000
  C      42.118000     23.281000     38.202000
  H      42.222577     24.266669     37.739974
  C      41.188000     23.002000     39.130000
  H      40.550737     23.767107     39.587638
  C      41.333519     21.692549     39.860157
  H      42.155832     21.795934     40.585331
  O      40.171247     21.315882     40.586284
  H      40.569366     20.675702     41.204877
  C      43.986477     22.656352     36.499361
  O      44.697819     21.737927     36.053573
  O      43.949979     23.867973     36.181108
  C      39.388000     20.557000     43.513000
  H      39.587925     20.549885     44.584485
  H      38.311817     20.518095     43.339108
  H      39.760169     21.507114     43.113656
  N      40.070874     19.441595     42.860077
  H      41.037115     19.663048     42.613720
  C      39.556700     18.334922     42.346109
  N      38.657401     17.641142     43.023694
  H      38.382180     17.939489     43.943347
  H      38.174037     16.869145     42.620859
  N      40.006237     17.862211     41.194136
  H      40.641628     18.420733     40.610233
  H      40.027601     16.878745     40.976576
37
Coordinates from ORCA-job job E -836.422239824208
  C      43.756915     17.990663     39.377146
  H      43.547832     17.810727     38.322047
  H      44.635151     17.537525     39.848350
  C      42.977018     18.794039     40.111767
  C      43.262318     19.073969     41.603699
  O      44.113143     18.376794     42.146616
  O      42.575763     20.013094     42.123611
  O      41.795244     19.298225     39.586530
  C      41.717009     20.580199     38.896387
  H      40.836126     20.440244     38.213805
  C      42.892000     20.975000     38.054000
  H      43.538420     20.227103     37.588104
  C      42.969000     22.244000     37.605000
  C      42.118000     23.281000     38.202000
  H      42.224128     24.266588     37.739723
  C      41.188000     23.002000     39.130000
  H      40.552400     23.770107     39.586004
  C      41.330681     21.690702     39.862633
  H      42.164913     21.796674     40.591570
  O      40.164315     21.307354     40.595183
  H      40.568658     20.663925     41.208233
  C      43.985168     22.661219     36.503123
  O      44.695223     21.746397     36.054033
  O      43.939789     23.870851     36.198572
  C      39.388000     20.557000     43.513000
  H      39.587925     20.549885     44.584485
  H      38.300304     20.529136     43.340474
  H      39.772373     21.509747     43.108984
  N      40.065912     19.425829     42.861841
  H      41.038093     19.650007     42.615249
  C      39.549397     18.316190     42.352476
  N      38.646155     17.629969     43.037034
  H      38.367889     17.934929     43.955502
  H      38.149363     16.851028     42.632695
  N      40.004120     17.844957     41.202443
  H      40.639516     18.401948     40.618490
  H      40.031302     16.867363     40.984567
37
Coordinates from ORCA-job job E -836.422575298522
  C      43.783525     18.026693     39.377627
  H      43.580438     17.848214     38.322579
  H      44.665133     17.580006     39.852553
  C      42.993968     18.825058     40.106474
  C      43.276038     19.107712     41.599798
  O      44.134510     18.409448     42.150346
  O      42.586393     20.040591     42.116321
  O      41.813664     19.315601     39.586764
  C      41.722898     20.582600     38.901795
  H      40.853373     20.433346     38.238184
  C      42.892000     20.975000     38.054000
  H      43.535783     20.224217     37.587116
  C      42.969000     22.244000     37.605000
  C      42.118000     23.281000     38.202000
  H      42.221177     24.266354     37.738221
  C      41.188000     23.002000     39.130000
  H      40.551482     23.771219     39.583273
  C      41.328751     21.690707     39.866087
  H      42.159202     21.798778     40.595316
  O      40.161408     21.308813     40.593806
  H      40.569257     20.670644     41.212209
  C      43.979246     22.654578     36.488474
  O      44.692046     21.727445     36.032270
  O      43.938041     23.871254     36.176668
  C      39.388000     20.557000     43.513000
  H      39.587925     20.549885     44.584485
  H      38.308265     20.517829     43.335608
  H      39.763052     21.508446     43.113915
  N      40.077575     19.437939     42.867616
  H      41.048763     19.665246     42.626872
  C      39.570468     18.327166     42.352605
  N      38.666971     17.632613     43.024628
  H      38.391938     17.930554     43.953890
  H      38.175920     16.850916     42.619783
  N      40.034622     17.863193     41.209068
  H      40.667192     18.423901     40.624677
  H      40.070887     16.886298     40.990686
37
Coordinates from ORCA-job job E -836.422392656754
  C      43.805635     18.035764     39.369038
  H      43.600247     17.857801     38.299463
  H      44.676056     17.609623     39.828259
  C      43.011493     18.821984     40.110402
  C      43.285744     19.110579     41.601030
  O      44.152943     18.416108     42.153480
  O      42.586280     20.042639     42.114763
  O      41.824262     19.305228     39.591558
  C      41.726865     20.579985     38.905877
  H      40.846851     20.428313     38.241257
  C      42.892000     20.975000     38.054000
  H      43.530794     20.225781     37.580559
  C      42.969000     22.244000     37.605000
  C      42.118000     23.281000     38.202000
  H      42.221034     24.265901     37.738678
  C      41.188000     23.002000     39.130000
  H      40.549255     23.768894     39.583686
  C      41.335674     21.692252     39.867224
  H      42.161987     21.800398     40.592206
  O      40.177052     21.314515     40.592779
  H      40.575115     20.681583     41.202792
  C      43.978038     22.653570     36.487120
  O      44.690537     21.729773     36.036901
  O      43.938229     23.869848     36.164134
  C      39.388000     20.557000     43.513000
  H      39.587925     20.549885     44.584485
  H      38.307159     20.513701     43.336337
  H      39.760534     21.509771     43.116282
  N      40.080901     19.439246     42.865294
  H      41.049574     19.667236     42.618570
  C      39.577715     18.322645     42.350261
  N      38.674791     17.626331     43.019386
  H      38.387275     17.921341     43.929264
  H      38.196647     16.840902     42.615932
  N      40.046110     17.850364     41.206787
  H      40.679028     18.413072     40.624504
  H      40.082119     16.868723     40.992543
37
Coordinates from ORCA-job job E -836.422290334011
  C      43.810205     18.046575     39.390015
  H      43.622332     17.861788     38.338218
  H      44.694785     17.604890     39.879933
  C      43.011438     18.825145     40.120722
  C      43.277129     19.107718     41.610540
  O      44.144524     18.410124     42.172481
  O      42.579585     20.030910     42.123746
  O      41.827934     19.306206     39.598510
  C      41.729345     20.579715     38.908603
  H      40.843466     20.425896     38.242135
  C      42.892000     20.975000     38.054000
  H      43.528784     20.227928     37.577533
  C      42.969000     22.244000     37.605000
  C      42.118000     23.281000     38.202000
  H      42.222527     24.265629     37.739385
  C      41.188000     23.002000     39.130000
  H      40.548097     23.767134     39.584440
  C      41.339280     21.694215     39.866275
  H      42.163680     21.804337     40.589873
  O      40.182209     21.315923     40.596335
  H      40.576951     20.677611     41.210923
  C      43.975629     22.656766     36.492904
  O      44.686028     21.746023     36.051987
  O      43.926196     23.863281     36.165579
  C      39.388000     20.557000     43.513000
  H      39.587925     20.549885     44.584485
  H      38.303293     20.516137     43.338792
  H      39.764486     21.511048     43.114706
  N      40.078515     19.434005     42.864292
  H      41.045828     19.662192     42.618396
  C      39.577943     18.319550     42.351430
  N      38.677186     17.624318     43.027509
  H      38.388896     17.918446     43.940793
  H      38.204585     16.839881     42.625407
  N      40.049604     17.845997     41.206418
  H      40.680255     18.411092     40.625400
  H      40.086168     16.863932     40.993202
37
Coordinates from ORCA-job job E -836.422576505363
  C      43.817745     18.048997     39.384259
  H      43.627064     17.866965     38.327855
  H      44.698256     17.617181     39.858437
  C      43.012734     18.833559     40.119147
  C      43.281106     19.118711     41.611048
  O      44.139591     18.431488     42.162849
  O      42.581733     20.044986     42.125382
  O      41.827220     19.311823     39.596763
  C      41.726542     20.579552     38.906725
  H      40.849088     20.422333     38.244850
  C      42.892000     20.975000     38.054000
  H      43.530839     20.225712     37.580218
  C      42.969000     22.244000     37.605000
  C      42.118000     23.281000     38.202000
  H      42.222009     24.266255     37.738178
  C      41.188000     23.002000     39.130000
  H      40.549360     23.769583     39.582691
  C      41.332048     21.693335     39.865890
  H      42.161221     21.805604     40.596412
  O      40.162711     21.315839     40.597389
  H      40.572044     20.669900     41.220828
  C      43.974566     22.654937     36.489091
  O      44.684398     21.735785     36.038016
  O      43.924080     23.863562     36.172389
  C      39.388000     20.557000     43.513000
  H      39.587925     20.549885     44.584485
  H      38.305987     20.515521     43.335672
  H      39.765501     21.509925     43.113137
  N      40.081294     19.434233     42.871927
  H      41.050610     19.662961     42.629736
  C      39.578788     18.320870     42.357011
  N      38.673121     17.624612     43.032170
  H      38.392960     17.925050     43.965365
  H      38.183152     16.836100     42.621305
  N      40.051572     17.851554     41.212520
  H      40.680918     18.417604     40.630161
  H      40.091854     16.871943     40.996674
37
Coordinates from ORCA-job job E -836.422389444741
  C      43.837638     18.066525     39.403459
  H      43.635312     17.891951     38.336534
  H      44.727539     17.638408     39.881791
  C      43.029857     18.841737     40.130096
  C      43.298587     19.131044     41.620948
  O      44.159860     18.444561     42.173243
  O      42.590026     20.067838     42.128556
  O      41.838141     19.312076     39.603578
  C      41.729624     20.579607     38.909559
  H      40.853595     20.416774     38.250157
  C      42.892000     20.975000     38.054000
  H      43.530630     20.222750     37.580330
  C      42.969000     22.244000     37.605000
  C      42.118000     23.281000     38.202000
  H      42.220681     24.266528     37.737465
  C      41.188000     23.002000     39.130000
  H      40.550312     23.771517     39.581569
  C      41.333809     21.691691     39.870170
  H      42.170431     21.808205     40.597629
  O      40.172070     21.309425     40.605284
  H      40.574452     20.681125     41.214679
  C      43.974871     22.653550     36.482864
  O      44.691187     21.724155     36.024091
  O      43.924889     23.871201     36.167367
  C      39.388000     20.557000     43.513000
  H      39.587925     20.549885     44.584485
  H      38.308391     20.509336     43.333582
  H      39.760506     21.510072     43.114215
  N      40.087720     19.438904     42.874594
  H      41.058138     19.673572     42.630888
  C      39.593558     18.321045     42.363239
  N      38.694890     17.623320     43.034501
  H      38.402070     17.914896     43.947147
  H      38.220477     16.833963     42.633198
  N      40.073872     17.857288     41.226741
  H      40.698738     18.423795     40.642026
  H      40.123058     16.880808     41.014611
37
Coordinates from ORCA-job job E -836.422685733458
  C      43.839906     18.062638     39.391833
  H      43.651410     17.874268     38.334392
  H      44.718084     17.642859     39.863462
  C      43.029839     18.839806     40.125644
  C      43.296228     19.128625     41.622960
  O      44.167260     18.443830     42.190427
  O      42.590112     20.048457     42.130483
  O      41.840371     19.309475     39.603206
  C      41.732851     20.578943     38.911612
  H      40.849040     20.418385     38.250715
  C      42.892000     20.975000     38.054000
  H      43.528310     20.227071     37.575607
  C      42.969000     22.244000     37.605000
  C      42.118000     23.281000     38.202000
  H      42.221015     24.265437     37.737560
  C      41.188000     23.002000     39.130000
  H      40.547749     23.767830     39.583002
  C      41.339945     21.692556     39.868515
  H      42.163600     21.802566     40.592076
  O      40.185552     21.311864     40.599526
  H      40.584951     20.673094     41.218569
  C      43.972823     22.652682     36.483893
  O      44.684183     21.730475     36.035912
  O      43.927342     23.866102     36.156670
  C      39.388000     20.557000     43.513000
  H      39.587925     20.549885     44.584485
  H      38.304208     20.513147     43.335576
  H      39.764498     21.511183     43.116813
  N      40.083943     19.435299     42.870080
  H      41.056520     19.664389     42.629608
  C      39.583633     18.318523     42.347439
  N      38.679923     17.616991     43.006674
  H      38.384659     17.901263     43.914562
  H      38.214475     16.832578     42.602350
  N      40.066261     17.848837     41.212661
  H      40.694900     18.417304     40.633292
  H      40.110398     16.867852     40.997105
37
Coordinates from ORCA-job job E -836.422654984095
  C      43.841115     18.068573     39.395183
  H      43.655804     17.889199     38.333026
  H      44.721403     17.642995     39.878329
  C      43.029151     18.838850     40.126414
  C      43.286567     19.125783     41.616756
  O      44.149755     18.435141     42.178092
  O      42.580337     20.054220     42.123333
  O      41.840880     19.309506     39.602036
  C      41.731312     20.577940     38.909880
  H      40.849348     20.414569     38.249412
  C      42.892000     20.975000     38.054000
  H      43.529010     20.228415     37.577151
  C      42.969000     22.244000     37.605000
  C      42.118000     23.281000     38.202000
  H      42.221760     24.265446     37.738211
  C      41.188000     23.002000     39.130000
  H      40.549221     23.768259     39.584165
  C      41.337432     21.693506     39.866217
  H      42.165939     21.806454     40.591426
  O      40.178013     21.318790     40.597959
  H      40.576542     20.681198     41.213470
  C      43.971211     22.654980     36.489068
  O      44.680069     21.743533     36.044177
  O      43.920270     23.859247     36.163989
  C      39.388000     20.557000     43.513000
  H      39.587925     20.549885     44.584485
  H      38.307491     20.508976     43.336843
  H      39.759956     21.509761     43.114790
  N      40.083918     19.438381     42.871093
  H      41.050811     19.666646     42.628761
  C      39.584548     18.326407     42.354540
  N      38.676215     17.628917     43.026745
  H      38.394561     17.927373     43.964402
  H      38.192313     16.839859     42.612119
  N      40.064592     17.852193     41.210287
  H      40.692812     18.422293     40.630379
  H      40.105399     16.870191     40.996408
37
Coordinates from ORCA-job job E -836.422839819482
  C      43.846193     18.076142     39.407601
  H      43.656635     17.889661     38.348331
  H      44.737836     17.652066     39.891364
  C      43.029064     18.852956     40.134860
  C      43.287633     19.146329     41.625648
  O      44.150337     18.468863     42.182991
  O      42.578493     20.070147     42.133533
  O      41.843530     19.313707     39.606208
  C      41.730540     20.578476     38.910909
  H      40.853001     20.411224     38.252096
  C      42.892000     20.975000     38.054000
  H      43.529992     20.225421     37.578084
  C      42.969000     22.244000     37.605000
  C      42.118000     23.281000     38.202000
  H      42.220910     24.265964     37.736607
  C      41.188000     23.002000     39.130000
  H      40.548832     23.770066     39.581254
  C      41.332130     21.693564     39.868420
  H      42.163171     21.810368     40.600249
  O      40.161042     21.315251     40.601552
  H      40.572390     20.673499     41.217908
  C      43.968831     22.653158     36.481436
  O      44.673348     21.729365     36.020423
  O      43.921528     23.865210     36.170006
  C      39.388000     20.557000     43.513000
  H      39.587925     20.549885     44.584485
  H      38.306443     20.512914     43.334475
  H      39.765749     21.509765     43.113260
  N      40.084938     19.433690     42.876669
  H      41.053960     19.664555     42.633711
  C      39.586286     18.321571     42.358110
  N      38.676183     17.622261     43.023943
  H      38.374941     17.914755     43.929566
  H      38.191249     16.833132     42.608852
  N      40.073788     17.855512     41.221693
  H      40.699641     18.428564     40.643229
  H      40.123320     16.876808     41.007254
37
Coordinates from ORCA-job job E -836.422806113583
  C      43.865116     18.082210     39.415836
  H      43.678887     17.899022     38.358408
  H      44.747739     17.669986     39.891997
  C      43.046146     18.847743     40.140556
  C      43.304681     19.141047     41.633201
  O      44.170905     18.460101     42.196834
  O      42.589735     20.069493     42.134906
  O      41.849389     19.308988     39.609734
  C      41.733084     20.577465     38.911552
  H      40.851538     20.407991     38.251872
  C      42.892000     20.975000     38.054000
  H      43.529336     20.225339     37.575720
  C      42.969000     22.244000     37.605000
  C      42.118000     23.281000     38.202000
  H      42.221669     24.265926     37.737858
  C      41.188000     23.002000     39.130000
  H      40.549173     23.769757     39.582567
  C      41.336284     21.691464     39.867668
  H      42.167374     21.804598     40.592330
  O      40.180748     21.310562     40.601192
  H      40.583827     20.673987     41.220342
  C      43.972160     22.652552     36.481127
  O      44.683998     21.723421     36.024474
  O      43.926390     23.870393     36.162848
  C      39.388000     20.557000     43.513000
  H      39.587925     20.549885     44.584485
  H      38.304550     20.511178     43.333676
  H      39.765261     21.511113     43.114564
  N      40.087502     19.433959     42.877322
  H      41.059918     19.666695     42.639064
  C      39.592654     18.317824     42.355862
  N      38.691817     17.615624     43.016975
  H      38.399216     17.897807     43.941353
  H      38.234737     16.831320     42.620194
  N      40.083713     17.853274     41.223774
  H      40.706158     18.425364     40.641968
  H      40.137376     16.875742     41.009671
37
Coordinates from ORCA-job job E -836.422775634027
  C      43.859287     18.078700     39.401732
  H      43.670880     17.894337     38.332617
  H      44.743015     17.660253     39.883964
  C      43.039267     18.850232     40.134028
  C      43.295340     19.138629     41.635467
  O      44.159347     18.459614     42.212015
  O      42.585378     20.058571     42.133991
  O      41.848970     19.312589     39.605048
  C      41.734917     20.578419     38.913079
  H      40.854100     20.411506     38.257698
  C      42.892000     20.975000     38.054000
  H      43.526548     20.227325     37.574538
  C      42.969000     22.244000     37.605000
  C      42.118000     23.281000     38.202000
  H      42.220957     24.265403     37.737688
  C      41.188000     23.002000     39.130000
  H      40.549191     23.767941     39.584698
  C      41.342216     21.692507     39.868159
  H      42.165852     21.803061     40.590382
  O      40.191822     21.312561     40.602977
  H      40.585199     20.681519     41.209666
  C      43.971761     22.651393     36.483848
  O      44.680342     21.730779     36.034884
  O      43.928842     23.862395     36.154830
  C      39.388000     20.557000     43.513000
  H      39.587925     20.549885     44.584485
  H      38.305588     20.511019     43.335972
  H      39.762894     21.510051     43.116417
  N      40.083111     19.435971     42.871151
  H      41.057168     19.660704     42.632283
  C      39.577766     18.323896     42.338846
  N      38.666589     17.622108     42.990438
  H      38.370675     17.909320     43.910721
  H      38.188737     16.838648     42.565165
  N      40.068128     17.852685     41.204552
  H      40.698447     18.426860     40.632222
  H      40.111335     16.871221     40.985896
37
Coordinates from ORCA-job job E -836.422846228801
  C      43.859672     18.089558     39.412798
  H      43.680978     17.902402     38.356801
  H      44.741789     17.673379     39.897503
  C      43.039710     18.856166     40.138410
  C      43.292154     19.150467     41.628579
  O      44.161156     18.466587     42.191706
  O      42.576370     20.078910     42.131956
  O      41.852985     19.314122     39.610211
  C      41.734395     20.577458     38.913767
  H      40.852720     20.406365     38.255780
  C      42.892000     20.975000     38.054000
  H      43.528848     20.228728     37.575247
  C      42.969000     22.244000     37.605000
  C      42.118000     23.281000     38.202000
  H      42.221427     24.265350     37.737066
  C      41.188000     23.002000     39.130000
  H      40.548439     23.768525     39.582528
  C      41.336007     21.694776     39.868795
  H      42.166415     21.814381     40.596951
  O      40.169011     21.319257     40.602868
  H      40.576544     20.677181     41.221892
  C      43.966785     22.655228     36.485033
  O      44.671189     21.743009     36.033335
  O      43.914418     23.860299     36.165936
  C      39.388000     20.557000     43.513000
  H      39.587925     20.549885     44.584485
  H      38.310220     20.507545     43.335044
  H      39.761096     21.507577     43.113608
  N      40.086206     19.436904     42.879842
  H      41.053416     19.666216     42.641278
  C      39.588652     18.330269     42.356936
  N      38.673513     17.629449     43.016607
  H      38.374247     17.917932     43.929017
  H      38.189800     16.842842     42.590509
  N      40.081791     17.861416     41.219928
  H      40.705872     18.437963     40.643222
  H      40.130637     16.880535     41.004948
37
Coordinates from ORCA-job job E -836.423028125511
  C      43.876668     18.091795     39.430474
  H      43.689527     17.906305     38.369504
  H      44.769152     17.679182     39.916531
  C      43.048456     18.858837     40.150432
  C      43.297384     19.153956     41.639504
  O      44.157825     18.479648     42.200662
  O      42.583553     20.074444     42.142768
  O      41.854607     19.310704     39.613958
  C      41.733368     20.576392     38.911967
  H      40.852095     20.401288     38.253401
  C      42.892000     20.975000     38.054000
  H      43.529178     20.225311     37.575235
  C      42.969000     22.244000     37.605000
  C      42.118000     23.281000     38.202000
  H      42.221787     24.266208     37.737628
  C      41.188000     23.002000     39.130000
  H      40.549186     23.769441     39.583032
  C      41.333823     21.692466     39.865356
  H      42.163438     21.804026     40.594892
  O      40.171298     21.314573     40.593638
  H      40.579194     20.674210     41.216979
  C      43.971824     22.653254     36.483152
  O      44.676556     21.725847     36.020942
  O      43.929578     23.868678     36.175130
  C      39.388000     20.557000     43.513000
  H      39.587925     20.549885     44.584485
  H      38.303508     20.513271     43.334464
  H      39.768309     21.510061     43.111556
  N      40.085587     19.428974     42.881883
  H      41.057663     19.660538     42.649307
  C      39.588540     18.318775     42.355743
  N      38.678964     17.618855     43.019616
  H      38.384187     17.903316     43.946291
  H      38.212693     16.831767     42.614244
  N      40.085141     17.853547     41.223215
  H      40.706732     18.429666     40.643326
  H      40.138437     16.876085     41.006335
37
Coordinates from ORCA-job job E -836.423237671865
  C      43.864544     18.087454     39.413150
  H      43.684868     17.899865     38.353477
  H      44.746506     17.674487     39.893970
  C      43.042373     18.854319     40.141010
  C      43.293266     19.147715     41.639371
  O      44.155214     18.466496     42.214779
  O      42.578883     20.076690     42.134031
  O      41.853392     19.310671     39.608448
  C      41.734327     20.577283     38.913274
  H      40.852667     20.406922     38.256924
  C      42.892000     20.975000     38.054000
  H      43.527031     20.225741     37.574598
  C      42.969000     22.244000     37.605000
  C      42.118000     23.281000     38.202000
  H      42.220533     24.265627     37.737300
  C      41.188000     23.002000     39.130000
  H      40.549773     23.769567     39.583230
  C      41.339826     21.692834     39.871068
  H      42.171497     21.808463     40.594187
  O      40.181969     21.311847     40.613723
  H      40.579768     20.678034     41.224587
  C      43.971968     22.651027     36.481429
  O      44.688734     21.727034     36.033286
  O      43.922892     23.864311     36.151247
  C      39.388000     20.557000     43.513000
  H      39.587925     20.549885     44.584485
  H      38.305207     20.513430     43.333761
  H      39.768130     21.508869     43.114312
  N      40.084087     19.432076     42.879845
  H      41.058464     19.656932     42.643764
  C      39.579553     18.323815     42.343353
  N      38.666636     17.619085     42.988278
  H      38.368785     17.896801     43.908576
  H      38.197227     16.840025     42.568478
  N      40.077450     17.858278     41.210930
  H      40.703325     18.436878     40.638898
  H      40.127893     16.879539     40.991065
37
Coordinates from ORCA-job job E -836.423227795802
  C      43.887461     18.105112     39.427756
  H      43.704927     17.920934     38.363395
  H      44.771541     17.697180     39.915394
  C      43.058848     18.864974     40.150915
  C      43.305416     19.162784     41.644770
  O      44.175728     18.490781     42.217517
  O      42.578991     20.085217     42.137845
  O      41.861358     19.318223     39.616002
  C      41.738539     20.577463     38.915834
  H      40.861134     20.400011     38.262131
  C      42.892000     20.975000     38.054000
  H      43.527492     20.229425     37.571855
  C      42.969000     22.244000     37.605000
  C      42.118000     23.281000     38.202000
  H      42.223234     24.265482     37.737727
  C      41.188000     23.002000     39.130000
  H      40.548162     23.768069     39.583275
  C      41.337391     21.691503     39.865548
  H      42.159892     21.805624     40.591460
  O      40.185568     21.312267     40.592447
  H      40.589900     20.675911     41.210615
  C      43.967492     22.653578     36.482426
  O      44.669528     21.734082     36.027033
  O      43.920798     23.863704     36.163182
  C      39.388000     20.557000     43.513000
  H      39.587925     20.549885     44.584485
  H      38.308401     20.507924     43.336411
  H      39.760442     21.507889     43.114297
  N      40.084361     19.436401     42.876372
  H      41.057585     19.664443     42.646417
  C      39.583147     18.332142     42.339300
  N      38.668394     17.629165     42.983564
  H      38.363563     17.909821     43.896213
  H      38.189523     16.847068     42.552092
  N      40.087094     17.867907     41.214041
  H      40.710487     18.447081     40.640856
  H      40.138760     16.889024     40.994375
37
Coordinates from ORCA-job job E -836.423286349862
  C      43.879851     18.094600     39.433306
  H      43.702345     17.903610     38.371795
  H      44.767362     17.685393     39.923484
  C      43.045884     18.862735     40.148537
  C      43.285034     19.163264     41.638239
  O      44.145560     18.485761     42.213403
  O      42.572310     20.083976     42.135003
  O      41.858881     19.309606     39.611224
  C      41.733446     20.575276     38.912176
  H      40.848993     20.398449     38.252957
  C      42.892000     20.975000     38.054000
  H      43.528782     20.227167     37.575214
  C      42.969000     22.244000     37.605000
  C      42.118000     23.281000     38.202000
  H      42.221031     24.265675     37.737485
  C      41.188000     23.002000     39.130000
  H      40.549415     23.769080     39.583302
  C      41.335767     21.693651     39.866990
  H      42.169412     21.810267     40.592700
  O      40.173045     21.317570     40.603263
  H      40.578518     20.676985     41.222027
  C      43.966902     22.654007     36.483027
  O      44.670072     21.735854     36.025896
  O      43.917935     23.862558     36.168565
  C      39.388000     20.557000     43.513000
  H      39.587925     20.549885     44.584485
  H      38.306816     20.511789     43.334190
  H      39.768010     21.507384     43.111767
  N      40.084453     19.428548     42.886318
  H      41.055455     19.655213     42.652034
  C      39.584241     18.327148     42.354520
  N      38.666059     17.627575     43.014625
  H      38.369104     17.909319     43.939771
  H      38.190015     16.843876     42.592116
  N      40.084998     17.861186     41.216265
  H      40.705932     18.442931     40.640143
  H      40.139620     16.882754     40.998771
37
Coordinates from ORCA-job job E -836.423499920335
  C      43.870079     18.094032     39.422703
  H      43.694498     17.908153     38.364510
  H      44.755181     17.679690     39.911178
  C      43.043062     18.857596     40.147138
  C      43.286011     19.150848     41.643733
  O      44.142146     18.473063     42.216654
  O      42.567648     20.081492     42.134798
  O      41.855916     19.309425     39.608894
  C      41.734658     20.575955     38.911745
  H      40.853444     20.402407     38.253248
  C      42.892000     20.975000     38.054000
  H      43.526793     20.225988     37.573342
  C      42.969000     22.244000     37.605000
  C      42.118000     23.281000     38.202000
  H      42.221851     24.265935     37.737655
  C      41.188000     23.002000     39.130000
  H      40.550123     23.769502     39.583926
  C      41.337872     21.691978     39.868108
  H      42.167365     21.805014     40.594571
  O      40.177929     21.310400     40.607844
  H      40.588385     20.669707     41.216780
  C      43.972680     22.651008     36.482962
  O      44.685633     21.726621     36.031516
  O      43.928093     23.863944     36.160094
  C      39.388000     20.557000     43.513000
  H      39.587925     20.549885     44.584485
  H      38.303808     20.518091     43.335873
  H      39.771798     21.507243     43.111393
  N      40.077611     19.427891     42.880300
  H      41.053617     19.648110     42.653631
  C      39.564578     18.328982     42.331985
  N      38.644667     17.624641     42.973533
  H      38.343957     17.901164     43.897099
  H      38.168729     16.851767     42.549164
  N      40.070858     17.863625     41.205277
  H      40.697572     18.445645     40.636788
  H      40.118905     16.884970     40.980552
37
Coordinates from ORCA-job job E -836.423618728661
  C      43.879331     18.091790     39.436219
  H      43.700669     17.907250     38.372214
  H      44.760190     17.681426     39.924185
  C      43.047595     18.859091     40.150843
  C      43.285438     19.158362     41.644514
  O      44.142555     18.479785     42.226413
  O      42.567316     20.086671     42.131374
  O      41.855624     19.314420     39.609439
  C      41.734878     20.577605     38.912337
  H      40.857458     20.402986     38.257039
  C      42.892000     20.975000     38.054000
  H      43.529204     20.227378     37.574570
  C      42.969000     22.244000     37.605000
  C      42.118000     23.281000     38.202000
  H      42.222426     24.265771     37.737670
  C      41.188000     23.002000     39.130000
  H      40.549865     23.769595     39.583450
  C      41.337647     21.691606     39.867427
  H      42.170303     21.807339     40.589767
  O      40.184652     21.309944     40.607588
  H      40.581806     20.677416     41.230506
  C      43.970257     22.653075     36.481997
  O      44.686696     21.733663     36.035671
  O      43.913772     23.862916     36.152004
  C      39.388000     20.557000     43.513000
  H      39.587925     20.549885     44.584485
  H      38.305670     20.516929     43.335458
  H      39.771230     21.505940     43.111770
  N      40.078027     19.426955     42.882605
  H      41.054853     19.646976     42.653957
  C      39.567987     18.332196     42.333839
  N      38.649553     17.628055     42.972918
  H      38.346823     17.898881     43.891632
  H      38.170871     16.856433     42.539192
  N      40.074638     17.872759     41.202901
  H      40.696827     18.456701     40.633600
  H      40.128625     16.896253     40.978966
37
Coordinates from ORCA-job job E -836.423662681870
  C      43.894638     18.108996     39.434492
  H      43.721911     17.912495     38.373711
  H      44.780602     17.708508     39.926021
  C      43.060142     18.869798     40.153658
  C      43.297871     19.176397     41.649337
  O      44.164933     18.509173     42.233963
  O      42.570733     20.097776     42.136225
  O      41.869607     19.310023     39.611439
  C      41.736794     20.575521     38.914473
  H      40.852939     20.394729     38.259862
  C      42.892000     20.975000     38.054000
  H      43.527949     20.227291     37.573906
  C      42.969000     22.244000     37.605000
  C      42.118000     23.281000     38.202000
  H      42.220517     24.265603     37.737523
  C      41.188000     23.002000     39.130000
  H      40.548626     23.768592     39.582876
  C      41.337864     21.692832     39.867265
  H      42.167096     21.809913     40.590237
  O      40.184362     21.316605     40.600137
  H      40.594300     20.683758     41.215670
  C      43.965069     22.653009     36.480287
  O      44.671076     21.732443     36.023776
  O      43.911846     23.862695     36.159876
  C      39.388000     20.557000     43.513000
  H      39.587925     20.549885     44.584485
  H      38.308984     20.510888     43.333249
  H      39.767710     21.505531     43.112892
  N      40.084573     19.429213     42.889941
  H      41.059229     19.653556     42.665423
  C      39.580160     18.336085     42.341325
  N      38.657316     17.634028     42.980660
  H      38.356155     17.904256     43.902053
  H      38.181812     16.858325     42.541207
  N      40.089406     17.874300     41.210465
  H      40.710007     18.458195     40.636605
  H      40.145141     16.896777     40.987790
37
Coordinates from ORCA-job job E -836.423803973316
  C      43.880788     18.097184     39.439756
  H      43.710856     17.907380     38.378118
  H      44.763861     17.685864     39.938395
  C      43.044831     18.862708     40.152623
  C      43.272510     19.164396     41.645193
  O      44.126723     18.488943     42.228566
  O      42.550091     20.092858     42.129218
  O      41.861619     19.308783     39.606615
  C      41.735368     20.574754     38.911814
  H      40.852289     20.398063     38.252564
  C      42.892000     20.975000     38.054000
  H      43.528828     20.228669     37.573792
  C      42.969000     22.244000     37.605000
  C      42.118000     23.281000     38.202000
  H      42.220979     24.265481     37.736458
  C      41.188000     23.002000     39.130000
  H      40.548656     23.768360     39.583366
  C      41.337970     21.692176     39.867418
  H      42.167022     21.807295     40.591260
  O      40.178994     21.316279     40.604661
  H      40.581912     20.678987     41.227012
  C      43.969733     22.652854     36.484148
  O      44.678274     21.734054     36.033068
  O      43.921647     23.861673     36.162413
  C      39.388000     20.557000     43.513000
  H      39.587925     20.549885     44.584485
  H      38.304998     20.522318     43.335941
  H      39.776506     21.503206     43.110554
  N      40.072013     19.421083     42.886321
  H      41.049266     19.635234     42.664880
  C      39.550953     18.336912     42.323418
  N      38.617148     17.635462     42.954649
  H      38.315436     17.905302     43.880682
  H      38.131446     16.869274     42.513521
  N      40.065400     17.874916     41.197840
  H      40.690340     18.463396     40.633563
  H      40.116285     16.896067     40.971054
37
Coordinates from ORCA-job job E -836.423900710801
  C      43.912982     18.117830     39.465652
  H      43.751275     17.930063     38.403160
  H      44.794120     17.715782     39.965471
  C      43.063836     18.873445     40.171108
  C      43.285290     19.170409     41.668124
  O      44.136282     18.496168     42.256291
  O      42.559214     20.095294     42.149940
  O      41.872592     19.314466     39.617333
  C      41.738987     20.575502     38.917847
  H      40.859502     20.389929     38.270285
  C      42.892000     20.975000     38.054000
  H      43.525702     20.227437     37.570672
  C      42.969000     22.244000     37.605000
  C      42.118000     23.281000     38.202000
  H      42.220889     24.265446     37.737133
  C      41.188000     23.002000     39.130000
  H      40.548747     23.768363     39.583691
  C      41.340866     21.694399     39.871063
  H      42.175977     21.816975     40.592889
  O      40.182704     21.315440     40.619251
  H      40.599679     20.678385     41.228487
  C      43.970168     22.652070     36.482127
  O      44.679941     21.730744     36.031003
  O      43.925962     23.863904     36.160567
  C      39.388000     20.557000     43.513000
  H      39.587925     20.549885     44.584485
  H      38.303986     20.522534     43.332454
  H      39.780225     21.503663     43.109279
  N      40.077047     19.417824     42.895804
  H      41.056993     19.634386     42.679621
  C      39.560754     18.333316     42.327793
  N      38.625719     17.630914     42.949898
  H      38.320694     17.895855     43.873697
  H      38.154096     16.862749     42.510182
  N      40.082642     17.874769     41.202064
  H      40.704570     18.467440     40.640440
  H      40.139262     16.898001     40.972602
37
Coordinates from ORCA-job job E -836.424080242242
  C      43.914392     18.122713     39.467496
  H      43.750539     17.926923     38.405013
  H      44.797371     17.727713     39.966827
  C      43.064363     18.879670     40.172490
  C      43.280630     19.188928     41.669331
  O      44.133576     18.521797     42.265952
  O      42.548359     20.115778     42.142630
  O      41.874318     19.311213     39.614566
  C      41.739614     20.574950     38.915450
  H      40.858019     20.389200     38.264019
  C      42.892000     20.975000     38.054000
  H      43.526512     20.226448     37.571332
  C      42.969000     22.244000     37.605000
  C      42.118000     23.281000     38.202000
  H      42.221616     24.265705     37.737506
  C      41.188000     23.002000     39.130000
  H      40.549090     23.768128     39.584880
  C      41.342875     21.691380     39.867247
  H      42.179072     21.809529     40.585334
  O      40.196781     21.306673     40.614133
  H      40.601622     20.674027     41.232157
  C      43.968672     22.650552     36.478363
  O      44.679108     21.723966     36.023555
  O      43.920492     23.864141     36.154247
  C      39.388000     20.557000     43.513000
  H      39.587925     20.549885     44.584485
  H      38.305772     20.522770     43.334240
  H      39.779142     21.501177     43.109571
  N      40.071444     19.417130     42.894885
  H      41.055228     19.628541     42.680338
  C      39.550976     18.343452     42.318082
  N      38.615102     17.642511     42.935221
  H      38.304340     17.899101     43.856033
  H      38.136921     16.883274     42.484131
  N      40.077089     17.888594     41.191001
  H      40.697390     18.482475     40.631651
  H      40.135583     16.915430     40.957592
37
Coordinates from ORCA-job job E -836.424348425171
  C      43.933939     18.136619     39.479936
  H      43.777602     17.936225     38.416157
  H      44.816132     17.747533     39.987355
  C      43.076387     18.888814     40.180589
  C      43.282319     19.202185     41.676447
  O      44.137637     18.539370     42.280216
  O      42.542289     20.123783     42.145869
  O      41.887412     19.311575     39.618849
  C      41.743351     20.573651     38.919711
  H      40.858052     20.382078     38.269336
  C      42.892000     20.975000     38.054000
  H      43.525856     20.227927     37.569555
  C      42.969000     22.244000     37.605000
  C      42.118000     23.281000     38.202000
  H      42.219865     24.265361     37.735885
  C      41.188000     23.002000     39.130000
  H      40.547536     23.767098     39.583843
  C      41.344434     21.692779     39.869907
  H      42.177239     21.815783     40.586968
  O      40.198343     21.311152     40.614782
  H      40.607761     20.677581     41.230267
  C      43.965873     22.651649     36.479488
  O      44.667844     21.727957     36.019041
  O      43.920268     23.863309     36.162043
  C      39.388000     20.557000     43.513000
  H      39.587925     20.549885     44.584485
  H      38.306583     20.525854     43.332470
  H      39.783617     21.498857     43.109631
  N      40.069271     19.413286     42.900732
  H      41.054194     19.621299     42.695240
  C      39.543729     18.349052     42.310942
  N      38.593374     17.651394     42.912747
  H      38.280855     17.904168     43.835161
  H      38.112952     16.894799     42.449966
  N      40.080111     17.896092     41.193239
  H      40.701762     18.494568     40.638729
  H      40.139672     16.921753     40.958300
37
Coordinates from ORCA-job job E -836.424581437557
  C      43.952142     18.154939     39.501325
  H      43.806127     17.950669     38.439148
  H      44.834350     17.772696     40.018072
  C      43.082784     18.900624     40.193757
  C      43.276122     19.216090     41.691330
  O      44.128662     18.559683     42.301301
  O      42.526657     20.135101     42.153825
  O      41.894915     19.312084     39.621623
  C      41.744449     20.572284     38.920825
  H      40.861499     20.373888     38.274436
  C      42.892000     20.975000     38.054000
  H      43.526449     20.228853     37.569290
  C      42.969000     22.244000     37.605000
  C      42.118000     23.281000     38.202000
  H      42.220629     24.265323     37.736465
  C      41.188000     23.002000     39.130000
  H      40.547368     23.766685     39.584161
  C      41.344401     21.693450     39.870184
  H      42.179040     21.819516     40.586812
  O      40.197925     21.313721     40.616900
  H      40.608733     20.676855     41.233346
  C      43.967314     22.651925     36.481189
  O      44.667123     21.729537     36.020585
  O      43.926739     23.863498     36.166720
  C      39.388000     20.557000     43.513000
  H      39.587925     20.549885     44.584485
  H      38.305481     20.533057     43.331992
  H      39.790903     21.496011     43.108435
  N      40.062267     19.406421     42.904198
  H      41.049512     19.607325     42.704977
  C      39.527970     18.354831     42.298645
  N      38.564252     17.660967     42.887372
  H      38.246968     17.909281     43.811002
  H      38.081815     16.911744     42.414455
  N      40.072237     17.902626     41.179972
  H      40.696151     18.506817     40.634314
  H      40.128938     16.928134     40.936850
37
Coordinates from ORCA-job job E -836.424892185457
  C      43.981066     18.178345     39.534918
  H      43.846725     17.967865     38.472701
  H      44.861838     17.808013     40.061943
  C      43.095515     18.917445     40.213744
  C      43.269574     19.239218     41.711327
  O      44.118438     18.591458     42.332713
  O      42.507821     20.152250     42.162742
  O      41.907630     19.313320     39.627935
  C      41.747719     20.571189     38.924385
  H      40.863873     20.364366     38.281115
  C      42.892000     20.975000     38.054000
  H      43.525859     20.228874     37.568019
  C      42.969000     22.244000     37.605000
  C      42.118000     23.281000     38.202000
  H      42.220584     24.265216     37.736226
  C      41.188000     23.002000     39.130000
  H      40.546875     23.766426     39.583906
  C      41.346090     21.694382     39.872412
  H      42.183537     21.825743     40.586275
  O      40.200515     21.313676     40.625798
  H      40.615907     20.674783     41.238008
  C      43.966493     22.651386     36.479422
  O      44.667104     21.729145     36.019309
  O      43.926840     23.863438     36.164460
  C      39.388000     20.557000     43.513000
  H      39.587925     20.549885     44.584485
  H      38.305513     20.542907     43.330684
  H      39.800831     21.491257     43.107141
  N      40.052356     19.397986     42.909333
  H      41.044953     19.588632     42.723200
  C      39.507541     18.366117     42.278725
  N      38.526789     17.677606     42.844521
  H      38.201864     17.915155     43.769284
  H      38.044086     16.940587     42.357387
  N      40.066949     17.920969     41.167445
  H      40.693179     18.532719     40.633661
  H      40.124854     16.949450     40.914772
37
Coordinates from ORCA-job job E -836.425313016773
  C      44.031835     18.224426     39.586173
  H      43.916146     18.002575     38.522801
  H      44.910800     17.876683     40.129248
  C      43.120612     18.948445     40.246559
  C      43.263861     19.280939     41.742881
  O      44.115827     18.652176     42.380942
  O      42.476347     20.180072     42.179763
  O      41.932980     19.315273     39.639224
  C      41.755333     20.569311     38.931400
  H      40.871551     20.347434     38.295547
  C      42.892000     20.975000     38.054000
  H      43.524054     20.229052     37.565191
  C      42.969000     22.244000     37.605000
  C      42.118000     23.281000     38.202000
  H      42.220184     24.265147     37.735646
  C      41.188000     23.002000     39.130000
  H      40.545205     23.765267     39.583539
  C      41.349526     21.695051     39.874406
  H      42.187316     21.833774     40.584887
  O      40.208968     21.311590     40.632311
  H      40.628012     20.673069     41.241754
  C      43.966250     22.650018     36.477543
  O      44.658504     21.722954     36.008433
  O      43.936652     23.865317     36.169728
  C      39.388000     20.557000     43.513000
  H      39.587925     20.549885     44.584485
  H      38.303767     20.560325     43.328605
  H      39.818596     21.484887     43.105927
  N      40.036749     19.384942     42.916264
  H      41.035467     19.560299     42.746923
  C      39.478302     18.382791     42.250963
  N      38.469727     17.705832     42.778873
  H      38.131519     17.929914     43.700740
  H      37.987910     16.986030     42.268220
  N      40.055852     17.944203     41.145084
  H      40.688613     18.564585     40.629758
  H      40.109247     16.976237     40.875480
37
Coordinates from ORCA-job job E -836.425864929723
  C      44.068088     18.255954     39.638090
  H      43.973351     18.019810     38.576829
  H      44.941304     17.926822     40.201009
  C      43.134401     18.972411     40.275006
  C      43.246250     19.313768     41.776988
  O      44.094248     18.705368     42.437418
  O      42.432277     20.199820     42.193842
  O      41.951010     19.314185     39.641883
  C      41.760020     20.567566     38.934924
  H      40.874952     20.335483     38.302832
  C      42.892000     20.975000     38.054000
  H      43.523761     20.228628     37.564604
  C      42.969000     22.244000     37.605000
  C      42.118000     23.281000     38.202000
  H      42.220479     24.265094     37.735419
  C      41.188000     23.002000     39.130000
  H      40.545043     23.764714     39.584327
  C      41.353580     21.695391     39.875078
  H      42.196703     21.840154     40.579292
  O      40.222283     21.310284     40.642039
  H      40.646514     20.673459     41.250204
  C      43.967269     22.649588     36.478179
  O      44.656560     21.720544     36.005448
  O      43.940588     23.865761     36.173570
  C      39.388000     20.557000     43.513000
  H      39.587925     20.549885     44.584485
  H      38.307063     20.585022     43.329503
  H      39.839509     21.470915     43.102942
  N      40.006312     19.367973     42.921597
  H      41.015954     19.512402     42.780905
  C      39.423654     18.418175     42.202893
  N      38.379115     17.763269     42.683783
  H      38.024900     17.967421     43.603340
  H      37.887906     17.077745     42.135951
  N      40.019462     17.991177     41.104555
  H      40.664085     18.616906     40.612101
  H      40.060274     17.031122     40.810352
37
Coordinates from ORCA-job job E -836.426565596993
  C      44.078654     18.257428     39.693004
  H      44.008365     18.013623     38.629049
  H      44.935874     17.931840     40.280945
  C      43.127612     18.975051     40.302751
  C      43.192149     19.314469     41.803311
  O      44.026120     18.712310     42.489313
  O      42.355344     20.187591     42.196361
  O      41.960658     19.308022     39.638595
  C      41.763858     20.565163     38.937972
  H      40.876158     20.328099     38.308811
  C      42.892000     20.975000     38.054000
  H      43.521404     20.228742     37.561530
  C      42.969000     22.244000     37.605000
  C      42.118000     23.281000     38.202000
  H      42.221609     24.264853     37.735551
  C      41.188000     23.002000     39.130000
  H      40.545400     23.763651     39.586552
  C      41.360260     21.695400     39.876235
  H      42.209291     21.845783     40.572028
  O      40.245481     21.305933     40.660179
  H      40.701687     20.671244     41.251348
  C      43.972234     22.648850     36.481365
  O      44.656539     21.717437     36.006010
  O      43.959096     23.867814     36.181211
  C      39.388000     20.557000     43.513000
  H      39.587925     20.549885     44.584485
  H      38.308011     20.630242     43.333407
  H      39.875214     21.450962     43.100653
  N      39.954435     19.343274     42.918003
  H      40.967909     19.434756     42.798964
  C      39.340047     18.471504     42.131587
  N      38.248176     17.855417     42.551300
  H      37.876078     18.037306     43.468299
  H      37.741174     17.222781     41.956396
  N      39.948110     18.057934     41.034908
  H      40.616712     18.683211     40.578561
  H      39.959839     17.109439     40.704800
37
Coordinates from ORCA-job job E -836.427577425460
  C      44.136656     18.314727     39.782051
  H      44.108658     18.043252     38.723137
  H      44.978616     18.019644     40.407599
  C      43.156638     19.018355     40.360727
  C      43.161710     19.372422     41.857071
  O      44.009748     18.819069     42.567140
  O      42.265532     20.198128     42.230359
  O      42.001774     19.312874     39.656612
  C      41.779779     20.564098     38.954872
  H      40.888382     20.307643     38.339452
  C      42.892000     20.975000     38.054000
  H      43.512021     20.225274     37.552364
  C      42.969000     22.244000     37.605000
  C      42.118000     23.281000     38.202000
  H      42.219386     24.264622     37.733095
  C      41.188000     23.002000     39.130000
  H      40.541450     23.761812     39.583398
  C      41.363891     21.697055     39.882545
  H      42.208825     21.863673     40.576188
  O      40.255261     21.302346     40.666510
  H      40.725608     20.698856     41.284404
  C      43.961681     22.646494     36.471356
  O      44.636309     21.712118     35.984564
  O      43.948720     23.866536     36.178678
  C      39.388000     20.557000     43.513000
  H      39.587925     20.549885     44.584485
  H      38.312967     20.698884     43.334019
  H      39.930892     21.419944     43.099762
  N      39.883850     19.310560     42.922658
  H      40.903788     19.343135     42.843585
  C      39.245651     18.544105     42.053545
  N      38.085209     18.000839     42.374586
  H      37.689242     18.157575     43.283357
  H      37.568290     17.430680     41.722489
  N      39.866819     18.154282     40.955334
  H      40.575778     18.767518     40.541242
  H      39.831784     17.229687     40.567161
37
Coordinates from ORCA-job job E -836.428414971250
  C      44.117513     18.300619     39.802849
  H      44.105408     18.042237     38.739784
  H      44.943325     17.992980     40.441747
  C      43.128202     19.009086     40.360104
  C      43.113043     19.334911     41.861922
  O      43.953917     18.777155     42.578040
  O      42.207369     20.149975     42.237259
  O      41.987895     19.313200     39.642596
  C      41.780948     20.565902     38.954211
  H      40.885565     20.317852     38.338934
  C      42.892000     20.975000     38.054000
  H      43.511051     20.225294     37.553840
  C      42.969000     22.244000     37.605000
  C      42.118000     23.281000     38.202000
  H      42.218823     24.263532     37.730666
  C      41.188000     23.002000     39.130000
  H      40.540961     23.760141     39.585733
  C      41.377248     21.698636     39.881949
  H      42.232114     21.873107     40.565942
  O      40.291803     21.305277     40.685654
  H      40.776610     20.733252     41.337792
  C      43.964860     22.646508     36.475701
  O      44.634747     21.710394     35.987452
  O      43.955839     23.866972     36.185856
  C      39.388000     20.557000     43.513000
  H      39.587925     20.549885     44.584485
  H      38.320733     20.757342     43.346689
  H      39.969203     21.392268     43.094816
  N      39.805506     19.289674     42.906857
  H      40.835146     19.255036     42.842638
  C      39.138903     18.610658     41.988436
  N      37.943329     18.120827     42.274861
  H      37.531943     18.276610     43.178072
  H      37.405511     17.614760     41.589148
  N      39.754393     18.233514     40.887095
  H      40.498607     18.821183     40.500007
  H      39.665277     17.330457     40.457285
37
Coordinates from ORCA-job job E -836.427738616045
  C      44.136608     18.319878     39.772278
  H      44.137180     18.068748     38.705451
  H      44.965254     18.023439     40.412946
  C      43.136551     19.008061     40.335095
  C      43.143209     19.308691     41.857659
  O      44.040145     18.799121     42.542805
  O      42.206895     20.083465     42.275103
  O      41.983804     19.295152     39.634114
  C      41.788098     20.555003     38.944218
  H      40.883397     20.320639     38.323820
  C      42.892000     20.975000     38.054000
  H      43.509587     20.227906     37.550535
  C      42.969000     22.244000     37.605000
  C      42.118000     23.281000     38.202000
  H      42.217883     24.262786     37.730554
  C      41.188000     23.002000     39.130000
  H      40.541546     23.760934     39.584979
  C      41.375049     21.692538     39.886446
  H      42.237150     21.861198     40.575046
  O      40.283502     21.281342     40.689995
  H      40.816356     20.722175     41.323042
  C      43.962783     22.650957     36.479879
  O      44.624056     21.716059     35.989178
  O      43.954209     23.874437     36.199323
  C      39.388000     20.557000     43.513000
  H      39.587925     20.549885     44.584485
  H      38.340125     20.817257     43.353060
  H      40.001452     21.356848     43.092552
  N      39.729894     19.270277     42.903341
  H      40.746865     19.204720     42.848673
  C      39.044871     18.613247     41.981537
  N      37.810758     18.202643     42.247226
  H      37.395826     18.407395     43.139520
  H      37.250100     17.719021     41.558559
  N      39.624738     18.259757     40.842939
  H      40.438648     18.774848     40.469715
  H      39.435002     17.398621     40.365021
37
Coordinates from ORCA-job job E -836.429233621770
  C      44.115581     18.342715     39.805140
  H      44.117363     18.082336     38.745146
  H      44.948996     18.053173     40.448058
  C      43.114832     19.031305     40.368481
  C      43.108717     19.362777     41.876147
  O      43.989307     18.858121     42.577685
  O      42.170447     20.135574     42.264787
  O      41.960428     19.314177     39.658936
  C      41.771995     20.564489     38.946683
  H      40.876645     20.324242     38.326004
  C      42.892000     20.975000     38.054000
  H      43.521528     20.228618     37.560980
  C      42.969000     22.244000     37.605000
  C      42.118000     23.281000     38.202000
  H      42.221525     24.263300     37.732348
  C      41.188000     23.002000     39.130000
  H      40.544470     23.763878     39.584392
  C      41.361313     21.697151     39.880574
  H      42.224482     21.872308     40.566757
  O      40.263177     21.305649     40.680457
  H      40.764254     20.771686     41.351709
  C      43.958171     22.649781     36.471284
  O      44.629381     21.719250     35.985906
  O      43.937438     23.869448     36.179232
  C      39.388000     20.557000     43.513000
  H      39.587925     20.549885     44.584485
  H      38.333266     20.797393     43.348906
  H      39.991052     21.368616     43.092796
  N      39.751052     19.269008     42.903828
  H      40.773152     19.219954     42.824799
  C      39.067341     18.608825     41.978644
  N      37.847596     18.170436     42.240016
  H      37.430610     18.354905     43.139180
  H      37.291951     17.686509     41.552180
  N      39.662144     18.256120     40.848343
  H      40.451101     18.802389     40.484068
  H      39.509689     17.385062     40.372217
37
Coordinates from ORCA-job job E -836.429349868179
  C      44.154068     18.397115     39.794499
  H      44.159064     18.151662     38.729596
  H      44.996708     18.115808     40.428015
  C      43.141482     19.055445     40.371856
  C      43.133644     19.369940     41.872767
  O      44.012500     18.853000     42.563856
  O      42.200723     20.139734     42.275058
  O      41.982976     19.328635     39.671635
  C      41.784188     20.573021     38.962822
  H      40.882886     20.330019     38.359765
  C      42.892000     20.975000     38.054000
  H      43.507353     20.223746     37.551908
  C      42.969000     22.244000     37.605000
  C      42.118000     23.281000     38.202000
  H      42.211363     24.261653     37.725399
  C      41.188000     23.002000     39.130000
  H      40.538204     23.759817     39.582197
  C      41.388958     21.707333     39.894761
  H      42.254636     21.892803     40.563491
  O      40.314219     21.310759     40.718135
  H      40.818575     20.777685     41.387097
  C      43.952179     22.644058     36.462191
  O      44.618536     21.710889     35.970281
  O      43.941896     23.863669     36.167617
  C      39.388000     20.557000     43.513000
  H      39.587925     20.549885     44.584485
  H      38.330593     20.785390     43.339032
  H      39.988932     21.377447     43.098716
  N      39.776022     19.280492     42.910250
  H      40.803868     19.238865     42.834382
  C      39.108914     18.607679     41.987423
  N      37.899236     18.148052     42.257105
  H      37.474123     18.330678     43.149685
  H      37.360125     17.651298     41.565754
  N      39.715251     18.252490     40.870679
  H      40.495593     18.807441     40.502651
  H      39.573315     17.377240     40.400623
37
Coordinates from ORCA-job job E -836.429564308955
  C      44.177860     18.449194     39.819612
  H      44.186968     18.203540     38.756009
  H      45.028520     18.195130     40.448789
  C      43.144855     19.088157     40.383077
  C      43.128836     19.417247     41.885523
  O      44.018260     18.927675     42.587927
  O      42.173811     20.172797     42.271978
  O      41.984037     19.328546     39.678790
  C      41.777017     20.569628     38.955086
  H      40.883642     20.319804     38.343029
  C      42.892000     20.975000     38.054000
  H      43.520446     20.225961     37.563827
  C      42.969000     22.244000     37.605000
  C      42.118000     23.281000     38.202000
  H      42.216485     24.262487     37.729467
  C      41.188000     23.002000     39.130000
  H      40.542446     23.763593     39.582822
  C      41.373017     21.704264     39.886497
  H      42.238352     21.879428     40.562539
  O      40.282244     21.320587     40.690462
  H      40.774769     20.805403     41.376499
  C      43.962658     22.646446     36.471749
  O      44.655333     21.719071     36.005060
  O      43.932064     23.861224     36.158126
  C      39.388000     20.557000     43.513000
  H      39.587925     20.549885     44.584485
  H      38.326425     20.792981     43.338837
  H      39.993501     21.378409     43.098439
  N      39.769768     19.274927     42.905249
  H      40.797692     19.233644     42.818494
  C      39.098460     18.605487     41.981612
  N      37.885468     18.140736     42.249653
  H      37.447690     18.336807     43.134862
  H      37.337659     17.658960     41.555153
  N      39.712402     18.248722     40.869773
  H      40.499204     18.805666     40.511192
  H      39.561579     17.380911     40.388079
37
Coordinates from ORCA-job job E -836.429760008994
  C      44.189532     18.459956     39.835295
  H      44.207786     18.223246     38.768239
  H      45.038352     18.206214     40.469772
  C      43.149602     19.084607     40.397590
  C      43.123973     19.403840     41.905428
  O      44.013087     18.914533     42.611646
  O      42.164485     20.151663     42.292564
  O      41.987218     19.328540     39.685770
  C      41.777441     20.568608     38.957079
  H      40.879778     20.319987     38.342540
  C      42.892000     20.975000     38.054000
  H      43.520210     20.228218     37.561369
  C      42.969000     22.244000     37.605000
  C      42.118000     23.281000     38.202000
  H      42.214596     24.261827     37.727441
  C      41.188000     23.002000     39.130000
  H      40.541672     23.763844     39.581264
  C      41.375057     21.705596     39.890142
  H      42.245737     21.879924     40.559686
  O      40.288410     21.317490     40.704439
  H      40.797772     20.796205     41.375181
  C      43.962634     22.647288     36.474277
  O      44.633890     21.713406     35.988488
  O      43.949901     23.865838     36.181399
  C      39.388000     20.557000     43.513000
  H      39.587925     20.549885     44.584485
  H      38.335153     20.798714     43.338110
  H      39.996528     21.367978     43.099068
  N      39.756942     19.269859     42.907219
  H      40.777601     19.217117     42.826296
  C      39.081938     18.621175     41.962633
  N      37.854843     18.184405     42.201347
  H      37.409272     18.385518     43.081061
  H      37.308777     17.719113     41.496730
  N      39.694170     18.264439     40.844829
  H      40.497476     18.805740     40.504572
  H      39.514978     17.414633     40.336051
37
Coordinates from ORCA-job job E -836.429927031296
  C      44.228068     18.530765     39.819545
  H      44.251170     18.296828     38.753044
  H      45.090518     18.300383     40.449016
  C      43.177520     19.118787     40.400839
  C      43.155983     19.435397     41.908749
  O      44.061082     18.967490     42.605151
  O      42.185100     20.161468     42.307659
  O      42.001091     19.339142     39.700922
  C      41.784396     20.570347     38.963510
  H      40.882434     20.319867     38.356279
  C      42.892000     20.975000     38.054000
  H      43.512819     20.227257     37.554038
  C      42.969000     22.244000     37.605000
  C      42.118000     23.281000     38.202000
  H      42.209354     24.260591     37.723462
  C      41.188000     23.002000     39.130000
  H      40.538221     23.761808     39.579404
  C      41.387008     21.708575     39.894254
  H      42.267657     21.883296     40.553605
  O      40.306967     21.322410     40.715855
  H      40.817066     20.810681     41.399049
  C      43.953106     22.645741     36.466714
  O      44.613867     21.710103     35.972795
  O      43.943925     23.865173     36.179030
  C      39.388000     20.557000     43.513000
  H      39.587925     20.549885     44.584485
  H      38.338137     20.799385     43.334501
  H      39.997430     21.365031     43.100946
  N      39.758124     19.266766     42.915900
  H      40.785626     19.220147     42.834270
  C      39.090670     18.614170     41.972241
  N      37.858270     18.188238     42.194706
  H      37.405832     18.399928     43.069031
  H      37.316506     17.720882     41.485119
  N      39.705509     18.265245     40.853722
  H      40.521130     18.794717     40.521171
  H      39.508654     17.432464     40.327507
37
Coordinates from ORCA-job job E -836.430104436015
  C      44.244965     18.551629     39.809136
  H      44.268256     18.329919     38.740963
  H      45.115163     18.327995     40.429021
  C      43.186696     19.118861     40.399964
  C      43.160432     19.419718     41.911060
  O      44.060559     18.943013     42.606013
  O      42.188455     20.144436     42.310400
  O      42.011579     19.339239     39.701718
  C      41.787572     20.570636     38.968286
  H      40.888058     20.323196     38.366028
  C      42.892000     20.975000     38.054000
  H      43.508798     20.225772     37.550242
  C      42.969000     22.244000     37.605000
  C      42.118000     23.281000     38.202000
  H      42.204938     24.259664     37.720559
  C      41.188000     23.002000     39.130000
  H      40.536488     23.761234     39.578017
  C      41.397656     21.710518     39.898910
  H      42.285085     21.884282     40.545571
  O      40.332152     21.317034     40.734569
  H      40.862556     20.801164     41.399027
  C      43.950892     22.643950     36.463121
  O      44.623571     21.712193     35.977049
  O      43.931755     23.859442     36.163172
  C      39.388000     20.557000     43.513000
  H      39.587925     20.549885     44.584485
  H      38.335334     20.817360     43.327510
  H      40.017641     21.362154     43.106237
  N      39.754169     19.264316     42.916226
  H      40.777259     19.209625     42.838839
  C      39.092574     18.628778     41.962192
  N      37.853895     18.212301     42.178016
  H      37.386311     18.429963     43.043724
  H      37.312450     17.767537     41.452605
  N      39.715704     18.281903     40.853783
  H      40.542921     18.798913     40.532374
  H      39.496595     17.470646     40.308330
37
Coordinates from ORCA-job job E -836.430259788562
  C      44.310578     18.659512     39.849874
  H      44.344971     18.449453     38.778844
  H      45.186619     18.473429     40.470128
  C      43.220866     19.174128     40.430097
  C      43.176364     19.470546     41.937348
  O      44.086497     19.016695     42.634526
  O      42.182757     20.169540     42.336097
  O      42.044437     19.352548     39.726940
  C      41.796525     20.570173     38.980607
  H      40.893720     20.306471     38.386901
  C      42.892000     20.975000     38.054000
  H      43.502713     20.226036     37.543261
  C      42.969000     22.244000     37.605000
  C      42.118000     23.281000     38.202000
  H      42.203113     24.258685     37.719053
  C      41.188000     23.002000     39.130000
  H      40.532978     23.759251     39.575596
  C      41.404518     21.717671     39.904306
  H      42.290005     21.898403     40.546362
  O      40.339146     21.333217     40.741734
  H      40.863970     20.830833     41.421053
  C      43.952001     22.643098     36.462760
  O      44.624631     21.709958     35.976939
  O      43.940277     23.861221     36.163411
  C      39.388000     20.557000     43.513000
  H      39.587925     20.549885     44.584485
  H      38.337600     20.806795     43.326443
  H      40.009826     21.363244     43.108812
  N      39.761714     19.265311     42.919648
  H      40.784096     19.215662     42.849072
  C      39.109352     18.633470     41.954670
  N      37.865108     18.219579     42.153000
  H      37.380119     18.448175     43.003840
  H      37.334441     17.780506     41.417619
  N      39.749028     18.279772     40.855011
  H      40.583129     18.798160     40.549137
  H      39.515607     17.485062     40.285752
37
Coordinates from ORCA-job job E -836.430365337261
  C      44.327707     18.680651     39.848040
  H      44.361328     18.476004     38.776773
  H      45.208229     18.505816     40.466314
  C      43.231403     19.177056     40.430152
  C      43.184669     19.474955     41.939457
  O      44.095854     19.025384     42.640212
  O      42.188172     20.172388     42.334955
  O      42.051211     19.348764     39.727635
  C      41.797344     20.567248     38.978190
  H      40.896882     20.303424     38.380190
  C      42.892000     20.975000     38.054000
  H      43.505842     20.228776     37.542885
  C      42.969000     22.244000     37.605000
  C      42.118000     23.281000     38.202000
  H      42.203234     24.258391     37.717815
  C      41.188000     23.002000     39.130000
  H      40.533562     23.759720     39.575677
  C      41.404875     21.715760     39.903167
  H      42.296160     21.893427     40.539790
  O      40.340207     21.330309     40.742729
  H      40.865107     20.813707     41.408511
  C      43.948062     22.642677     36.460227
  O      44.612848     21.707108     35.967219
  O      43.935174     23.860032     36.165543
  C      39.388000     20.557000     43.513000
  H      39.587925     20.549885     44.584485
  H      38.337001     20.802708     43.326323
  H      40.007612     21.363621     43.108096
  N      39.763580     19.262708     42.925394
  H      40.790973     19.218048     42.857025
  C      39.110542     18.632668     41.955211
  N      37.860839     18.228816     42.141007
  H      37.369256     18.468261     42.985746
  H      37.327257     17.800059     41.403292
  N      39.753989     18.271913     40.857222
  H      40.597655     18.781602     40.560725
  H      39.502271     17.496582     40.268407
37
Coordinates from ORCA-job job E -836.430507375553
  C      44.345914     18.720711     39.866129
  H      44.388398     18.525025     38.794286
  H      45.225523     18.558151     40.490739
  C      43.237593     19.189844     40.448337
  C      43.176394     19.474986     41.959602
  O      44.087582     19.035232     42.669384
  O      42.167466     20.154627     42.346811
  O      42.058144     19.354601     39.739496
  C      41.801799     20.566058     38.983713
  H      40.899155     20.297772     38.386400
  C      42.892000     20.975000     38.054000
  H      43.503942     20.231461     37.537349
  C      42.969000     22.244000     37.605000
  C      42.118000     23.281000     38.202000
  H      42.204066     24.257492     37.715940
  C      41.188000     23.002000     39.130000
  H      40.533154     23.758953     39.576183
  C      41.407416     21.716225     39.902530
  H      42.304937     21.900174     40.535030
  O      40.350978     21.332792     40.748962
  H      40.883641     20.829646     41.424761
  C      43.942087     22.641916     36.455834
  O      44.591663     21.702306     35.952085
  O      43.936442     23.861331     36.170809
  C      39.388000     20.557000     43.513000
  H      39.587925     20.549885     44.584485
  H      38.340460     20.823637     43.333802
  H      40.020027     21.353278     43.108870
  N      39.732902     19.255628     42.915575
  H      40.757588     19.191014     42.850702
  C      39.077198     18.666892     41.922061
  N      37.809076     18.309712     42.064893
  H      37.306446     18.563515     42.900623
  H      37.271742     17.923858     41.305804
  N      39.729036     18.309946     40.829178
  H      40.597439     18.791310     40.566310
  H      39.438956     17.589074     40.192317
37
Coordinates from ORCA-job job E -836.430730259043
  C      44.376726     18.769359     39.861007
  H      44.418039     18.580784     38.788462
  H      45.262075     18.625703     40.482395
  C      43.259402     19.205245     40.454161
  C      43.196362     19.482459     41.967211
  O      44.111102     19.049187     42.674439
  O      42.182333     20.152945     42.357042
  O      42.075911     19.356252     39.746887
  C      41.808474     20.563694     38.990246
  H      40.905453     20.288068     38.398255
  C      42.892000     20.975000     38.054000
  H      43.500012     20.232954     37.530062
  C      42.969000     22.244000     37.605000
  C      42.118000     23.281000     38.202000
  H      42.204007     24.256975     37.714970
  C      41.188000     23.002000     39.130000
  H      40.531352     23.757383     39.575934
  C      41.409546     21.717952     39.905076
  H      42.305898     21.907370     40.537890
  O      40.351076     21.336457     40.750672
  H      40.880577     20.830520     41.425940
  C      43.939749     22.641839     36.452764
  O      44.589648     21.703533     35.949197
  O      43.935168     23.862586     36.167140
  C      39.388000     20.557000     43.513000
  H      39.587925     20.549885     44.584485
  H      38.337273     20.816547     43.335088
  H      40.016301     21.358187     43.108856
  N      39.742741     19.257345     42.919189
  H      40.764448     19.203158     42.865404
  C      39.096706     18.663803     41.925198
  N      37.826198     18.313443     42.056958
  H      37.314597     18.576859     42.884327
  H      37.294574     17.939538     41.286979
  N      39.760947     18.299199     40.843663
  H      40.637659     18.771388     40.591300
  H      39.449286     17.610819     40.182082
37
Coordinates from ORCA-job job E -836.431068327774
  C      44.422226     18.824332     39.884684
  H      44.473709     18.639491     38.812427
  H      45.304328     18.705634     40.514724
  C      43.286054     19.223070     40.471425
  C      43.200014     19.494097     41.981456
  O      44.111698     19.074737     42.696014
  O      42.170160     20.148108     42.360805
  O      42.110255     19.357077     39.756016
  C      41.822950     20.562118     39.003773
  H      40.920306     20.272245     38.424113
  C      42.892000     20.975000     38.054000
  H      43.495201     20.232672     37.521302
  C      42.969000     22.244000     37.605000
  C      42.118000     23.281000     38.202000
  H      42.203103     24.256325     37.713035
  C      41.188000     23.002000     39.130000
  H      40.528406     23.755038     39.575453
  C      41.415240     21.719898     39.912381
  H      42.305511     21.925045     40.545977
  O      40.356759     21.337058     40.755147
  H      40.877346     20.824204     41.430303
  C      43.931418     22.640510     36.442735
  O      44.589988     21.706889     35.943631
  O      43.912072     23.859322     36.145968
  C      39.388000     20.557000     43.513000
  H      39.587925     20.549885     44.584485
  H      38.336240     20.820396     43.341967
  H      40.019153     21.357086     43.106367
  N      39.731545     19.255555     42.921977
  H      40.754322     19.197404     42.889108
  C      39.098541     18.696712     41.901582
  N      37.810372     18.397969     41.991331
  H      37.284963     18.672140     42.804962
  H      37.286442     18.078099     41.192520
  N      39.784135     18.321804     40.836235
  H      40.685457     18.764796     40.617173
  H      39.427971     17.727750     40.110092
37
Coordinates from ORCA-job job E -836.431365623779
  C      44.464888     18.894642     39.898420
  H      44.524539     18.720483     38.825136
  H      45.345409     18.799416     40.533736
  C      43.312524     19.248101     40.482874
  C      43.215461     19.507510     41.991375
  O      44.131300     19.100607     42.709149
  O      42.175676     20.145853     42.364866
  O      42.135083     19.360250     39.765791
  C      41.833741     20.559351     39.011354
  H      40.929922     20.251880     38.440295
  C      42.892000     20.975000     38.054000
  H      43.490939     20.234068     37.515451
  C      42.969000     22.244000     37.605000
  C      42.118000     23.281000     38.202000
  H      42.204962     24.256385     37.713669
  C      41.188000     23.002000     39.130000
  H      40.526932     23.752785     39.577206
  C      41.415693     21.719792     39.912257
  H      42.296419     21.931838     40.554863
  O      40.351475     21.336997     40.747162
  H      40.864039     20.817540     41.421357
  C      43.927703     22.637878     36.438076
  O      44.573587     21.698727     35.929656
  O      43.918940     23.859333     36.148474
  C      39.388000     20.557000     43.513000
  H      39.587925     20.549885     44.584485
  H      38.331920     20.809722     43.349290
  H      40.007589     21.365670     43.104548
  N      39.735951     19.260434     42.917965
  H      40.759798     19.208225     42.892324
  C      39.113877     18.707566     41.889321
  N      37.814695     18.449588     41.947305
  H      37.281199     18.744874     42.747696
  H      37.296714     18.165569     41.131790
  N      39.815257     18.312374     40.841209
  H      40.735760     18.729936     40.651202
  H      39.427765     17.814610     40.061320
37
Coordinates from ORCA-job job E -836.431739858448
  C      44.486930     18.936577     39.922175
  H      44.567877     18.769827     38.848376
  H      45.358213     18.850771     40.571388
  C      43.321427     19.262726     40.494838
  C      43.205352     19.511527     42.004374
  O      44.121679     19.117774     42.730735
  O      42.152595     20.134071     42.368882
  O      42.145004     19.360799     39.771734
  C      41.837878     20.558298     39.014437
  H      40.932216     20.236631     38.449933
  C      42.892000     20.975000     38.054000
  H      43.491846     20.233348     37.518657
  C      42.969000     22.244000     37.605000
  C      42.118000     23.281000     38.202000
  H      42.206064     24.257231     37.715608
  C      41.188000     23.002000     39.130000
  H      40.527672     23.752522     39.578880
  C      41.411146     21.717641     39.913321
  H      42.281424     21.931702     40.569564
  O      40.334889     21.334490     40.738083
  H      40.835978     20.805706     41.413556
  C      43.930330     22.638022     36.440972
  O      44.571712     21.697127     35.929679
  O      43.928133     23.860242     36.156552
  C      39.388000     20.557000     43.513000
  H      39.587925     20.549885     44.584485
  H      38.332613     20.815812     43.356283
  H      40.006847     21.364033     43.097436
  N      39.719649     19.257807     42.914508
  H      40.744497     19.194753     42.895965
  C      39.105638     18.731940     41.864178
  N      37.793080     18.547061     41.877272
  H      37.255356     18.858346     42.667887
  H      37.286134     18.318418     41.038449
  N      39.816625     18.318146     40.829062
  H      40.758838     18.698170     40.673994
  H      39.403440     17.951594     39.991050
37
Coordinates from ORCA-job job E -836.432021665708
  C      44.482469     18.921025     39.929096
  H      44.582145     18.752675     38.856098
  H      45.345965     18.822960     40.587250
  C      43.317005     19.260760     40.490416
  C      43.195801     19.507769     41.999662
  O      44.111463     19.117004     42.728774
  O      42.139770     20.124864     42.358508
  O      42.139700     19.359694     39.768128
  C      41.833591     20.560981     39.009078
  H      40.927606     20.234588     38.447203
  C      42.892000     20.975000     38.054000
  H      43.494604     20.227778     37.530424
  C      42.969000     22.244000     37.605000
  C      42.118000     23.281000     38.202000
  H      42.205290     24.259077     37.719016
  C      41.188000     23.002000     39.130000
  H      40.530280     23.754800     39.579208
  C      41.401739     21.713654     39.910345
  H      42.260856     21.916380     40.584533
  O      40.312503     21.324508     40.718091
  H      40.809963     20.791129     41.392810
  C      43.935632     22.638444     36.447120
  O      44.588900     21.699358     35.945564
  O      43.925462     23.857387     36.154661
  C      39.388000     20.557000     43.513000
  H      39.587925     20.549885     44.584485
  H      38.335481     20.821003     43.356757
  H      40.004177     21.361976     43.094027
  N      39.709909     19.257532     42.907343
  H      40.735223     19.182677     42.876785
  C      39.094681     18.737573     41.852143
  N      37.774834     18.611356     41.838724
  H      37.240901     18.926307     42.629551
  H      37.269827     18.407442     40.993310
  N      39.801871     18.313957     40.819085
  H      40.754931     18.669172     40.681141
  H      39.380249     18.028573     39.954320
37
Coordinates from ORCA-job job E -836.432139092058
  C      44.480465     18.933570     39.932950
  H      44.590933     18.768559     38.859956
  H      45.342677     18.834092     40.593755
  C      43.313713     19.270269     40.492718
  C      43.188395     19.512424     42.005481
  O      44.105442     19.125877     42.735506
  O      42.126309     20.121726     42.366543
  O      42.134477     19.363394     39.771281
  C      41.829577     20.561680     39.006826
  H      40.922769     20.237320     38.443501
  C      42.892000     20.975000     38.054000
  H      43.494894     20.226365     37.534630
  C      42.969000     22.244000     37.605000
  C      42.118000     23.281000     38.202000
  H      42.203848     24.259064     37.719132
  C      41.188000     23.002000     39.130000
  H      40.531240     23.756259     39.578040
  C      41.400641     21.713943     39.909555
  H      42.260917     21.911313     40.583819
  O      40.309812     21.324618     40.718020
  H      40.806750     20.792559     41.394690
  C      43.935330     22.639081     36.448830
  O      44.590362     21.700675     35.949254
  O      43.922759     23.856974     36.155852
  C      39.388000     20.557000     43.513000
  H      39.587925     20.549885     44.584485
  H      38.338936     20.836514     43.353246
  H      40.016319     21.353896     43.093796
  N      39.698166     19.253204     42.906745
  H      40.722539     19.165757     42.878078
  C      39.083246     18.742554     41.845501
  N      37.761680     18.647209     41.820618
  H      37.224048     18.965065     42.608972
  H      37.261756     18.459385     40.967451
  N      39.789677     18.318841     40.811499
  H      40.747349     18.662776     40.682243
  H      39.367035     18.073651     39.934768
37
Coordinates from ORCA-job job E -836.432233568278
  C      44.475946     18.925710     39.928434
  H      44.589468     18.764616     38.855185
  H      45.338664     18.818966     40.587799
  C      43.311850     19.268575     40.489859
  C      43.188613     19.504277     42.003806
  O      44.102543     19.107536     42.731640
  O      42.128948     20.114782     42.369182
  O      42.131692     19.364880     39.770228
  C      41.826522     20.562596     39.005057
  H      40.920813     20.244533     38.438558
  C      42.892000     20.975000     38.054000
  H      43.494538     20.224883     37.535956
  C      42.969000     22.244000     37.605000
  C      42.118000     23.281000     38.202000
  H      42.201776     24.258632     37.718105
  C      41.188000     23.002000     39.130000
  H      40.532153     23.757935     39.576515
  C      41.401792     21.714831     39.909663
  H      42.266354     21.907617     40.581062
  O      40.314428     21.323614     40.720673
  H      40.814270     20.791982     41.396501
  C      43.934008     22.639630     36.448002
  O      44.600462     21.705081     35.957798
  O      43.909436     23.854796     36.143857
  C      39.388000     20.557000     43.513000
  H      39.587925     20.549885     44.584485
  H      38.342552     20.845169     43.348620
  H      40.024943     21.347622     43.096592
  N      39.695197     19.251637     42.906614
  H      40.717825     19.155173     42.880965
  C      39.079740     18.741332     41.846220
  N      37.757448     18.667243     41.811569
  H      37.216665     18.983415     42.598492
  H      37.259659     18.484604     40.955474
  N      39.784251     18.317974     40.811232
  H      40.744333     18.657145     40.683297
  H      39.361077     18.092360     39.929504
37
Coordinates from ORCA-job job E -836.432299962645
  C      44.470543     18.916491     39.927671
  H      44.583989     18.758941     38.853801
  H      45.332743     18.800979     40.586135
  C      43.309457     19.267749     40.491413
  C      43.188456     19.497530     42.005404
  O      44.098508     19.087742     42.730636
  O      42.132879     20.112485     42.375192
  O      42.130180     19.367937     39.771817
  C      41.825883     20.562978     39.005545
  H      40.921640     20.249853     38.435784
  C      42.892000     20.975000     38.054000
  H      43.493467     20.225418     37.533831
  C      42.969000     22.244000     37.605000
  C      42.118000     23.281000     38.202000
  H      42.201544     24.257931     37.716717
  C      41.188000     23.002000     39.130000
  H      40.532337     23.758862     39.575238
  C      41.403348     21.716403     39.909190
  H      42.270117     21.910701     40.576959
  O      40.319454     21.325205     40.723640
  H      40.819031     20.793333     41.399073
  C      43.929808     22.638942     36.443820
  O      44.595988     21.704192     35.954262
  O      43.901486     23.853755     36.136660
  C      39.388000     20.557000     43.513000
  H      39.587925     20.549885     44.584485
  H      38.344715     20.850632     43.345232
  H      40.031468     21.343599     43.100993
  N      39.696014     19.252185     42.905138
  H      40.718165     19.148902     42.887374
  C      39.079299     18.737174     41.848070
  N      37.756592     18.676202     41.808945
  H      37.212062     18.988892     42.595155
  H      37.259704     18.492576     40.951920
  N      39.783888     18.311645     40.814023
  H      40.741742     18.655709     40.683472
  H      39.361417     18.087503     39.931908
37
Coordinates from ORCA-job job E -836.432330702862
  C      44.471620     18.918410     39.929737
  H      44.583498     18.767462     38.854964
  H      45.333432     18.800489     40.587912
  C      43.309867     19.267098     40.494183
  C      43.187674     19.490241     42.008073
  O      44.093217     19.071233     42.733133
  O      42.134543     20.108971     42.378142
  O      42.131729     19.368442     39.773538
  C      41.826913     20.561955     39.007161
  H      40.923677     20.250313     38.434983
  C      42.892000     20.975000     38.054000
  H      43.493947     20.227177     37.531051
  C      42.969000     22.244000     37.605000
  C      42.118000     23.281000     38.202000
  H      42.202350     24.257433     37.715899
  C      41.188000     23.002000     39.130000
  H      40.532784     23.759269     39.575269
  C      41.404403     21.717172     39.909988
  H      42.273523     21.914759     40.574709
  O      40.323395     21.327674     40.726918
  H      40.822548     20.793887     41.400624
  C      43.928397     22.638722     36.441612
  O      44.593582     21.703985     35.951264
  O      43.899411     23.853712     36.133824
  C      39.388000     20.557000     43.513000
  H      39.587925     20.549885     44.584485
  H      38.345835     20.853084     43.344466
  H      40.034684     21.341986     43.103738
  N      39.695520     19.253217     42.903223
  H      40.717096     19.144856     42.893258
  C      39.081032     18.741639     41.843787
  N      37.758352     18.698005     41.790737
  H      37.209931     19.012455     42.573260
  H      37.267199     18.524909     40.928552
  N      39.788783     18.311612     40.813045
  H      40.749257     18.652439     40.686301
  H      39.366982     18.108530     39.925398
37
Coordinates from ORCA-job job E -836.432349081857
  C      44.455872     18.885779     39.921602
  H      44.560917     18.735317     38.846074
  H      45.317321     18.754658     40.577399
  C      43.300461     19.251986     40.488385
  C      43.182416     19.474844     42.002096
  O      44.083461     19.042067     42.725365
  O      42.137873     20.106744     42.374518
  O      42.123492     19.365776     39.768633
  C      41.825378     20.562060     39.005278
  H      40.922519     20.255805     38.429580
  C      42.892000     20.975000     38.054000
  H      43.496181     20.228744     37.531024
  C      42.969000     22.244000     37.605000
  C      42.118000     23.281000     38.202000
  H      42.204132     24.257445     37.716193
  C      41.188000     23.002000     39.130000
  H      40.533481     23.759598     39.575924
  C      41.403843     21.716626     39.909469
  H      42.273954     21.915761     40.572708
  O      40.323264     21.328451     40.727368
  H      40.820690     20.792543     41.400156
  C      43.929937     22.638967     36.442313
  O      44.592437     21.703391     35.949843
  O      43.904323     23.854913     36.137722
  C      39.388000     20.557000     43.513000
  H      39.587925     20.549885     44.584485
  H      38.346035     20.852393     43.344425
  H      40.034432     21.342521     43.104800
  N      39.696850     19.254899     42.900795
  H      40.719329     19.144566     42.892413
  C      39.078779     18.736761     41.845597
  N      37.755557     18.688567     41.796697
  H      37.208041     18.999705     42.581015
  H      37.262723     18.510083     40.936923
  N      39.785295     18.305950     40.814464
  H      40.740834     18.655570     40.680423
  H      39.361979     18.077130     39.933739
37
Coordinates from ORCA-job job E -836.432369063576
  C      44.454033     18.882566     39.921772
  H      44.557007     18.733046     38.846106
  H      45.315926     18.750551     40.576782
  C      43.298934     19.249450     40.488944
  C      43.179195     19.471998     42.002556
  O      44.079071     19.037672     42.726645
  O      42.136019     20.106883     42.373590
  O      42.122439     19.364612     39.768413
  C      41.825815     20.561800     39.005462
  H      40.922697     20.255239     38.430160
  C      42.892000     20.975000     38.054000
  H      43.496395     20.229457     37.530225
  C      42.969000     22.244000     37.605000
  C      42.118000     23.281000     38.202000
  H      42.204858     24.257647     37.716444
  C      41.188000     23.002000     39.130000
  H      40.533138     23.759172     39.576155
  C      41.403320     21.716290     39.909535
  H      42.273139     21.916222     40.572486
  O      40.322104     21.329289     40.726813
  H      40.819279     20.792693     41.399024
  C      43.930475     22.638953     36.442637
  O      44.589584     21.702337     35.947084
  O      43.908780     23.855853     36.142152
  C      39.388000     20.557000     43.513000
  H      39.587925     20.549885     44.584485
  H      38.346091     20.852508     43.344897
  H      40.033851     21.343068     43.105102
  N      39.695773     19.255161     42.899457
  H      40.718313     19.143648     42.891805
  C      39.078813     18.738776     41.842572
  N      37.754798     18.699687     41.787321
  H      37.206299     19.014216     42.569580
  H      37.264933     18.527540     40.924549
  N      39.787318     18.305801     40.813344
  H      40.743990     18.653801     40.681592
  H      39.364288     18.082745     39.931198
37
Coordinates from ORCA-job job E -836.432403389000
  C      44.444391     18.864794     39.917458
  H      44.540680     18.715679     38.841458
  H      45.308369     18.727881     40.568829
  C      43.292132     19.239680     40.484941
  C      43.171585     19.463375     41.999334
  O      44.068461     19.024493     42.724364
  O      42.133224     20.107483     42.368496
  O      42.116494     19.361469     39.763864
  C      41.824587     20.561980     39.003847
  H      40.919933     20.256938     38.428760
  C      42.892000     20.975000     38.054000
  H      43.497173     20.229820     37.530501
  C      42.969000     22.244000     37.605000
  C      42.118000     23.281000     38.202000
  H      42.205743     24.258244     37.717577
  C      41.188000     23.002000     39.130000
  H      40.532694     23.758408     39.576725
  C      41.401968     21.715216     39.909608
  H      42.271857     21.913934     40.572338
  O      40.319239     21.329463     40.725247
  H      40.816053     20.792370     41.397535
  C      43.933325     22.639707     36.445485
  O      44.590746     21.702939     35.947270
  O      43.915806     23.857392     36.150042
  C      39.388000     20.557000     43.513000
  H      39.587925     20.549885     44.584485
  H      38.346036     20.853385     43.344977
  H      40.033335     21.344002     43.104606
  N      39.694055     19.255184     42.898455
  H      40.716695     19.142349     42.890898
  C      39.079006     18.739853     41.839586
  N      37.754671     18.717966     41.771558
  H      37.204213     19.039207     42.549381
  H      37.271872     18.557080     40.902717
  N      39.789884     18.303776     40.813151
  H      40.747557     18.649931     40.682990
  H      39.366583     18.083053     39.930458
37
Coordinates from ORCA-job job E -836.432431674022
  C      44.438695     18.855330     39.914567
  H      44.530153     18.705924     38.838334
  H      45.305112     18.716684     40.562413
  C      43.288667     19.234548     40.483491
  C      43.166196     19.460481     41.997671
  O      44.061709     19.020298     42.723861
  O      42.130348     20.109530     42.365298
  O      42.113508     19.359206     39.760604
  C      41.823377     20.562068     39.002420
  H      40.918359     20.257467     38.428055
  C      42.892000     20.975000     38.054000
  H      43.496818     20.229606     37.530727
  C      42.969000     22.244000     37.605000
  C      42.118000     23.281000     38.202000
  H      42.205876     24.258589     37.718273
  C      41.188000     23.002000     39.130000
  H      40.532068     23.757807     39.576778
  C      41.400812     21.714672     39.909207
  H      42.270686     21.911765     40.572102
  O      40.317311     21.329246     40.723922
  H      40.815391     20.793997     41.397111
  C      43.934531     22.639985     36.446992
  O      44.592321     21.703305     35.948883
  O      43.918394     23.857858     36.152646
  C      39.388000     20.557000     43.513000
  H      39.587925     20.549885     44.584485
  H      38.346628     20.854447     43.345193
  H      40.033063     21.343809     43.104239
  N      39.692133     19.254651     42.897799
  H      40.714517     19.139917     42.890598
  C      39.078385     18.740406     41.837164
  N      37.753826     18.737145     41.757956
  H      37.200591     19.068354     42.529666
  H      37.277340     18.586811     40.883635
  N      39.791601     18.300312     40.814233
  H      40.750129     18.645105     40.685886
  H      39.369642     18.080117     39.930828
37
Coordinates from ORCA-job job E -836.432477332533
  C      44.434275     18.846981     39.914479
  H      44.519139     18.696119     38.838261
  H      45.304408     18.707520     40.557262
  C      43.286304     19.232555     40.483140
  C      43.162791     19.464028     41.997487
  O      44.056867     19.024743     42.725475
  O      42.128971     20.118342     42.362233
  O      42.112608     19.358205     39.757729
  C      41.822442     20.562691     39.001402
  H      40.916488     20.257398     38.428469
  C      42.892000     20.975000     38.054000
  H      43.495363     20.228517     37.531113
  C      42.969000     22.244000     37.605000
  C      42.118000     23.281000     38.202000
  H      42.204813     24.258897     37.718659
  C      41.188000     23.002000     39.130000
  H      40.530776     23.756858     39.576355
  C      41.399652     21.714374     39.908712
  H      42.268376     21.909586     40.572712
  O      40.314927     21.327455     40.721944
  H      40.814801     20.797214     41.398151
  C      43.933825     22.639884     36.447274
  O      44.591223     21.703106     35.948616
  O      43.918355     23.857605     36.153170
  C      39.388000     20.557000     43.513000
  H      39.587925     20.549885     44.584485
  H      38.346705     20.854712     43.344520
  H      40.032797     21.344160     43.103816
  N      39.693602     19.254217     42.899216
  H      40.715706     19.139904     42.894481
  C      39.083554     18.736961     41.837848
  N      37.761029     18.762387     41.737469
  H      37.202324     19.111126     42.497521
  H      37.296792     18.624976     40.854005
  N      39.801610     18.289768     40.821663
  H      40.759262     18.636967     40.694250
  H      39.384038     18.060391     39.938609
37
Coordinates from ORCA-job job E -836.432531939642
  C      44.436996     18.851052     39.916777
  H      44.517912     18.700534     38.840279
  H      45.310352     18.714134     40.555692
  C      43.289128     19.236039     40.485779
  C      43.163046     19.473445     41.998878
  O      44.056234     19.037287     42.729883
  O      42.129010     20.129148     42.360442
  O      42.116434     19.358009     39.756627
  C      41.822279     20.562539     39.001187
  H      40.917128     20.254382     38.429197
  C      42.892000     20.975000     38.054000
  H      43.494320     20.227421     37.531853
  C      42.969000     22.244000     37.605000
  C      42.118000     23.281000     38.202000
  H      42.204061     24.258912     37.719235
  C      41.188000     23.002000     39.130000
  H      40.530512     23.756539     39.576470
  C      41.398616     21.714264     39.907950
  H      42.265667     21.908828     40.574443
  O      40.313503     21.325197     40.720318
  H      40.816376     20.801802     41.400311
  C      43.933137     22.639546     36.447292
  O      44.591166     21.702791     35.950009
  O      43.917371     23.856950     36.150687
  C      39.388000     20.557000     43.513000
  H      39.587925     20.549885     44.584485
  H      38.346554     20.853883     43.345185
  H      40.031732     21.344370     43.103023
  N      39.696095     19.254066     42.900669
  H      40.717931     19.139125     42.901522
  C      39.091010     18.734900     41.836868
  N      37.772247     18.794316     41.711212
  H      37.207592     19.170198     42.453691
  H      37.324873     18.674610     40.816513
  N      39.815786     18.275558     40.831581
  H      40.772406     18.625882     40.706183
  H      39.405696     18.035792     39.947546
37
Coordinates from ORCA-job job E -836.432601804381
  C      44.451177     18.872179     39.928358
  H      44.533788     18.722338     38.852006
  H      45.325494     18.742004     40.567173
  C      43.299303     19.249605     40.494487
  C      43.169859     19.493494     42.006356
  O      44.062774     19.064956     42.741621
  O      42.131223     20.145150     42.362725
  O      42.128071     19.360882     39.761586
  C      41.825344     20.562179     39.004015
  H      40.921391     20.248056     38.433815
  C      42.892000     20.975000     38.054000
  H      43.492473     20.226315     37.531655
  C      42.969000     22.244000     37.605000
  C      42.118000     23.281000     38.202000
  H      42.202814     24.258770     37.718908
  C      41.188000     23.002000     39.130000
  H      40.530380     23.756525     39.576284
  C      41.398779     21.714765     39.907837
  H      42.262449     21.911274     40.578052
  O      40.313022     21.322287     40.719385
  H      40.818507     20.806600     41.403502
  C      43.930336     22.638258     36.444940
  O      44.583552     21.700036     35.944934
  O      43.917799     23.856159     36.148677
  C      39.388000     20.557000     43.513000
  H      39.587925     20.549885     44.584485
  H      38.345491     20.850388     43.346417
  H      40.029491     21.345735     43.102520
  N      39.702586     19.254525     42.903238
  H      40.723994     19.140774     42.913310
  C      39.105869     18.731894     41.836505
  N      37.793753     18.827046     41.678321
  H      37.224173     19.237549     42.398494
  H      37.368757     18.725724     40.770243
  N      39.840959     18.257103     40.846431
  H      40.794878     18.614881     40.723540
  H      39.442965     17.998164     39.962398
37
Coordinates from ORCA-job job E -836.432678214444
  C      44.469875     18.902551     39.939242
  H      44.560312     18.755318     38.862896
  H      45.342282     18.780076     40.582093
  C      43.312057     19.265472     40.502774
  C      43.180267     19.511508     42.013304
  O      44.074628     19.091004     42.751395
  O      42.135141     20.154135     42.366891
  O      42.140654     19.364757     39.768849
  C      41.829303     20.561431     39.007805
  H      40.927034     20.242101     38.438365
  C      42.892000     20.975000     38.054000
  H      43.492352     20.225779     37.531823
  C      42.969000     22.244000     37.605000
  C      42.118000     23.281000     38.202000
  H      42.202896     24.258592     37.718850
  C      41.188000     23.002000     39.130000
  H      40.531671     23.757608     39.576459
  C      41.399629     21.715282     39.908412
  H      42.260261     21.915320     40.582129
  O      40.313891     21.320160     40.719594
  H      40.820904     20.808557     41.405939
  C      43.929373     22.637449     36.443455
  O      44.578567     21.698272     35.940720
  O      43.919435     23.855996     36.148524
  C      39.388000     20.557000     43.513000
  H      39.587925     20.549885     44.584485
  H      38.344056     20.846753     43.348749
  H      40.027139     21.347273     43.102035
  N      39.707527     19.255242     42.904633
  H      40.728593     19.141392     42.923815
  C      39.118666     18.732228     41.833556
  N      37.812195     18.850539     41.652188
  H      37.242572     19.292254     42.353487
  H      37.406494     18.766147     40.734059
  N      39.862060     18.244072     40.856446
  H      40.814698     18.605880     40.736796
  H      39.474258     17.974470     39.970811
37
Coordinates from ORCA-job job E -836.432767690438
  C      44.490321     18.935313     39.953998
  H      44.594879     18.789880     38.878254
  H      45.357038     18.819484     40.605635
  C      43.325119     19.282389     40.512537
  C      43.189900     19.527541     42.022279
  O      44.085659     19.114836     42.762979
  O      42.136683     20.158409     42.373041
  O      42.153656     19.369654     39.778853
  C      41.834569     20.560633     39.012791
  H      40.933208     20.237306     38.444393
  C      42.892000     20.975000     38.054000
  H      43.492341     20.225819     37.531112
  C      42.969000     22.244000     37.605000
  C      42.118000     23.281000     38.202000
  H      42.203797     24.258534     37.718557
  C      41.188000     23.002000     39.130000
  H      40.533256     23.759195     39.576233
  C      41.401318     21.716013     39.909943
  H      42.259630     21.920306     40.586199
  O      40.315340     21.319435     40.720727
  H      40.822026     20.808577     41.407699
  C      43.929459     22.636937     36.442161
  O      44.574111     21.696850     35.935783
  O      43.923493     23.856740     36.150895
  C      39.388000     20.557000     43.513000
  H      39.587925     20.549885     44.584485
  H      38.342819     20.843764     43.351546
  H      40.025348     21.348661     43.102044
  N      39.709889     19.255608     42.904901
  H      40.730322     19.139123     42.933340
  C      39.129571     18.735367     41.828006
  N      37.828802     18.874872     41.623817
  H      37.263445     19.348429     42.307613
  H      37.442616     18.809328     40.695985
  N      39.881417     18.235220     40.863299
  H      40.833121     18.600598     40.747872
  H      39.503853     17.954438     39.976853
37
Coordinates from ORCA-job job E -836.432852585713
  C      44.505516     18.960233     39.964528
  H      44.621945     18.816565     38.889401
  H      45.367187     18.848845     40.623685
  C      43.334705     19.293991     40.519250
  C      43.196093     19.535197     42.028865
  O      44.093203     19.127208     42.770720
  O      42.137264     20.157005     42.378393
  O      42.162687     19.373381     39.786098
  C      41.838619     20.560330     39.016955
  H      40.936846     20.234979     38.450484
  C      42.892000     20.975000     38.054000
  H      43.492418     20.226118     37.530155
  C      42.969000     22.244000     37.605000
  C      42.118000     23.281000     38.202000
  H      42.204920     24.258574     37.718405
  C      41.188000     23.002000     39.130000
  H      40.534312     23.760383     39.575866
  C      41.402885     21.716915     39.911856
  H      42.259996     21.924517     40.588775
  O      40.316866     21.320200     40.722329
  H      40.822897     20.808443     41.409358
  C      43.930347     22.637062     36.441984
  O      44.572769     21.696846     35.932774
  O      43.926327     23.857579     36.154728
  C      39.388000     20.557000     43.513000
  H      39.587925     20.549885     44.584485
  H      38.341930     20.842263     43.353778
  H      40.024089     21.350090     43.102554
  N      39.709542     19.255798     42.903867
  H      40.729103     19.134449     42.941276
  C      39.137991     18.740130     41.819827
  N      37.843871     18.904790     41.591250
  H      37.284985     19.410311     42.257162
  H      37.480608     18.862059     40.653252
  N      39.897855     18.228442     40.867364
  H      40.850186     18.593989     40.756402
  H      39.527958     17.942621     39.979210
37
Coordinates from ORCA-job job E -836.432943338782
  C      44.516854     18.978276     39.974090
  H      44.643317     18.833441     38.899964
  H      45.373699     18.870635     40.640292
  C      43.341781     19.302711     40.525045
  C      43.198317     19.538179     42.035313
  O      44.096597     19.133134     42.777577
  O      42.135177     20.152757     42.384230
  O      42.169443     19.376543     39.791879
  C      41.841897     20.560323     39.020426
  H      40.938124     20.233633     38.457410
  C      42.892000     20.975000     38.054000
  H      43.491689     20.226704     37.528202
  C      42.969000     22.244000     37.605000
  C      42.118000     23.281000     38.202000
  H      42.205815     24.258558     37.718147
  C      41.188000     23.002000     39.130000
  H      40.534469     23.760820     39.575411
  C      41.404668     21.718024     39.914021
  H      42.262505     21.927223     40.589453
  O      40.318704     21.322409     40.724340
  H      40.823574     20.808180     41.410488
  C      43.931246     22.637594     36.442293
  O      44.574185     21.697737     35.932500
  O      43.927656     23.858531     36.157628
  C      39.388000     20.557000     43.513000
  H      39.587925     20.549885     44.584485
  H      38.341698     20.842115     43.354993
  H      40.023647     21.351112     43.103469
  N      39.706818     19.255571     42.902074
  H      40.725487     19.127736     42.947300
  C      39.143951     18.745609     41.810498
  N      37.857822     18.937607     41.556001
  H      37.306301     19.472573     42.204942
  H      37.518923     18.917775     40.608027
  N      39.911725     18.224048     40.869557
  H      40.864605     18.589533     40.762770
  H      39.547723     17.931922     39.981110
37
Coordinates from ORCA-job job E -836.433034258542
  C      44.524427     18.989447     39.979869
  H      44.655715     18.842511     38.906505
  H      45.378703     18.885546     40.650153
  C      43.346899     19.307972     40.528593
  C      43.199031     19.536564     42.039964
  O      44.098627     19.132554     42.781449
  O      42.133583     20.146311     42.389545
  O      42.174315     19.378645     39.794847
  C      41.843985     20.560864     39.022790
  H      40.937869     20.232757     38.464075
  C      42.892000     20.975000     38.054000
  H      43.490827     20.227177     37.526605
  C      42.969000     22.244000     37.605000
  C      42.118000     23.281000     38.202000
  H      42.205511     24.258328     37.717339
  C      41.188000     23.002000     39.130000
  H      40.533636     23.760395     39.574909
  C      41.406449     21.719196     39.915951
  H      42.265974     21.928936     40.588387
  O      40.321183     21.324469     40.726887
  H      40.825418     20.808015     41.412274
  C      43.930542     22.638270     36.442163
  O      44.576218     21.699184     35.933447
  O      43.923856     23.858532     36.157250
  C      39.388000     20.557000     43.513000
  H      39.587925     20.549885     44.584485
  H      38.341820     20.842846     43.355371
  H      40.023673     21.351773     43.104319
  N      39.703514     19.255285     42.900255
  H      40.721097     19.120931     42.952733
  C      39.149059     18.750542     41.801444
  N      37.872955     18.972747     41.519523
  H      37.328033     19.534797     42.151181
  H      37.560847     18.975386     40.562041
  N      39.924164     18.219167     40.872092
  H      40.878009     18.583196     40.768451
  H      39.564040     17.922969     39.983299
37
Coordinates from ORCA-job job E -836.433160148236
  C      44.536173     19.007397     39.989455
  H      44.671222     18.857071     38.917030
  H      45.388360     18.910725     40.663573
  C      43.355575     19.318500     40.535475
  C      43.201203     19.541239     42.047772
  O      44.102072     19.140740     42.789589
  O      42.131741     20.144200     42.396818
  O      42.183297     19.382071     39.799745
  C      41.846936     20.561177     39.025875
  H      40.938774     20.228384     38.472634
  C      42.892000     20.975000     38.054000
  H      43.489383     20.227463     37.524785
  C      42.969000     22.244000     37.605000
  C      42.118000     23.281000     38.202000
  H      42.204527     24.257850     37.716379
  C      41.188000     23.002000     39.130000
  H      40.532324     23.759483     39.574525
  C      41.408487     21.720517     39.917688
  H      42.269830     21.931319     40.587135
  O      40.324255     21.325983     40.729237
  H      40.828711     20.808728     41.414176
  C      43.928635     22.638611     36.441267
  O      44.577454     21.700118     35.934989
  O      43.918444     23.858094     36.153636
  C      39.388000     20.557000     43.513000
  H      39.587925     20.549885     44.584485
  H      38.341959     20.843300     43.355863
  H      40.023593     21.352155     43.104858
  N      39.701436     19.255006     42.899262
  H      40.717682     19.113662     42.962402
  C      39.159181     18.755747     41.791339
  N      37.901322     19.022136     41.468179
  H      37.365762     19.620339     42.074334
  H      37.630297     19.051842     40.498242
  N      39.944950     18.209269     40.880044
  H      40.898478     18.574587     40.779352
  H      39.591854     17.901181     39.992419
37
Coordinates from ORCA-job job E -836.433357080027
  C      44.553627     19.034425     40.002015
  H      44.690354     18.880501     38.930488
  H      45.404894     18.949677     40.678889
  C      43.369302     19.335104     40.545477
  C      43.207185     19.550835     42.058660
  O      44.110281     19.156247     42.800850
  O      42.132000     20.143695     42.407141
  O      42.197511     19.387153     39.806880
  C      41.851168     20.561691     39.030094
  H      40.941502     20.220068     38.484459
  C      42.892000     20.975000     38.054000
  H      43.487468     20.227297     37.523314
  C      42.969000     22.244000     37.605000
  C      42.118000     23.281000     38.202000
  H      42.201923     24.256992     37.714579
  C      41.188000     23.002000     39.130000
  H      40.530033     23.757815     39.573929
  C      41.411535     21.722296     39.919716
  H      42.274866     21.935295     40.585236
  O      40.329328     21.326935     40.733037
  H      40.834959     20.810391     41.418364
  C      43.923699     22.638386     36.438358
  O      44.576134     21.700420     35.935340
  O      43.906946     23.856108     36.144795
  C      39.388000     20.557000     43.513000
  H      39.587925     20.549885     44.584485
  H      38.342026     20.843241     43.356598
  H      40.023193     21.352496     43.105181
  N      39.700867     19.254903     42.898898
  H      40.714754     19.105483     42.977674
  C      39.176963     18.761537     41.778801
  N      37.952954     19.094095     41.393493
  H      37.433930     19.742242     41.962031
  H      37.747541     19.157967     40.408634
  N      39.977568     18.191331     40.895723
  H      40.930402     18.558685     40.797071
  H      39.634653     17.866377     40.009947
37
Coordinates from ORCA-job job E -836.433662515853
  C      44.578724     19.073642     40.018886
  H      44.712675     18.913749     38.948304
  H      45.431084     19.008104     40.696429
  C      43.390654     19.362226     40.560619
  C      43.218810     19.571500     42.074395
  O      44.125292     19.187121     42.817496
  O      42.134923     20.149075     42.422063
  O      42.219763     19.395688     39.818785
  C      41.857176     20.562313     39.036066
  H      40.946834     20.204831     38.501268
  C      42.892000     20.975000     38.054000
  H      43.485103     20.226499     37.522450
  C      42.969000     22.244000     37.605000
  C      42.118000     23.281000     38.202000
  H      42.197512     24.255600     37.711993
  C      41.188000     23.002000     39.130000
  H      40.526629     23.755016     39.573459
  C      41.416299     21.724878     39.921639
  H      42.282723     21.941935     40.581286
  O      40.337879     21.328146     40.738577
  H      40.846074     20.814051     41.424778
  C      43.915624     22.637442     36.433393
  O      44.572807     21.699912     35.935803
  O      43.889166     23.852428     36.129154
  C      39.388000     20.557000     43.513000
  H      39.587925     20.549885     44.584485
  H      38.341808     20.841897     43.357378
  H      40.022368     21.352715     43.105263
  N      39.703469     19.255151     42.899794
  H      40.714075     19.096936     43.000927
  C      39.207238     18.768134     41.763233
  N      38.045384     19.192409     41.288240
  H      37.555626     19.905257     41.803580
  H      37.941917     19.293267     40.289664
  N      40.028706     18.162969     40.924364
  H      40.977686     18.538371     40.825221
  H      39.701682     17.802279     40.046080
37
Coordinates from ORCA-job job E -836.433929690623
  C      44.617999     19.140706     40.045341
  H      44.754790     18.978181     38.975900
  H      45.469365     19.102333     40.725946
  C      43.422398     19.402976     40.583769
  C      43.238773     19.602698     42.097939
  O      44.150073     19.234358     42.843028
  O      42.141993     20.157197     42.443083
  O      42.251612     19.408205     39.837763
  C      41.867276     20.562724     39.045921
  H      40.957062     20.184206     38.525297
  C      42.892000     20.975000     38.054000
  H      43.481505     20.225360     37.520721
  C      42.969000     22.244000     37.605000
  C      42.118000     23.281000     38.202000
  H      42.192348     24.253934     37.708589
  C      41.188000     23.002000     39.130000
  H      40.523104     23.752321     39.572697
  C      41.423906     21.728854     39.925234
  H      42.293390     21.952744     40.578053
  O      40.351224     21.331333     40.747865
  H      40.862827     20.821153     41.435802
  C      43.905683     22.635635     36.426401
  O      44.565215     21.698173     35.932235
  O      43.869782     23.847790     36.112374
  C      39.388000     20.557000     43.513000
  H      39.587925     20.549885     44.584485
  H      38.339941     20.834711     43.360040
  H      40.017636     21.355944     43.105112
  N      39.711628     19.255574     42.902667
  H      40.715467     19.087168     43.037578
  C      39.259387     18.774337     41.744727
  N      38.214437     19.321164     41.141584
  H      37.797066     20.124310     41.583782
  H      38.281013     19.460472     40.143365
  N      40.109179     18.115904     40.977895
  H      41.054033     18.500544     40.870028
  H      39.803604     17.708209     40.112153
37
Coordinates from ORCA-job job E -836.432417120098
  C      44.617482     19.157317     39.977783
  H      44.655116     19.003129     38.902279
  H      45.520231     19.157574     40.587258
  C      43.447332     19.438598     40.565321
  C      43.305455     19.666227     42.077844
  O      44.236113     19.315652     42.805416
  O      42.206263     20.200299     42.450613
  O      42.267002     19.418047     39.853266
  C      41.863724     20.562905     39.041539
  H      40.971146     20.147749     38.521379
  C      42.892000     20.975000     38.054000
  H      43.485296     20.217612     37.538811
  C      42.969000     22.244000     37.605000
  C      42.118000     23.281000     38.202000
  H      42.173359     24.249594     37.701706
  C      41.188000     23.002000     39.130000
  H      40.516585     23.743706     39.576404
  C      41.444478     21.731332     39.917842
  H      42.331727     21.965012     40.546128
  O      40.398756     21.337676     40.779295
  H      40.918643     20.832588     41.467845
  C      43.880539     22.623873     36.407558
  O      44.534519     21.681847     35.924051
  O      43.824293     23.827121     36.053376
  C      39.388000     20.557000     43.513000
  H      39.587925     20.549885     44.584485
  H      38.337554     20.815703     43.350079
  H      40.017894     21.348472     43.097423
  N      39.757310     19.255480     42.937108
  H      40.769973     19.136512     43.058316
  C      39.314206     18.724648     41.799483
  N      38.301144     19.276578     41.156604
  H      37.808773     20.064303     41.551626
  H      38.356542     19.350177     40.149098
  N      40.176464     18.045260     41.069756
  H      41.092450     18.477412     40.935653
  H      39.898721     17.509013     40.265085
37
Coordinates from ORCA-job job E -836.434055359423
  C      44.617928     19.135738     40.018291
  H      44.731951     18.973694     38.946389
  H      45.483287     19.100213     40.680894
  C      43.431321     19.408338     40.572277
  C      43.265800     19.618492     42.087045
  O      44.184214     19.250525     42.823434
  O      42.171695     20.171632     42.444113
  O      42.253813     19.411919     39.846464
  C      41.867906     20.564053     39.048894
  H      40.957089     20.183771     38.531192
  C      42.892000     20.975000     38.054000
  H      43.480871     20.224016     37.521581
  C      42.969000     22.244000     37.605000
  C      42.118000     23.281000     38.202000
  H      42.188542     24.252934     37.705408
  C      41.188000     23.002000     39.130000
  H      40.521921     23.751430     39.572139
  C      41.434517     21.732805     39.927673
  H      42.312210     21.962267     40.568164
  O      40.372009     21.341333     40.764012
  H      40.885939     20.828168     41.447537
  C      43.900069     22.632449     36.419784
  O      44.553177     21.693422     35.921581
  O      43.863304     23.844125     36.103542
  C      39.388000     20.557000     43.513000
  H      39.587925     20.549885     44.584485
  H      38.336378     20.817093     43.353949
  H      40.011211     21.361478     43.106967
  N      39.738439     19.255657     42.916349
  H      40.746505     19.108767     43.049068
  C      39.293758     18.739243     41.770454
  N      38.260726     19.277558     41.139114
  H      37.839726     20.093632     41.554739
  H      38.342427     19.392815     40.139007
  N      40.161464     18.072398     41.032590
  H      41.089602     18.489469     40.911962
  H      39.879919     17.559115     40.216582
37
Coordinates from ORCA-job job E -836.430286367223
  C      44.641608     19.216243     40.131453
  H      44.842910     19.094390     39.065105
  H      45.468657     19.176645     40.842806
  C      43.422874     19.422597     40.643516
  C      43.228245     19.620537     42.149893
  O      44.137742     19.285200     42.911635
  O      42.109083     20.139642     42.473422
  O      42.250681     19.421690     39.858834
  C      41.881768     20.562274     39.052395
  H      40.978476     20.182836     38.518590
  C      42.892000     20.975000     38.054000
  H      43.476165     20.221477     37.515995
  C      42.969000     22.244000     37.605000
  C      42.118000     23.281000     38.202000
  H      42.199490     24.255505     37.712286
  C      41.188000     23.002000     39.130000
  H      40.529643     23.758886     39.571377
  C      41.426016     21.729492     39.926375
  H      42.280458     21.956626     40.601384
  O      40.353136     21.332636     40.751920
  H      40.868191     20.821889     41.442556
  C      43.917698     22.633683     36.428200
  O      44.565820     21.693476     35.926254
  O      43.903860     23.855318     36.134283
  C      39.388000     20.557000     43.513000
  H      39.587925     20.549885     44.584485
  H      38.340827     20.846608     43.370773
  H      40.025162     21.344086     43.097445
  N      39.684630     19.243527     42.921666
  H      40.678343     19.077393     43.067337
  C      39.231502     18.797255     41.754792
  N      38.233234     19.427862     41.153976
  H      37.844167     20.218438     41.638322
  H      38.293688     19.584635     40.158260
  N      40.047700     18.137468     40.948951
  H      41.019600     18.476649     40.884988
  H      39.731244     18.063672     39.970725
37
Coordinates from ORCA-job job E -836.433641502848
  C      44.633341     19.225383     40.059903
  H      44.799668     19.094758     38.989356
  H      45.480764     19.200800     40.747607
  C      43.425798     19.434082     40.596580
  C      43.246134     19.645769     42.107432
  O      44.167024     19.319244     42.859219
  O      42.127276     20.162453     42.443331
  O      42.255108     19.411066     39.851412
  C      41.874624     20.559866     39.051248
  H      40.969062     20.185588     38.520118
  C      42.892000     20.975000     38.054000
  H      43.480178     20.223259     37.519744
  C      42.969000     22.244000     37.605000
  C      42.118000     23.281000     38.202000
  H      42.200756     24.255372     37.711909
  C      41.188000     23.002000     39.130000
  H      40.531972     23.759217     39.574126
  C      41.428502     21.730708     39.924124
  H      42.291358     21.958331     40.587034
  O      40.360055     21.342694     40.754157
  H      40.874913     20.832163     41.441250
  C      43.919946     22.632430     36.430569
  O      44.571262     21.691504     35.932507
  O      43.900720     23.850003     36.132326
  C      39.388000     20.557000     43.513000
  H      39.587925     20.549885     44.584485
  H      38.338713     20.836581     43.365718
  H      40.020740     21.352617     43.108111
  N      39.702345     19.252486     42.907435
  H      40.707821     19.088592     43.044215
  C      39.244962     18.793920     41.746328
  N      38.191380     19.359344     41.175338
  H      37.785203     20.145432     41.655007
  H      38.218634     19.509272     40.177875
  N      40.081085     18.139722     40.958019
  H      41.051576     18.480628     40.890556
  H      39.774330     17.861234     40.028834
37
Coordinates from ORCA-job job E -836.434193790253
  C      44.665479     19.271689     40.056027
  H      44.809481     19.137399     38.983523
  H      45.523853     19.269683     40.728580
  C      43.460508     19.469403     40.602621
  C      43.287344     19.676857     42.113699
  O      44.217405     19.353739     42.856507
  O      42.168999     20.185595     42.459719
  O      42.285057     19.424855     39.869379
  C      41.882622     20.563436     39.060870
  H      40.974363     20.171209     38.548257
  C      42.892000     20.975000     38.054000
  H      43.474766     20.222288     37.517854
  C      42.969000     22.244000     37.605000
  C      42.118000     23.281000     38.202000
  H      42.191366     24.253171     37.704679
  C      41.188000     23.002000     39.130000
  H      40.525484     23.754592     39.571977
  C      41.440817     21.737860     39.931078
  H      42.311308     21.970851     40.580341
  O      40.378896     21.352219     40.772523
  H      40.894528     20.843975     41.459533
  C      43.904564     22.628909     36.419584
  O      44.544855     21.684815     35.914491
  O      43.883287     23.843607     36.114745
  C      39.388000     20.557000     43.513000
  H      39.587925     20.549885     44.584485
  H      38.333201     20.811340     43.363989
  H      40.005695     21.366532     43.109281
  N      39.735722     19.257770     42.906883
  H      40.739830     19.107054     43.049615
  C      39.303019     18.763852     41.745500
  N      38.308079     19.349787     41.095336
  H      37.928498     20.183188     41.513869
  H      38.429232     19.484357     40.101724
  N      40.168983     18.077284     41.018563
  H      41.118003     18.456191     40.934541
  H      39.889158     17.659350     40.152197
37
Coordinates from ORCA-job job E -836.434273504967
  C      44.652814     19.245176     40.041647
  H      44.791715     19.114102     38.968292
  H      45.513915     19.231926     40.710579
  C      43.452109     19.453332     40.592841
  C      43.284590     19.661119     42.105043
  O      44.214030     19.329289     42.844750
  O      42.171506     20.178140     42.457675
  O      42.274185     19.421983     39.864024
  C      41.879122     20.564464     39.059925
  H      40.969012     20.180156     38.542465
  C      42.892000     20.975000     38.054000
  H      43.477443     20.222904     37.518356
  C      42.969000     22.244000     37.605000
  C      42.118000     23.281000     38.202000
  H      42.191910     24.253109     37.704877
  C      41.188000     23.002000     39.130000
  H      40.525492     23.755139     39.571317
  C      41.440800     21.737216     39.932255
  H      42.313338     21.971313     40.579150
  O      40.380242     21.351931     40.774111
  H      40.894230     20.837752     41.458266
  C      43.909303     22.630999     36.423829
  O      44.550668     21.688279     35.917245
  O      43.892061     23.847518     36.123543
  C      39.388000     20.557000     43.513000
  H      39.587925     20.549885     44.584485
  H      38.333675     20.810895     43.360216
  H      40.007480     21.365185     43.108162
  N      39.738382     19.256661     42.914242
  H      40.744686     19.111944     43.053264
  C      39.297832     18.754940     41.760550
  N      38.271922     19.312189     41.133470
  H      37.865894     20.126559     41.564068
  H      38.349720     19.434761     40.134794
  N      40.156804     18.077519     41.020160
  H      41.106052     18.454498     40.935682
  H      39.873083     17.650099     40.158424
37
Coordinates from ORCA-job job E -836.434291351383
  C      44.650445     19.233566     40.039773
  H      44.788639     19.103430     38.966255
  H      45.511634     19.214268     40.709101
  C      43.451010     19.447101     40.591551
  C      43.281450     19.652612     42.105022
  O      44.208039     19.315395     42.845297
  O      42.169488     20.172698     42.458261
  O      42.273273     19.421272     39.863094
  C      41.878626     20.564826     39.061506
  H      40.967302     20.183291     38.543836
  C      42.892000     20.975000     38.054000
  H      43.478609     20.223342     37.518085
  C      42.969000     22.244000     37.605000
  C      42.118000     23.281000     38.202000
  H      42.193152     24.252855     37.705296
  C      41.188000     23.002000     39.130000
  H      40.525788     23.755635     39.571078
  C      41.442100     21.737857     39.933045
  H      42.316682     21.974808     40.576492
  O      40.384291     21.353970     40.777146
  H      40.899974     20.837605     41.458606
  C      43.912503     22.632714     36.426958
  O      44.557582     21.691557     35.921919
  O      43.895569     23.850019     36.129073
  C      39.388000     20.557000     43.513000
  H      39.587925     20.549885     44.584485
  H      38.333092     20.810005     43.358690
  H      40.007110     21.365696     43.110131
  N      39.740166     19.257513     42.915836
  H      40.745062     19.107801     43.064798
  C      39.307813     18.759554     41.758689
  N      38.300097     19.331546     41.115949
  H      37.903619     20.154344     41.540150
  H      38.400974     19.459310     40.119964
  N      40.169246     18.072541     41.031940
  H      41.119447     18.448094     40.945540
  H      39.889633     17.618982     40.178384
37
Coordinates from ORCA-job job E -836.434317456227
  C      44.651940     19.232783     40.041727
  H      44.789786     19.105299     38.967799
  H      45.513874     19.211962     40.710138
  C      43.452063     19.445466     40.593663
  C      43.283745     19.650690     42.106736
  O      44.209873     19.311618     42.846729
  O      42.173267     20.173348     42.458963
  O      42.273449     19.421457     39.863492
  C      41.879591     20.564712     39.061087
  H      40.968820     20.183621     38.543993
  C      42.892000     20.975000     38.054000
  H      43.476955     20.223155     37.517311
  C      42.969000     22.244000     37.605000
  C      42.118000     23.281000     38.202000
  H      42.193080     24.252750     37.704879
  C      41.188000     23.002000     39.130000
  H      40.525650     23.755544     39.570927
  C      41.443294     21.738328     39.932957
  H      42.317683     21.974559     40.576651
  O      40.385485     21.355100     40.778189
  H      40.900794     20.840337     41.460798
  C      43.910930     22.632077     36.425480
  O      44.554552     21.690507     35.919733
  O      43.893710     23.849074     36.127477
  C      39.388000     20.557000     43.513000
  H      39.587925     20.549885     44.584485
  H      38.331571     20.805744     43.360243
  H      40.002902     21.368740     43.110415
  N      39.743276     19.258831     42.913639
  H      40.748128     19.111044     43.061311
  C      39.310138     18.756524     41.758731
  N      38.299779     19.322702     41.115794
  H      37.902180     20.146631     41.536796
  H      38.401181     19.449305     40.119308
  N      40.171322     18.067669     41.032781
  H      41.119747     18.447452     40.946990
  H      39.892174     17.617647     40.178174
37
Coordinates from ORCA-job job E -836.434332241840
  C      44.648837     19.219778     40.041291
  H      44.786406     19.091784     38.967302
  H      45.511088     19.193470     40.709024
  C      43.450234     19.439837     40.593256
  C      43.283684     19.646931     42.106019
  O      44.209473     19.304718     42.845248
  O      42.175670     20.173961     42.458100
  O      42.271324     19.421189     39.863203
  C      41.879741     20.564771     39.060630
  H      40.967960     20.185295     38.544103
  C      42.892000     20.975000     38.054000
  H      43.476033     20.222853     37.516895
  C      42.969000     22.244000     37.605000
  C      42.118000     23.281000     38.202000
  H      42.192521     24.252662     37.704175
  C      41.188000     23.002000     39.130000
  H      40.525463     23.755431     39.570719
  C      41.443911     21.738566     39.933116
  H      42.318675     21.974237     40.576688
  O      40.385190     21.355610     40.777502
  H      40.899486     20.840381     41.460297
  C      43.909885     22.631856     36.424284
  O      44.554580     21.690533     35.919543
  O      43.889793     23.848238     36.124227
  C      39.388000     20.557000     43.513000
  H      39.587925     20.549885     44.584485
  H      38.330838     20.802147     43.360387
  H      40.000583     21.370818     43.110000
  N      39.746031     19.259195     42.914186
  H      40.751625     19.113727     43.062029
  C      39.312993     18.752948     41.760748
  N      38.304955     19.320236     41.115597
  H      37.903063     20.141930     41.536599
  H      38.406023     19.445301     40.118819
  N      40.173792     18.063132     41.034649
  H      41.120540     18.446647     40.949409
  H      39.895178     17.616487     40.179624
37
Coordinates from ORCA-job job E -836.434342464534
  C      44.645718     19.209121     40.036345
  H      44.781429     19.084999     38.961607
  H      45.509448     19.177136     40.701805
  C      43.448633     19.432632     40.590230
  C      43.284421     19.640773     42.103215
  O      44.209578     19.294939     42.841871
  O      42.179043     20.172714     42.455872
  O      42.268712     19.419631     39.861494
  C      41.879197     20.564568     39.060038
  H      40.966582     20.187625     38.542736
  C      42.892000     20.975000     38.054000
  H      43.476820     20.222873     37.517797
  C      42.969000     22.244000     37.605000
  C      42.118000     23.281000     38.202000
  H      42.192176     24.252389     37.703532
  C      41.188000     23.002000     39.130000
  H      40.525903     23.755707     39.570892
  C      41.445227     21.738917     39.933203
  H      42.321292     21.974535     40.575343
  O      40.387598     21.357060     40.779627
  H      40.903001     20.842358     41.461766
  C      43.910446     22.631668     36.424422
  O      44.557455     21.690742     35.921889
  O      43.887736     23.847292     36.121782
  C      39.388000     20.557000     43.513000
  H      39.587925     20.549885     44.584485
  H      38.329595     20.797127     43.361190
  H      39.997400     21.373504     43.109426
  N      39.750120     19.260006     42.915076
  H      40.755346     19.116152     43.064303
  C      39.318616     18.751485     41.762179
  N      38.312561     19.318626     41.113842
  H      37.909903     20.140849     41.532856
  H      38.418419     19.444821     40.117758
  N      40.179378     18.057656     41.039915
  H      41.125451     18.443629     40.955615
  H      39.902474     17.609538     40.185247
37
Coordinates from ORCA-job job E -836.434348018115
  C      44.642873     19.202018     40.032236
  H      44.777991     19.078631     38.957266
  H      45.507167     19.166556     40.696798
  C      43.447066     19.428817     40.587328
  C      43.284912     19.639256     42.100629
  O      44.210518     19.293913     42.838872
  O      42.180282     20.173354     42.453794
  O      42.266717     19.418828     39.860417
  C      41.878852     20.564573     39.059748
  H      40.965731     20.189249     38.541893
  C      42.892000     20.975000     38.054000
  H      43.477775     20.223027     37.518503
  C      42.969000     22.244000     37.605000
  C      42.118000     23.281000     38.202000
  H      42.192188     24.252231     37.703374
  C      41.188000     23.002000     39.130000
  H      40.526176     23.755833     39.571119
  C      41.445632     21.738999     39.933210
  H      42.322219     21.974419     40.574817
  O      40.388264     21.357411     40.779695
  H      40.904063     20.843812     41.462236
  C      43.910909     22.631684     36.424716
  O      44.559499     21.690921     35.923611
  O      43.886984     23.847033     36.120978
  C      39.388000     20.557000     43.513000
  H      39.587925     20.549885     44.584485
  H      38.328626     20.794509     43.362239
  H      39.995281     21.374790     43.108970
  N      39.751735     19.260046     42.916029
  H      40.757338     19.117109     43.066476
  C      39.321031     18.751097     41.763211
  N      38.317623     19.320255     41.112320
  H      37.915330     20.142539     41.531404
  H      38.427093     19.447877     40.116700
  N      40.181330     18.055366     41.043192
  H      41.127000     18.442924     40.959632
  H      39.905053     17.607229     40.187932
37
Coordinates from ORCA-job job E -836.434350814372
  C      44.641703     19.197118     40.029154
  H      44.776504     19.073539     38.954109
  H      45.506190     19.159500     40.693367
  C      43.446788     19.426320     40.584939
  C      43.285838     19.638260     42.098373
  O      44.212058     19.293927     42.836240
  O      42.181343     20.172454     42.452344
  O      42.265938     19.418102     39.859588
  C      41.878493     20.564685     39.059633
  H      40.965152     20.190255     38.541246
  C      42.892000     20.975000     38.054000
  H      43.478526     20.223178     37.518931
  C      42.969000     22.244000     37.605000
  C      42.118000     23.281000     38.202000
  H      42.192215     24.252185     37.703328
  C      41.188000     23.002000     39.130000
  H      40.526350     23.755932     39.571255
  C      41.445796     21.738996     39.933392
  H      42.322847     21.974379     40.574261
  O      40.389342     21.357242     40.781002
  H      40.907030     20.844396     41.462611
  C      43.910732     22.631720     36.424512
  O      44.559752     21.690994     35.923649
  O      43.886367     23.847020     36.120543
  C      39.388000     20.557000     43.513000
  H      39.587925     20.549885     44.584485
  H      38.328353     20.793947     43.362790
  H      39.994868     21.374988     43.109053
  N      39.751978     19.260031     42.916168
  H      40.757023     19.117139     43.065968
  C      39.320512     18.751889     41.763422
  N      38.317617     19.322669     41.113035
  H      37.914587     20.143419     41.534346
  H      38.426826     19.451596     40.117609
  N      40.181259     18.056657     41.042996
  H      41.126914     18.444216     40.961247
  H      39.905713     17.611130     40.185871
37
Coordinates from ORCA-job job E -836.434353328637
  C      44.640647     19.195682     40.027068
  H      44.775024     19.070073     38.952215
  H      45.505158     19.158239     40.691254
  C      43.446146     19.426115     40.583201
  C      43.286129     19.639515     42.096668
  O      44.213256     19.297056     42.834190
  O      42.181281     20.172993     42.451193
  O      42.264981     19.417658     39.858722
  C      41.877991     20.564772     39.059163
  H      40.964903     20.190701     38.540043
  C      42.892000     20.975000     38.054000
  H      43.479033     20.223430     37.519046
  C      42.969000     22.244000     37.605000
  C      42.118000     23.281000     38.202000
  H      42.192459     24.252253     37.703425
  C      41.188000     23.002000     39.130000
  H      40.526379     23.755889     39.571418
  C      41.445475     21.738744     39.933212
  H      42.322812     21.973598     40.573948
  O      40.389137     21.356757     40.780583
  H      40.906740     20.844149     41.462619
  C      43.911161     22.632002     36.424933
  O      44.560672     21.691444     35.924284
  O      43.886899     23.847379     36.121097
  C      39.388000     20.557000     43.513000
  H      39.587925     20.549885     44.584485
  H      38.328162     20.793757     43.363432
  H      39.994657     21.375107     43.108717
  N      39.751591     19.259813     42.916266
  H      40.757039     19.116840     43.065856
  C      39.319395     18.751719     41.763829
  N      38.317150     19.323295     41.112963
  H      37.914911     20.144095     41.534726
  H      38.428313     19.453759     40.117956
  N      40.180550     18.056907     41.043798
  H      41.125876     18.445103     40.961950
  H      39.905029     17.612570     40.185875
37
Coordinates from ORCA-job job E -836.434356786184
  C      44.638427     19.190100     40.024778
  H      44.771740     19.060086     38.950323
  H      45.502872     19.152234     40.688992
  C      43.444680     19.424600     40.580900
  C      43.286033     19.640286     42.094319
  O      44.214416     19.300233     42.831217
  O      42.180688     20.172556     42.449489
  O      42.263195     19.416875     39.856842
  C      41.877115     20.564844     39.058141
  H      40.964491     20.191544     38.537896
  C      42.892000     20.975000     38.054000
  H      43.479112     20.223716     37.518744
  C      42.969000     22.244000     37.605000
  C      42.118000     23.281000     38.202000
  H      42.192883     24.252369     37.703696
  C      41.188000     23.002000     39.130000
  H      40.526258     23.755704     39.571565
  C      41.444948     21.738339     39.932811
  H      42.322508     21.972397     40.573464
  O      40.388675     21.355873     40.780018
  H      40.906507     20.843010     41.462015
  C      43.911516     22.632358     36.425369
  O      44.560767     21.691886     35.924204
  O      43.887883     23.847919     36.122320
  C      39.388000     20.557000     43.513000
  H      39.587925     20.549885     44.584485
  H      38.328052     20.794080     43.364078
  H      39.994647     21.375048     43.108567
  N      39.750520     19.259670     42.915939
  H      40.756166     19.116367     43.064493
  C      39.316326     18.751505     41.764289
  N      38.314038     19.323733     41.114091
  H      37.910869     20.143147     41.537551
  H      38.425880     19.456492     40.119425
  N      40.178026     18.058242     41.043562
  H      41.122696     18.447794     40.961978
  H      39.902732     17.616020     40.184469
37
Coordinates from ORCA-job job E -836.434360820018
  C      44.631634     19.172746     40.019015
  H      44.761865     19.035072     38.945111
  H      45.496369     19.131821     40.682618
  C      43.440164     19.417776     40.575497
  C      43.284579     19.637776     42.088651
  O      44.214673     19.299696     42.824257
  O      42.179631     20.169891     42.445137
  O      42.258120     19.414336     39.851954
  C      41.874869     20.564845     39.055645
  H      40.962713     20.194193     38.532908
  C      42.892000     20.975000     38.054000
  H      43.479707     20.224142     37.518855
  C      42.969000     22.244000     37.605000
  C      42.118000     23.281000     38.202000
  H      42.193412     24.252559     37.704076
  C      41.188000     23.002000     39.130000
  H      40.526179     23.755509     39.571780
  C      41.443715     21.737408     39.931833
  H      42.321555     21.970044     40.572518
  O      40.387109     21.354290     40.778353
  H      40.904818     20.840083     41.459736
  C      43.912696     22.633025     36.426645
  O      44.562503     21.692925     35.925503
  O      43.889344     23.848678     36.124220
  C      39.388000     20.557000     43.513000
  H      39.587925     20.549885     44.584485
  H      38.328005     20.794507     43.364737
  H      39.994716     21.374928     43.107998
  N      39.748940     19.259479     42.915727
  H      40.754750     19.115646     43.062493
  C      39.311532     18.750231     41.765697
  N      38.309242     19.323381     41.116551
  H      37.903280     20.139874     41.542843
  H      38.422983     19.460718     40.122703
  N      40.173736     18.059267     41.043334
  H      41.117376     18.451097     40.961209
  H      39.898517     17.619178     40.183122
37
Coordinates from ORCA-job job E -836.434364361772
  C      44.621041     19.147037     40.011780
  H      44.747218     19.000457     38.938566
  H      45.486057     19.101084     40.674568
  C      43.432763     19.406769     40.568420
  C      43.280691     19.632266     42.081244
  O      44.212454     19.295957     42.815524
  O      42.176396     20.164748     42.438944
  O      42.250473     19.410248     39.844796
  C      41.871687     20.564560     39.052005
  H      40.959972     20.197958     38.525841
  C      42.892000     20.975000     38.054000
  H      43.480731     20.224617     37.519521
  C      42.969000     22.244000     37.605000
  C      42.118000     23.281000     38.202000
  H      42.194011     24.252792     37.704692
  C      41.188000     23.002000     39.130000
  H      40.526344     23.755393     39.572203
  C      41.441937     21.736004     39.930299
  H      42.319896     21.966832     40.571381
  O      40.384484     21.352370     40.775830
  H      40.901897     20.836201     41.456226
  C      43.914172     22.633564     36.428151
  O      44.564871     21.693837     35.927609
  O      43.890889     23.849236     36.125762
  C      39.388000     20.557000     43.513000
  H      39.587925     20.549885     44.584485
  H      38.328335     20.796399     43.365309
  H      39.995799     21.373861     43.107076
  N      39.745602     19.258828     42.915611
  H      40.751371     19.113202     43.060167
  C      39.304443     18.749789     41.766891
  N      38.301787     19.324691     41.120037
  H      37.891731     20.136767     41.550797
  H      38.417498     19.469091     40.127298
  N      40.166014     18.061385     41.041595
  H      41.108868     18.455121     40.958579
  H      39.890454     17.623383     40.180520
37
Coordinates from ORCA-job job E -836.434368487520
  C      44.604063     19.107968     40.000219
  H      44.723870     18.950454     38.927769
  H      45.469803     19.053743     40.661339
  C      43.421015     19.389239     40.557448
  C      43.274326     19.621991     42.069750
  O      44.208180     19.286979     42.801998
  O      42.171475     20.155846     42.429414
  O      42.238582     19.403801     39.833934
  C      41.866831     20.563925     39.046673
  H      40.955406     20.203837     38.515559
  C      42.892000     20.975000     38.054000
  H      43.482749     20.225168     37.521147
  C      42.969000     22.244000     37.605000
  C      42.118000     23.281000     38.202000
  H      42.194884     24.253197     37.705773
  C      41.188000     23.002000     39.130000
  H      40.527044     23.755481     39.573053
  C      41.439053     21.733824     39.927970
  H      42.316689     21.962197     40.570241
  O      40.379848     21.349724     40.771521
  H      40.896267     20.830357     41.450244
  C      43.916223     22.634226     36.430251
  O      44.568046     21.694902     35.930475
  O      43.892879     23.849851     36.127899
  C      39.388000     20.557000     43.513000
  H      39.587925     20.549885     44.584485
  H      38.329130     20.800233     43.365550
  H      39.998310     21.371565     43.105773
  N      39.740391     19.257559     42.915667
  H      40.745965     19.108768     43.057569
  C      39.294841     18.749241     41.768176
  N      38.291561     19.326633     41.124689
  H      37.875185     20.131979     41.561981
  H      38.410868     19.482024     40.133901
  N      40.154747     18.063852     41.038248
  H      41.097097     18.458919     40.953178
  H      39.877931     17.627769     40.176548
37
Coordinates from ORCA-job job E -836.434374274394
  C      44.586927     19.070691     39.989524
  H      44.700893     18.904602     38.917700
  H      45.453373     19.008396     40.648950
  C      43.409028     19.371948     40.547178
  C      43.266834     19.611161     42.058857
  O      44.202573     19.277405     42.789575
  O      42.165037     20.145675     42.420156
  O      42.226922     19.397243     39.823413
  C      41.862227     20.563052     39.041573
  H      40.950901     20.209569     38.505815
  C      42.892000     20.975000     38.054000
  H      43.484971     20.225594     37.523183
  C      42.969000     22.244000     37.605000
  C      42.118000     23.281000     38.202000
  H      42.195754     24.253692     37.707022
  C      41.188000     23.002000     39.130000
  H      40.528136     23.755779     39.574122
  C      41.436067     21.731580     39.925637
  H      42.313012     21.957591     40.569703
  O      40.374697     21.347469     40.766994
  H      40.889637     20.824911     41.444052
  C      43.918065     22.634545     36.432000
  O      44.570762     21.695451     35.933215
  O      43.894903     23.850271     36.129350
  C      39.388000     20.557000     43.513000
  H      39.587925     20.549885     44.584485
  H      38.330539     20.805961     43.365244
  H      40.002505     21.367892     43.104520
  N      39.733777     19.255566     42.916112
  H      40.738897     19.102304     43.056026
  C      39.285125     18.750323     41.768397
  N      38.280709     19.330373     41.128888
  H      37.857099     20.127775     41.573808
  H      38.403815     19.498661     40.140438
  N      40.142384     18.067196     41.033564
  H      41.084862     18.462184     40.947010
  H      39.863976     17.633024     40.171442
37
Coordinates from ORCA-job job E -836.434383924449
  C      44.562494     19.020071     39.973426
  H      44.668239     18.844639     38.902150
  H      45.430250     18.946317     40.629829
  C      43.392427     19.348027     40.532243
  C      43.257539     19.595359     42.043310
  O      44.196522     19.264701     42.771100
  O      42.156236     20.129313     42.407471
  O      42.210562     19.388268     39.809057
  C      41.855986     20.561892     39.034864
  H      40.944435     20.218113     38.492917
  C      42.892000     20.975000     38.054000
  H      43.488391     20.225967     37.526552
  C      42.969000     22.244000     37.605000
  C      42.118000     23.281000     38.202000
  H      42.197149     24.254537     37.709076
  C      41.188000     23.002000     39.130000
  H      40.530124     23.756471     39.575863
  C      41.431753     21.728489     39.922547
  H      42.307044     21.951366     40.569990
  O      40.367010     21.344343     40.760412
  H      40.879402     20.817125     41.434994
  C      43.920213     22.634953     36.434021
  O      44.572828     21.695869     35.935267
  O      43.897918     23.850958     36.132112
  C      39.388000     20.557000     43.513000
  H      39.587925     20.549885     44.584485
  H      38.333115     20.815669     43.364219
  H      40.009921     21.361365     43.102962
  N      39.723498     19.252072     42.917464
  H      40.727623     19.091739     43.055886
  C      39.272129     18.752334     41.768344
  N      38.266230     19.335971     41.134009
  H      37.830717     20.120206     41.590731
  H      38.396694     19.525342     40.150031
  N      40.125376     18.071690     41.026925
  H      41.068373     18.465595     40.938737
  H      39.844236     17.641153     40.163694
37
Coordinates from ORCA-job job E -836.434397055035
  C      44.540913     18.977371     39.958596
  H      44.640317     18.795953     38.887611
  H      45.409856     18.893487     40.612300
  C      43.377915     19.327447     40.518620
  C      43.248957     19.580730     42.029039
  O      44.191408     19.254128     42.754301
  O      42.147128     20.111733     42.396077
  O      42.196209     19.380467     39.796529
  C      41.850724     20.560918     39.029085
  H      40.938919     20.225986     38.481807
  C      42.892000     20.975000     38.054000
  H      43.491443     20.226194     37.529632
  C      42.969000     22.244000     37.605000
  C      42.118000     23.281000     38.202000
  H      42.198810     24.255487     37.711231
  C      41.188000     23.002000     39.130000
  H      40.532246     23.757324     39.577589
  C      41.427847     21.725644     39.919994
  H      42.301519     21.945280     40.571017
  O      40.360048     21.341589     40.754753
  H      40.869659     20.809520     41.426851
  C      43.922434     22.635565     36.435934
  O      44.574860     21.696530     35.937060
  O      43.901645     23.852232     36.135340
  C      39.388000     20.557000     43.513000
  H      39.587925     20.549885     44.584485
  H      38.336235     20.827007     43.362759
  H      40.018916     21.353579     43.101842
  N      39.711839     19.247852     42.919422
  H      40.714692     19.079126     43.057641
  C      39.259545     18.755683     41.767510
  N      38.252727     19.343070     41.137487
  H      37.803516     20.111800     41.607039
  H      38.392488     19.556401     40.159305
  N      40.109199     18.076442     41.020916
  H      41.052932     18.468724     40.933059
  H      39.825451     17.652153     40.155383
37
Coordinates from ORCA-job job E -836.434423616688
  C      44.504612     18.909497     39.932916
  H      44.593865     18.719623     38.862359
  H      45.375375     18.809294     40.581956
  C      43.353893     19.294541     40.495015
  C      43.234736     19.555875     42.004606
  O      44.184209     19.238738     42.724861
  O      42.130392     20.078134     42.377117
  O      42.172102     19.368248     39.775510
  C      41.842012     20.559683     39.019385
  H      40.930157     20.239558     38.463091
  C      42.892000     20.975000     38.054000
  H      43.496129     20.226609     37.534208
  C      42.969000     22.244000     37.605000
  C      42.118000     23.281000     38.202000
  H      42.201980     24.257188     37.714905
  C      41.188000     23.002000     39.130000
  H      40.535580     23.758729     39.580226
  C      41.421057     21.720812     39.915848
  H      42.291922     21.934444     40.573043
  O      40.348497     21.336379     40.745286
  H      40.853180     20.795118     41.412865
  C      43.926404     22.637119     36.439370
  O      44.577815     21.698345     35.939004
  O      43.908714     23.855113     36.142693
  C      39.388000     20.557000     43.513000
  H      39.587925     20.549885     44.584485
  H      38.342642     20.848636     43.359864
  H      40.036125     21.338359     43.100301
  N      39.688945     19.239879     42.923750
  H      40.688787     19.055092     43.063340
  C      39.236532     18.762161     41.766234
  N      38.229957     19.357120     41.142069
  H      37.753972     20.094584     41.634490
  H      38.389955     19.617426     40.177787
  N      40.081317     18.084970     41.012483
  H      41.026373     18.474261     40.926349
  H      39.793067     17.674989     40.141446
37
Coordinates from ORCA-job job E -836.434466159435
  C      44.457477     18.828193     39.898888
  H      44.534061     18.629258     38.828782
  H      45.330425     18.707759     40.541688
  C      43.323220     19.255060     40.463854
  C      43.216046     19.523931     41.972712
  O      44.175631     19.221836     42.685728
  O      42.106671     20.030116     42.352883
  O      42.141048     19.354140     39.748793
  C      41.830857     20.558740     39.006733
  H      40.919453     20.257666     38.438986
  C      42.892000     20.975000     38.054000
  H      43.501214     20.227273     37.538943
  C      42.969000     22.244000     37.605000
  C      42.118000     23.281000     38.202000
  H      42.206396     24.259271     37.719482
  C      41.188000     23.002000     39.130000
  H      40.539294     23.760308     39.583142
  C      41.412822     21.714990     39.910671
  H      42.281028     21.919968     40.574819
  O      40.334997     21.329813     40.734043
  H      40.833032     20.775012     41.394856
  C      43.932745     22.639813     36.444925
  O      44.582857     21.701589     35.942256
  O      43.920294     23.859860     36.154886
  C      39.388000     20.557000     43.513000
  H      39.587925     20.549885     44.584485
  H      38.352471     20.878879     43.355465
  H      40.060145     21.316302     43.098744
  N      39.655472     19.229041     42.930357
  H      40.650203     19.020765     43.074049
  C      39.205746     18.771507     41.764203
  N      38.204464     19.379828     41.143740
  H      37.688471     20.069216     41.664180
  H      38.399102     19.710153     40.206419
  N      40.047373     18.095797     41.005251
  H      40.994155     18.481729     40.925034
  H      39.755356     17.707153     40.125725
37
Coordinates from ORCA-job job E -836.434539716523
  C      44.405573     18.748112     39.858866
  H      44.469331     18.542867     38.788918
  H      45.280861     18.606847     40.494401
  C      43.289350     19.214950     40.427633
  C      43.194110     19.487340     41.936553
  O      44.166620     19.207056     42.640345
  O      42.076288     19.967680     42.326446
  O      42.106584     19.340076     39.718885
  C      41.818425     20.558408     38.992255
  H      40.908319     20.278543     38.411801
  C      42.892000     20.975000     38.054000
  H      43.505859     20.228162     37.542881
  C      42.969000     22.244000     37.605000
  C      42.118000     23.281000     38.202000
  H      42.211222     24.261255     37.723873
  C      41.188000     23.002000     39.130000
  H      40.542506     23.761738     39.585596
  C      41.404658     21.708964     39.905080
  H      42.271666     21.903359     40.574744
  O      40.322912     21.322402     40.723209
  H      40.814004     20.750835     41.375114
  C      43.940988     22.643636     36.452412
  O      44.591497     21.706691     35.947957
  O      43.933379     23.865660     36.170052
  C      39.388000     20.557000     43.513000
  H      39.587925     20.549885     44.584485
  H      38.366077     20.916148     43.349748
  H      40.089356     21.287795     43.097309
  N      39.611300     19.216583     42.939364
  H      40.597363     18.976971     43.092702
  C      39.170391     18.784230     41.761208
  N      38.188124     19.418225     41.136067
  H      37.621480     20.045792     41.680741
  H      38.439358     19.839781     40.248237
  N      40.013048     18.106219     41.004413
  H      40.963748     18.485068     40.935927
  H      39.720683     17.745435     40.113206
37
Coordinates from ORCA-job job E -836.434657592779
  C      44.358595     18.681855     39.820923
  H      44.412349     18.475234     38.750498
  H      45.235765     18.520069     40.449150
  C      43.258477     19.179953     40.394386
  C      43.174063     19.450938     41.904221
  O      44.159867     19.196288     42.598189
  O      42.046522     19.900021     42.303894
  O      42.073847     19.330133     39.691841
  C      41.807232     20.559457     38.977930
  H      40.899255     20.299724     38.385502
  C      42.892000     20.975000     38.054000
  H      43.508481     20.229524     37.543813
  C      42.969000     22.244000     37.605000
  C      42.118000     23.281000     38.202000
  H      42.215247     24.262281     37.726252
  C      41.188000     23.002000     39.130000
  H      40.543646     23.762237     39.586614
  C      41.400077     21.704799     39.900128
  H      42.269923     21.888079     40.570157
  O      40.318046     21.316432     40.717299
  H      40.804716     20.728953     41.359517
  C      43.950549     22.648335     36.461458
  O      44.604413     21.713434     35.957094
  O      43.946402     23.871847     36.186198
  C      39.388000     20.557000     43.513000
  H      39.587925     20.549885     44.584485
  H      38.379757     20.950775     43.344894
  H      40.115971     21.259595     43.095234
  N      39.564261     19.204852     42.950386
  H      40.538270     18.931837     43.118755
  C      39.137557     18.794354     41.760157
  N      38.190428     19.463540     41.118999
  H      37.561139     20.019169     41.671679
  H      38.515497     19.984580     40.308123
  N      39.988365     18.109404     41.017252
  H      40.941477     18.485491     40.970424
  H      39.703577     17.784696     40.110045
37
Coordinates from ORCA-job job E -836.434780278818
  C      44.375154     18.720695     39.818566
  H      44.434511     18.523121     38.746887
  H      45.253844     18.567733     40.446770
  C      43.265652     19.194569     40.394856
  C      43.176048     19.450767     41.907189
  O      44.164631     19.206968     42.600487
  O      42.041616     19.880822     42.307089
  O      42.078821     19.333103     39.693924
  C      41.807648     20.560322     38.977775
  H      40.901126     20.297893     38.385473
  C      42.892000     20.975000     38.054000
  H      43.505230     20.230787     37.538371
  C      42.969000     22.244000     37.605000
  C      42.118000     23.281000     38.202000
  H      42.214106     24.260883     37.723435
  C      41.188000     23.002000     39.130000
  H      40.540338     23.760780     39.584273
  C      41.404801     21.706168     39.900846
  H      42.281540     21.888198     40.561774
  O      40.329247     21.316149     40.724004
  H      40.818519     20.725394     41.363909
  C      43.953359     22.650096     36.464990
  O      44.613786     21.716945     35.964910
  O      43.945547     23.872389     36.187869
  C      39.388000     20.557000     43.513000
  H      39.587925     20.549885     44.584485
  H      38.382984     20.958863     43.343771
  H      40.121718     21.254037     43.095777
  N      39.548822     19.203744     42.951373
  H      40.516886     18.917061     43.130845
  C      39.131208     18.796055     41.757391
  N      38.216277     19.490435     41.099514
  H      37.564678     20.028279     41.643090
  H      38.582847     20.038883     40.322900
  N      39.994576     18.104043     41.033941
  H      40.956048     18.464513     41.008557
  H      39.724314     17.793176     40.117632
37
Coordinates from ORCA-job job E -836.434400423500
  C      44.337535     18.652811     39.818136
  H      44.395502     18.444408     38.748878
  H      45.203447     18.470417     40.455531
  C      43.234881     19.153017     40.386690
  C      43.144660     19.402650     41.898792
  O      44.130932     19.154495     42.592634
  O      42.012065     19.833186     42.296549
  O      42.052555     19.334121     39.667610
  C      41.798712     20.564561     38.959440
  H      40.899788     20.314414     38.353474
  C      42.892000     20.975000     38.054000
  H      43.503414     20.235869     37.530231
  C      42.969000     22.244000     37.605000
  C      42.118000     23.281000     38.202000
  H      42.212457     24.257692     37.718108
  C      41.188000     23.002000     39.130000
  H      40.532899     23.756024     39.581002
  C      41.407887     21.704892     39.893870
  H      42.297816     21.878388     40.537481
  O      40.336887     21.309463     40.723339
  H      40.827737     20.711082     41.362208
  C      43.964235     22.654744     36.478650
  O      44.649273     21.728000     35.997276
  O      43.941921     23.871910     36.189001
  C      39.388000     20.557000     43.513000
  H      39.587925     20.549885     44.584485
  H      38.384154     20.968610     43.353636
  H      40.121386     21.246647     43.079517
  N      39.504897     19.198005     42.962666
  H      40.461395     18.889731     43.147437
  C      39.067867     18.779340     41.778659
  N      38.159401     19.480823     41.127348
  H      37.432720     19.920627     41.659983
  H      38.544514     20.104757     40.413604
  N      39.944466     18.115973     41.049677
  H      40.883991     18.520057     41.062924
  H      39.693477     17.870391     40.109106
37
Coordinates from ORCA-job job E -836.435030883145
  C      44.320139     18.647544     39.797294
  H      44.370640     18.434742     38.728289
  H      45.190263     18.472754     40.430851
  C      43.221157     19.152491     40.367803
  C      43.130960     19.406908     41.880032
  O      44.121014     19.166325     42.572109
  O      41.993164     19.825070     42.281960
  O      42.043044     19.320968     39.657070
  C      41.791810     20.559828     38.957839
  H      40.890935     20.317413     38.349991
  C      42.892000     20.975000     38.054000
  H      43.509751     20.234813     37.539382
  C      42.969000     22.244000     37.605000
  C      42.118000     23.281000     38.202000
  H      42.214060     24.260073     37.722803
  C      41.188000     23.002000     39.130000
  H      40.539286     23.758908     39.585344
  C      41.399552     21.700614     39.891946
  H      42.282272     21.874099     40.545814
  O      40.320943     21.310020     40.712504
  H      40.803231     20.703406     41.345937
  C      43.962327     22.652343     36.476039
  O      44.641495     21.723427     35.992632
  O      43.942363     23.870325     36.185703
  C      39.388000     20.557000     43.513000
  H      39.587925     20.549885     44.584485
  H      38.395019     20.988811     43.344895
  H      40.138465     21.231227     43.085790
  N      39.496629     19.197331     42.956640
  H      40.451565     18.876288     43.142151
  C      39.072141     18.803869     41.758642
  N      38.175571     19.528289     41.112076
  H      37.463477     19.986387     41.651223
  H      38.574239     20.154348     40.410821
  N      39.942147     18.131210     41.025740
  H      40.907929     18.479152     41.036146
  H      39.691190     17.864143     40.090211
37
Coordinates from ORCA-job job E -836.435010164955
  C      44.433789     18.818477     39.858449
  H      44.515354     18.641666     38.784910
  H      45.304585     18.684715     40.501215
  C      43.295157     19.227293     40.428814
  C      43.183384     19.460901     41.943386
  O      44.155331     19.192312     42.651291
  O      42.049457     19.904992     42.327567
  O      42.113536     19.341763     39.713443
  C      41.817228     20.557607     38.987905
  H      40.909540     20.276672     38.406361
  C      42.892000     20.975000     38.054000
  H      43.502264     20.232592     37.533625
  C      42.969000     22.244000     37.605000
  C      42.118000     23.281000     38.202000
  H      42.205852     24.257356     37.716134
  C      41.188000     23.002000     39.130000
  H      40.536249     23.757500     39.582970
  C      41.415758     21.710732     39.904087
  H      42.298752     21.903850     40.551526
  O      40.344589     21.322495     40.735251
  H      40.840711     20.740268     41.377013
  C      43.945552     22.644244     36.459211
  O      44.619924     21.711302     35.976659
  O      43.919804     23.859709     36.156490
  C      39.388000     20.557000     43.513000
  H      39.587925     20.549885     44.584485
  H      38.373632     20.938879     43.349622
  H      40.103349     21.271760     43.091105
  N      39.564420     19.208662     42.946552
  H      40.531420     18.927342     43.129119
  C      39.143712     18.786338     41.756637
  N      38.232723     19.482426     41.096789
  H      37.583570     20.028927     41.634634
  H      38.587177     20.007978     40.299660
  N      40.017167     18.104509     41.037601
  H      40.984681     18.447035     41.047895
  H      39.773875     17.802994     40.110128
37
Coordinates from ORCA-job job E -836.435193136239
  C      44.400678     18.776557     39.834997
  H      44.479193     18.597452     38.761529
  H      45.269750     18.631301     40.477664
  C      43.267502     19.200547     40.405237
  C      43.157968     19.434555     41.919117
  O      44.135375     19.179504     42.624494
  O      42.018973     19.861695     42.307424
  O      42.088828     19.330774     39.688974
  C      41.807910     20.556339     38.975935
  H      40.902154     20.290302     38.384196
  C      42.892000     20.975000     38.054000
  H      43.506981     20.233703     37.537577
  C      42.969000     22.244000     37.605000
  C      42.118000     23.281000     38.202000
  H      42.208226     24.258350     37.718990
  C      41.188000     23.002000     39.130000
  H      40.538773     23.757875     39.585952
  C      41.409804     21.705599     39.898404
  H      42.291981     21.891556     40.549328
  O      40.334188     21.317195     40.723359
  H      40.822348     20.722035     41.359710
  C      43.950204     22.645581     36.464069
  O      44.630568     21.714123     35.986816
  O      43.921337     23.860442     36.158680
  C      39.388000     20.557000     43.513000
  H      39.587925     20.549885     44.584485
  H      38.383166     20.962945     43.348030
  H      40.119551     21.251959     43.085894
  N      39.529793     19.201248     42.954866
  H      40.487965     18.895718     43.146004
  C      39.115853     18.792781     41.758253
  N      38.222085     19.508230     41.096241
  H      37.527877     20.000339     41.629831
  H      38.615333     20.100519     40.364425
  N      39.989925     18.113342     41.037629
  H      40.963193     18.439779     41.065025
  H      39.755408     17.848099     40.096542
37
Coordinates from ORCA-job job E -836.435344375935
  C      44.359093     18.707121     39.823115
  H      44.436141     18.518121     38.751240
  H      45.219849     18.542073     40.472079
  C      43.233384     19.159773     40.386169
  C      43.120686     19.399929     41.896959
  O      44.098549     19.153005     42.604909
  O      41.976604     19.815504     42.286059
  O      42.063317     19.320331     39.663446
  C      41.800136     20.555527     38.964519
  H      40.895072     20.306678     38.364242
  C      42.892000     20.975000     38.054000
  H      43.513021     20.234221     37.544043
  C      42.969000     22.244000     37.605000
  C      42.118000     23.281000     38.202000
  H      42.209984     24.260082     37.722761
  C      41.188000     23.002000     39.130000
  H      40.541968     23.757616     39.590895
  C      41.402059     21.699969     39.892475
  H      42.278844     21.881672     40.552476
  O      40.315628     21.311277     40.704648
  H      40.789963     20.702629     41.337855
  C      43.948989     22.645719     36.463816
  O      44.632029     21.715296     35.988658
  O      43.915349     23.859955     36.154885
  C      39.388000     20.557000     43.513000
  H      39.587925     20.549885     44.584485
  H      38.394670     20.991116     43.348243
  H      40.136516     21.226560     43.075188
  N      39.486117     19.190160     42.969431
  H      40.432043     18.854296     43.171451
  C      39.077463     18.793657     41.765824
  N      38.198099     19.524524     41.100000
  H      37.437830     19.935307     41.611872
  H      38.628292     20.204938     40.468538
  N      39.952739     18.132719     41.033792
  H      40.916840     18.470742     41.094606
  H      39.737662     17.921756     40.073798
37
Coordinates from ORCA-job job E -836.435420117393
  C      44.405972     18.800102     39.839650
  H      44.497650     18.629763     38.766131
  H      45.267560     18.658286     40.492962
  C      43.258962     19.195735     40.403088
  C      43.134294     19.414009     41.916795
  O      44.106936     19.161371     42.629942
  O      41.987393     19.825408     42.300126
  O      42.086647     19.324335     39.679224
  C      41.807071     20.554042     38.973763
  H      40.902235     20.292309     38.379178
  C      42.892000     20.975000     38.054000
  H      43.509201     20.234494     37.539229
  C      42.969000     22.244000     37.605000
  C      42.118000     23.281000     38.202000
  H      42.208194     24.259230     37.720548
  C      41.188000     23.002000     39.130000
  H      40.540158     23.756979     39.589314
  C      41.406315     21.701754     39.896902
  H      42.283579     21.889042     40.554587
  O      40.324397     21.311953     40.713484
  H      40.803197     20.707022     41.347824
  C      43.945994     22.644553     36.460707
  O      44.627557     21.713883     35.984094
  O      43.912272     23.858335     36.151505
  C      39.388000     20.557000     43.513000
  H      39.587925     20.549885     44.584485
  H      38.392975     20.987336     43.347633
  H      40.133941     21.232593     43.079920
  N      39.494363     19.194821     42.961206
  H      40.440442     18.859632     43.162510
  C      39.082393     18.798843     41.759308
  N      38.186023     19.521461     41.107493
  H      37.427890     19.925701     41.626926
  H      38.589392     20.189442     40.446744
  N      39.961019     18.145000     41.023013
  H      40.941679     18.435497     41.105300
  H      39.761239     17.952974     40.055580
37
Coordinates from ORCA-job job E -836.435506367021
  C      44.458096     18.855426     39.870388
  H      44.560328     18.701136     38.795537
  H      45.317640     18.720013     40.527736
  C      43.300696     19.218940     40.433866
  C      43.167203     19.423111     41.949734
  O      44.125515     19.136979     42.670099
  O      42.027858     19.863590     42.325682
  O      42.124825     19.338778     39.712530
  C      41.823628     20.555313     38.992413
  H      40.912181     20.275249     38.415296
  C      42.892000     20.975000     38.054000
  H      43.503869     20.232715     37.535228
  C      42.969000     22.244000     37.605000
  C      42.118000     23.281000     38.202000
  H      42.204675     24.257985     37.717321
  C      41.188000     23.002000     39.130000
  H      40.537925     23.756026     39.587851
  C      41.418177     21.708829     39.906532
  H      42.295908     21.908815     40.560492
  O      40.341372     21.318080     40.731072
  H      40.828998     20.723545     41.366946
  C      43.937147     22.642237     36.451633
  O      44.611544     21.709790     35.969235
  O      43.903974     23.856408     36.142953
  C      39.388000     20.557000     43.513000
  H      39.587925     20.549885     44.584485
  H      38.379612     20.955551     43.350903
  H      40.113028     21.256880     43.083236
  N      39.537497     19.199372     42.959339
  H      40.488515     18.887743     43.164879
  C      39.126422     18.778057     41.764686
  N      38.230033     19.484725     41.093899
  H      37.491311     19.930721     41.608120
  H      38.623938     20.108856     40.390199
  N      40.013873     18.126834     41.037714
  H      40.982120     18.447195     41.130288
  H      39.824068     17.925092     40.069991
37
Coordinates from ORCA-job job E -836.435553093880
  C      44.472963     18.904902     39.876277
  H      44.584081     18.762283     38.800750
  H      45.332590     18.782915     40.536292
  C      43.304671     19.235614     40.437861
  C      43.162110     19.422917     41.955601
  O      44.123136     19.151569     42.677493
  O      42.012412     19.837435     42.330770
  O      42.128289     19.338922     39.713886
  C      41.824307     20.554119     38.992383
  H      40.914460     20.271023     38.414654
  C      42.892000     20.975000     38.054000
  H      43.501934     20.232832     37.532877
  C      42.969000     22.244000     37.605000
  C      42.118000     23.281000     38.202000
  H      42.204305     24.257806     37.716445
  C      41.188000     23.002000     39.130000
  H      40.536777     23.755421     39.587188
  C      41.419365     21.708585     39.906530
  H      42.298793     21.908228     40.558881
  O      40.346022     21.317990     40.735027
  H      40.835598     20.720700     41.368318
  C      43.938659     22.643196     36.452962
  O      44.613041     21.710854     35.970110
  O      43.906766     23.857765     36.146133
  C      39.388000     20.557000     43.513000
  H      39.587925     20.549885     44.584485
  H      38.386375     20.971167     43.348398
  H      40.125835     21.243866     43.083646
  N      39.515524     19.195121     42.964443
  H      40.454898     18.862643     43.185448
  C      39.119359     18.788144     41.761179
  N      38.257548     19.524093     41.077110
  H      37.485047     19.938048     41.567653
  H      38.694202     20.191367     40.438145
  N      40.016882     18.133823     41.048958
  H      40.992882     18.423868     41.173630
  H      39.853648     17.964519     40.070351
37
Coordinates from ORCA-job job E -836.435600438433
  C      44.478325     18.931098     39.887147
  H      44.597646     18.787957     38.812738
  H      45.334173     18.818820     40.553968
  C      43.302153     19.245553     40.441846
  C      43.146922     19.424054     41.958199
  O      44.105127     19.155282     42.684616
  O      41.993808     19.829315     42.331215
  O      42.129130     19.341837     39.714048
  C      41.824216     20.554715     38.991465
  H      40.916456     20.267779     38.412645
  C      42.892000     20.975000     38.054000
  H      43.499413     20.231911     37.531294
  C      42.969000     22.244000     37.605000
  C      42.118000     23.281000     38.202000
  H      42.205369     24.258219     37.717566
  C      41.188000     23.002000     39.130000
  H      40.535646     23.754978     39.586366
  C      41.416232     21.707204     39.904382
  H      42.292488     21.905865     40.561023
  O      40.339295     21.316471     40.726354
  H      40.819176     20.714760     41.365371
  C      43.941010     22.644334     36.455394
  O      44.614371     21.712086     35.971046
  O      43.912396     23.860066     36.152826
  C      39.388000     20.557000     43.513000
  H      39.587925     20.549885     44.584485
  H      38.391079     20.983042     43.348326
  H      40.133729     21.232874     43.079775
  N      39.495695     19.190548     42.972815
  H      40.433075     18.845837     43.198431
  C      39.095496     18.786627     41.770208
  N      38.222664     19.516091     41.093594
  H      37.426675     19.891354     41.578148
  H      38.655736     20.216543     40.484715
  N      39.993733     18.148341     41.048883
  H      40.964868     18.440812     41.191076
  H      39.842716     18.008649     40.063852
37
Coordinates from ORCA-job job E -836.435650692379
  C      44.478858     18.909216     39.882725
  H      44.594947     18.771153     38.807275
  H      45.335754     18.785654     40.546194
  C      43.308006     19.234895     40.441735
  C      43.157932     19.409363     41.959706
  O      44.112402     19.121542     42.684106
  O      42.010915     19.831646     42.333660
  O      42.132794     19.343150     39.717963
  C      41.826965     20.555628     38.994445
  H      40.916492     20.268851     38.419513
  C      42.892000     20.975000     38.054000
  H      43.499517     20.231314     37.532056
  C      42.969000     22.244000     37.605000
  C      42.118000     23.281000     38.202000
  H      42.205203     24.258119     37.717209
  C      41.188000     23.002000     39.130000
  H      40.536265     23.755691     39.586070
  C      41.419083     21.708902     39.906886
  H      42.295077     21.909680     40.563031
  O      40.344053     21.316825     40.733288
  H      40.829531     20.717513     41.368423
  C      43.940743     22.644141     36.454480
  O      44.611914     21.711549     35.968204
  O      43.914017     23.860409     36.153810
  C      39.388000     20.557000     43.513000
  H      39.587925     20.549885     44.584485
  H      38.387161     20.973733     43.347818
  H      40.128354     21.240314     43.082852
  N      39.511145     19.191895     42.970724
  H      40.449532     18.856163     43.195898
  C      39.110441     18.780634     41.769572
  N      38.234537     19.503427     41.089101
  H      37.446942     19.891851     41.576769
  H      38.661586     20.189183     40.461645
  N      40.009901     18.140307     41.050210
  H      40.976410     18.446992     41.190198
  H      39.855814     17.992423     40.066419
37
Coordinates from ORCA-job job E -836.435662210141
  C      44.484900     18.925323     39.884343
  H      44.604454     18.795767     38.808172
  H      45.341933     18.803720     40.547871
  C      43.311841     19.240446     40.444589
  C      43.159956     19.406279     41.963256
  O      44.112554     19.111533     42.687283
  O      42.014532     19.831952     42.337312
  O      42.135328     19.345029     39.722333
  C      41.828087     20.555488     38.995993
  H      40.916972     20.266549     38.422772
  C      42.892000     20.975000     38.054000
  H      43.498640     20.231281     37.531215
  C      42.969000     22.244000     37.605000
  C      42.118000     23.281000     38.202000
  H      42.205121     24.257825     37.716845
  C      41.188000     23.002000     39.130000
  H      40.536508     23.756133     39.585660
  C      41.420835     21.709751     39.907827
  H      42.298252     21.910746     40.562179
  O      40.347874     21.318490     40.736123
  H      40.833039     20.718499     41.370767
  C      43.940695     22.643989     36.454254
  O      44.610014     21.710834     35.966632
  O      43.915557     23.860606     36.154927
  C      39.388000     20.557000     43.513000
  H      39.587925     20.549885     44.584485
  H      38.386194     20.970973     43.347182
  H      40.127471     21.241814     43.083897
  N      39.514633     19.191610     42.972014
  H      40.453470     18.857380     43.200137
  C      39.117202     18.778517     41.770441
  N      38.251997     19.507654     41.083265
  H      37.470379     19.910056     41.568996
  H      38.687717     20.184729     40.453347
  N      40.017801     18.131576     41.056971
  H      40.988086     18.429326     41.197264
  H      39.864584     17.978706     40.073594
37
Coordinates from ORCA-job job E -836.435671759347
  C      44.487521     18.932289     39.887466
  H      44.610395     18.807685     38.811179
  H      45.343502     18.812018     40.552619
  C      43.312311     19.241759     40.446379
  C      43.156920     19.399775     41.965793
  O      44.107709     19.101087     42.690485
  O      42.010746     19.825077     42.339165
  O      42.136386     19.345105     39.722893
  C      41.828267     20.555050     38.995628
  H      40.917715     20.264254     38.422487
  C      42.892000     20.975000     38.054000
  H      43.498114     20.231037     37.531026
  C      42.969000     22.244000     37.605000
  C      42.118000     23.281000     38.202000
  H      42.205502     24.257992     37.717123
  C      41.188000     23.002000     39.130000
  H      40.536856     23.756616     39.585368
  C      41.419948     21.709305     39.907362
  H      42.296459     21.909956     40.562927
  O      40.347346     21.317400     40.736208
  H      40.833763     20.717623     41.369968
  C      43.941224     22.643990     36.454577
  O      44.609263     21.710483     35.965859
  O      43.917764     23.861041     36.156773
  C      39.388000     20.557000     43.513000
  H      39.587925     20.549885     44.584485
  H      38.388146     20.975150     43.346375
  H      40.131003     21.238181     43.084326
  N      39.509337     19.190704     42.972852
  H      40.445787     18.852737     43.202506
  C      39.112366     18.782097     41.769716
  N      38.247131     19.513122     41.084875
  H      37.462852     19.909828     41.570823
  H      38.682549     20.195551     40.460292
  N      40.013062     18.136831     41.055286
  H      40.984214     18.428341     41.202791
  H      39.864697     17.992082     40.070092
37
Coordinates from ORCA-job job E -836.435683241774
  C      44.485764     18.930201     39.887235
  H      44.612186     18.813190     38.810568
  H      45.340111     18.807531     40.554171
  C      43.309743     19.238152     40.445481
  C      43.150785     19.383366     41.965478
  O      44.096630     19.069577     42.690328
  O      42.007936     19.816919     42.338573
  O      42.134417     19.345809     39.722550
  C      41.827285     20.555109     38.994077
  H      40.917330     20.262697     38.420844
  C      42.892000     20.975000     38.054000
  H      43.497525     20.230615     37.530970
  C      42.969000     22.244000     37.605000
  C      42.118000     23.281000     38.202000
  H      42.206465     24.258393     37.717975
  C      41.188000     23.002000     39.130000
  H      40.537680     23.757642     39.584899
  C      41.417992     21.708601     39.906017
  H      42.292963     21.907828     40.563684
  O      40.344518     21.315754     40.733748
  H      40.829370     20.715001     41.367241
  C      43.942538     22.644120     36.455653
  O      44.608190     21.709995     35.965066
  O      43.922687     23.862202     36.161148
  C      39.388000     20.557000     43.513000
  H      39.587925     20.549885     44.584485
  H      38.389685     20.978472     43.345185
  H      40.134119     21.234398     43.084253
  N      39.504750     19.189012     42.975777
  H      40.440875     18.848804     43.205618
  C      39.105063     18.781193     41.772981
  N      38.235678     19.509993     41.091629
  H      37.450260     19.901105     41.580426
  H      38.667532     20.198372     40.470699
  N      40.005728     18.140479     41.055033
  H      40.975146     18.431314     41.210957
  H      39.861846     18.006337     40.067778
37
Coordinates from ORCA-job job E -836.435686721327
  C      44.482604     18.924418     39.884716
  H      44.608980     18.808709     38.807901
  H      45.336670     18.799704     40.551596
  C      43.307324     19.234519     40.443399
  C      43.149093     19.379145     41.963470
  O      44.094319     19.062496     42.687984
  O      42.007557     19.815790     42.337130
  O      42.132206     19.344594     39.720552
  C      41.826435     20.554902     38.993116
  H      40.916733     20.263696     38.418932
  C      42.892000     20.975000     38.054000
  H      43.497979     20.230985     37.530957
  C      42.969000     22.244000     37.605000
  C      42.118000     23.281000     38.202000
  H      42.206505     24.258425     37.718155
  C      41.188000     23.002000     39.130000
  H      40.537891     23.757662     39.585164
  C      41.417731     21.708211     39.905741
  H      42.293076     21.906864     40.562954
  O      40.344193     21.315224     40.733329
  H      40.828993     20.713902     41.366352
  C      43.942380     22.644068     36.455590
  O      44.608441     21.710071     35.965340
  O      43.921882     23.861968     36.160381
  C      39.388000     20.557000     43.513000
  H      39.587925     20.549885     44.584485
  H      38.389554     20.978190     43.345443
  H      40.133638     21.234645     43.083847
  N      39.505082     19.189280     42.975495
  H      40.441840     18.850047     43.204115
  C      39.104404     18.780726     41.773347
  N      38.235024     19.509974     41.092556
  H      37.453154     19.905433     41.583468
  H      38.666683     20.194994     40.468105
  N      40.003997     18.138964     41.054853
  H      40.974426     18.428336     41.208350
  H      39.858081     18.003649     40.067955
37
Coordinates from ORCA-job job E -836.435691856747
  C      44.474436     18.910206     39.877580
  H      44.599962     18.796783     38.800410
  H      45.328371     18.781514     40.543860
  C      43.301382     19.226506     40.437635
  C      43.145280     19.370739     41.957693
  O      44.089380     19.048737     42.681431
  O      42.006475     19.813317     42.332627
  O      42.126420     19.341917     39.715754
  C      41.824021     20.554552     38.990590
  H      40.915049     20.266153     38.414029
  C      42.892000     20.975000     38.054000
  H      43.498868     20.231826     37.530745
  C      42.969000     22.244000     37.605000
  C      42.118000     23.281000     38.202000
  H      42.206696     24.258676     37.718803
  C      41.188000     23.002000     39.130000
  H      40.538248     23.757569     39.585805
  C      41.416447     21.707274     39.904665
  H      42.292234     21.904328     40.561525
  O      40.341986     21.314117     40.730921
  H      40.826081     20.712117     41.363479
  C      43.942120     22.644012     36.455555
  O      44.608271     21.710044     35.965456
  O      43.921230     23.861838     36.159727
  C      39.388000     20.557000     43.513000
  H      39.587925     20.549885     44.584485
  H      38.389669     20.978589     43.345509
  H      40.133493     21.234326     43.083147
  N      39.505175     19.189643     42.974965
  H      40.443900     18.852366     43.199898
  C      39.102264     18.780282     41.773820
  N      38.233114     19.511024     41.094479
  H      37.456318     19.912248     41.588750
  H      38.664609     20.192150     40.466003
  N      40.000848     18.138245     41.054165
  H      40.972113     18.425925     41.206589
  H      39.853030     18.003085     40.067411
37
Coordinates from ORCA-job job E -836.435694860865
  C      44.467462     18.898723     39.872162
  H      44.593199     18.787824     38.794766
  H      45.320903     18.766833     40.538508
  C      43.295586     19.218999     40.432534
  C      43.140355     19.361482     41.952930
  O      44.083203     19.034682     42.676098
  O      42.003421     19.808265     42.329021
  O      42.121228     19.339261     39.710584
  C      41.822028     20.554226     38.988116
  H      40.913773     20.268487     38.409124
  C      42.892000     20.975000     38.054000
  H      43.499422     20.232454     37.530464
  C      42.969000     22.244000     37.605000
  C      42.118000     23.281000     38.202000
  H      42.206835     24.258919     37.719354
  C      41.188000     23.002000     39.130000
  H      40.538274     23.757311     39.586257
  C      41.415213     21.706120     39.903641
  H      42.291214     21.901572     40.560600
  O      40.339997     21.312507     40.728920
  H      40.823612     20.709230     41.360748
  C      43.942625     22.644206     36.456178
  O      44.609312     21.710394     35.966459
  O      43.921538     23.861984     36.160167
  C      39.388000     20.557000     43.513000
  H      39.587925     20.549885     44.584485
  H      38.390487     20.980401     43.345686
  H      40.134390     21.232848     43.082275
  N      39.502885     19.189732     42.974890
  H      40.442494     18.853051     43.197107
  C      39.097773     18.780554     41.774553
  N      38.228543     19.512729     41.097002
  H      37.454362     19.916064     41.593601
  H      38.660044     20.192882     40.467509
  N      39.995247     18.139047     41.053378
  H      40.967132     18.424320     41.206413
  H      39.846936     18.006333     40.066314
37
Coordinates from ORCA-job job E -836.435697825111
  C      44.461427     18.890004     39.866379
  H      44.587057     18.781242     38.788740
  H      45.315055     18.756062     40.532154
  C      43.290671     19.212985     40.427469
  C      43.136647     19.354489     41.948059
  O      44.079006     19.024799     42.670437
  O      42.000875     19.803329     42.325509
  O      42.116453     19.336839     39.705901
  C      41.820175     20.554000     38.986043
  H      40.912462     20.271035     38.404840
  C      42.892000     20.975000     38.054000
  H      43.499795     20.232843     37.530305
  C      42.969000     22.244000     37.605000
  C      42.118000     23.281000     38.202000
  H      42.207070     24.259177     37.719941
  C      41.188000     23.002000     39.130000
  H      40.538176     23.756968     39.586649
  C      41.413855     21.705120     39.902698
  H      42.289660     21.899168     40.560371
  O      40.337747     21.311474     40.726836
  H      40.820530     20.707068     41.358111
  C      43.943489     22.644570     36.457027
  O      44.610583     21.710867     35.967544
  O      43.922563     23.862378     36.161374
  C      39.388000     20.557000     43.513000
  H      39.587925     20.549885     44.584485
  H      38.391451     20.982551     43.345517
  H      40.135774     21.231204     43.082017
  N      39.500676     19.189792     42.974507
  H      40.441363     18.853740     43.193787
  C      39.093666     18.781239     41.774646
  N      38.224177     19.514497     41.098631
  H      37.450196     19.917343     41.595975
  H      38.655348     20.195036     40.469278
  N      39.990665     18.140530     41.052433
  H      40.962872     18.423269     41.208147
  H      39.843363     18.011663     40.064683
37
Coordinates from ORCA-job job E -836.435701012006
  C      44.455695     18.881630     39.861041
  H      44.581629     18.774604     38.783252
  H      45.309360     18.745473     40.526391
  C      43.285731     19.206568     40.422530
  C      43.132794     19.346385     41.943644
  O      44.074679     19.013465     42.664938
  O      41.997972     19.796657     42.322639
  O      42.111654     19.334644     39.701196
  C      41.818631     20.553962     38.984125
  H      40.911122     20.274395     38.400893
  C      42.892000     20.975000     38.054000
  H      43.500015     20.233008     37.530351
  C      42.969000     22.244000     37.605000
  C      42.118000     23.281000     38.202000
  H      42.207281     24.259360     37.720300
  C      41.188000     23.002000     39.130000
  H      40.537886     23.756556     39.586889
  C      41.412885     21.704194     39.901998
  H      42.288505     21.896948     40.560450
  O      40.336190     21.310561     40.725621
  H      40.818110     20.704249     41.355790
  C      43.944879     22.645183     36.458291
  O      44.612686     21.711699     35.969277
  O      43.924277     23.863076     36.163282
  C      39.388000     20.557000     43.513000
  H      39.587925     20.549885     44.584485
  H      38.392602     20.985038     43.345446
  H      40.137532     21.229234     43.081842
  N      39.497522     19.189695     42.974399
  H      40.439128     18.854167     43.190909
  C      39.088519     18.781928     41.774932
  N      38.219615     19.516688     41.099736
  H      37.445066     19.918870     41.596748
  H      38.651406     20.197840     40.471312
  N      39.985027     18.141879     41.051809
  H      40.956999     18.422718     41.211140
  H      39.839477     18.017230     40.063264
37
Coordinates from ORCA-job job E -836.435703130593
  C      44.450065     18.873427     39.855424
  H      44.575342     18.767145     38.777462
  H      45.304008     18.734362     40.519861
  C      43.281290     19.200577     40.417939
  C      43.129986     19.339163     41.939341
  O      44.071898     19.003519     42.659316
  O      41.996139     19.790433     42.319959
  O      42.107091     19.332891     39.697387
  C      41.817201     20.554045     38.982608
  H      40.909593     20.278044     38.397804
  C      42.892000     20.975000     38.054000
  H      43.500568     20.232996     37.531071
  C      42.969000     22.244000     37.605000
  C      42.118000     23.281000     38.202000
  H      42.207687     24.259456     37.720534
  C      41.188000     23.002000     39.130000
  H      40.538006     23.756485     39.587189
  C      41.412191     21.703601     39.901522
  H      42.287560     21.895464     40.560700
  O      40.335163     21.310400     40.724991
  H      40.816041     20.702196     41.353902
  C      43.946195     22.645580     36.459371
  O      44.615054     21.712387     35.971337
  O      43.925344     23.863463     36.164340
  C      39.388000     20.557000     43.513000
  H      39.587925     20.549885     44.584485
  H      38.393406     20.986916     43.345304
  H      40.138923     21.227872     43.082042
  N      39.495176     19.189694     42.973896
  H      40.437396     18.854271     43.188270
  C      39.084660     18.782674     41.774604
  N      38.216315     19.518505     41.099719
  H      37.440689     19.919892     41.595769
  H      38.648540     20.199896     40.471794
  N      39.980371     18.141960     41.051011
  H      40.952486     18.420813     41.212487
  H      39.835918     18.020310     40.061911
37
Coordinates from ORCA-job job E -836.435704914018
  C      44.446219     18.868457     39.851822
  H      44.570703     18.761664     38.773806
  H      45.300214     18.727191     40.515690
  C      43.278112     19.196626     40.415109
  C      43.128001     19.334157     41.936724
  O      44.070241     18.996989     42.655597
  O      41.994742     19.785729     42.318658
  O      42.103782     19.332021     39.695251
  C      41.816226     20.554189     38.981614
  H      40.908375     20.280943     38.395878
  C      42.892000     20.975000     38.054000
  H      43.500955     20.232802     37.531887
  C      42.969000     22.244000     37.605000
  C      42.118000     23.281000     38.202000
  H      42.208041     24.259425     37.720512
  C      41.188000     23.002000     39.130000
  H      40.538289     23.756624     39.587368
  C      41.411986     21.703352     39.901270
  H      42.287289     21.894742     40.560731
  O      40.335002     21.310516     40.724965
  H      40.815158     20.700701     41.352711
  C      43.946783     22.645724     36.459824
  O      44.616360     21.712717     35.972404
  O      43.925416     23.863519     36.164466
  C      39.388000     20.557000     43.513000
  H      39.587925     20.549885     44.584485
  H      38.393938     20.988183     43.345344
  H      40.139870     21.226926     43.082118
  N      39.493124     19.189683     42.973551
  H      40.435818     18.854310     43.186337
  C      39.081452     18.783671     41.774258
  N      38.214244     19.520865     41.099258
  H      37.439047     19.923802     41.594741
  H      38.647229     20.200691     40.470169
  N      39.976026     18.141465     41.050449
  H      40.948419     18.418711     41.212473
  H      39.831914     18.020464     40.061245
37
Coordinates from ORCA-job job E -836.435706020816
  C      44.440162     18.859195     39.846379
  H      44.562853     18.751836     38.768212
  H      45.294038     18.713603     40.509386
  C      43.273583     19.190526     40.411037
  C      43.125323     19.326431     41.932902
  O      44.067617     18.986339     42.650391
  O      41.993365     19.779825     42.316350
  O      42.099150     19.330884     39.692436
  C      41.814744     20.554362     38.980106
  H      40.906719     20.284370     38.393186
  C      42.892000     20.975000     38.054000
  H      43.501672     20.232694     37.532946
  C      42.969000     22.244000     37.605000
  C      42.118000     23.281000     38.202000
  H      42.208523     24.259423     37.720585
  C      41.188000     23.002000     39.130000
  H      40.538959     23.757058     39.587648
  C      41.411685     21.703036     39.900875
  H      42.287060     21.893659     40.560443
  O      40.334621     21.310288     40.724694
  H      40.814074     20.698647     41.350943
  C      43.947258     22.645857     36.460289
  O      44.617811     21.713129     35.973710
  O      43.925073     23.863517     36.164281
  C      39.388000     20.557000     43.513000
  H      39.587925     20.549885     44.584485
  H      38.394454     20.989452     43.345298
  H      40.140680     21.225930     43.081976
  N      39.491087     19.189592     42.973331
  H      40.433763     18.853492     43.185027
  C      39.078225     18.784215     41.774168
  N      38.211996     19.522623     41.099169
  H      37.436734     19.925992     41.594226
  H      38.645916     20.202102     40.470334
  N      39.971556     18.140379     41.049933
  H      40.944354     18.416288     41.211755
  H      39.827402     18.020221     40.060605
