24
Coordinates from ORCA-job neb.QMRegion E -1075.147800286387
  C      46.383917     23.806457     65.770730
  H      46.786081     22.809423     65.925391
  H      47.048134     24.664422     65.867330
  C      45.011379     24.026590     65.730403
  C      44.439774     25.457275     65.739811
  O      45.219513     26.403053     65.994621
  O      43.209759     25.579467     65.508039
  O      44.179938     23.068664     65.555299
  C      44.186196     22.554449     63.513089
  H      43.358711     21.850814     63.619466
  C      45.495207     22.109866     63.599378
  H      45.728907     21.119150     63.989954
  C      46.544927     23.013792     63.455789
  C      46.282718     24.323396     62.852226
  H      47.146327     24.963706     62.664546
  C      45.033724     24.719018     62.560133
  H      44.856701     25.698806     62.108344
  C      43.830102     23.845576     62.802398
  H      43.116515     24.399866     63.433587
  O      43.247012     23.498348     61.552285
  H      42.279286     23.771865     61.524274
  C      47.964081     22.448260     63.438846
  O      48.208241     21.428585     64.130920
  O      48.775690     23.024767     62.671434
