24
Coordinates from ORCA-job neb_initial_path.QMRegion E   0.000000000000
  C      46.198000     24.002000     66.118000
  H      46.675000     23.022000     66.103000
  H      46.771000     24.870000     66.447000
  C      44.932000     24.190000     65.729000
  C      44.275000     25.564000     65.757000
  O      45.023000     26.562000     65.903000
  O      43.029000     25.613000     65.633000
  O      44.127000     23.152000     65.297000
  C      44.254000     22.750000     63.890000
  H      43.472000     21.987000     63.763000
  C      45.621000     22.170000     63.707000
  H      45.843000     21.201000     64.160000
  C      46.627000     22.887000     63.170000
  C      46.355000     24.226000     62.635000
  H      47.217000     24.825000     62.338000
  C      45.109000     24.730000     62.564000
  H      44.947000     25.745000     62.192000
  C      43.896000     23.909000     62.927000
  H      43.169000     24.539000     63.463000
  O      43.320000     23.381000     61.739000
  H      42.369000     23.686000     61.649000
  C      48.059000     22.359000     63.196000
  O      48.323000     21.412000     63.983000
  O      48.889000     22.928000     62.439000
24
Coordinates from ORCA-job neb_initial_path.QMRegion E   0.000000000000
  C      46.218800     23.971400     66.051000
  H      46.686800     22.988400     66.048400
  H      46.806600     24.837200     66.352600
  C      44.941000     24.167600     65.714600
  C      44.294600     25.546800     65.749600
  O      45.046800     26.538800     65.909000
  O      43.049200     25.605000     65.618200
  O      44.123400     23.138800     65.306200
  C      44.238800     22.729200     63.860400
  H      43.451600     21.971200     63.752600
  C      45.602600     22.159000     63.692600
  H      45.824800     21.183800     64.130200
  C      46.612600     22.902200     63.211800
  C      46.341200     24.238800     62.670200
  H      47.203800     24.843000     62.387400
  C      45.094000     24.727800     62.568400
  H      44.929200     25.736400     62.182200
  C      43.881800     23.900000     62.916600
  H      43.153600     24.522400     63.459600
  O      43.310400     23.387800     61.720200
  H      42.358000     23.690800     61.633400
  C      48.043400     22.371600     63.233400
  O      48.304800     21.414000     64.007400
  O      48.871200     22.942600     62.476400
24
Coordinates from ORCA-job neb_initial_path.QMRegion E   0.000000000000
  C      46.239600     23.940800     65.984000
  H      46.698600     22.954800     65.993800
  H      46.842200     24.804400     66.258200
  C      44.950000     24.145200     65.700200
  C      44.314200     25.529600     65.742200
  O      45.070600     26.515600     65.915000
  O      43.069400     25.597000     65.603400
  O      44.119800     23.125600     65.315400
  C      44.223600     22.708400     63.830800
  H      43.431200     21.955400     63.742200
  C      45.584200     22.148000     63.678200
  H      45.806600     21.166600     64.100400
  C      46.598200     22.917400     63.253600
  C      46.327400     24.251600     62.705400
  H      47.190600     24.861000     62.436800
  C      45.079000     24.725600     62.572800
  H      44.911400     25.727800     62.172400
  C      43.867600     23.891000     62.906200
  H      43.138200     24.505800     63.456200
  O      43.300800     23.394600     61.701400
  H      42.347000     23.695600     61.617800
  C      48.027800     22.384200     63.270800
  O      48.286600     21.416000     64.031800
  O      48.853400     22.957200     62.513800
24
Coordinates from ORCA-job neb_initial_path.QMRegion E   0.000000000000
  C      46.260400     23.910200     65.917000
  H      46.710400     22.921200     65.939200
  H      46.877800     24.771600     66.163800
  C      44.959000     24.122800     65.685800
  C      44.333800     25.512400     65.734800
  O      45.094400     26.492400     65.921000
  O      43.089600     25.589000     65.588600
  O      44.116200     23.112400     65.324600
  C      44.208400     22.687600     63.801200
  H      43.410800     21.939600     63.731800
  C      45.565800     22.137000     63.663800
  H      45.788400     21.149400     64.070600
  C      46.583800     22.932600     63.295400
  C      46.313600     24.264400     62.740600
  H      47.177400     24.879000     62.486200
  C      45.064000     24.723400     62.577200
  H      44.893600     25.719200     62.162600
  C      43.853400     23.882000     62.895800
  H      43.122800     24.489200     63.452800
  O      43.291200     23.401400     61.682600
  H      42.336000     23.700400     61.602200
  C      48.012200     22.396800     63.308200
  O      48.268400     21.418000     64.056200
  O      48.835600     22.971800     62.551200
24
Coordinates from ORCA-job neb_initial_path.QMRegion E   0.000000000000
  C      46.281200     23.879600     65.850000
  H      46.722200     22.887600     65.884600
  H      46.913400     24.738800     66.069400
  C      44.968000     24.100400     65.671400
  C      44.353400     25.495200     65.727400
  O      45.118200     26.469200     65.927000
  O      43.109800     25.581000     65.573800
  O      44.112600     23.099200     65.333800
  C      44.193200     22.666800     63.771600
  H      43.390400     21.923800     63.721400
  C      45.547400     22.126000     63.649400
  H      45.770200     21.132200     64.040800
  C      46.569400     22.947800     63.337200
  C      46.299800     24.277200     62.775800
  H      47.164200     24.897000     62.535600
  C      45.049000     24.721200     62.581600
  H      44.875800     25.710600     62.152800
  C      43.839200     23.873000     62.885400
  H      43.107400     24.472600     63.449400
  O      43.281600     23.408200     61.663800
  H      42.325000     23.705200     61.586600
  C      47.996600     22.409400     63.345600
  O      48.250200     21.420000     64.080600
  O      48.817800     22.986400     62.588600
24
Coordinates from ORCA-job neb_initial_path.QMRegion E   0.000000000000
  C      46.302000     23.849000     65.783000
  H      46.734000     22.854000     65.830000
  H      46.949000     24.706000     65.975000
  C      44.977000     24.078000     65.657000
  C      44.373000     25.478000     65.720000
  O      45.142000     26.446000     65.933000
  O      43.130000     25.573000     65.559000
  O      44.109000     23.086000     65.343000
  C      44.178000     22.646000     63.742000
  H      43.370000     21.908000     63.711000
  C      45.529000     22.115000     63.635000
  H      45.752000     21.115000     64.011000
  C      46.555000     22.963000     63.379000
  C      46.286000     24.290000     62.811000
  H      47.151000     24.915000     62.585000
  C      45.034000     24.719000     62.586000
  H      44.858000     25.702000     62.143000
  C      43.825000     23.864000     62.875000
  H      43.092000     24.456000     63.446000
  O      43.272000     23.415000     61.645000
  H      42.314000     23.710000     61.571000
  C      47.981000     22.422000     63.383000
  O      48.232000     21.422000     64.105000
  O      48.800000     23.001000     62.626000
24
Coordinates from ORCA-job neb_initial_path.QMRegion E   0.000000000000
  C      46.361250     23.790750     65.685500
  H      46.775500     22.830750     65.868500
  H      47.014000     24.649000     65.861000
  C      45.016750     24.044750     65.704000
  C      44.432000     25.458750     65.739000
  O      45.206750     26.406500     65.991750
  O      43.202000     25.567250     65.524500
  O      44.180500     23.077000     65.559000
  C      44.193000     22.596000     63.589500
  H      43.392500     21.851750     63.543500
  C      45.503500     22.124000     63.642500
  H      45.726500     21.124000     64.018250
  C      46.545000     23.015500     63.502500
  C      46.280500     24.318750     62.869000
  H      47.140500     24.957250     62.669000
  C      45.043000     24.715500     62.569750
  H      44.875750     25.686750     62.100000
  C      43.833250     23.852000     62.814250
  H      43.110000     24.411250     63.424750
  O      43.262000     23.489250     61.574750
  H      42.299250     23.764500     61.533250
  C      47.963000     22.442750     63.430750
  O      48.213750     21.423500     64.121250
  O      48.769000     23.023250     62.663000
24
Coordinates from ORCA-job neb_initial_path.QMRegion E   0.000000000000
  C      46.420500     23.732500     65.588000
  H      46.817000     22.807500     65.907000
  H      47.079000     24.592000     65.747000
  C      45.056500     24.011500     65.751000
  C      44.491000     25.439500     65.758000
  O      45.271500     26.367000     66.050500
  O      43.274000     25.561500     65.490000
  O      44.252000     23.068000     65.775000
  C      44.208000     22.546000     63.437000
  H      43.415000     21.795500     63.376000
  C      45.478000     22.133000     63.650000
  H      45.701000     21.133000     64.025500
  C      46.535000     23.068000     63.626000
  C      46.275000     24.347500     62.927000
  H      47.130000     24.999500     62.753000
  C      45.052000     24.712000     62.553500
  H      44.893500     25.671500     62.057000
  C      43.841500     23.840000     62.753500
  H      43.128000     24.366500     63.403500
  O      43.252000     23.563500     61.504500
  H      42.284500     23.819000     61.495500
  C      47.945000     22.463500     63.478500
  O      48.195500     21.425000     64.137500
  O      48.738000     23.045500     62.700000
24
Coordinates from ORCA-job neb_initial_path.QMRegion E   0.000000000000
  C      46.479750     23.674250     65.490500
  H      46.858500     22.784250     65.945500
  H      47.144000     24.535000     65.633000
  C      45.096250     23.978250     65.798000
  C      44.550000     25.420250     65.777000
  O      45.336250     26.327500     66.109250
  O      43.346000     25.555750     65.455500
  O      44.323500     23.059000     65.991000
  C      44.223000     22.496000     63.284500
  H      43.437500     21.739250     63.208500
  C      45.452500     22.142000     63.657500
  H      45.675500     21.142000     64.032750
  C      46.525000     23.120500     63.749500
  C      46.269500     24.376250     62.985000
  H      47.119500     25.041750     62.837000
  C      45.061000     24.708500     62.537250
  H      44.911250     25.656250     62.014000
  C      43.849750     23.828000     62.692750
  H      43.146000     24.321750     63.382250
  O      43.242000     23.637750     61.434250
  H      42.269750     23.873500     61.457750
  C      47.927000     22.484250     63.526250
  O      48.177250     21.426500     64.153750
  O      48.707000     23.067750     62.737000
24
Coordinates from ORCA-job neb_initial_path.QMRegion E   0.000000000000
  C      46.539000     23.616000     65.393000
  H      46.900000     22.761000     65.984000
  H      47.209000     24.478000     65.519000
  C      45.136000     23.945000     65.845000
  C      44.609000     25.401000     65.796000
  O      45.401000     26.288000     66.168000
  O      43.418000     25.550000     65.421000
  O      44.395000     23.050000     66.207000
  C      44.238000     22.446000     63.132000
  H      43.460000     21.683000     63.041000
  C      45.427000     22.151000     63.665000
  H      45.650000     21.151000     64.040000
  C      46.515000     23.173000     63.873000
  C      46.264000     24.405000     63.043000
  H      47.109000     25.084000     62.921000
  C      45.070000     24.705000     62.521000
  H      44.929000     25.641000     61.971000
  C      43.858000     23.816000     62.632000
  H      43.164000     24.277000     63.361000
  O      43.232000     23.712000     61.364000
  H      42.255000     23.928000     61.420000
  C      47.909000     22.505000     63.574000
  O      48.159000     21.428000     64.170000
  O      48.676000     23.090000     62.774000
