24
Coordinates from ORCA-job neb_MEP.QMRegion E -1075.166331619851
  C      46.198000     24.002000     66.118000
  H      46.675000     23.022000     66.103000
  H      46.771000     24.870000     66.447000
  C      44.932000     24.190000     65.729000
  C      44.275000     25.564000     65.757000
  O      45.023000     26.562000     65.903000
  O      43.029000     25.613000     65.633000
  O      44.127000     23.152000     65.297000
  C      44.254000     22.750000     63.890000
  H      43.472000     21.987000     63.763000
  C      45.621000     22.170000     63.707000
  H      45.843000     21.201000     64.160000
  C      46.627000     22.887000     63.170000
  C      46.355000     24.226000     62.635000
  H      47.217000     24.825000     62.338000
  C      45.109000     24.730000     62.564000
  H      44.947000     25.745000     62.192000
  C      43.896000     23.909000     62.927000
  H      43.169000     24.539000     63.463000
  O      43.320000     23.381000     61.739000
  H      42.369000     23.686000     61.649000
  C      48.059000     22.359000     63.196000
  O      48.323000     21.412000     63.983000
  O      48.889000     22.928000     62.439000
24
Coordinates from ORCA-job neb_MEP.QMRegion E -1075.168948846408
  C      46.212999     23.974375     66.075388
  H      46.683960     22.992251     66.045854
  H      46.800555     24.839724     66.379928
  C      44.940564     24.171564     65.711780
  C      44.291662     25.546952     65.749881
  O      45.043206     26.540154     65.909239
  O      43.046541     25.603899     65.618460
  O      44.123210     23.140546     65.289619
  C      44.238860     22.737183     63.875099
  H      43.452848     21.977642     63.755468
  C      45.602373     22.156353     63.691776
  H      45.822130     21.181928     64.132518
  C      46.612409     22.887911     63.181693
  C      46.341800     24.231962     62.656836
  H      47.204683     24.838478     62.377741
  C      45.094573     24.727226     62.568755
  H      44.928625     25.740349     62.192227
  C      43.882097     23.900238     62.919542
  H      43.152771     24.525848     63.457696
  O      43.311175     23.381388     61.725251
  H      42.360407     23.686626     61.636409
  C      48.045062     22.364083     63.217903
  O      48.306565     21.413849     64.000995
  O      48.878558     22.939018     62.471044
24
Coordinates from ORCA-job neb_MEP.QMRegion E -1075.171010217532
  C      46.227214     23.946516     66.033583
  H      46.693867     22.962991     65.992698
  H      46.828764     24.810660     66.310675
  C      44.948510     24.151682     65.696054
  C      44.308644     25.530374     65.742899
  O      45.064614     26.517340     65.915838
  O      43.064090     25.596318     65.604163
  O      44.118168     23.127749     65.283124
  C      44.223278     22.723544     63.860014
  H      43.433284     21.967290     63.747976
  C      45.584196     22.143623     63.675365
  H      45.803024     21.164143     64.104120
  C      46.597511     22.888395     63.191835
  C      46.328379     24.237539     62.678796
  H      47.192179     24.852501     62.420693
  C      45.079328     24.724602     62.574057
  H      44.911049     25.735291     62.192723
  C      43.867398     23.892141     62.911995
  H      43.136046     24.513159     63.453021
  O      43.301587     23.382258     61.712134
  H      42.351274     23.688793     61.622760
  C      48.030801     22.369229     63.239790
  O      48.288760     21.415897     64.020528
  O      48.868440     22.951117     62.503543
24
Coordinates from ORCA-job neb_MEP.QMRegion E -1075.173196870373
  C      46.244459     23.913878     65.985830
  H      46.705407     22.928335     65.936578
  H      46.862426     24.776591     66.227306
  C      44.958929     24.127623     65.678450
  C      44.330387     25.510759     65.735034
  O      45.091622     26.489823     65.925045
  O      43.086735     25.587827     65.586186
  O      44.114359     23.111766     65.275497
  C      44.205882     22.707885     63.841992
  H      43.411923     21.954944     63.737959
  C      45.563794     22.129684     63.655481
  H      45.782117     21.144837     64.070859
  C      46.580343     22.890227     63.204882
  C      46.312565     24.244993     62.705324
  H      47.176766     24.869964     62.472708
  C      45.061812     24.721906     62.579317
  H      44.891327     25.729566     62.191263
  C      43.850747     23.882971     62.902552
  H      43.117514     24.498398     63.447442
  O      43.290314     23.384972     61.695842
  H      42.340375     23.693046     61.606361
  C      48.013974     22.376447     63.266507
  O      48.267850     21.418692     64.043424
  O      48.855745     22.966672     62.542314
24
Coordinates from ORCA-job neb_MEP.QMRegion E -1075.167577245106
  C      46.312627     23.831222     65.879284
  H      46.759091     22.838270     65.877060
  H      46.974809     24.688989     65.997054
  C      45.005003     24.056511     65.657999
  C      44.412885     25.459207     65.725328
  O      45.189101     26.410840     65.981906
  O      43.177073     25.573611     65.525884
  O      44.134017     23.059546     65.278706
  C      44.178486     22.663153     63.768890
  H      43.380158     21.911122     63.680001
  C      45.530641     22.110566     63.611091
  H      45.746667     21.116944     64.002944
  C      46.553131     22.931054     63.296058
  C      46.288098     24.288749     62.801754
  H      47.150119     24.934013     62.621340
  C      45.036191     24.723713     62.580239
  H      44.863005     25.712184     62.146076
  C      43.827283     23.867691     62.860487
  H      43.098863     24.456904     63.435408
  O      43.265496     23.437642     61.627685
  H      42.309739     23.740312     61.555672
  C      47.978664     22.413404     63.364083
  O      48.226298     21.427911     64.106924
  O      48.815056     23.012145     62.641703
24
Coordinates from ORCA-job neb_MEP.QMRegion E -1075.153091513481
  C      46.353122     23.814243     65.829425
  H      46.779077     22.814581     65.900096
  H      47.026242     24.669706     65.911018
  C      45.016505     24.032637     65.693239
  C      44.440235     25.453292     65.732621
  O      45.215571     26.400010     65.996976
  O      43.206388     25.576793     65.507436
  O      44.158470     23.048896     65.388558
  C      44.178118     22.612970     63.657571
  H      43.366803     21.875247     63.644872
  C      45.517061     22.109855     63.600044
  H      45.737691     21.116094     63.987798
  C      46.546930     22.972941     63.378963
  C      46.283758     24.312756     62.840387
  H      47.146526     24.956968     62.659506
  C      45.034607     24.722410     62.569357
  H      44.858935     25.703368     62.118701
  C      43.827666     23.857004     62.827207
  H      43.108763     24.424555     63.433864
  O      43.254586     23.476695     61.582419
  H      42.290769     23.763721     61.534342
  C      47.968411     22.435611     63.413775
  O      48.214372     21.429394     64.126701
  O      48.790137     23.023789     62.666608
24
Coordinates from ORCA-job neb_MEP.QMRegion E -1075.147763015419
  C      46.383917     23.806457     65.770730
  H      46.786081     22.809423     65.925391
  H      47.048134     24.664422     65.867330
  C      45.011379     24.026590     65.730403
  C      44.439774     25.457275     65.739811
  O      45.219513     26.403053     65.994621
  O      43.209759     25.579467     65.508039
  O      44.179938     23.068664     65.555299
  C      44.186196     22.554449     63.513089
  H      43.358711     21.850814     63.619466
  C      45.495207     22.109866     63.599378
  H      45.728907     21.119150     63.989954
  C      46.544927     23.013792     63.455789
  C      46.282718     24.323396     62.852226
  H      47.146327     24.963706     62.664546
  C      45.033724     24.719018     62.560133
  H      44.856701     25.698806     62.108344
  C      43.830102     23.845576     62.802398
  H      43.116515     24.399866     63.433587
  O      43.247012     23.498348     61.552285
  H      42.279286     23.771865     61.524274
  C      47.964081     22.448260     63.438846
  O      48.208241     21.428585     64.130920
  O      48.775690     23.024767     62.671434
24
Coordinates from ORCA-job neb_MEP.QMRegion E -1075.153264697040
  C      46.416769     23.766667     65.617530
  H      46.785523     22.801988     65.955163
  H      47.058997     24.633668     65.796699
  C      45.007249     24.017631     65.726542
  C      44.441543     25.457920     65.743010
  O      45.229201     26.396070     65.998753
  O      43.213614     25.579740     65.516691
  O      44.189864     23.082891     65.663092
  C      44.197057     22.519498     63.435578
  H      43.362899     21.832392     63.587180
  C      45.480331     22.118871     63.617934
  H      45.723490     21.126108     63.999168
  C      46.547287     23.080176     63.597669
  C      46.281881     24.341011     62.877017
  H      47.146209     24.973989     62.668939
  C      45.035973     24.715414     62.556263
  H      44.858152     25.689142     62.090300
  C      43.832180     23.837317     62.792448
  H      43.118994     24.385538     63.432685
  O      43.245084     23.515749     61.537410
  H      42.275321     23.777485     61.520376
  C      47.960386     22.466985     63.474467
  O      48.205478     21.428010     64.135555
  O      48.754853     23.027046     62.677350
24
Coordinates from ORCA-job neb_MEP.QMRegion E -1075.174394260065
  C      46.446734     23.708560     65.446682
  H      46.782222     22.808532     65.972056
  H      47.070985     24.583806     65.696232
  C      45.012422     24.006914     65.711607
  C      44.456593     25.455841     65.749679
  O      45.249162     26.381697     66.015803
  O      43.228706     25.578605     65.521143
  O      44.203820     23.089035     65.779566
  C      44.211360     22.493123     63.372611
  H      43.375246     21.805148     63.522749
  C      45.471723     22.133145     63.647606
  H      45.717504     21.135610     64.014494
  C      46.552767     23.148594     63.755059
  C      46.282221     24.362317     62.919941
  H      47.144823     24.989985     62.687082
  C      45.042535     24.710979     62.557498
  H      44.865743     25.672453     62.064074
  C      43.835969     23.829125     62.778967
  H      43.122867     24.368352     63.430326
  O      43.244684     23.543257     61.517495
  H      42.271810     23.790628     61.512865
  C      47.955010     22.488337     63.513869
  O      48.200284     21.429141     64.143128
  O      48.728115     23.034255     62.687673
24
Coordinates from ORCA-job neb_MEP.QMRegion E -1075.197480421487
  C      46.539000     23.616000     65.393000
  H      46.900000     22.761000     65.984000
  H      47.209000     24.478000     65.519000
  C      45.136000     23.945000     65.845000
  C      44.609000     25.401000     65.796000
  O      45.401000     26.288000     66.168000
  O      43.418000     25.550000     65.421000
  O      44.395000     23.050000     66.207000
  C      44.238000     22.446000     63.132000
  H      43.460000     21.683000     63.041000
  C      45.427000     22.151000     63.665000
  H      45.650000     21.151000     64.040000
  C      46.515000     23.173000     63.873000
  C      46.264000     24.405000     63.043000
  H      47.109000     25.084000     62.921000
  C      45.070000     24.705000     62.521000
  H      44.929000     25.641000     61.971000
  C      43.858000     23.816000     62.632000
  H      43.164000     24.277000     63.361000
  O      43.232000     23.712000     61.364000
  H      42.255000     23.928000     61.420000
  C      47.909000     22.505000     63.574000
  O      48.159000     21.428000     64.170000
  O      48.676000     23.090000     62.774000
