24
Coordinates from ORCA-job neb_MEP.QMRegion E -1075.585252014146
  C      39.801000     20.127000     47.439000
  H      40.668000     19.770000     46.879000
  H      39.825000     21.131000     47.864000
  C      38.711000     19.372000     47.621000
  C      37.520000     19.861000     48.438000
  O      37.452000     21.095000     48.674000
  O      36.680000     19.030000     48.837000
  O      38.644000     18.078000     47.147000
  C      38.141000     17.840000     45.779000
  H      38.112000     16.745000     45.708000
  C      39.149000     18.416000     44.832000
  H      40.098000     17.894000     44.695000
  C      38.978000     19.639000     44.291000
  C      37.719000     20.362000     44.511000
  H      37.667000     21.386000     44.134000
  C      36.677000     19.799000     45.150000
  H      35.759000     20.370000     45.310000
  C      36.695000     18.357000     45.598000
  H      36.208000     18.273000     46.583000
  O      36.005000     17.581000     44.634000
  H      35.447000     16.872000     45.095000
  C      40.110000     20.316000     43.530000
  O      41.237000     19.761000     43.503000
  O      39.847000     21.429000     42.996000
24
Coordinates from ORCA-job neb_MEP.QMRegion E -1075.589254435362
  C      39.805404     20.129450     47.382608
  H      40.659345     19.773030     46.803817
  H      39.832033     21.137717     47.795429
  C      38.724384     19.368564     47.597847
  C      37.543737     19.857866     48.430081
  O      37.479410     21.090676     48.673151
  O      36.705249     19.027399     48.831669
  O      38.653932     18.070746     47.136074
  C      38.138846     17.820923     45.772883
  H      38.110665     16.724962     45.710770
  C      39.138696     18.395692     44.817683
  H      40.086135     17.872728     44.672582
  C      38.969192     19.624286     44.288913
  C      37.712453     20.347970     44.522537
  H      37.663129     21.376611     44.158705
  C      36.672945     19.782722     45.163037
  H      35.756236     20.353878     45.332701
  C      36.692433     18.337489     45.602606
  H      36.210282     18.250303     46.589467
  O      35.997078     17.567197     44.637736
  H      35.437296     16.859489     45.099418
  C      40.101676     20.307772     43.534338
  O      41.230378     19.756591     43.512912
  O      39.838333     21.421324     43.002188
24
Coordinates from ORCA-job neb_MEP.QMRegion E -1075.593937584948
  C      39.811265     20.128771     47.313733
  H      40.648854     19.772004     46.711953
  H      39.841484     21.143993     47.708848
  C      38.741259     19.363593     47.567147
  C      37.573835     19.854569     48.416977
  O      37.518266     21.085049     48.671701
  O      36.733645     19.025663     48.819280
  O      38.664357     18.060886     47.120164
  C      38.134775     17.796728     45.763433
  H      38.109040     16.700363     45.711918
  C      39.124145     18.370027     44.797463
  H      40.068546     17.845129     44.641103
  C      38.956913     19.606846     44.287213
  C      37.703592     20.331295     44.537931
  H      37.655573     21.365367     44.189568
  C      36.666803     19.761426     45.178900
  H      35.752326     20.332273     45.361250
  C      36.687277     18.312507     45.606609
  H      36.213376     18.219172     46.596854
  O      35.985098     17.548692     44.642085
  H      35.422340     16.842777     45.103911
  C      40.091031     20.298257     43.542674
  O      41.222554     19.751998     43.528235
  O      39.828148     21.413043     43.013429
24
Coordinates from ORCA-job neb_MEP.QMRegion E -1075.598613178164
  C      39.821240     20.129542     47.187662
  H      40.642693     19.763191     46.570191
  H      39.844064     21.164811     47.526211
  C      38.773742     19.358018     47.511426
  C      37.625139     19.858881     48.383181
  O      37.597331     21.081372     48.672986
  O      36.765481     19.039110     48.766651
  O      38.687724     18.045930     47.092599
  C      38.129390     17.756739     45.739989
  H      38.110689     16.659366     45.703662
  C      39.101589     18.334031     44.765480
  H      40.039365     17.807052     44.583871
  C      38.945196     19.592120     44.306209
  C      37.696452     20.315942     44.582419
  H      37.652016     21.362209     44.271748
  C      36.656102     19.728001     45.200714
  H      35.737971     20.291121     45.388671
  C      36.679303     18.272935     45.606110
  H      36.226103     18.171701     46.604300
  O      35.955868     17.523759     44.647290
  H      35.389405     16.820540     45.111473
  C      40.083010     20.290180     43.576593
  O      41.216575     19.746961     43.572660
  O      39.822568     21.402912     43.043113
24
Coordinates from ORCA-job neb_MEP.QMRegion E -1075.582949840941
  C      39.824647     20.165983     47.011305
  H      40.690287     19.774079     46.476384
  H      39.787387     21.248778     47.145652
  C      38.832721     19.361771     47.462180
  C      37.681563     19.869688     48.337451
  O      37.669369     21.081886     48.666837
  O      36.808144     19.051598     48.702901
  O      38.772001     18.041376     47.113347
  C      38.105183     17.685980     45.638642
  H      38.112724     16.586822     45.628344
  C      39.086431     18.304819     44.756690
  H      40.011520     17.773292     44.536685
  C      38.973463     19.620175     44.457255
  C      37.712546     20.327363     44.718766
  H      37.667006     21.384718     44.446208
  C      36.641435     19.690956     45.224247
  H      35.695994     20.221494     45.356577
  C      36.658545     18.225355     45.578856
  H      36.272828     18.100575     46.599901
  O      35.850976     17.530010     44.645131
  H      35.292712     16.810775     45.111019
  C      40.100387     20.296721     43.702944
  O      41.221732     19.730326     43.673071
  O      39.831360     21.383404     43.123164
24
Coordinates from ORCA-job neb_MEP.QMRegion E -1075.570724778266
  C      39.820520     20.184123     46.954662
  H      40.711459     19.768485     46.483469
  H      39.774309     21.264873     47.082887
  C      38.865747     19.357349     47.501673
  C      37.687504     19.884146     48.343483
  O      37.679033     21.095829     48.673803
  O      36.799753     19.072349     48.686021
  O      38.871090     18.075964     47.259359
  C      38.053486     17.639704     45.476988
  H      38.107053     16.555178     45.598579
  C      39.070132     18.288625     44.751964
  H      40.008772     17.776030     44.546178
  C      38.987074     19.643398     44.519569
  C      37.714046     20.336469     44.733599
  H      37.670639     21.394584     44.465825
  C      36.636407     19.690164     45.211205
  H      35.688646     20.218495     45.335121
  C      36.651197     18.222422     45.549450
  H      36.295642     18.094934     46.584488
  O      35.812057     17.539062     44.633046
  H      35.279489     16.809967     45.111940
  C      40.108995     20.307263     43.731990
  O      41.222507     19.730535     43.685249
  O      39.831518     21.380082     43.130849
24
Coordinates from ORCA-job neb_MEP.QMRegion E -1075.568253601003
  C      39.801238     20.192850     46.872757
  H      40.732204     19.768414     46.498930
  H      39.763917     21.271073     47.023291
  C      38.884122     19.354707     47.524380
  C      37.689156     19.887735     48.350889
  O      37.677344     21.099844     48.674208
  O      36.803007     19.072770     48.686683
  O      38.948386     18.098073     47.373337
  C      38.023673     17.608645     45.380059
  H      38.093973     16.534500     45.557361
  C      39.061958     18.275937     44.768474
  H      40.003930     17.771361     44.555689
  C      39.007370     19.668691     44.602004
  C      37.714783     20.342093     44.752281
  H      37.669965     21.398848     44.480266
  C      36.632762     19.684423     45.201612
  H      35.684209     20.211049     45.325345
  C      36.646364     18.213810     45.526066
  H      36.314030     18.082846     46.569987
  O      35.773667     17.547984     44.626966
  H      35.261973     16.806376     45.109955
  C      40.113307     20.311885     43.762607
  O      41.219592     19.724089     43.696313
  O      39.827592     21.371174     43.141527
24
Coordinates from ORCA-job neb_MEP.QMRegion E -1075.571407568623
  C      39.759829     20.180330     46.732029
  H      40.743708     19.763716     46.511012
  H      39.745199     21.254448     46.944908
  C      38.882111     19.348606     47.515397
  C      37.689837     19.889983     48.350571
  O      37.688464     21.101249     48.673349
  O      36.808814     19.074540     48.690643
  O      38.991028     18.113382     47.444793
  C      38.012433     17.597530     45.325370
  H      38.085315     16.525846     45.516602
  C      39.062015     18.275093     44.793536
  H      40.004012     17.773874     44.569224
  C      39.048629     19.712004     44.726923
  C      37.719627     20.353459     44.780196
  H      37.668223     21.405859     44.492169
  C      36.634991     19.684241     45.197981
  H      35.681174     20.205737     45.304670
  C      36.646410     18.210789     45.516935
  H      36.321285     18.077126     46.563724
  O      35.756123     17.557485     44.625951
  H      35.256419     16.809224     45.108605
  C      40.120850     20.321742     43.796644
  O      41.218750     19.722862     43.703624
  O      39.820747     21.362454     43.151536
24
Coordinates from ORCA-job neb_MEP.QMRegion E -1075.585779612768
  C      39.705683     20.149252     46.557651
  H      40.732955     19.761252     46.521522
  H      39.717356     21.216285     46.848364
  C      38.868098     19.339609     47.494838
  C      37.688590     19.892203     48.350155
  O      37.699151     21.101001     48.672574
  O      36.814212     19.073885     48.696938
  O      39.033128     18.128600     47.521790
  C      38.007432     17.592265     45.281770
  H      38.076157     16.518311     45.467012
  C      39.067921     18.279423     44.826754
  H      40.006474     17.777501     44.587180
  C      39.105229     19.766856     44.883083
  C      37.731888     20.367101     44.819626
  H      37.667191     21.412125     44.505672
  C      36.642822     19.684596     45.198027
  H      35.681310     20.198540     45.278285
  C      36.648852     18.207701     45.510626
  H      36.328603     18.070747     46.559170
  O      35.740576     17.568922     44.627432
  H      35.252329     16.812833     45.107794
  C      40.129177     20.332834     43.835230
  O      41.216611     19.720769     43.711751
  O      39.811277     21.351040     43.163392
24
Coordinates from ORCA-job neb_MEP.QMRegion E -1075.612819590968
  C      39.741000     20.180000     46.326000
  H      40.787000     19.840000     46.362000
  H      39.719000     21.266000     46.479000
  C      38.999000     19.463000     47.435000
  C      37.859000     20.079000     48.263000
  O      38.141000     21.152000     48.828000
  O      36.799000     19.418000     48.370000
  O      39.321000     18.325000     47.725000
  C      37.962000     17.597000     45.004000
  H      37.971000     16.507000     44.973000
  C      39.081000     18.296000     44.794000
  H      40.034000     17.799000     44.603000
  C      39.143000     19.799000     44.908000
  C      37.766000     20.406000     44.807000
  H      37.720000     21.468000     44.556000
  C      36.648000     19.706000     45.020000
  H      35.677000     20.208000     44.982000
  C      36.624000     18.224000     45.300000
  H      36.406000     18.101000     46.378000
  O      35.610000     17.622000     44.524000
  H      35.173000     16.864000     45.035000
  C      40.126000     20.356000     43.818000
  O      41.230000     19.775000     43.695000
  O      39.767000     21.351000     43.139000
