24
Coordinates from ORCA-job neb_initial_path.QMRegion E   0.000000000000
  C      39.801000     20.127000     47.439000
  H      40.668000     19.770000     46.879000
  H      39.825000     21.131000     47.864000
  C      38.711000     19.372000     47.621000
  C      37.520000     19.861000     48.438000
  O      37.452000     21.095000     48.674000
  O      36.680000     19.030000     48.837000
  O      38.644000     18.078000     47.147000
  C      38.141000     17.840000     45.779000
  H      38.112000     16.745000     45.708000
  C      39.149000     18.416000     44.832000
  H      40.098000     17.894000     44.695000
  C      38.978000     19.639000     44.291000
  C      37.719000     20.362000     44.511000
  H      37.667000     21.386000     44.134000
  C      36.677000     19.799000     45.150000
  H      35.759000     20.370000     45.310000
  C      36.695000     18.357000     45.598000
  H      36.208000     18.273000     46.583000
  O      36.005000     17.581000     44.634000
  H      35.447000     16.872000     45.095000
  C      40.110000     20.316000     43.530000
  O      41.237000     19.761000     43.503000
  O      39.847000     21.429000     42.996000
24
Coordinates from ORCA-job neb_initial_path.QMRegion E   0.000000000000
  C      39.792167     20.131667     47.332000
  H      40.673167     19.764333     46.811167
  H      39.807833     21.148333     47.711833
  C      38.731833     19.366500     47.597500
  C      37.545333     19.862167     48.422333
  O      37.484000     21.093833     48.668667
  O      36.703833     19.032333     48.821667
  O      38.680500     18.077333     47.169333
  C      38.126500     17.807167     45.728833
  H      38.112167     16.714500     45.692667
  C      39.135167     18.396333     44.824333
  H      40.082000     17.876333     44.671833
  C      38.986500     19.647833     44.354167
  C      37.719000     20.361167     44.556667
  H      37.667500     21.389833     44.194167
  C      36.670500     19.782167     45.163000
  H      35.746167     20.344667     45.311333
  C      36.688500     18.335833     45.593667
  H      36.221500     18.243833     46.586333
  O      35.975000     17.575833     44.636167
  H      35.422000     16.862500     45.099000
  C      40.112000     20.316667     43.574000
  O      41.234667     19.755000     43.538500
  O      39.844167     21.418833     43.022667
24
Coordinates from ORCA-job neb_initial_path.QMRegion E   0.000000000000
  C      39.783333     20.136333     47.225000
  H      40.678333     19.758667     46.743333
  H      39.790667     21.165667     47.559667
  C      38.752667     19.361000     47.574000
  C      37.570667     19.863333     48.406667
  O      37.516000     21.092667     48.663333
  O      36.727667     19.034667     48.806333
  O      38.717000     18.076667     47.191667
  C      38.112000     17.774333     45.678667
  H      38.112333     16.684000     45.677333
  C      39.121333     18.376667     44.816667
  H      40.066000     17.858667     44.648667
  C      38.995000     19.656667     44.417333
  C      37.719000     20.360333     44.602333
  H      37.668000     21.393667     44.254333
  C      36.664000     19.765333     45.176000
  H      35.733333     20.319333     45.312667
  C      36.682000     18.314667     45.589333
  H      36.235000     18.214667     46.589667
  O      35.945000     17.570667     44.638333
  H      35.397000     16.853000     45.103000
  C      40.114000     20.317333     43.618000
  O      41.232333     19.749000     43.574000
  O      39.841333     21.408667     43.049333
24
Coordinates from ORCA-job neb_initial_path.QMRegion E   0.000000000000
  C      39.774500     20.141000     47.118000
  H      40.683500     19.753000     46.675500
  H      39.773500     21.183000     47.407500
  C      38.773500     19.355500     47.550500
  C      37.596000     19.864500     48.391000
  O      37.548000     21.091500     48.658000
  O      36.751500     19.037000     48.791000
  O      38.753500     18.076000     47.214000
  C      38.097500     17.741500     45.628500
  H      38.112500     16.653500     45.662000
  C      39.107500     18.357000     44.809000
  H      40.050000     17.841000     44.625500
  C      39.003500     19.665500     44.480500
  C      37.719000     20.359500     44.648000
  H      37.668500     21.397500     44.314500
  C      36.657500     19.748500     45.189000
  H      35.720500     20.294000     45.314000
  C      36.675500     18.293500     45.585000
  H      36.248500     18.185500     46.593000
  O      35.915000     17.565500     44.640500
  H      35.372000     16.843500     45.107000
  C      40.116000     20.318000     43.662000
  O      41.230000     19.743000     43.609500
  O      39.838500     21.398500     43.076000
24
Coordinates from ORCA-job neb_initial_path.QMRegion E   0.000000000000
  C      39.765667     20.145667     47.011000
  H      40.688667     19.747333     46.607667
  H      39.756333     21.200333     47.255333
  C      38.794333     19.350000     47.527000
  C      37.621333     19.865667     48.375333
  O      37.580000     21.090333     48.652667
  O      36.775333     19.039333     48.775667
  O      38.790000     18.075333     47.236333
  C      38.083000     17.708667     45.578333
  H      38.112667     16.623000     45.646667
  C      39.093667     18.337333     44.801333
  H      40.034000     17.823333     44.602333
  C      39.012000     19.674333     44.543667
  C      37.719000     20.358667     44.693667
  H      37.669000     21.401333     44.374667
  C      36.651000     19.731667     45.202000
  H      35.707667     20.268667     45.315333
  C      36.669000     18.272333     45.580667
  H      36.262000     18.156333     46.596333
  O      35.885000     17.560333     44.642667
  H      35.347000     16.834000     45.111000
  C      40.118000     20.318667     43.706000
  O      41.227667     19.737000     43.645000
  O      39.835667     21.388333     43.102667
24
Coordinates from ORCA-job neb_initial_path.QMRegion E   0.000000000000
  C      39.756833     20.150333     46.904000
  H      40.693833     19.741667     46.539833
  H      39.739167     21.217667     47.103167
  C      38.815167     19.344500     47.503500
  C      37.646667     19.866833     48.359667
  O      37.612000     21.089167     48.647333
  O      36.799167     19.041667     48.760333
  O      38.826500     18.074667     47.258667
  C      38.068500     17.675833     45.528167
  H      38.112833     16.592500     45.631333
  C      39.079833     18.317667     44.793667
  H      40.018000     17.805667     44.579167
  C      39.020500     19.683167     44.606833
  C      37.719000     20.357833     44.739333
  H      37.669500     21.405167     44.434833
  C      36.644500     19.714833     45.215000
  H      35.694833     20.243333     45.316667
  C      36.662500     18.251167     45.576333
  H      36.275500     18.127167     46.599667
  O      35.855000     17.555167     44.644833
  H      35.322000     16.824500     45.115000
  C      40.120000     20.319333     43.750000
  O      41.225333     19.731000     43.680500
  O      39.832833     21.378167     43.129333
24
Coordinates from ORCA-job neb_initial_path.QMRegion E   0.000000000000
  C      39.748000     20.155000     46.797000
  H      40.699000     19.736000     46.472000
  H      39.722000     21.235000     46.951000
  C      38.836000     19.339000     47.480000
  C      37.672000     19.868000     48.344000
  O      37.644000     21.088000     48.642000
  O      36.823000     19.044000     48.745000
  O      38.863000     18.074000     47.281000
  C      38.054000     17.643000     45.478000
  H      38.113000     16.562000     45.616000
  C      39.066000     18.298000     44.786000
  H      40.002000     17.788000     44.556000
  C      39.029000     19.692000     44.670000
  C      37.719000     20.357000     44.785000
  H      37.670000     21.409000     44.495000
  C      36.638000     19.698000     45.228000
  H      35.682000     20.218000     45.318000
  C      36.656000     18.230000     45.572000
  H      36.289000     18.098000     46.603000
  O      35.825000     17.550000     44.647000
  H      35.297000     16.815000     45.119000
  C      40.122000     20.320000     43.794000
  O      41.223000     19.725000     43.716000
  O      39.830000     21.368000     43.156000
24
Coordinates from ORCA-job neb_initial_path.QMRegion E   0.000000000000
  C      39.745667     20.163333     46.640000
  H      40.728333     19.770667     46.435333
  H      39.721000     21.245333     46.793667
  C      38.890333     19.380333     47.465000
  C      37.734333     19.938333     48.317000
  O      37.809667     21.109333     48.704000
  O      36.815000     19.168667     48.620000
  O      39.015667     18.157667     47.429000
  C      38.023333     17.627667     45.320000
  H      38.065667     16.543667     45.401667
  C      39.071000     18.297333     44.788667
  H      40.012667     17.791667     44.571667
  C      39.067000     19.727667     44.749333
  C      37.734667     20.373333     44.792333
  H      37.686667     21.428667     44.515333
  C      36.641333     19.700667     45.158667
  H      35.680333     20.214667     45.206000
  C      36.645333     18.228000     45.481333
  H      36.328000     18.099000     46.528000
  O      35.753333     17.574000     44.606000
  H      35.255667     16.831333     45.091000
  C      40.123333     20.332000     43.802000
  O      41.225333     19.741667     43.709000
  O      39.809000     21.362333     43.150333
24
Coordinates from ORCA-job neb_initial_path.QMRegion E   0.000000000000
  C      39.743333     20.171667     46.483000
  H      40.757667     19.805333     46.398667
  H      39.720000     21.255667     46.636333
  C      38.944667     19.421667     47.450000
  C      37.796667     20.008667     48.290000
  O      37.975333     21.130667     48.766000
  O      36.807000     19.293333     48.495000
  O      39.168333     18.241333     47.577000
  C      37.992667     17.612333     45.162000
  H      38.018333     16.525333     45.187333
  C      39.076000     18.296667     44.791333
  H      40.023333     17.795333     44.587333
  C      39.105000     19.763333     44.828667
  C      37.750333     20.389667     44.799667
  H      37.703333     21.448333     44.535667
  C      36.644667     19.703333     45.089333
  H      35.678667     20.211333     45.094000
  C      36.634667     18.226000     45.390667
  H      36.367000     18.100000     46.453000
  O      35.681667     17.598000     44.565000
  H      35.214333     16.847667     45.063000
  C      40.124667     20.344000     43.810000
  O      41.227667     19.758333     43.702000
  O      39.788000     21.356667     43.144667
24
Coordinates from ORCA-job neb_initial_path.QMRegion E   0.000000000000
  C      39.741000     20.180000     46.326000
  H      40.787000     19.840000     46.362000
  H      39.719000     21.266000     46.479000
  C      38.999000     19.463000     47.435000
  C      37.859000     20.079000     48.263000
  O      38.141000     21.152000     48.828000
  O      36.799000     19.418000     48.370000
  O      39.321000     18.325000     47.725000
  C      37.962000     17.597000     45.004000
  H      37.971000     16.507000     44.973000
  C      39.081000     18.296000     44.794000
  H      40.034000     17.799000     44.603000
  C      39.143000     19.799000     44.908000
  C      37.766000     20.406000     44.807000
  H      37.720000     21.468000     44.556000
  C      36.648000     19.706000     45.020000
  H      35.677000     20.208000     44.982000
  C      36.624000     18.224000     45.300000
  H      36.406000     18.101000     46.378000
  O      35.610000     17.622000     44.524000
  H      35.173000     16.864000     45.035000
  C      40.126000     20.356000     43.818000
  O      41.230000     19.775000     43.695000
  O      39.767000     21.351000     43.139000
