24
Coordinates from ORCA-job neb_MEP.QMRegion E -1075.843297923284
  C      44.117000     17.714000     41.738000
  H      44.474000     16.925000     41.076000
  H      44.767000     18.545000     42.019000
  C      42.885000     17.692000     42.264000
  C      42.411000     18.803000     43.205000
  O      43.158000     19.799000     43.326000
  O      41.307000     18.639000     43.793000
  O      42.017000     16.653000     42.050000
  C      41.214000     16.604000     40.818000
  H      40.645000     15.670000     40.927000
  C      42.140000     16.540000     39.644000
  H      42.675000     15.609000     39.441000
  C      42.456000     17.644000     38.936000
  C      41.741000     18.896000     39.205000
  H      42.088000     19.784000     38.671000
  C      40.706000     18.961000     40.065000
  H      40.196000     19.913000     40.235000
  C      40.183000     17.756000     40.811000
  H      40.043000     18.031000     41.870000
  O      38.951000     17.341000     40.247000
  H      38.316000     17.047000     40.959000
  C      43.614000     17.608000     37.932000
  O      44.287000     16.557000     37.881000
  O      43.861000     18.656000     37.265000
24
Coordinates from ORCA-job neb_MEP.QMRegion E -1075.845750346439
  C      44.038449     17.656913     41.629317
  H      44.380488     16.890680     40.932775
  H      44.671225     18.511809     41.873320
  C      42.832462     17.614315     42.212036
  C      42.380543     18.738567     43.151052
  O      43.141493     19.724069     43.269245
  O      41.274999     18.597402     43.742534
  O      41.962487     16.568227     42.025518
  C      41.132383     16.509689     40.805143
  H      40.573559     15.568492     40.918278
  C      42.049919     16.473526     39.623009
  H      42.566541     15.541388     39.381183
  C      42.418283     17.613521     38.999756
  C      41.715608     18.860854     39.321300
  H      42.092807     19.771340     38.851052
  C      40.658495     18.896711     40.155592
  H      40.153479     19.843619     40.360382
  C      40.108507     17.666147     40.834483
  H      39.968151     17.892680     41.903960
  O      38.873363     17.293946     40.246605
  H      38.219064     17.025150     40.953417
  C      43.615896     17.613801     38.043316
  O      44.366115     16.612956     38.082522
  O      43.822575     18.638192     37.328508
24
Coordinates from ORCA-job neb_MEP.QMRegion E -1075.838817074901
  C      43.960232     17.624347     41.517353
  H      44.330696     16.861386     40.833882
  H      44.525042     18.545157     41.668298
  C      42.783061     17.547133     42.156744
  C      42.356373     18.686451     43.096265
  O      43.132192     19.662604     43.210843
  O      41.255862     18.568854     43.702683
  O      41.919389     16.487335     41.998130
  C      41.069091     16.420192     40.761668
  H      40.520186     15.470335     40.857443
  C      41.994074     16.420826     39.595944
  H      42.483624     15.490885     39.298220
  C      42.424549     17.593554     39.081292
  C      41.726816     18.833727     39.442584
  H      42.132387     19.765084     39.040307
  C      40.621868     18.834235     40.213072
  H      40.085255     19.766152     40.406722
  C      40.053062     17.584499     40.835443
  H      39.945376     17.760527     41.916982
  O      38.796753     17.280212     40.260436
  H      38.132251     17.036969     40.971003
  C      43.640552     17.618695     38.154478
  O      44.428182     16.647029     38.233562
  O      43.818180     18.630027     37.413860
24
Coordinates from ORCA-job neb_MEP.QMRegion E -1075.826614717398
  C      43.938301     17.642610     41.455623
  H      44.339612     16.854346     40.820679
  H      44.466341     18.591217     41.550769
  C      42.799945     17.521982     42.175959
  C      42.365236     18.687097     43.092822
  O      43.138033     19.667389     43.200793
  O      41.259168     18.576996     43.692375
  O      41.980906     16.454914     42.064398
  C      40.995802     16.377606     40.653631
  H      40.476692     15.417741     40.795731
  C      41.969269     16.406147     39.580678
  H      42.465804     15.483674     39.276368
  C      42.460895     17.602222     39.156876
  C      41.744008     18.836368     39.492482
  H      42.155323     19.770108     39.101675
  C      40.610031     18.820577     40.217147
  H      40.057677     19.745330     40.397766
  C      40.032364     17.562971     40.811518
  H      39.966990     17.699906     41.900440
  O      38.751944     17.312992     40.264614
  H      38.098538     17.052082     40.982747
  C      43.662955     17.622652     38.211580
  O      44.445434     16.647322     38.274073
  O      43.811976     18.623725     37.451409
24
Coordinates from ORCA-job neb_MEP.QMRegion E -1075.815909921182
  C      43.924412     17.660940     41.406812
  H      44.354335     16.845288     40.829505
  H      44.452156     18.607461     41.506469
  C      42.816405     17.511544     42.202898
  C      42.371305     18.695530     43.098681
  O      43.142593     19.677136     43.202101
  O      41.262879     18.583371     43.692737
  O      42.073265     16.446879     42.169854
  C      40.917987     16.356121     40.531978
  H      40.447021     15.394292     40.757093
  C      41.953842     16.398787     39.584034
  H      42.462760     15.483464     39.279212
  C      42.494688     17.616221     39.214621
  C      41.751466     18.841676     39.506908
  H      42.158587     19.773517     39.108661
  C      40.604634     18.818296     40.210415
  H      40.049046     19.741119     40.389229
  C      40.023754     17.556401     40.791251
  H      39.980886     17.675977     41.885285
  O      38.728015     17.334621     40.264092
  H      38.085709     17.057923     40.986593
  C      43.674496     17.624831     38.235780
  O      44.444685     16.640621     38.275994
  O      43.802273     18.618670     37.462629
24
Coordinates from ORCA-job neb_MEP.QMRegion E -1075.812548642224
  C      43.886906     17.679849     41.323046
  H      44.371020     16.832522     40.842579
  H      44.424925     18.618691     41.450800
  C      42.823742     17.505171     42.218153
  C      42.374669     18.701686     43.103079
  O      43.148684     19.681039     43.200520
  O      41.268671     18.585823     43.697594
  O      42.158862     16.435347     42.264684
  C      40.855301     16.338789     40.432361
  H      40.413444     15.377823     40.705961
  C      41.946477     16.392959     39.599683
  H      42.463756     15.484193     39.288059
  C      42.548057     17.633979     39.297085
  C      41.762423     18.847728     39.525266
  H      42.161740     19.777231     39.114662
  C      40.600501     18.815186     40.201340
  H      40.037340     19.735270     40.371172
  C      40.015843     17.549077     40.771927
  H      39.991361     17.655613     41.870128
  O      38.706740     17.355520     40.264296
  H      38.075501     17.063771     40.989943
  C      43.688902     17.626794     38.264006
  O      44.445222     16.632327     38.275362
  O      43.790923     18.612097     37.476165
24
Coordinates from ORCA-job neb_MEP.QMRegion E -1075.815323876895
  C      43.818405     17.691414     41.206163
  H      44.375494     16.823467     40.855678
  H      44.384263     18.611095     41.392340
  C      42.813761     17.504063     42.212197
  C      42.377383     18.703603     43.104182
  O      43.158024     19.677046     43.196458
  O      41.276195     18.586241     43.703105
  O      42.205972     16.430918     42.318738
  C      40.831889     16.332631     40.386992
  H      40.395392     15.372555     40.671951
  C      41.949563     16.392202     39.620935
  H      42.466304     15.486895     39.296343
  C      42.619216     17.652950     39.400254
  C      41.775977     18.854568     39.549248
  H      42.164766     19.781288     39.122131
  C      40.602474     18.813621     40.199056
  H      40.029618     19.730663     40.354722
  C      40.015017     17.545368     40.766859
  H      39.993448     17.646313     41.865931
  O      38.700520     17.367627     40.266357
  H      38.073597     17.066717     40.990977
  C      43.703128     17.630178     38.290315
  O      44.449807     16.629113     38.275934
  O      43.780112     18.606614     37.489077
24
Coordinates from ORCA-job neb_MEP.QMRegion E -1075.825785891906
  C      43.740594     17.694670     41.084241
  H      44.367461     16.822938     40.869077
  H      44.332119     18.596846     41.325364
  C      42.796911     17.504953     42.200019
  C      42.380272     18.704260     43.104578
  O      43.167560     19.671100     43.192655
  O      41.283872     18.586128     43.708412
  O      42.244960     16.427361     42.366583
  C      40.817189     16.328214     40.352661
  H      40.377526     15.368240     40.636083
  C      41.957011     16.392274     39.643073
  H      42.469763     15.489126     39.304911
  C      42.696659     17.670448     39.508105
  C      41.793627     18.858902     39.577167
  H      42.167466     19.783022     39.130208
  C      40.607330     18.810548     40.198891
  H      40.022204     19.724002     40.335726
  C      40.015435     17.540871     40.764163
  H      39.994287     17.637074     41.864184
  O      38.696540     17.378007     40.269093
  H      38.072096     17.068954     40.991567
  C      43.715807     17.633239     38.315308
  O      44.453142     16.625932     38.276607
  O      43.767346     18.600679     37.501810
24
Coordinates from ORCA-job neb_MEP.QMRegion E -1075.841258774627
  C      43.648156     17.685871     40.976823
  H      44.335912     16.830923     40.884034
  H      44.219696     18.602636     41.189988
  C      42.770956     17.506600     42.187756
  C      42.384268     18.707026     43.101762
  O      43.188166     19.659483     43.182567
  O      41.297980     18.590870     43.721875
  O      42.309838     16.415071     42.447369
  C      40.792120     16.317637     40.296621
  H      40.326082     15.355518     40.524757
  C      41.965190     16.386075     39.661189
  H      42.484052     15.488260     39.318647
  C      42.753059     17.673405     39.598564
  C      41.820263     18.857995     39.618938
  H      42.186382     19.782438     39.163683
  C      40.615089     18.800606     40.199500
  H      40.007944     19.705693     40.290988
  C      40.011365     17.528269     40.750742
  H      40.005087     17.602474     41.854795
  O      38.683397     17.402428     40.273327
  H      38.066934     17.079226     40.995077
  C      43.727992     17.633088     38.353501
  O      44.470262     16.629373     38.299275
  O      43.745795     18.592397     37.530488
24
Coordinates from ORCA-job neb_MEP.QMRegion E -1075.850091995597
  C      43.552000     17.636000     40.966000
  H      44.302000     16.834000     40.916000
  H      44.036000     18.610000     41.091000
  C      42.715000     17.438000     42.208000
  C      42.336000     18.656000     43.107000
  O      43.152000     19.603000     43.154000
  O      41.264000     18.554000     43.752000
  O      42.352000     16.327000     42.536000
  C      40.684000     16.223000     40.077000
  H      40.136000     15.279000     40.098000
  C      41.924000     16.299000     39.588000
  H      42.446000     15.418000     39.207000
  C      42.714000     17.589000     39.619000
  C      41.787000     18.775000     39.626000
  H      42.193000     19.715000     39.248000
  C      40.553000     18.703000     40.133000
  H      39.933000     19.600000     40.193000
  C      39.942000     17.414000     40.637000
  H      40.023000     17.406000     41.743000
  O      38.582000     17.357000     40.261000
  H      37.991000     17.092000     41.022000
  C      43.733000     17.585000     38.415000
  O      44.540000     16.631000     38.414000
  O      43.722000     18.528000     37.574000
