24
Coordinates from ORCA-job neb_initial_path.QMRegion E   0.000000000000
  C      44.117000     17.714000     41.738000
  H      44.474000     16.925000     41.076000
  H      44.767000     18.545000     42.019000
  C      42.885000     17.692000     42.264000
  C      42.411000     18.803000     43.205000
  O      43.158000     19.799000     43.326000
  O      41.307000     18.639000     43.793000
  O      42.017000     16.653000     42.050000
  C      41.214000     16.604000     40.818000
  H      40.645000     15.670000     40.927000
  C      42.140000     16.540000     39.644000
  H      42.675000     15.609000     39.441000
  C      42.456000     17.644000     38.936000
  C      41.741000     18.896000     39.205000
  H      42.088000     19.784000     38.671000
  C      40.706000     18.961000     40.065000
  H      40.196000     19.913000     40.235000
  C      40.183000     17.756000     40.811000
  H      40.043000     18.031000     41.870000
  O      38.951000     17.341000     40.247000
  H      38.316000     17.047000     40.959000
  C      43.614000     17.608000     37.932000
  O      44.287000     16.557000     37.881000
  O      43.861000     18.656000     37.265000
24
Coordinates from ORCA-job neb_initial_path.QMRegion E   0.000000000000
  C      44.060000     17.706200     41.641400
  H      44.445200     16.903800     41.021800
  H      44.691000     18.556600     41.893400
  C      42.866200     17.657400     42.246200
  C      42.403600     18.782800     43.181000
  O      43.159400     19.772600     43.298800
  O      41.301000     18.629200     43.774000
  O      42.029600     16.614800     42.076800
  C      41.154600     16.557000     40.761400
  H      40.608400     15.617800     40.899600
  C      42.103600     16.515000     39.639600
  H      42.632800     15.587600     39.413200
  C      42.481000     17.644400     39.019000
  C      41.748400     18.889400     39.274400
  H      42.104000     19.784800     38.761000
  C      40.688000     18.935600     40.096800
  H      40.164600     19.880400     40.260600
  C      40.153000     17.719600     40.811200
  H      40.027200     17.965000     41.876800
  O      38.910400     17.340600     40.249800
  H      38.273600     17.047200     40.962000
  C      43.630800     17.613200     38.002600
  O      44.320400     16.573400     37.962000
  O      43.845400     18.647400     37.309600
24
Coordinates from ORCA-job neb_initial_path.QMRegion E   0.000000000000
  C      44.003000     17.698400     41.544800
  H      44.416400     16.882600     40.967600
  H      44.615000     18.568200     41.767800
  C      42.847400     17.622800     42.228400
  C      42.396200     18.762600     43.157000
  O      43.160800     19.746200     43.271600
  O      41.295000     18.619400     43.755000
  O      42.042200     16.576600     42.103600
  C      41.095200     16.510000     40.704800
  H      40.571800     15.565600     40.872200
  C      42.067200     16.490000     39.635200
  H      42.590600     15.566200     39.385400
  C      42.506000     17.644800     39.102000
  C      41.755800     18.882800     39.343800
  H      42.120000     19.785600     38.851000
  C      40.670000     18.910200     40.128600
  H      40.133200     19.847800     40.286200
  C      40.123000     17.683200     40.811400
  H      40.011400     17.899000     41.883600
  O      38.869800     17.340200     40.252600
  H      38.231200     17.047400     40.965000
  C      43.647600     17.618400     38.073200
  O      44.353800     16.589800     38.043000
  O      43.829800     18.638800     37.354200
24
Coordinates from ORCA-job neb_initial_path.QMRegion E   0.000000000000
  C      43.946000     17.690600     41.448200
  H      44.387600     16.861400     40.913400
  H      44.539000     18.579800     41.642200
  C      42.828600     17.588200     42.210600
  C      42.388800     18.742400     43.133000
  O      43.162200     19.719800     43.244400
  O      41.289000     18.609600     43.736000
  O      42.054800     16.538400     42.130400
  C      41.035800     16.463000     40.648200
  H      40.535200     15.513400     40.844800
  C      42.030800     16.465000     39.630800
  H      42.548400     15.544800     39.357600
  C      42.531000     17.645200     39.185000
  C      41.763200     18.876200     39.413200
  H      42.136000     19.786400     38.941000
  C      40.652000     18.884800     40.160400
  H      40.101800     19.815200     40.311800
  C      40.093000     17.646800     40.811600
  H      39.995600     17.833000     41.890400
  O      38.829200     17.339800     40.255400
  H      38.188800     17.047600     40.968000
  C      43.664400     17.623600     38.143800
  O      44.387200     16.606200     38.124000
  O      43.814200     18.630200     37.398800
24
Coordinates from ORCA-job neb_initial_path.QMRegion E   0.000000000000
  C      43.889000     17.682800     41.351600
  H      44.358800     16.840200     40.859200
  H      44.463000     18.591400     41.516600
  C      42.809800     17.553600     42.192800
  C      42.381400     18.722200     43.109000
  O      43.163600     19.693400     43.217200
  O      41.283000     18.599800     43.717000
  O      42.067400     16.500200     42.157200
  C      40.976400     16.416000     40.591600
  H      40.498600     15.461200     40.817400
  C      41.994400     16.440000     39.626400
  H      42.506200     15.523400     39.329800
  C      42.556000     17.645600     39.268000
  C      41.770600     18.869600     39.482600
  H      42.152000     19.787200     39.031000
  C      40.634000     18.859400     40.192200
  H      40.070400     19.782600     40.337400
  C      40.063000     17.610400     40.811800
  H      39.979800     17.767000     41.897200
  O      38.788600     17.339400     40.258200
  H      38.146400     17.047800     40.971000
  C      43.681200     17.628800     38.214400
  O      44.420600     16.622600     38.205000
  O      43.798600     18.621600     37.443400
24
Coordinates from ORCA-job neb_initial_path.QMRegion E   0.000000000000
  C      43.832000     17.675000     41.255000
  H      44.330000     16.819000     40.805000
  H      44.387000     18.603000     41.391000
  C      42.791000     17.519000     42.175000
  C      42.374000     18.702000     43.085000
  O      43.165000     19.667000     43.190000
  O      41.277000     18.590000     43.698000
  O      42.080000     16.462000     42.184000
  C      40.917000     16.369000     40.535000
  H      40.462000     15.409000     40.790000
  C      41.958000     16.415000     39.622000
  H      42.464000     15.502000     39.302000
  C      42.581000     17.646000     39.351000
  C      41.778000     18.863000     39.552000
  H      42.168000     19.788000     39.121000
  C      40.616000     18.834000     40.224000
  H      40.039000     19.750000     40.363000
  C      40.033000     17.574000     40.812000
  H      39.964000     17.701000     41.904000
  O      38.748000     17.339000     40.261000
  H      38.104000     17.048000     40.974000
  C      43.698000     17.634000     38.285000
  O      44.454000     16.639000     38.286000
  O      43.783000     18.613000     37.488000
24
Coordinates from ORCA-job neb_initial_path.QMRegion E   0.000000000000
  C      43.762000     17.665250     41.182750
  H      44.323000     16.822750     40.832750
  H      44.299250     18.604750     41.316000
  C      42.772000     17.498750     42.183250
  C      42.364500     18.690500     43.090500
  O      43.161750     19.651000     43.181000
  O      41.273750     18.581000     43.711500
  O      42.148000     16.428250     42.272000
  C      40.858750     16.332500     40.420500
  H      40.380500     15.376500     40.617000
  C      41.949500     16.386000     39.613500
  H      42.459500     15.481000     39.278250
  C      42.614250     17.631750     39.418000
  C      41.780250     18.841000     39.570500
  H      42.174250     19.769750     39.152750
  C      40.600250     18.801250     40.201250
  H      40.012500     19.712500     40.320500
  C      40.010250     17.534000     40.768250
  H      39.978750     17.627250     41.863750
  O      38.706500     17.343500     40.261000
  H      38.075750     17.059000     40.986000
  C      43.706750     17.621750     38.317500
  O      44.475500     16.637000     38.318000
  O      43.767750     18.591750     37.509500
24
Coordinates from ORCA-job neb_initial_path.QMRegion E   0.000000000000
  C      43.692000     17.655500     41.110500
  H      44.316000     16.826500     40.860500
  H      44.211500     18.606500     41.241000
  C      42.753000     17.478500     42.191500
  C      42.355000     18.679000     43.096000
  O      43.158500     19.635000     43.172000
  O      41.270500     18.572000     43.725000
  O      42.216000     16.394500     42.360000
  C      40.800500     16.296000     40.306000
  H      40.299000     15.344000     40.444000
  C      41.941000     16.357000     39.605000
  H      42.455000     15.460000     39.254500
  C      42.647500     17.617500     39.485000
  C      41.782500     18.819000     39.589000
  H      42.180500     19.751500     39.184500
  C      40.584500     18.768500     40.178500
  H      39.986000     19.675000     40.278000
  C      39.987500     17.494000     40.724500
  H      39.993500     17.553500     41.823500
  O      38.665000     17.348000     40.261000
  H      38.047500     17.070000     40.998000
  C      43.715500     17.609500     38.350000
  O      44.497000     16.635000     38.350000
  O      43.752500     18.570500     37.531000
24
Coordinates from ORCA-job neb_initial_path.QMRegion E   0.000000000000
  C      43.622000     17.645750     41.038250
  H      44.309000     16.830250     40.888250
  H      44.123750     18.608250     41.166000
  C      42.734000     17.458250     42.199750
  C      42.345500     18.667500     43.101500
  O      43.155250     19.619000     43.163000
  O      41.267250     18.563000     43.738500
  O      42.284000     16.360750     42.448000
  C      40.742250     16.259500     40.191500
  H      40.217500     15.311500     40.271000
  C      41.932500     16.328000     39.596500
  H      42.450500     15.439000     39.230750
  C      42.680750     17.603250     39.552000
  C      41.784750     18.797000     39.607500
  H      42.186750     19.733250     39.216250
  C      40.568750     18.735750     40.155750
  H      39.959500     19.637500     40.235500
  C      39.964750     17.454000     40.680750
  H      40.008250     17.479750     41.783250
  O      38.623500     17.352500     40.261000
  H      38.019250     17.081000     41.010000
  C      43.724250     17.597250     38.382500
  O      44.518500     16.633000     38.382000
  O      43.737250     18.549250     37.552500
24
Coordinates from ORCA-job neb_initial_path.QMRegion E   0.000000000000
  C      43.552000     17.636000     40.966000
  H      44.302000     16.834000     40.916000
  H      44.036000     18.610000     41.091000
  C      42.715000     17.438000     42.208000
  C      42.336000     18.656000     43.107000
  O      43.152000     19.603000     43.154000
  O      41.264000     18.554000     43.752000
  O      42.352000     16.327000     42.536000
  C      40.684000     16.223000     40.077000
  H      40.136000     15.279000     40.098000
  C      41.924000     16.299000     39.588000
  H      42.446000     15.418000     39.207000
  C      42.714000     17.589000     39.619000
  C      41.787000     18.775000     39.626000
  H      42.193000     19.715000     39.248000
  C      40.553000     18.703000     40.133000
  H      39.933000     19.600000     40.193000
  C      39.942000     17.414000     40.637000
  H      40.023000     17.406000     41.743000
  O      38.582000     17.357000     40.261000
  H      37.991000     17.092000     41.022000
  C      43.733000     17.585000     38.415000
  O      44.540000     16.631000     38.414000
  O      43.722000     18.528000     37.574000
