24
Coordinates from ORCA-job neb_MEP.QMRegion E -1076.194049253567
  C      46.871000     28.542000     61.702000
  H      47.660000     27.888000     61.330000
  H      47.117000     29.414000     62.309000
  C      45.578000     28.316000     61.432000
  C      44.464000     29.211000     61.967000
  O      44.799000     30.248000     62.582000
  O      43.287000     28.824000     61.738000
  O      45.146000     27.228000     60.712000
  C      45.260000     27.231000     59.250000
  H      44.823000     26.264000     58.962000
  C      46.711000     27.275000     58.905000
  H      47.332000     26.427000     59.196000
  C      47.293000     28.370000     58.386000
  C      46.472000     29.551000     58.093000
  H      47.008000     30.448000     57.775000
  C      45.137000     29.563000     58.257000
  H      44.570000     30.482000     58.079000
  C      44.362000     28.316000     58.600000
  H      43.584000     28.550000     59.347000
  O      43.774000     27.838000     57.397000
  H      42.846000     27.511000     57.554000
  C      48.806000     28.434000     58.184000
  O      49.503000     27.517000     58.693000
  O      49.227000     29.423000     57.526000
24
Coordinates from ORCA-job neb_MEP.QMRegion E -1076.191576854232
  C      47.033820     28.354279     61.571459
  H      47.762898     27.639409     61.187960
  H      47.372161     29.241955     62.106130
  C      45.716260     28.191110     61.388433
  C      44.674739     29.165062     61.934316
  O      45.079198     30.183405     62.537220
  O      43.469579     28.847292     61.735532
  O      45.191607     27.095654     60.744635
  C      45.211479     27.021565     59.270132
  H      44.766371     26.039455     59.059484
  C      46.647243     27.071383     58.875585
  H      47.276066     26.222867     59.142543
  C      47.216622     28.209360     58.441449
  C      46.368459     29.381300     58.192036
  H      46.884234     30.303022     57.915390
  C      45.029105     29.353778     58.325485
  H      44.440114     30.256633     58.138472
  C      44.276386     28.086786     58.643068
  H      43.510482     28.292292     59.409496
  O      43.673574     27.611997     57.445303
  H      42.706439     27.425525     57.577328
  C      48.735326     28.340316     58.315792
  O      49.451280     27.409900     58.775498
  O      49.145129     29.402395     57.777612
24
Coordinates from ORCA-job neb_MEP.QMRegion E -1076.178644748849
  C      47.107626     28.344864     61.464154
  H      47.817630     27.590792     61.121994
  H      47.505474     29.277536     61.870938
  C      45.774273     28.165493     61.375295
  C      44.758310     29.185002     61.907010
  O      45.175903     30.185576     62.533160
  O      43.546895     28.910497     61.676404
  O      45.218335     27.057617     60.780043
  C      45.154832     26.955560     59.198614
  H      44.695704     25.966978     59.042219
  C      46.579437     27.012877     58.855012
  H      47.192959     26.148522     59.093490
  C      47.162527     28.195081     58.581477
  C      46.324138     29.367947     58.311091
  H      46.847006     30.299036     58.084831
  C      44.981222     29.310703     58.306175
  H      44.393941     30.192121     58.032581
  C      44.223288     28.042853     58.592235
  H      43.491913     28.236524     59.390487
  O      43.576824     27.635629     57.391201
  H      42.606937     27.440979     57.534769
  C      48.678310     28.323267     58.481654
  O      49.394279     27.371003     58.894201
  O      49.086583     29.398729     57.971473
24
Coordinates from ORCA-job neb_MEP.QMRegion E -1076.162061130265
  C      47.133298     28.368079     61.429026
  H      47.831651     27.582659     61.138592
  H      47.539702     29.308695     61.802192
  C      45.786622     28.148348     61.424827
  C      44.769712     29.195149     61.915846
  O      45.182495     30.200172     62.536128
  O      43.558981     28.923719     61.670087
  O      45.259875     27.034882     60.937507
  C      45.150572     26.923476     59.044364
  H      44.683859     25.934547     59.005970
  C      46.557042     27.005024     58.857890
  H      47.172992     26.143387     59.097920
  C      47.151888     28.214911     58.660878
  C      46.321374     29.378077     58.343910
  H      46.845701     30.306814     58.113403
  C      44.980669     29.308838     58.290190
  H      44.394319     30.184935     58.002039
  C      44.224107     28.036828     58.549805
  H      43.518384     28.210069     59.378597
  O      43.543723     27.672455     57.354036
  H      42.581623     27.452543     57.519441
  C      48.670411     28.328556     58.521618
  O      49.386105     27.367014     58.906804
  O      49.070566     29.392858     57.983587
24
Coordinates from ORCA-job neb_MEP.QMRegion E -1076.156104841541
  C      47.153587     28.385858     61.380212
  H      47.841490     27.573008     61.149924
  H      47.562115     29.324350     61.752393
  C      45.793373     28.137307     61.460071
  C      44.774245     29.202005     61.922117
  O      45.186980     30.209856     62.538402
  O      43.566522     28.929840     61.668418
  O      45.292843     27.020638     61.080213
  C      45.150150     26.899161     58.919764
  H      44.677847     25.917546     58.970600
  C      46.533287     26.998177     58.866046
  H      47.157061     26.141248     59.105032
  C      47.143953     28.234051     58.729982
  C      46.320114     29.384866     58.366722
  H      46.845591     30.310697     58.129102
  C      44.981261     29.306278     58.279361
  H      44.396229     30.180166     57.982749
  C      44.226977     28.030114     58.517943
  H      43.538432     28.191482     59.368264
  O      43.520526     27.698765     57.328292
  H      42.566685     27.458206     57.510475
  C      48.664951     28.332037     58.548652
  O      49.380056     27.363876     58.913895
  O      49.059715     29.387869     57.990222
24
Coordinates from ORCA-job neb_MEP.QMRegion E -1076.154742107724
  C      47.170762     28.398793     61.291917
  H      47.851093     27.558985     61.156043
  H      47.584140     29.329310     61.680198
  C      45.801611     28.131267     61.473145
  C      44.781759     29.205987     61.923532
  O      45.197173     30.213603     62.537407
  O      43.575758     28.931583     61.669259
  O      45.320313     27.005969     61.185258
  C      45.150604     26.883036     58.844332
  H      44.675519     25.905233     58.923613
  C      46.514280     26.993880     58.882992
  H      47.141938     26.137679     59.116168
  C      47.137829     28.254008     58.822185
  C      46.318268     29.391133     58.399497
  H      46.844800     30.313210     58.149885
  C      44.984169     29.302198     58.270890
  H      44.402867     30.171623     57.954156
  C      44.228378     28.024429     58.493501
  H      43.551126     28.176512     59.356492
  O      43.502883     27.723057     57.308295
  H      42.556143     27.464900     57.501461
  C      48.659036     28.334701     58.581507
  O      49.375278     27.360311     58.925044
  O      49.046448     29.381450     58.001611
24
Coordinates from ORCA-job neb_MEP.QMRegion E -1076.158150300901
  C      47.178871     28.407630     61.135759
  H      47.848852     27.546665     61.163031
  H      47.591672     29.316183     61.589857
  C      45.801434     28.128916     61.463011
  C      44.785898     29.209334     61.923400
  O      45.209685     30.212065     62.537819
  O      43.581240     28.931232     61.677129
  O      45.340640     26.998157     61.274952
  C      45.156778     26.874550     58.797178
  H      44.679097     25.897687     58.879308
  C      46.499502     26.993039     58.908084
  H      47.130836     26.135024     59.127671
  C      47.136663     28.284301     58.970215
  C      46.315409     29.399417     58.446807
  H      46.842094     30.314870     58.171476
  C      44.989825     29.298421     58.272880
  H      44.413654     30.160936     57.926871
  C      44.228543     28.021185     58.485895
  H      43.553208     28.166479     59.351475
  O      43.493710     27.742256     57.300752
  H      42.552425     27.471063     57.498421
  C      48.654230     28.340399     58.618635
  O      49.372716     27.358849     58.933934
  O      49.029566     29.374782     58.010674
24
Coordinates from ORCA-job neb_MEP.QMRegion E -1076.169669919349
  C      47.179778     28.403311     60.965563
  H      47.834325     27.543293     61.158612
  H      47.593067     29.293871     61.475882
  C      45.797925     28.126913     61.441562
  C      44.791081     29.212338     61.921476
  O      45.224892     30.208733     62.536383
  O      43.586920     28.931109     61.685002
  O      45.362067     26.991537     61.362726
  C      45.165697     26.868923     58.761716
  H      44.687084     25.890431     58.829883
  C      46.490447     26.992866     58.933516
  H      47.122923     26.131478     59.139447
  C      47.140627     28.310923     59.126085
  C      46.314302     29.405897     58.502859
  H      46.839375     30.314158     58.197022
  C      44.998813     29.293319     58.280448
  H      44.430011     30.146706     57.897481
  C      44.230016     28.017820     58.481949
  H      43.554767     28.155319     59.348410
  O      43.488002     27.760610     57.295870
  H      42.551390     27.477502     57.495767
  C      48.649801     28.345617     58.653332
  O      49.371737     27.358682     58.943299
  O      49.011409     29.368294     58.019497
24
Coordinates from ORCA-job neb_MEP.QMRegion E -1076.182825862064
  C      47.172075     28.370848     60.821155
  H      47.809106     27.528011     61.122216
  H      47.629055     29.271835     61.243593
  C      45.810165     28.124702     61.432819
  C      44.809519     29.217424     61.897906
  O      45.255514     30.204724     62.515867
  O      43.603309     28.936346     61.673374
  O      45.433545     26.975240     61.555809
  C      45.166988     26.847528     58.729485
  H      44.693967     25.865108     58.749821
  C      46.476736     26.969628     58.958793
  H      47.109241     26.110990     59.178968
  C      47.130559     28.297055     59.211246
  C      46.307079     29.398211     58.582893
  H      46.833398     30.307176     58.284812
  C      45.005824     29.279115     58.306740
  H      44.463925     30.115963     57.855828
  C      44.231149     28.004734     58.482035
  H      43.559047     28.117211     59.356396
  O      43.479267     27.794494     57.294936
  H      42.555254     27.482233     57.496814
  C      48.630622     28.341763     58.685352
  O      49.366831     27.362318     58.965741
  O      48.971527     29.364426     58.041075
24
Coordinates from ORCA-job neb_MEP.QMRegion E -1076.187371260505
  C      47.182000     28.274000     60.788000
  H      47.818000     27.422000     61.070000
  H      47.664000     29.187000     61.158000
  C      45.852000     28.044000     61.480000
  C      44.832000     29.154000     61.849000
  O      45.267000     30.151000     62.461000
  O      43.630000     28.885000     61.586000
  O      45.551000     26.909000     61.792000
  C      45.079000     26.821000     58.641000
  H      44.584000     25.851000     58.565000
  C      46.378000     26.899000     58.940000
  H      46.962000     26.009000     59.169000
  C      47.085000     28.202000     59.198000
  C      46.303000     29.333000     58.580000
  H      46.861000     30.232000     58.319000
  C      45.015000     29.258000     58.241000
  H      44.525000     30.120000     57.778000
  C      44.189000     28.013000     58.384000
  H      43.507000     28.147000     59.248000
  O      43.441000     27.842000     57.191000
  H      42.521000     27.513000     57.395000
  C      48.586000     28.235000     58.666000
  O      49.334000     27.274000     58.972000
  O      48.924000     29.254000     58.014000
