24
Coordinates from ORCA-job neb_NEB-CI_converged.QMRegion
  C          47.17076200488064     28.39879322711294     61.29191741543858
  H          47.85109313761654     27.55898468320256     61.15604257871615
  H          47.58413978386402     29.32931022608267     61.68019773882986
  C          45.80161073225666     28.13126670825526     61.47314547217835
  C          44.78175926527870     29.20598747323345     61.92353186148073
  O          45.19717320379752     30.21360347474733     62.53740714059298
  O          43.57575794342235     28.93158314950636     61.66925940503160
  O          45.32031349026343     27.00596910983917     61.18525830091058
  C          45.15060375040239     26.88303602926018     58.84433209861555
  H          44.67551893755886     25.90523340349535     58.92361289850454
  C          46.51428031468068     26.99387995482452     58.88299245249092
  H          47.14193821668452     26.13767906283003     59.11616806740226
  C          47.13782882221716     28.25400762210224     58.82218489051522
  C          46.31826807043065     29.39113339808424     58.39949732874328
  H          46.84479999913879     30.31320996718009     58.14988478459638
  C          44.98416946628280     29.30219776190505     58.27089008654539
  H          44.40286653137402     30.17162272061550     57.95415636064602
  C          44.22837830648353     28.02442889842751     58.49350067763910
  H          43.55112569338613     28.17651152679450     59.35649178393393
  O          43.50288309425146     27.72305668109965     57.30829520100474
  H          42.55614303443810     27.46490033852177     57.50146059685800
  C          48.65903558592126     28.33470089016058     58.58150749496207
  O          49.37527804555084     27.36031139738146     58.92504387399729
  O          49.04644756587070     29.38145034225164     58.00161090323662
