24
Coordinates from ORCA-job neb_initial_path.QMRegion E   0.000000000000
  C      46.871000     28.542000     61.702000
  H      47.660000     27.888000     61.330000
  H      47.117000     29.414000     62.309000
  C      45.578000     28.316000     61.432000
  C      44.464000     29.211000     61.967000
  O      44.799000     30.248000     62.582000
  O      43.287000     28.824000     61.738000
  O      45.146000     27.228000     60.712000
  C      45.260000     27.231000     59.250000
  H      44.823000     26.264000     58.962000
  C      46.711000     27.275000     58.905000
  H      47.332000     26.427000     59.196000
  C      47.293000     28.370000     58.386000
  C      46.472000     29.551000     58.093000
  H      47.008000     30.448000     57.775000
  C      45.137000     29.563000     58.257000
  H      44.570000     30.482000     58.079000
  C      44.362000     28.316000     58.600000
  H      43.584000     28.550000     59.347000
  O      43.774000     27.838000     57.397000
  H      42.846000     27.511000     57.554000
  C      48.806000     28.434000     58.184000
  O      49.503000     27.517000     58.693000
  O      49.227000     29.423000     57.526000
24
Coordinates from ORCA-job neb_initial_path.QMRegion E   0.000000000000
  C      46.905556     28.512222     61.600444
  H      47.677556     27.836222     61.301111
  H      47.177778     29.388778     62.181111
  C      45.608444     28.285778     61.437333
  C      44.504889     29.204667     61.953889
  O      44.851000     30.237222     62.568556
  O      43.325111     28.830778     61.721111
  O      45.191000     27.192556     60.832000
  C      45.239889     27.185444     59.182333
  H      44.796444     26.218111     58.917889
  C      46.674000     27.233222     58.908889
  H      47.290889     26.380556     59.193000
  C      47.269889     28.351333     58.476222
  C      46.453222     29.526778     58.147111
  H      46.991667     30.424000     57.835444
  C      45.123444     29.529111     58.255222
  H      44.565000     30.441778     58.045556
  C      44.342778     28.282333     58.576000
  H      43.575444     28.505222     59.336000
  O      43.737000     27.838444     57.374111
  H      42.809889     27.511222     57.536333
  C      48.781556     28.411889     58.237556
  O      49.484222     27.490000     58.724000
  O      49.193333     29.404222     57.580222
24
Coordinates from ORCA-job neb_initial_path.QMRegion E   0.000000000000
  C      46.940111     28.482444     61.498889
  H      47.695111     27.784444     61.272222
  H      47.238556     29.363556     62.053222
  C      45.638889     28.255556     61.442667
  C      44.545778     29.198333     61.940778
  O      44.903000     30.226444     62.555111
  O      43.363222     28.837556     61.704222
  O      45.236000     27.157111     60.952000
  C      45.219778     27.139889     59.114667
  H      44.769889     26.172222     58.873778
  C      46.637000     27.191444     58.912778
  H      47.249778     26.334111     59.190000
  C      47.246778     28.332667     58.566444
  C      46.434444     29.502556     58.201222
  H      46.975333     30.400000     57.895889
  C      45.109889     29.495222     58.253444
  H      44.560000     30.401556     58.012111
  C      44.323556     28.248667     58.552000
  H      43.566889     28.460444     59.325000
  O      43.700000     27.838889     57.351222
  H      42.773778     27.511444     57.518667
  C      48.757111     28.389778     58.291111
  O      49.465444     27.463000     58.755000
  O      49.159667     29.385444     57.634444
24
Coordinates from ORCA-job neb_initial_path.QMRegion E   0.000000000000
  C      46.974667     28.452667     61.397333
  H      47.712667     27.732667     61.243333
  H      47.299333     29.338333     61.925333
  C      45.669333     28.225333     61.448000
  C      44.586667     29.192000     61.927667
  O      44.955000     30.215667     62.541667
  O      43.401333     28.844333     61.687333
  O      45.281000     27.121667     61.072000
  C      45.199667     27.094333     59.047000
  H      44.743333     26.126333     58.829667
  C      46.600000     27.149667     58.916667
  H      47.208667     26.287667     59.187000
  C      47.223667     28.314000     58.656667
  C      46.415667     29.478333     58.255333
  H      46.959000     30.376000     57.956333
  C      45.096333     29.461333     58.251667
  H      44.555000     30.361333     57.978667
  C      44.304333     28.215000     58.528000
  H      43.558333     28.415667     59.314000
  O      43.663000     27.839333     57.328333
  H      42.737667     27.511667     57.501000
  C      48.732667     28.367667     58.344667
  O      49.446667     27.436000     58.786000
  O      49.126000     29.366667     57.688667
24
Coordinates from ORCA-job neb_initial_path.QMRegion E   0.000000000000
  C      47.009222     28.422889     61.295778
  H      47.730222     27.680889     61.214444
  H      47.360111     29.313111     61.797444
  C      45.699778     28.195111     61.453333
  C      44.627556     29.185667     61.914556
  O      45.007000     30.204889     62.528222
  O      43.439444     28.851111     61.670444
  O      45.326000     27.086222     61.192000
  C      45.179556     27.048778     58.979333
  H      44.716778     26.080444     58.785556
  C      46.563000     27.107889     58.920556
  H      47.167556     26.241222     59.184000
  C      47.200556     28.295333     58.746889
  C      46.396889     29.454111     58.309444
  H      46.942667     30.352000     58.016778
  C      45.082778     29.427444     58.249889
  H      44.550000     30.321111     57.945222
  C      44.285111     28.181333     58.504000
  H      43.549778     28.370889     59.303000
  O      43.626000     27.839778     57.305444
  H      42.701556     27.511889     57.483333
  C      48.708222     28.345556     58.398222
  O      49.427889     27.409000     58.817000
  O      49.092333     29.347889     57.742889
24
Coordinates from ORCA-job neb_initial_path.QMRegion E   0.000000000000
  C      47.043778     28.393111     61.194222
  H      47.747778     27.629111     61.185556
  H      47.420889     29.287889     61.669556
  C      45.730222     28.164889     61.458667
  C      44.668444     29.179333     61.901444
  O      45.059000     30.194111     62.514778
  O      43.477556     28.857889     61.653556
  O      45.371000     27.050778     61.312000
  C      45.159444     27.003222     58.911667
  H      44.690222     26.034556     58.741444
  C      46.526000     27.066111     58.924444
  H      47.126444     26.194778     59.181000
  C      47.177444     28.276667     58.837111
  C      46.378111     29.429889     58.363556
  H      46.926333     30.328000     58.077222
  C      45.069222     29.393556     58.248111
  H      44.545000     30.280889     57.911778
  C      44.265889     28.147667     58.480000
  H      43.541222     28.326111     59.292000
  O      43.589000     27.840222     57.282556
  H      42.665444     27.512111     57.465667
  C      48.683778     28.323444     58.451778
  O      49.409111     27.382000     58.848000
  O      49.058667     29.329111     57.797111
24
Coordinates from ORCA-job neb_initial_path.QMRegion E   0.000000000000
  C      47.078333     28.363333     61.092667
  H      47.765333     27.577333     61.156667
  H      47.481667     29.262667     61.541667
  C      45.760667     28.134667     61.464000
  C      44.709333     29.173000     61.888333
  O      45.111000     30.183333     62.501333
  O      43.515667     28.864667     61.636667
  O      45.416000     27.015333     61.432000
  C      45.139333     26.957667     58.844000
  H      44.663667     25.988667     58.697333
  C      46.489000     27.024333     58.928333
  H      47.085333     26.148333     59.178000
  C      47.154333     28.258000     58.927333
  C      46.359333     29.405667     58.417667
  H      46.910000     30.304000     58.137667
  C      45.055667     29.359667     58.246333
  H      44.540000     30.240667     57.878333
  C      44.246667     28.114000     58.456000
  H      43.532667     28.281333     59.281000
  O      43.552000     27.840667     57.259667
  H      42.629333     27.512333     57.448000
  C      48.659333     28.301333     58.505333
  O      49.390333     27.355000     58.879000
  O      49.025000     29.310333     57.851333
24
Coordinates from ORCA-job neb_initial_path.QMRegion E   0.000000000000
  C      47.112889     28.333556     60.991111
  H      47.782889     27.525556     61.127778
  H      47.542444     29.237444     61.413778
  C      45.791111     28.104444     61.469333
  C      44.750222     29.166667     61.875222
  O      45.163000     30.172556     62.487889
  O      43.553778     28.871444     61.619778
  O      45.461000     26.979889     61.552000
  C      45.119222     26.912111     58.776333
  H      44.637111     25.942778     58.653222
  C      46.452000     26.982556     58.932222
  H      47.044222     26.101889     59.175000
  C      47.131222     28.239333     59.017556
  C      46.340556     29.381444     58.471778
  H      46.893667     30.280000     58.198111
  C      45.042111     29.325778     58.244556
  H      44.535000     30.200444     57.844889
  C      44.227444     28.080333     58.432000
  H      43.524111     28.236556     59.270000
  O      43.515000     27.841111     57.236778
  H      42.593222     27.512556     57.430333
  C      48.634889     28.279222     58.558889
  O      49.371556     27.328000     58.910000
  O      48.991333     29.291556     57.905556
24
Coordinates from ORCA-job neb_initial_path.QMRegion E   0.000000000000
  C      47.147444     28.303778     60.889556
  H      47.800444     27.473778     61.098889
  H      47.603222     29.212222     61.285889
  C      45.821556     28.074222     61.474667
  C      44.791111     29.160333     61.862111
  O      45.215000     30.161778     62.474444
  O      43.591889     28.878222     61.602889
  O      45.506000     26.944444     61.672000
  C      45.099111     26.866556     58.708667
  H      44.610556     25.896889     58.609111
  C      46.415000     26.940778     58.936111
  H      47.003111     26.055444     59.172000
  C      47.108111     28.220667     59.107778
  C      46.321778     29.357222     58.525889
  H      46.877333     30.256000     58.258556
  C      45.028556     29.291889     58.242778
  H      44.530000     30.160222     57.811444
  C      44.208222     28.046667     58.408000
  H      43.515556     28.191778     59.259000
  O      43.478000     27.841556     57.213889
  H      42.557111     27.512778     57.412667
  C      48.610444     28.257111     58.612444
  O      49.352778     27.301000     58.941000
  O      48.957667     29.272778     57.959778
24
Coordinates from ORCA-job neb_initial_path.QMRegion E   0.000000000000
  C      47.182000     28.274000     60.788000
  H      47.818000     27.422000     61.070000
  H      47.664000     29.187000     61.158000
  C      45.852000     28.044000     61.480000
  C      44.832000     29.154000     61.849000
  O      45.267000     30.151000     62.461000
  O      43.630000     28.885000     61.586000
  O      45.551000     26.909000     61.792000
  C      45.079000     26.821000     58.641000
  H      44.584000     25.851000     58.565000
  C      46.378000     26.899000     58.940000
  H      46.962000     26.009000     59.169000
  C      47.085000     28.202000     59.198000
  C      46.303000     29.333000     58.580000
  H      46.861000     30.232000     58.319000
  C      45.015000     29.258000     58.241000
  H      44.525000     30.120000     57.778000
  C      44.189000     28.013000     58.384000
  H      43.507000     28.147000     59.248000
  O      43.441000     27.842000     57.191000
  H      42.521000     27.513000     57.395000
  C      48.586000     28.235000     58.666000
  O      49.334000     27.274000     58.972000
  O      48.924000     29.254000     58.014000
