94
Image 0. Energy: -22862.475350638444 
C  53.07952179711195 36.826165203523935 61.66912274448013
H  53.958965038657695 37.286787444279234 61.21824968877206
H  52.361695695131914 37.51689702379013 62.232980531373165
C  52.61734204163043 35.565218112594586 61.714738355323874
C  51.27301338516901 35.26322191649846 62.42498425138032
O  50.337839698783085 36.05699337699191 62.19735246132873
O  51.26479044051625 34.30230543734725 63.24268230758099
O  53.22084813958596 34.51689878532757 61.16196871563206
C  54.60839204063437 34.16158678030971 61.38171019885209
H  54.831520926659366 33.48304085536059 60.537658707179
C  54.70776825570574 33.42099223764136 62.68018459537475
H  53.780243134633714 33.10279879353744 63.158076417681755
C  55.90001067148118 33.10818512158349 63.21647418287482
C  57.110330898913425 33.60833731778416 62.54545511689469
H  58.07796718030623 33.163123758074946 62.77841919306163
C  57.004515864460615 34.6144916083457 61.655979765814934
H  57.87495940253354 35.03202829814899 61.140122905104654
C  55.65860909383759 35.2777584005663 61.39825481827849
H  55.457965416596146 35.90505472354874 62.29184908715656
O  55.597782480865995 36.13839065696673 60.30360502769639
H  56.07225496420159 35.77887477866789 59.53336651763385
C  55.947542167725565 32.220301903679506 64.43687926315827
O  54.88334546201673 31.66047733512515 64.82804979641449
O  57.07601874283549 32.06806626030283 64.98798265094703
C  69.8871 31.0842 49.8237
O  71.070925 31.145976 49.427163
O  69.175816 30.056817 49.856259
H  69.429121 32.02005 50.176461
C  62.8402 31.6658 65.7108
N  62.990777 32.05102 64.446746
H  62.68026 32.713522 65.143
H  63.186946 31.095982 64.710413
N  62.431301 32.538204 66.627649
H  62.62747 31.583166 66.891316
H  62.545649 32.83074 65.667728
N  63.098521 30.408176 66.058005
H  63.21287 30.700711 65.098084
H  62.788004 31.070678 66.754259
C  48.4398 39.268 57.9612
N  48.590377 39.65322 56.697146
H  48.27986 40.315722 57.3934
H  48.786546 38.698182 56.960813
N  48.030901 40.140404 58.878049
H  48.22707 39.185366 59.141716
H  48.145249 40.43294 57.918128
N  48.698121 38.010376 58.308405
H  48.81247 38.302911 57.348484
H  48.387604 38.672878 59.004659
C  52.1138 31.5279 64.2347
N  52.264377 31.91312 62.970646
H  51.95386 32.575622 63.6669
H  52.460546 30.958082 63.234313
N  51.704901 32.400304 65.151549
H  51.90107 31.445266 65.415216
H  51.819249 32.69284 64.191628
N  52.372121 30.270276 64.581905
H  52.48647 30.562811 63.621984
H  52.061604 30.932778 65.278159
C  57.8884 29.3185 65.8597
N  58.038977 29.70372 64.595646
H  57.72846 30.366222 65.2919
H  58.235146 28.748682 64.859313
N  57.479501 30.190904 66.776549
H  57.67567 29.235866 67.040216
H  57.593849 30.48344 65.816628
N  58.146721 28.060876 66.206905
H  58.26107 28.353411 65.246984
H  57.836204 28.723378 66.903159
C  58.7165 34.443 44.3843
O  59.900325 34.504776 43.987763
O  58.005216 33.415617 44.416859
H  58.258521 35.37885 44.737061
C  67.6677 26.1432 50.1847
O  68.851525 26.204976 49.788163
O  66.956416 25.115817 50.217259
H  67.209721 27.07905 50.537461
C  63.3925 38.5707 46.6293
O  64.576325 38.632476 46.232763
O  62.681216 37.543317 46.661859
H  62.934521 39.50655 46.982061
C  51.394 38.8846 63.6639
N  51.544577 39.26982 62.399846
H  51.23406 39.932322 63.0961
H  51.740746 38.314782 62.663513
N  50.985101 39.757004 64.580749
H  51.18127 38.801966 64.844416
H  51.099449 40.04954 63.620828
N  51.652321 37.626976 64.011105
H  51.76667 37.919511 63.051184
H  51.341804 38.289478 64.707359
C  69.4437 27.9917 58.8186
O  70.627525 28.053476 58.422063
O  68.732416 26.964317 58.851159
H  68.985721 28.92755 59.171361
94
Image 1. Energy: -22861.539357609534 
C  53.20181251466191 36.98187560162435 61.93368847482419
H  54.27743445969221 37.113929833590824 62.01096737368348
H  52.72991138104311 37.732892949940144 61.28883888982273
C  52.692160405265156 35.6969167244113 61.80708731529975
C  51.25982795180691 35.38403908152737 62.313533044626055
O  50.352920574446244 36.19979421291345 62.02623146688958
O  51.203391327302775 34.415489051312576 63.12192642464057
O  53.28036497525519 34.58779862290544 61.4680210667978
C  54.639248272235086 34.08340271670609 61.50154285143454
H  54.60554966181354 33.287297042063976 60.7324356277129
C  54.74751186764897 33.445963396175394 62.84082023160736
H  53.815613738269356 33.114391735365864 63.30716636528341
C  55.927695595696285 33.141196123390834 63.38862634859121
C  57.16071391340588 33.58647970870726 62.73028033143672
H  58.11089066989962 33.24789899238115 63.14077701544437
C  57.11541947674412 34.406900353172496 61.666003099976734
H  58.03173802929512 34.769455246098865 61.18939559140611
C  55.82415324732317 34.98980097344749 61.118106585174274
H  55.72590360690123 35.97090058280123 61.61647879357377
O  55.83536404740301 35.24609288688315 59.74780000782262
H  56.33177873567157 34.55899410076512 59.2693278583464
C  55.958759788006255 32.24996415658664 64.59610946061987
O  54.894197262296174 31.700323837631 64.99679329110997
O  57.10408469792405 32.074965119612365 65.10087700385814
C  69.8871 31.0842 49.8237
O  71.070925 31.145976 49.427163
O  69.175816 30.056817 49.856259
H  69.429121 32.02005 50.176461
C  62.8402 31.6658 65.7108
N  62.990777 32.05102 64.446746
H  62.68026 32.713522 65.143
H  63.186946 31.095982 64.710413
N  62.431301 32.538204 66.627649
H  62.62747 31.583166 66.891316
H  62.545649 32.83074 65.667728
N  63.098521 30.408176 66.058005
H  63.21287 30.700711 65.098084
H  62.788004 31.070678 66.754259
C  48.4398 39.268 57.9612
N  48.590377 39.65322 56.697146
H  48.27986 40.315722 57.3934
H  48.786546 38.698182 56.960813
N  48.030901 40.140404 58.878049
H  48.22707 39.185366 59.141716
H  48.145249 40.43294 57.918128
N  48.698121 38.010376 58.308405
H  48.81247 38.302911 57.348484
H  48.387604 38.672878 59.004659
C  52.1138 31.5279 64.2347
N  52.264377 31.91312 62.970646
H  51.95386 32.575622 63.6669
H  52.460546 30.958082 63.234313
N  51.704901 32.400304 65.151549
H  51.90107 31.445266 65.415216
H  51.819249 32.69284 64.191628
N  52.372121 30.270276 64.581905
H  52.48647 30.562811 63.621984
H  52.061604 30.932778 65.278159
C  57.8884 29.3185 65.8597
N  58.038977 29.70372 64.595646
H  57.72846 30.366222 65.2919
H  58.235146 28.748682 64.859313
N  57.479501 30.190904 66.776549
H  57.67567 29.235866 67.040216
H  57.593849 30.48344 65.816628
N  58.146721 28.060876 66.206905
H  58.26107 28.353411 65.246984
H  57.836204 28.723378 66.903159
C  58.7165 34.443 44.3843
O  59.900325 34.504776 43.987763
O  58.005216 33.415617 44.416859
H  58.258521 35.37885 44.737061
C  67.6677 26.1432 50.1847
O  68.851525 26.204976 49.788163
O  66.956416 25.115817 50.217259
H  67.209721 27.07905 50.537461
C  63.3925 38.5707 46.6293
O  64.576325 38.632476 46.232763
O  62.681216 37.543317 46.661859
H  62.934521 39.50655 46.982061
C  51.394 38.8846 63.6639
N  51.544577 39.26982 62.399846
H  51.23406 39.932322 63.0961
H  51.740746 38.314782 62.663513
N  50.985101 39.757004 64.580749
H  51.18127 38.801966 64.844416
H  51.099449 40.04954 63.620828
N  51.652321 37.626976 64.011105
H  51.76667 37.919511 63.051184
H  51.341804 38.289478 64.707359
C  69.4437 27.9917 58.8186
O  70.627525 28.053476 58.422063
O  68.732416 26.964317 58.851159
H  68.985721 28.92755 59.171361
94
Image 2. Energy: -22861.34108218528 
C  53.251682042851726 36.92303736915683 61.953161166102845
H  53.60917453322917 37.21124888226759 62.96149808324372
H  53.984192474165894 37.18732623448887 61.191805911517164
C  52.79028904469373 35.60323201608843 61.91779655066463
C  51.41743943110066 35.23115026562451 62.522828927532906
O  50.46065358684742 35.91813790144675 62.128174840250196
O  51.375588145313316 34.308461013928195 63.386403215424835
O  53.31027531136965 34.60189494893261 61.24855696573325
C  54.687249655409204 34.043857140189644 61.39287224575304
H  54.65021332131658 33.24858185099758 60.628667663533
C  54.7794860196733 33.40233905821336 62.743450701527706
H  53.85565191427327 33.06411203863772 63.21859750026458
C  55.96063296000229 33.076985545717264 63.297535054609874
C  57.21255189444993 33.50196166311908 62.6635479279452
H  58.15526207455296 33.14303425657963 63.07834961746034
C  57.18485121170657 34.33423938662857 61.609538706162155
H  58.10975931395333 34.690220631811705 61.14311330101947
C  55.9007435896347 34.930240949946715 61.04919010016177
H  55.795729259082556 35.90805217441302 61.558153528918254
O  55.957321167188084 35.19251821041668 59.6822355150923
H  56.43931646210851 34.48521430223459 59.21749855916513
C  55.99352517563773 32.19844193531074 64.52161465941916
O  54.93995053981502 31.619068259349426 64.90710027834399
O  57.128110351599204 32.07217390449498 65.06783074015708
C  69.8871 31.0842 49.8237
O  71.070925 31.145976 49.427163
O  69.175816 30.056817 49.856259
H  69.429121 32.02005 50.176461
C  62.8402 31.6658 65.7108
N  62.990777 32.05102 64.446746
H  62.68026 32.713522 65.143
H  63.186946 31.095982 64.710413
N  62.431301 32.538204 66.627649
H  62.62747 31.583166 66.891316
H  62.545649 32.83074 65.667728
N  63.098521 30.408176 66.058005
H  63.21287 30.700711 65.098084
H  62.788004 31.070678 66.754259
C  48.4398 39.268 57.9612
N  48.590377 39.65322 56.697146
H  48.27986 40.315722 57.3934
H  48.786546 38.698182 56.960813
N  48.030901 40.140404 58.878049
H  48.22707 39.185366 59.141716
H  48.145249 40.43294 57.918128
N  48.698121 38.010376 58.308405
H  48.81247 38.302911 57.348484
H  48.387604 38.672878 59.004659
C  52.1138 31.5279 64.2347
N  52.264377 31.91312 62.970646
H  51.95386 32.575622 63.6669
H  52.460546 30.958082 63.234313
N  51.704901 32.400304 65.151549
H  51.90107 31.445266 65.415216
H  51.819249 32.69284 64.191628
N  52.372121 30.270276 64.581905
H  52.48647 30.562811 63.621984
H  52.061604 30.932778 65.278159
C  57.8884 29.3185 65.8597
N  58.038977 29.70372 64.595646
H  57.72846 30.366222 65.2919
H  58.235146 28.748682 64.859313
N  57.479501 30.190904 66.776549
H  57.67567 29.235866 67.040216
H  57.593849 30.48344 65.816628
N  58.146721 28.060876 66.206905
H  58.26107 28.353411 65.246984
H  57.836204 28.723378 66.903159
C  58.7165 34.443 44.3843
O  59.900325 34.504776 43.987763
O  58.005216 33.415617 44.416859
H  58.258521 35.37885 44.737061
C  67.6677 26.1432 50.1847
O  68.851525 26.204976 49.788163
O  66.956416 25.115817 50.217259
H  67.209721 27.07905 50.537461
C  63.3925 38.5707 46.6293
O  64.576325 38.632476 46.232763
O  62.681216 37.543317 46.661859
H  62.934521 39.50655 46.982061
C  51.394 38.8846 63.6639
N  51.544577 39.26982 62.399846
H  51.23406 39.932322 63.0961
H  51.740746 38.314782 62.663513
N  50.985101 39.757004 64.580749
H  51.18127 38.801966 64.844416
H  51.099449 40.04954 63.620828
N  51.652321 37.626976 64.011105
H  51.76667 37.919511 63.051184
H  51.341804 38.289478 64.707359
C  69.4437 27.9917 58.8186
O  70.627525 28.053476 58.422063
O  68.732416 26.964317 58.851159
H  68.985721 28.92755 59.171361
94
Image 3. Energy: -22861.724593615858 
C  53.71400724747442 36.7876278337365 62.24236785050992
H  53.0116077436956 37.50502364021645 62.760506593523516
H  54.70127065466183 37.19482161519631 62.02043882966335
C  53.12146761979633 35.61465970795988 61.939655973209746
C  51.751371378541336 35.288113396949406 62.53524323960092
O  50.77577553462033 35.95363477158513 62.13542374427193
O  51.74594321227926 34.42415316571403 63.45771843382021
O  53.52806864937897 34.64366343222661 61.11264749769781
C  54.721961985927614 33.8547542712268 61.29382848317475
H  54.5707912147905 33.03020089838933 60.572661638908755
C  54.75105600339038 33.29331952495291 62.670451513730306
H  53.803268137421924 33.001312400239236 63.12079663809118
C  55.89700019651498 33.02245789951355 63.30898448775808
C  57.180051664915524 33.3950396522885 62.7105964459344
H  58.08204978323317 33.12010790851301 63.254472859982755
C  57.2318266479654 34.07415526831102 61.55171466156428
H  58.18722727756964 34.37957248199461 61.115833359155985
C  55.990307308481924 34.60900644951909 60.880642636453935
H  55.89926369685306 35.633034997314596 61.29978205293446
O  56.016467614873086 34.73270858995957 59.492787238786875
H  56.74508353559694 34.24061638402467 59.08565674047998
C  55.86763505801749 32.222108503618536 64.57914930673317
O  54.78497463143569 31.72377407468017 64.99424925630721
O  56.994375962564064 32.06043002187472 65.13059951769569
C  69.8871 31.0842 49.8237
O  71.070925 31.145976 49.427163
O  69.175816 30.056817 49.856259
H  69.429121 32.02005 50.176461
C  62.8402 31.6658 65.7108
N  62.990777 32.05102 64.446746
H  62.68026 32.713522 65.143
H  63.186946 31.095982 64.710413
N  62.431301 32.538204 66.627649
H  62.62747 31.583166 66.891316
H  62.545649 32.83074 65.667728
N  63.098521 30.408176 66.058005
H  63.21287 30.700711 65.098084
H  62.788004 31.070678 66.754259
C  48.4398 39.268 57.9612
N  48.590377 39.65322 56.697146
H  48.27986 40.315722 57.3934
H  48.786546 38.698182 56.960813
N  48.030901 40.140404 58.878049
H  48.22707 39.185366 59.141716
H  48.145249 40.43294 57.918128
N  48.698121 38.010376 58.308405
H  48.81247 38.302911 57.348484
H  48.387604 38.672878 59.004659
C  52.1138 31.5279 64.2347
N  52.264377 31.91312 62.970646
H  51.95386 32.575622 63.6669
H  52.460546 30.958082 63.234313
N  51.704901 32.400304 65.151549
H  51.90107 31.445266 65.415216
H  51.819249 32.69284 64.191628
N  52.372121 30.270276 64.581905
H  52.48647 30.562811 63.621984
H  52.061604 30.932778 65.278159
C  57.8884 29.3185 65.8597
N  58.038977 29.70372 64.595646
H  57.72846 30.366222 65.2919
H  58.235146 28.748682 64.859313
N  57.479501 30.190904 66.776549
H  57.67567 29.235866 67.040216
H  57.593849 30.48344 65.816628
N  58.146721 28.060876 66.206905
H  58.26107 28.353411 65.246984
H  57.836204 28.723378 66.903159
C  58.7165 34.443 44.3843
O  59.900325 34.504776 43.987763
O  58.005216 33.415617 44.416859
H  58.258521 35.37885 44.737061
C  67.6677 26.1432 50.1847
O  68.851525 26.204976 49.788163
O  66.956416 25.115817 50.217259
H  67.209721 27.07905 50.537461
C  63.3925 38.5707 46.6293
O  64.576325 38.632476 46.232763
O  62.681216 37.543317 46.661859
H  62.934521 39.50655 46.982061
C  51.394 38.8846 63.6639
N  51.544577 39.26982 62.399846
H  51.23406 39.932322 63.0961
H  51.740746 38.314782 62.663513
N  50.985101 39.757004 64.580749
H  51.18127 38.801966 64.844416
H  51.099449 40.04954 63.620828
N  51.652321 37.626976 64.011105
H  51.76667 37.919511 63.051184
H  51.341804 38.289478 64.707359
C  69.4437 27.9917 58.8186
O  70.627525 28.053476 58.422063
O  68.732416 26.964317 58.851159
H  68.985721 28.92755 59.171361
94
Image 4. Energy: -22861.22357334336 
C  53.65932731621808 36.926304723572926 62.250930446608486
H  53.39477552004023 37.34137180669729 63.243288774886366
H  54.46692023007323 37.408216856700804 61.70086319864617
C  53.23867622766102 35.6586626792481 62.041080584885904
C  52.09383280861699 35.070370326457464 62.84290050345411
O  50.93290779013347 35.25818326148377 62.446492168337734
O  52.450165855875895 34.42989149253343 63.87215149964354
O  53.66621207873159 34.85650654598805 61.054093868041825
C  54.71815385913742 33.83104402865582 61.23663759475593
H  54.39973182467045 33.06727927305212 60.508001565231794
C  54.767758247697245 33.198081424292624 62.58422866848002
H  53.8571215530911 32.7943632349844 63.0082180665135
C  55.905898340273815 32.960057229259654 63.259142838423735
C  57.20017709531052 33.379954457291966 62.73440864184165
H  58.08156377516375 33.16915449655669 63.33821798131531
C  57.276639466648916 33.98203669185954 61.54010622870798
H  58.23992456026253 34.29061369447931 61.12383837869335
C  56.05973674702262 34.40059346298554 60.75231708404404
H  56.00035000153522 35.49784664786967 60.93659364918033
O  56.1187821272803 34.09457902438982 59.39062037239166
H  56.99091566301214 34.3011658622489 59.01756510922908
C  55.876130699690364 32.14942443987804 64.52538335452176
O  54.808805502626385 31.604760771333904 64.92341707816036
O  56.99154868922325 32.04260136818517 65.11239856399824
C  69.8871 31.0842 49.8237
O  71.070925 31.145976 49.427163
O  69.175816 30.056817 49.856259
H  69.429121 32.02005 50.176461
C  62.8402 31.6658 65.7108
N  62.990777 32.05102 64.446746
H  62.68026 32.713522 65.143
H  63.186946 31.095982 64.710413
N  62.431301 32.538204 66.627649
H  62.62747 31.583166 66.891316
H  62.545649 32.83074 65.667728
N  63.098521 30.408176 66.058005
H  63.21287 30.700711 65.098084
H  62.788004 31.070678 66.754259
C  48.4398 39.268 57.9612
N  48.590377 39.65322 56.697146
H  48.27986 40.315722 57.3934
H  48.786546 38.698182 56.960813
N  48.030901 40.140404 58.878049
H  48.22707 39.185366 59.141716
H  48.145249 40.43294 57.918128
N  48.698121 38.010376 58.308405
H  48.81247 38.302911 57.348484
H  48.387604 38.672878 59.004659
C  52.1138 31.5279 64.2347
N  52.264377 31.91312 62.970646
H  51.95386 32.575622 63.6669
H  52.460546 30.958082 63.234313
N  51.704901 32.400304 65.151549
H  51.90107 31.445266 65.415216
H  51.819249 32.69284 64.191628
N  52.372121 30.270276 64.581905
H  52.48647 30.562811 63.621984
H  52.061604 30.932778 65.278159
C  57.8884 29.3185 65.8597
N  58.038977 29.70372 64.595646
H  57.72846 30.366222 65.2919
H  58.235146 28.748682 64.859313
N  57.479501 30.190904 66.776549
H  57.67567 29.235866 67.040216
H  57.593849 30.48344 65.816628
N  58.146721 28.060876 66.206905
H  58.26107 28.353411 65.246984
H  57.836204 28.723378 66.903159
C  58.7165 34.443 44.3843
O  59.900325 34.504776 43.987763
O  58.005216 33.415617 44.416859
H  58.258521 35.37885 44.737061
C  67.6677 26.1432 50.1847
O  68.851525 26.204976 49.788163
O  66.956416 25.115817 50.217259
H  67.209721 27.07905 50.537461
C  63.3925 38.5707 46.6293
O  64.576325 38.632476 46.232763
O  62.681216 37.543317 46.661859
H  62.934521 39.50655 46.982061
C  51.394 38.8846 63.6639
N  51.544577 39.26982 62.399846
H  51.23406 39.932322 63.0961
H  51.740746 38.314782 62.663513
N  50.985101 39.757004 64.580749
H  51.18127 38.801966 64.844416
H  51.099449 40.04954 63.620828
N  51.652321 37.626976 64.011105
H  51.76667 37.919511 63.051184
H  51.341804 38.289478 64.707359
C  69.4437 27.9917 58.8186
O  70.627525 28.053476 58.422063
O  68.732416 26.964317 58.851159
H  68.985721 28.92755 59.171361
94
Image 5. Energy: -22860.915064777375 
C  53.33836316887699 37.11326324758393 62.16488421743885
H  53.53068635462431 37.25411980178503 63.26101434124469
H  54.118485380878916 37.59025867378938 61.563372594277915
C  53.27902060472175 35.705427662751354 62.06075331262716
C  52.38664161203052 34.90759997082187 63.01198577056673
O  51.18047081417029 34.79817750072173 62.71162687480826
O  52.959188052589845 34.39132591694826 64.00368858615128
O  53.926934535357724 35.06436455322789 61.149725428987104
C  54.81636943159845 33.634419702237246 61.20653293087661
H  54.246879053148554 33.08806305376527 60.44671758738079
C  54.868181219189914 32.97878846257419 62.50801537496494
H  53.99423782759605 32.470511734170685 62.89661698737397
C  55.99946393165598 32.86527144813451 63.242966652394436
C  57.27799541184387 33.34912137317362 62.773808603185586
H  58.14176184585517 33.236407855463085 63.42516301346477
C  57.37259108323227 33.84781731066764 61.52856900775431
H  58.32188475115576 34.20705830121505 61.121557411656106
C  56.15927161691144 34.14957695172609 60.69792365115832
H  56.098550877342696 35.2402790251496 60.93093733307916
O  56.235689240724746 33.88164705435411 59.34263528662335
H  57.08309192396207 34.17928270188449 58.97009210456997
C  55.97434148232095 32.09376290196618 64.53609278550556
O  54.932874904569395 31.488339503068264 64.90843451451724
O  57.076284125637514 32.08694602282153 65.15646905938722
C  69.8871 31.0842 49.8237
O  71.070925 31.145976 49.427163
O  69.175816 30.056817 49.856259
H  69.429121 32.02005 50.176461
C  62.8402 31.6658 65.7108
N  62.990777 32.05102 64.446746
H  62.68026 32.713522 65.143
H  63.186946 31.095982 64.710413
N  62.431301 32.538204 66.627649
H  62.62747 31.583166 66.891316
H  62.545649 32.83074 65.667728
N  63.098521 30.408176 66.058005
H  63.21287 30.700711 65.098084
H  62.788004 31.070678 66.754259
C  48.4398 39.268 57.9612
N  48.590377 39.65322 56.697146
H  48.27986 40.315722 57.3934
H  48.786546 38.698182 56.960813
N  48.030901 40.140404 58.878049
H  48.22707 39.185366 59.141716
H  48.145249 40.43294 57.918128
N  48.698121 38.010376 58.308405
H  48.81247 38.302911 57.348484
H  48.387604 38.672878 59.004659
C  52.1138 31.5279 64.2347
N  52.264377 31.91312 62.970646
H  51.95386 32.575622 63.6669
H  52.460546 30.958082 63.234313
N  51.704901 32.400304 65.151549
H  51.90107 31.445266 65.415216
H  51.819249 32.69284 64.191628
N  52.372121 30.270276 64.581905
H  52.48647 30.562811 63.621984
H  52.061604 30.932778 65.278159
C  57.8884 29.3185 65.8597
N  58.038977 29.70372 64.595646
H  57.72846 30.366222 65.2919
H  58.235146 28.748682 64.859313
N  57.479501 30.190904 66.776549
H  57.67567 29.235866 67.040216
H  57.593849 30.48344 65.816628
N  58.146721 28.060876 66.206905
H  58.26107 28.353411 65.246984
H  57.836204 28.723378 66.903159
C  58.7165 34.443 44.3843
O  59.900325 34.504776 43.987763
O  58.005216 33.415617 44.416859
H  58.258521 35.37885 44.737061
C  67.6677 26.1432 50.1847
O  68.851525 26.204976 49.788163
O  66.956416 25.115817 50.217259
H  67.209721 27.07905 50.537461
C  63.3925 38.5707 46.6293
O  64.576325 38.632476 46.232763
O  62.681216 37.543317 46.661859
H  62.934521 39.50655 46.982061
C  51.394 38.8846 63.6639
N  51.544577 39.26982 62.399846
H  51.23406 39.932322 63.0961
H  51.740746 38.314782 62.663513
N  50.985101 39.757004 64.580749
H  51.18127 38.801966 64.844416
H  51.099449 40.04954 63.620828
N  51.652321 37.626976 64.011105
H  51.76667 37.919511 63.051184
H  51.341804 38.289478 64.707359
C  69.4437 27.9917 58.8186
O  70.627525 28.053476 58.422063
O  68.732416 26.964317 58.851159
H  68.985721 28.92755 59.171361
94
Image 6. Energy: -22860.95630915481 
C  53.355684969226616 37.14403728127126 62.22191266302468
H  53.68020983435336 37.202769755736334 63.29235398742716
H  54.151028170674415 37.55258886400748 61.583860453329706
C  53.25418872680989 35.72043257657821 62.03372897482509
C  52.4494449411753 34.85935257820218 63.018863071147216
O  51.22806421952514 34.68047961607254 62.79277973669803
O  53.091137601773696 34.31727083154577 63.96567055419296
O  53.7798755359398 35.11877753254566 61.071541932314176
C  55.04918484239382 33.246661614108504 61.15755040799295
H  54.27764160528315 33.000729737198675 60.43622847548429
C  54.99958109271634 32.78375499172713 62.45246832723066
H  54.101889930787685 32.337151322321496 62.86547233132237
C  56.127518007611044 32.78677254641378 63.25944457449908
C  57.353144603465935 33.29497933311846 62.806762294227106
H  58.2276599072654 33.222551219599374 63.448483259624254
C  57.46703294691119 33.77178396976156 61.51425021089488
H  58.40262418611766 34.177338074500156 61.122245856798
C  56.28136842717918 33.842104733435654 60.65194953319548
H  56.27092042779554 34.92837623990889 61.15004733754336
O  56.33323581645376 33.88708357456866 59.30930610385117
H  57.22132464247589 34.079111512306085 58.96188447021339
C  56.08927914238362 32.05909881922197 64.5697963730031
O  55.06275868760611 31.41913332226762 64.9185091279879
O  57.187664254069894 32.0982576135683 65.19116061316713
C  69.8871 31.0842 49.8237
O  71.070925 31.145976 49.427163
O  69.175816 30.056817 49.856259
H  69.429121 32.02005 50.176461
C  62.8402 31.6658 65.7108
N  62.990777 32.05102 64.446746
H  62.68026 32.713522 65.143
H  63.186946 31.095982 64.710413
N  62.431301 32.538204 66.627649
H  62.62747 31.583166 66.891316
H  62.545649 32.83074 65.667728
N  63.098521 30.408176 66.058005
H  63.21287 30.700711 65.098084
H  62.788004 31.070678 66.754259
C  48.4398 39.268 57.9612
N  48.590377 39.65322 56.697146
H  48.27986 40.315722 57.3934
H  48.786546 38.698182 56.960813
N  48.030901 40.140404 58.878049
H  48.22707 39.185366 59.141716
H  48.145249 40.43294 57.918128
N  48.698121 38.010376 58.308405
H  48.81247 38.302911 57.348484
H  48.387604 38.672878 59.004659
C  52.1138 31.5279 64.2347
N  52.264377 31.91312 62.970646
H  51.95386 32.575622 63.6669
H  52.460546 30.958082 63.234313
N  51.704901 32.400304 65.151549
H  51.90107 31.445266 65.415216
H  51.819249 32.69284 64.191628
N  52.372121 30.270276 64.581905
H  52.48647 30.562811 63.621984
H  52.061604 30.932778 65.278159
C  57.8884 29.3185 65.8597
N  58.038977 29.70372 64.595646
H  57.72846 30.366222 65.2919
H  58.235146 28.748682 64.859313
N  57.479501 30.190904 66.776549
H  57.67567 29.235866 67.040216
H  57.593849 30.48344 65.816628
N  58.146721 28.060876 66.206905
H  58.26107 28.353411 65.246984
H  57.836204 28.723378 66.903159
C  58.7165 34.443 44.3843
O  59.900325 34.504776 43.987763
O  58.005216 33.415617 44.416859
H  58.258521 35.37885 44.737061
C  67.6677 26.1432 50.1847
O  68.851525 26.204976 49.788163
O  66.956416 25.115817 50.217259
H  67.209721 27.07905 50.537461
C  63.3925 38.5707 46.6293
O  64.576325 38.632476 46.232763
O  62.681216 37.543317 46.661859
H  62.934521 39.50655 46.982061
C  51.394 38.8846 63.6639
N  51.544577 39.26982 62.399846
H  51.23406 39.932322 63.0961
H  51.740746 38.314782 62.663513
N  50.985101 39.757004 64.580749
H  51.18127 38.801966 64.844416
H  51.099449 40.04954 63.620828
N  51.652321 37.626976 64.011105
H  51.76667 37.919511 63.051184
H  51.341804 38.289478 64.707359
C  69.4437 27.9917 58.8186
O  70.627525 28.053476 58.422063
O  68.732416 26.964317 58.851159
H  68.985721 28.92755 59.171361
94
Image 7. Energy: -22861.82080670582 
C  53.41807411201444 37.08995329487366 62.263787206184105
H  53.79271130763215 37.12610289341436 63.3173025652525
H  54.2114748313581 37.47798400749871 61.603938022661154
C  53.27822527997946 35.66847130318314 62.044165701508156
C  52.53572620710574 34.78875020529583 63.05866655218651
O  51.31211349648665 34.5673936131555 62.89161088005435
O  53.2347058473327 34.243228080541854 63.97020689976142
O  53.709503675995165 35.056378277834845 61.03196160656651
C  55.14660967088841 33.03122425011487 61.09882233956807
H  54.319480407401755 32.89674097403468 60.41847923341798
C  55.101214388125904 32.641652764257735 62.399981162012146
H  54.195656496019325 32.23055280953274 62.83978703010218
C  56.23112096516839 32.692019498592515 63.25409060402309
C  57.396362665173825 33.238241569527794 62.808156932985426
H  58.29460593370273 33.17435073823914 63.42784948336455
C  57.443084401140375 33.860934173299654 61.48877701852568
H  58.439855844788525 34.10517013667388 61.09434570118973
C  56.371643124592296 33.522730074835906 60.553395529020925
H  56.74486934426272 34.81828270151528 61.45507167796921
O  56.42246708733417 33.784762765527674 59.29821737778161
H  57.317799700124446 33.99194661046142 58.95433080002313
C  56.19045563945988 31.999297775037395 64.5678096529577
O  55.18091955130318 31.33259558445793 64.92033950706866
O  57.27698581260077 32.100600458084806 65.2118643958225
C  69.8871 31.0842 49.8237
O  71.070925 31.145976 49.427163
O  69.175816 30.056817 49.856259
H  69.429121 32.02005 50.176461
C  62.8402 31.6658 65.7108
N  62.990777 32.05102 64.446746
H  62.68026 32.713522 65.143
H  63.186946 31.095982 64.710413
N  62.431301 32.538204 66.627649
H  62.62747 31.583166 66.891316
H  62.545649 32.83074 65.667728
N  63.098521 30.408176 66.058005
H  63.21287 30.700711 65.098084
H  62.788004 31.070678 66.754259
C  48.4398 39.268 57.9612
N  48.590377 39.65322 56.697146
H  48.27986 40.315722 57.3934
H  48.786546 38.698182 56.960813
N  48.030901 40.140404 58.878049
H  48.22707 39.185366 59.141716
H  48.145249 40.43294 57.918128
N  48.698121 38.010376 58.308405
H  48.81247 38.302911 57.348484
H  48.387604 38.672878 59.004659
C  52.1138 31.5279 64.2347
N  52.264377 31.91312 62.970646
H  51.95386 32.575622 63.6669
H  52.460546 30.958082 63.234313
N  51.704901 32.400304 65.151549
H  51.90107 31.445266 65.415216
H  51.819249 32.69284 64.191628
N  52.372121 30.270276 64.581905
H  52.48647 30.562811 63.621984
H  52.061604 30.932778 65.278159
C  57.8884 29.3185 65.8597
N  58.038977 29.70372 64.595646
H  57.72846 30.366222 65.2919
H  58.235146 28.748682 64.859313
N  57.479501 30.190904 66.776549
H  57.67567 29.235866 67.040216
H  57.593849 30.48344 65.816628
N  58.146721 28.060876 66.206905
H  58.26107 28.353411 65.246984
H  57.836204 28.723378 66.903159
C  58.7165 34.443 44.3843
O  59.900325 34.504776 43.987763
O  58.005216 33.415617 44.416859
H  58.258521 35.37885 44.737061
C  67.6677 26.1432 50.1847
O  68.851525 26.204976 49.788163
O  66.956416 25.115817 50.217259
H  67.209721 27.07905 50.537461
C  63.3925 38.5707 46.6293
O  64.576325 38.632476 46.232763
O  62.681216 37.543317 46.661859
H  62.934521 39.50655 46.982061
C  51.394 38.8846 63.6639
N  51.544577 39.26982 62.399846
H  51.23406 39.932322 63.0961
H  51.740746 38.314782 62.663513
N  50.985101 39.757004 64.580749
H  51.18127 38.801966 64.844416
H  51.099449 40.04954 63.620828
N  51.652321 37.626976 64.011105
H  51.76667 37.919511 63.051184
H  51.341804 38.289478 64.707359
C  69.4437 27.9917 58.8186
O  70.627525 28.053476 58.422063
O  68.732416 26.964317 58.851159
H  68.985721 28.92755 59.171361
94
Image 8. Energy: -22862.150482673827 
C  54.51764228287128 36.3725729113465 62.31562012763065
H  54.41800143436354 36.76072572916314 63.364337631471415
H  54.50018401703229 37.22298064891619 61.622804427777744
C  53.38006741369342 35.4679259051338 62.049283174750116
C  52.682705728776476 34.694840994542204 63.198862061096314
O  51.44369773138396 34.47259336183599 63.12062885816598
O  53.44928062276406 34.211180919300084 64.0659034658532
O  53.08916339264144 35.18583969854865 60.906580315200124
C  55.24941870341155 32.95078487750431 61.03254217085793
H  54.397847837456546 32.86988525532879 60.36032264419063
C  55.188369697525495 32.50016587299127 62.331790708959716
H  54.271645679556016 32.07556217116654 62.74521291263919
C  56.292231326683456 32.55854129116805 63.18373958823004
C  57.4833844577983 33.1278939019314 62.71297563082041
H  58.35729482035319 33.11267887698297 63.367381027190845
C  57.56875405204435 33.63493855657387 61.42145833999722
H  58.514892932991046 34.03565453668624 61.04994114094586
C  56.468969587076295 33.480469941343095 60.54003161612964
H  55.67035425829053 35.546749592083756 61.964534177413476
O  56.50555985355119 33.788634544356334 59.25671309986978
H  57.401690984449594 33.99831352643825 58.93473793782622
C  56.25411016833541 31.938403558432256 64.51194280275244
O  55.2690575434723 31.230574112444277 64.88866422575583
O  57.314544533479264 32.1102206757885 65.20363703447431
C  69.8871 31.0842 49.8237
O  71.070925 31.145976 49.427163
O  69.175816 30.056817 49.856259
H  69.429121 32.02005 50.176461
C  62.8402 31.6658 65.7108
N  62.990777 32.05102 64.446746
H  62.68026 32.713522 65.143
H  63.186946 31.095982 64.710413
N  62.431301 32.538204 66.627649
H  62.62747 31.583166 66.891316
H  62.545649 32.83074 65.667728
N  63.098521 30.408176 66.058005
H  63.21287 30.700711 65.098084
H  62.788004 31.070678 66.754259
C  48.4398 39.268 57.9612
N  48.590377 39.65322 56.697146
H  48.27986 40.315722 57.3934
H  48.786546 38.698182 56.960813
N  48.030901 40.140404 58.878049
H  48.22707 39.185366 59.141716
H  48.145249 40.43294 57.918128
N  48.698121 38.010376 58.308405
H  48.81247 38.302911 57.348484
H  48.387604 38.672878 59.004659
C  52.1138 31.5279 64.2347
N  52.264377 31.91312 62.970646
H  51.95386 32.575622 63.6669
H  52.460546 30.958082 63.234313
N  51.704901 32.400304 65.151549
H  51.90107 31.445266 65.415216
H  51.819249 32.69284 64.191628
N  52.372121 30.270276 64.581905
H  52.48647 30.562811 63.621984
H  52.061604 30.932778 65.278159
C  57.8884 29.3185 65.8597
N  58.038977 29.70372 64.595646
H  57.72846 30.366222 65.2919
H  58.235146 28.748682 64.859313
N  57.479501 30.190904 66.776549
H  57.67567 29.235866 67.040216
H  57.593849 30.48344 65.816628
N  58.146721 28.060876 66.206905
H  58.26107 28.353411 65.246984
H  57.836204 28.723378 66.903159
C  58.7165 34.443 44.3843
O  59.900325 34.504776 43.987763
O  58.005216 33.415617 44.416859
H  58.258521 35.37885 44.737061
C  67.6677 26.1432 50.1847
O  68.851525 26.204976 49.788163
O  66.956416 25.115817 50.217259
H  67.209721 27.07905 50.537461
C  63.3925 38.5707 46.6293
O  64.576325 38.632476 46.232763
O  62.681216 37.543317 46.661859
H  62.934521 39.50655 46.982061
C  51.394 38.8846 63.6639
N  51.544577 39.26982 62.399846
H  51.23406 39.932322 63.0961
H  51.740746 38.314782 62.663513
N  50.985101 39.757004 64.580749
H  51.18127 38.801966 64.844416
H  51.099449 40.04954 63.620828
N  51.652321 37.626976 64.011105
H  51.76667 37.919511 63.051184
H  51.341804 38.289478 64.707359
C  69.4437 27.9917 58.8186
O  70.627525 28.053476 58.422063
O  68.732416 26.964317 58.851159
H  68.985721 28.92755 59.171361
94
Image 9. Energy: -22863.86771336797 
C  55.223393093094984 35.627711494246434 62.60956400088133
H  55.6532786620013 35.17636049116342 63.51792180331727
H  55.722680191824466 36.55146138534327 62.335869171750716
C  53.730645896246195 35.828325521127375 62.752975461038226
C  52.999052191500596 34.84898151709869 63.760949151314705
O  51.79145512712211 34.539417028888636 63.50280967520938
O  53.6739535418257 34.417239496348216 64.70690361462769
O  53.081362607427394 36.73688008475264 62.206494211389874
C  55.17311768310983 32.85871802247872 60.68082992818045
H  54.354828554402076 32.78238845653312 59.966429163431826
C  55.04426451213943 32.464491022545005 62.00632891043731
H  54.089100728835376 32.06814830326433 62.35021275428329
C  56.10585417798387 32.55414274677126 62.919332647095395
C  57.33352582605709 33.050463834569356 62.45563794698591
H  58.17985923891486 33.08508333606447 63.14285950190961
C  57.49650895302915 33.46393497560352 61.13329884379088
H  58.459503369868365 33.835189754169235 60.776691877385915
C  56.41395749348097 33.36245264459042 60.22691796925847
H  55.61296837076144 34.94168026579938 61.64064346951867
O  56.47586836733546 33.717173078437 58.961720032733034
H  57.40625963379922 33.719848169670875 58.624610254748035
C  55.95647782129471 32.03412586016701 64.3102676021256
O  54.87301121326596 31.471282649300807 64.64839496284135
O  56.961145064691195 32.12139823107047 65.08866936572336
C  69.8871 31.0842 49.8237
O  71.070925 31.145976 49.427163
O  69.175816 30.056817 49.856259
H  69.429121 32.02005 50.176461
C  62.8402 31.6658 65.7108
N  62.990777 32.05102 64.446746
H  62.68026 32.713522 65.143
H  63.186946 31.095982 64.710413
N  62.431301 32.538204 66.627649
H  62.62747 31.583166 66.891316
H  62.545649 32.83074 65.667728
N  63.098521 30.408176 66.058005
H  63.21287 30.700711 65.098084
H  62.788004 31.070678 66.754259
C  48.4398 39.268 57.9612
N  48.590377 39.65322 56.697146
H  48.27986 40.315722 57.3934
H  48.786546 38.698182 56.960813
N  48.030901 40.140404 58.878049
H  48.22707 39.185366 59.141716
H  48.145249 40.43294 57.918128
N  48.698121 38.010376 58.308405
H  48.81247 38.302911 57.348484
H  48.387604 38.672878 59.004659
C  52.1138 31.5279 64.2347
N  52.264377 31.91312 62.970646
H  51.95386 32.575622 63.6669
H  52.460546 30.958082 63.234313
N  51.704901 32.400304 65.151549
H  51.90107 31.445266 65.415216
H  51.819249 32.69284 64.191628
N  52.372121 30.270276 64.581905
H  52.48647 30.562811 63.621984
H  52.061604 30.932778 65.278159
C  57.8884 29.3185 65.8597
N  58.038977 29.70372 64.595646
H  57.72846 30.366222 65.2919
H  58.235146 28.748682 64.859313
N  57.479501 30.190904 66.776549
H  57.67567 29.235866 67.040216
H  57.593849 30.48344 65.816628
N  58.146721 28.060876 66.206905
H  58.26107 28.353411 65.246984
H  57.836204 28.723378 66.903159
C  58.7165 34.443 44.3843
O  59.900325 34.504776 43.987763
O  58.005216 33.415617 44.416859
H  58.258521 35.37885 44.737061
C  67.6677 26.1432 50.1847
O  68.851525 26.204976 49.788163
O  66.956416 25.115817 50.217259
H  67.209721 27.07905 50.537461
C  63.3925 38.5707 46.6293
O  64.576325 38.632476 46.232763
O  62.681216 37.543317 46.661859
H  62.934521 39.50655 46.982061
C  51.394 38.8846 63.6639
N  51.544577 39.26982 62.399846
H  51.23406 39.932322 63.0961
H  51.740746 38.314782 62.663513
N  50.985101 39.757004 64.580749
H  51.18127 38.801966 64.844416
H  51.099449 40.04954 63.620828
N  51.652321 37.626976 64.011105
H  51.76667 37.919511 63.051184
H  51.341804 38.289478 64.707359
C  69.4437 27.9917 58.8186
O  70.627525 28.053476 58.422063
O  68.732416 26.964317 58.851159
H  68.985721 28.92755 59.171361
94
Image 10. Energy: -22861.54646016379 
C  55.33272104952312 35.65325595919124 63.260726313670965
H  55.70190541022797 34.99726820205644 64.04583962437523
H  56.06961888825027 36.17369683497015 62.64325023620349
C  53.975083186765026 35.84676846490221 63.11927478765275
C  53.14442169893183 34.83634219143577 63.95685679262946
O  51.982941589925666 34.50058987674872 63.51399918385657
O  53.65579944572237 34.3314414748062 64.98081361755344
O  53.37071892605607 36.683485174319834 62.33194900424148
C  55.144761954103245 32.833260705439805 60.57468474117401
H  54.36210526378579 32.6817685021919 59.83402283653832
C  54.99197790100914 32.57162401358835 61.906500774200964
H  54.02864991698072 32.20926018124318 62.259865243594206
C  56.06369285096399 32.6507953656836 62.851618982591724
C  57.28125531899521 33.09523262722048 62.41974535644285
H  58.12401816705108 33.11147049255236 63.114336655446
C  57.4582710896986 33.53140417939812 61.05305472294733
H  58.47328624132073 33.72751710668694 60.70102468529614
C  56.419890713119706 33.226808899225766 60.074321043937836
H  56.69031739429749 34.557390496894484 60.86587553033665
O  56.57186864650247 33.34359806662637 58.798155828380395
H  57.4225909539381 33.00106537048256 58.456372736218356
C  55.913508513318774 32.05036045440265 64.2306522023282
O  54.83674078481988 31.46745739684708 64.51063916171938
O  56.919129664697174 32.0838032830786 64.99943950865448
C  69.8871 31.0842 49.8237
O  71.070925 31.145976 49.427163
O  69.175816 30.056817 49.856259
H  69.429121 32.02005 50.176461
C  62.8402 31.6658 65.7108
N  62.990777 32.05102 64.446746
H  62.68026 32.713522 65.143
H  63.186946 31.095982 64.710413
N  62.431301 32.538204 66.627649
H  62.62747 31.583166 66.891316
H  62.545649 32.83074 65.667728
N  63.098521 30.408176 66.058005
H  63.21287 30.700711 65.098084
H  62.788004 31.070678 66.754259
C  48.4398 39.268 57.9612
N  48.590377 39.65322 56.697146
H  48.27986 40.315722 57.3934
H  48.786546 38.698182 56.960813
N  48.030901 40.140404 58.878049
H  48.22707 39.185366 59.141716
H  48.145249 40.43294 57.918128
N  48.698121 38.010376 58.308405
H  48.81247 38.302911 57.348484
H  48.387604 38.672878 59.004659
C  52.1138 31.5279 64.2347
N  52.264377 31.91312 62.970646
H  51.95386 32.575622 63.6669
H  52.460546 30.958082 63.234313
N  51.704901 32.400304 65.151549
H  51.90107 31.445266 65.415216
H  51.819249 32.69284 64.191628
N  52.372121 30.270276 64.581905
H  52.48647 30.562811 63.621984
H  52.061604 30.932778 65.278159
C  57.8884 29.3185 65.8597
N  58.038977 29.70372 64.595646
H  57.72846 30.366222 65.2919
H  58.235146 28.748682 64.859313
N  57.479501 30.190904 66.776549
H  57.67567 29.235866 67.040216
H  57.593849 30.48344 65.816628
N  58.146721 28.060876 66.206905
H  58.26107 28.353411 65.246984
H  57.836204 28.723378 66.903159
C  58.7165 34.443 44.3843
O  59.900325 34.504776 43.987763
O  58.005216 33.415617 44.416859
H  58.258521 35.37885 44.737061
C  67.6677 26.1432 50.1847
O  68.851525 26.204976 49.788163
O  66.956416 25.115817 50.217259
H  67.209721 27.07905 50.537461
C  63.3925 38.5707 46.6293
O  64.576325 38.632476 46.232763
O  62.681216 37.543317 46.661859
H  62.934521 39.50655 46.982061
C  51.394 38.8846 63.6639
N  51.544577 39.26982 62.399846
H  51.23406 39.932322 63.0961
H  51.740746 38.314782 62.663513
N  50.985101 39.757004 64.580749
H  51.18127 38.801966 64.844416
H  51.099449 40.04954 63.620828
N  51.652321 37.626976 64.011105
H  51.76667 37.919511 63.051184
H  51.341804 38.289478 64.707359
C  69.4437 27.9917 58.8186
O  70.627525 28.053476 58.422063
O  68.732416 26.964317 58.851159
H  68.985721 28.92755 59.171361
94
Image 11. Energy: -22860.90431728252 
C  55.48292200705126 35.42641208595767 63.264525996087634
H  55.83655628667339 34.896608539708595 64.14324231868888
H  56.211955672557515 35.932936785538715 62.628033058078124
C  54.11253938154822 35.696817891691246 63.149120276398556
C  53.23536958882498 34.747798678400905 63.99035357605769
O  52.063590153081 34.48001768182217 63.54299099349345
O  53.73136694894089 34.24301655334992 65.01852565911723
O  53.552996326790485 36.566748857115044 62.40376385278878
C  55.29997273964275 32.75426323393967 60.57718321809258
H  54.545399624431155 32.596368777508495 59.804129584783794
C  55.07879614294857 32.482679228936604 61.892035870954764
H  54.125340250726296 32.07761456902699 62.23235223059392
C  56.10430540759036 32.69455065435742 62.85783453802758
C  57.42700930191496 33.00167416346564 62.42996764803764
H  58.22350172992926 32.97260627778329 63.172705075226716
C  57.68148137543882 33.29982048642335 61.12091182536906
H  58.69100949265614 33.51337966652266 60.75550383457688
C  56.55197018858841 33.4506871098493 60.16716306315749
H  56.18730146690177 34.50218110905659 60.4381767944886
O  56.839935803716166 33.49027056934317 58.82564021623881
H  57.281988902687694 32.67233730835736 58.537273499203906
C  55.94663952187025 32.061187231400226 64.23711637095697
O  54.889702453748114 31.431673238366354 64.490111454783
O  56.95682804174116 32.08278154209775 65.00104585480683
C  69.8871 31.0842 49.8237
O  71.070925 31.145976 49.427163
O  69.175816 30.056817 49.856259
H  69.429121 32.02005 50.176461
C  62.8402 31.6658 65.7108
N  62.990777 32.05102 64.446746
H  62.68026 32.713522 65.143
H  63.186946 31.095982 64.710413
N  62.431301 32.538204 66.627649
H  62.62747 31.583166 66.891316
H  62.545649 32.83074 65.667728
N  63.098521 30.408176 66.058005
H  63.21287 30.700711 65.098084
H  62.788004 31.070678 66.754259
C  48.4398 39.268 57.9612
N  48.590377 39.65322 56.697146
H  48.27986 40.315722 57.3934
H  48.786546 38.698182 56.960813
N  48.030901 40.140404 58.878049
H  48.22707 39.185366 59.141716
H  48.145249 40.43294 57.918128
N  48.698121 38.010376 58.308405
H  48.81247 38.302911 57.348484
H  48.387604 38.672878 59.004659
C  52.1138 31.5279 64.2347
N  52.264377 31.91312 62.970646
H  51.95386 32.575622 63.6669
H  52.460546 30.958082 63.234313
N  51.704901 32.400304 65.151549
H  51.90107 31.445266 65.415216
H  51.819249 32.69284 64.191628
N  52.372121 30.270276 64.581905
H  52.48647 30.562811 63.621984
H  52.061604 30.932778 65.278159
C  57.8884 29.3185 65.8597
N  58.038977 29.70372 64.595646
H  57.72846 30.366222 65.2919
H  58.235146 28.748682 64.859313
N  57.479501 30.190904 66.776549
H  57.67567 29.235866 67.040216
H  57.593849 30.48344 65.816628
N  58.146721 28.060876 66.206905
H  58.26107 28.353411 65.246984
H  57.836204 28.723378 66.903159
C  58.7165 34.443 44.3843
O  59.900325 34.504776 43.987763
O  58.005216 33.415617 44.416859
H  58.258521 35.37885 44.737061
C  67.6677 26.1432 50.1847
O  68.851525 26.204976 49.788163
O  66.956416 25.115817 50.217259
H  67.209721 27.07905 50.537461
C  63.3925 38.5707 46.6293
O  64.576325 38.632476 46.232763
O  62.681216 37.543317 46.661859
H  62.934521 39.50655 46.982061
C  51.394 38.8846 63.6639
N  51.544577 39.26982 62.399846
H  51.23406 39.932322 63.0961
H  51.740746 38.314782 62.663513
N  50.985101 39.757004 64.580749
H  51.18127 38.801966 64.844416
H  51.099449 40.04954 63.620828
N  51.652321 37.626976 64.011105
H  51.76667 37.919511 63.051184
H  51.341804 38.289478 64.707359
C  69.4437 27.9917 58.8186
O  70.627525 28.053476 58.422063
O  68.732416 26.964317 58.851159
H  68.985721 28.92755 59.171361
94
Image 12. Energy: -22861.551119779688 
C  55.70294890427549 34.78971273837842 63.21551705017511
H  55.98560231334408 34.91856405400455 64.26174815236872
H  56.34781071377106 35.43729968501127 62.59637925676351
C  54.29469373267657 35.34483091515385 63.121124780434634
C  53.30073781451764 34.61451672361659 64.0087578042569
O  52.117011539442984 34.46196960785191 63.56166781487017
O  53.76237419630869 34.195178312146204 65.082623780781
O  53.92700042106011 36.327666283990695 62.483162842640404
C  55.36530970658865 32.70415276997963 60.593747967367825
H  54.676311515489104 32.39026391566177 59.80457957133035
C  55.104198503763136 32.54516723067819 61.89554379760974
H  54.20285578179796 32.031807693645234 62.241704367264994
C  56.03877352267099 33.09221755532643 62.95267515547795
C  57.469169891296374 33.0512467495701 62.435258434204506
H  58.26387984909817 32.92895213489303 63.17325517522054
C  57.736000697938074 33.22504394719017 61.134234780516714
H  58.755895815949486 33.30820401984165 60.74478868384039
C  56.603600847118216 33.46096813009387 60.16423827196926
H  56.322912153479834 34.51948892942001 60.34978440558381
O  56.90792791659857 33.385486758605204 58.81268249998066
H  57.3815860688603 32.569959798124216 58.58575520473959
C  55.96684925572573 32.16081901333372 64.23451049154644
O  54.95187991220196 31.43637780699097 64.42875879127716
O  56.996351056037746 32.08330436650871 64.97389492977875
C  69.8871 31.0842 49.8237
O  71.070925 31.145976 49.427163
O  69.175816 30.056817 49.856259
H  69.429121 32.02005 50.176461
C  62.8402 31.6658 65.7108
N  62.990777 32.05102 64.446746
H  62.68026 32.713522 65.143
H  63.186946 31.095982 64.710413
N  62.431301 32.538204 66.627649
H  62.62747 31.583166 66.891316
H  62.545649 32.83074 65.667728
N  63.098521 30.408176 66.058005
H  63.21287 30.700711 65.098084
H  62.788004 31.070678 66.754259
C  48.4398 39.268 57.9612
N  48.590377 39.65322 56.697146
H  48.27986 40.315722 57.3934
H  48.786546 38.698182 56.960813
N  48.030901 40.140404 58.878049
H  48.22707 39.185366 59.141716
H  48.145249 40.43294 57.918128
N  48.698121 38.010376 58.308405
H  48.81247 38.302911 57.348484
H  48.387604 38.672878 59.004659
C  52.1138 31.5279 64.2347
N  52.264377 31.91312 62.970646
H  51.95386 32.575622 63.6669
H  52.460546 30.958082 63.234313
N  51.704901 32.400304 65.151549
H  51.90107 31.445266 65.415216
H  51.819249 32.69284 64.191628
N  52.372121 30.270276 64.581905
H  52.48647 30.562811 63.621984
H  52.061604 30.932778 65.278159
C  57.8884 29.3185 65.8597
N  58.038977 29.70372 64.595646
H  57.72846 30.366222 65.2919
H  58.235146 28.748682 64.859313
N  57.479501 30.190904 66.776549
H  57.67567 29.235866 67.040216
H  57.593849 30.48344 65.816628
N  58.146721 28.060876 66.206905
H  58.26107 28.353411 65.246984
H  57.836204 28.723378 66.903159
C  58.7165 34.443 44.3843
O  59.900325 34.504776 43.987763
O  58.005216 33.415617 44.416859
H  58.258521 35.37885 44.737061
C  67.6677 26.1432 50.1847
O  68.851525 26.204976 49.788163
O  66.956416 25.115817 50.217259
H  67.209721 27.07905 50.537461
C  63.3925 38.5707 46.6293
O  64.576325 38.632476 46.232763
O  62.681216 37.543317 46.661859
H  62.934521 39.50655 46.982061
C  51.394 38.8846 63.6639
N  51.544577 39.26982 62.399846
H  51.23406 39.932322 63.0961
H  51.740746 38.314782 62.663513
N  50.985101 39.757004 64.580749
H  51.18127 38.801966 64.844416
H  51.099449 40.04954 63.620828
N  51.652321 37.626976 64.011105
H  51.76667 37.919511 63.051184
H  51.341804 38.289478 64.707359
C  69.4437 27.9917 58.8186
O  70.627525 28.053476 58.422063
O  68.732416 26.964317 58.851159
H  68.985721 28.92755 59.171361
94
Image 13. Energy: -22862.040517335474 
C  56.037692253162064 34.681873950822 63.39798332909349
H  56.48146281847018 34.76892464577288 64.40446992067235
H  56.64920485188213 35.279051562908066 62.707958048399135
C  54.665823538141225 35.31923611142753 63.44237246250958
C  53.57660031571051 34.571738068105375 64.2045419355426
O  52.427477476621206 34.47772714697336 63.66066291417532
O  53.92644048650484 34.104270804314275 65.30684807815885
O  54.40238147444759 36.4176337917348 62.95026891083432
C  55.27722487997167 32.950599260661484 60.55499357415551
H  54.473612229484615 32.799717946105986 59.826384369740616
C  55.032809265271375 32.93419220447609 61.87019095022836
H  54.01186242347182 32.77493362496909 62.22648766554052
C  56.09664658502231 33.16744389654857 62.92482918005255
C  57.478042309899834 32.96057663329974 62.31555468140207
H  58.298335569826385 32.863653997180805 63.03019034762727
C  57.72115315144854 32.96932355359164 60.99853167776341
H  58.738376160904764 32.86067714018301 60.60882179055894
C  56.647405705010534 33.171490838770424 59.96046637343244
H  56.70344650075795 34.23272091272479 59.641313968712915
O  56.844720308098935 32.4391693680915 58.78191049318865
H  57.011730194628875 31.50486184410461 58.97808350795304
C  55.951970345305085 32.154924442803555 64.11489289240623
O  54.92679600051681 31.426566536524216 64.19683995918476
O  56.923670525446234 32.06065777790625 64.92848421867839
C  69.8871 31.0842 49.8237
O  71.070925 31.145976 49.427163
O  69.175816 30.056817 49.856259
H  69.429121 32.02005 50.176461
C  62.8402 31.6658 65.7108
N  62.990777 32.05102 64.446746
H  62.68026 32.713522 65.143
H  63.186946 31.095982 64.710413
N  62.431301 32.538204 66.627649
H  62.62747 31.583166 66.891316
H  62.545649 32.83074 65.667728
N  63.098521 30.408176 66.058005
H  63.21287 30.700711 65.098084
H  62.788004 31.070678 66.754259
C  48.4398 39.268 57.9612
N  48.590377 39.65322 56.697146
H  48.27986 40.315722 57.3934
H  48.786546 38.698182 56.960813
N  48.030901 40.140404 58.878049
H  48.22707 39.185366 59.141716
H  48.145249 40.43294 57.918128
N  48.698121 38.010376 58.308405
H  48.81247 38.302911 57.348484
H  48.387604 38.672878 59.004659
C  52.1138 31.5279 64.2347
N  52.264377 31.91312 62.970646
H  51.95386 32.575622 63.6669
H  52.460546 30.958082 63.234313
N  51.704901 32.400304 65.151549
H  51.90107 31.445266 65.415216
H  51.819249 32.69284 64.191628
N  52.372121 30.270276 64.581905
H  52.48647 30.562811 63.621984
H  52.061604 30.932778 65.278159
C  57.8884 29.3185 65.8597
N  58.038977 29.70372 64.595646
H  57.72846 30.366222 65.2919
H  58.235146 28.748682 64.859313
N  57.479501 30.190904 66.776549
H  57.67567 29.235866 67.040216
H  57.593849 30.48344 65.816628
N  58.146721 28.060876 66.206905
H  58.26107 28.353411 65.246984
H  57.836204 28.723378 66.903159
C  58.7165 34.443 44.3843
O  59.900325 34.504776 43.987763
O  58.005216 33.415617 44.416859
H  58.258521 35.37885 44.737061
C  67.6677 26.1432 50.1847
O  68.851525 26.204976 49.788163
O  66.956416 25.115817 50.217259
H  67.209721 27.07905 50.537461
C  63.3925 38.5707 46.6293
O  64.576325 38.632476 46.232763
O  62.681216 37.543317 46.661859
H  62.934521 39.50655 46.982061
C  51.394 38.8846 63.6639
N  51.544577 39.26982 62.399846
H  51.23406 39.932322 63.0961
H  51.740746 38.314782 62.663513
N  50.985101 39.757004 64.580749
H  51.18127 38.801966 64.844416
H  51.099449 40.04954 63.620828
N  51.652321 37.626976 64.011105
H  51.76667 37.919511 63.051184
H  51.341804 38.289478 64.707359
C  69.4437 27.9917 58.8186
O  70.627525 28.053476 58.422063
O  68.732416 26.964317 58.851159
H  68.985721 28.92755 59.171361
