94
-2 1 -840.1646495741934
C       56.02825237    34.67856600    63.39509352
H       56.45426014    34.76948586    64.40849159
H       56.64592549    35.27639336    62.71074909
C       54.65393375    35.31528616    63.41949280
C       53.56793670    34.56606789    64.19213852
O       52.41495370    34.47941230    63.65150561
O       53.92009201    34.09724667    65.28709023
O       54.38902169    36.39758669    62.91524127
C       55.28204800    32.93244440    60.56044645
H       54.48385313    32.76232410    59.83038070
C       55.03827943    32.90942471    61.87595246
H       54.02283114    32.72092315    62.23412345
C       56.09913719    33.16073153    62.92919635
C       57.48329188    32.96620989    62.32094234
H       58.30422579    32.87498172    63.03609046
C       57.72531314    32.98493673    61.00464909
H       58.74332523    32.89054419    60.61188131
C       56.64774362    33.18648025    59.96944556
H       56.68553193    34.25546619    59.67269433
O       56.85778568    32.48072612    58.77804945
H       57.02766056    31.54311646    58.95689939
C       55.95934735    32.15379346    64.12424488
O       54.93503222    31.42521361    64.21458799
O       56.93510323    32.06460462    64.93369441
C       69.88710000    31.08420000    49.82370000
O       71.07092500    31.14597600    49.42716300
O       69.17581600    30.05681700    49.85625900
H       69.42912100    32.02005000    50.17646100
C       62.84020000    31.66580000    65.71080000
N       62.99077700    32.05102000    64.44674600
H       62.68026000    32.71352200    65.14300000
H       63.18694600    31.09598200    64.71041300
N       62.43130100    32.53820400    66.62764900
H       62.62747000    31.58316600    66.89131600
H       62.54564900    32.83074000    65.66772800
N       63.09852100    30.40817600    66.05800500
H       63.21287000    30.70071100    65.09808400
H       62.78800400    31.07067800    66.75425900
C       48.43980000    39.26800000    57.96120000
N       48.59037700    39.65322000    56.69714600
H       48.27986000    40.31572200    57.39340000
H       48.78654600    38.69818200    56.96081300
N       48.03090100    40.14040400    58.87804900
H       48.22707000    39.18536600    59.14171600
H       48.14524900    40.43294000    57.91812800
N       48.69812100    38.01037600    58.30840500
H       48.81247000    38.30291100    57.34848400
H       48.38760400    38.67287800    59.00465900
C       52.11380000    31.52790000    64.23470000
N       52.26437700    31.91312000    62.97064600
H       51.95386000    32.57562200    63.66690000
H       52.46054600    30.95808200    63.23431300
N       51.70490100    32.40030400    65.15154900
H       51.90107000    31.44526600    65.41521600
H       51.81924900    32.69284000    64.19162800
N       52.37212100    30.27027600    64.58190500
H       52.48647000    30.56281100    63.62198400
H       52.06160400    30.93277800    65.27815900
C       57.88840000    29.31850000    65.85970000
N       58.03897700    29.70372000    64.59564600
H       57.72846000    30.36622200    65.29190000
H       58.23514600    28.74868200    64.85931300
N       57.47950100    30.19090400    66.77654900
H       57.67567000    29.23586600    67.04021600
H       57.59384900    30.48344000    65.81662800
N       58.14672100    28.06087600    66.20690500
H       58.26107000    28.35341100    65.24698400
H       57.83620400    28.72337800    66.90315900
C       58.71650000    34.44300000    44.38430000
O       59.90032500    34.50477600    43.98776300
O       58.00521600    33.41561700    44.41685900
H       58.25852100    35.37885000    44.73706100
C       67.66770000    26.14320000    50.18470000
O       68.85152500    26.20497600    49.78816300
O       66.95641600    25.11581700    50.21725900
H       67.20972100    27.07905000    50.53746100
C       63.39250000    38.57070000    46.62930000
O       64.57632500    38.63247600    46.23276300
O       62.68121600    37.54331700    46.66185900
H       62.93452100    39.50655000    46.98206100
C       51.39400000    38.88460000    63.66390000
N       51.54457700    39.26982000    62.39984600
H       51.23406000    39.93232200    63.09610000
H       51.74074600    38.31478200    62.66351300
N       50.98510100    39.75700400    64.58074900
H       51.18127000    38.80196600    64.84441600
H       51.09944900    40.04954000    63.62082800
N       51.65232100    37.62697600    64.01110500
H       51.76667000    37.91951100    63.05118400
H       51.34180400    38.28947800    64.70735900
C       69.44370000    27.99170000    58.81860000
O       70.62752500    28.05347600    58.42206300
O       68.73241600    26.96431700    58.85115900
H       68.98572100    28.92755000    59.17136100
