24
Coordinates from ORCA-job neb_initial_path.QMRegion E   0.000000000000
  C      47.876000     30.538000     59.231000
  H      48.767000     30.040000     58.852000
  H      48.003000     31.329000     59.970000
  C      46.630000     30.239000     58.835000
  C      45.428000     31.010000     59.380000
  O      45.662000     31.904000     60.223000
  O      44.288000     30.726000     58.927000
  O      46.361000     29.232000     57.929000
  C      46.548000     29.490000     56.480000
  H      46.267000     28.529000     56.031000
  C      47.998000     29.807000     56.295000
  H      48.728000     29.011000     56.465000
  C      48.440000     31.075000     56.174000
  C      47.475000     32.156000     55.940000
  H      47.876000     33.168000     55.848000
  C      46.152000     31.921000     55.855000
  H      45.462000     32.751000     55.682000
  C      45.543000     30.544000     55.956000
  H      44.740000     30.573000     56.712000
  O      45.019000     30.180000     54.692000
  H      44.132000     29.718000     54.822000
  C      49.910000     31.416000     56.406000
  O      50.628000     30.544000     56.966000
  O      50.301000     32.567000     56.088000
24
Coordinates from ORCA-job neb_initial_path.QMRegion E   0.000000000000
  C      47.930000     30.595000     59.081000
  H      48.811500     30.062500     58.739000
  H      48.085000     31.415000     59.781500
  C      46.667000     30.237500     58.799500
  C      45.475000     31.010000     59.368000
  O      45.716500     31.886000     60.227500
  O      44.328500     30.733500     58.923500
  O      46.380000     29.204500     57.959500
  C      46.565500     29.461000     56.394500
  H      46.273500     28.483000     56.004000
  C      47.997500     29.780500     56.265500
  H      48.731500     28.982000     56.392500
  C      48.415500     31.059000     56.297500
  C      47.455000     32.138000     56.035500
  H      47.856500     33.151500     55.977000
  C      46.145000     31.896500     55.866500
  H      45.462500     32.720500     55.647000
  C      45.544500     30.517000     55.929500
  H      44.757500     30.514000     56.703500
  O      45.001500     30.190500     54.665500
  H      44.116500     29.722000     54.796000
  C      49.887500     31.409000     56.506500
  O      50.625500     30.533500     57.030000
  O      50.260500     32.563000     56.179500
24
Coordinates from ORCA-job neb_initial_path.QMRegion E   0.000000000000
  C      47.984000     30.652000     58.931000
  H      48.856000     30.085000     58.626000
  H      48.167000     31.501000     59.593000
  C      46.704000     30.236000     58.764000
  C      45.522000     31.010000     59.356000
  O      45.771000     31.868000     60.232000
  O      44.369000     30.741000     58.920000
  O      46.399000     29.177000     57.990000
  C      46.583000     29.432000     56.309000
  H      46.280000     28.437000     55.977000
  C      47.997000     29.754000     56.236000
  H      48.735000     28.953000     56.320000
  C      48.391000     31.043000     56.421000
  C      47.435000     32.120000     56.131000
  H      47.837000     33.135000     56.106000
  C      46.138000     31.872000     55.878000
  H      45.463000     32.690000     55.612000
  C      45.546000     30.490000     55.903000
  H      44.775000     30.455000     56.695000
  O      44.984000     30.201000     54.639000
  H      44.101000     29.726000     54.770000
  C      49.865000     31.402000     56.607000
  O      50.623000     30.523000     57.094000
  O      50.220000     32.559000     56.271000
24
Coordinates from ORCA-job neb_initial_path.QMRegion E   0.000000000000
  C      48.003143     30.662143     58.860143
  H      48.855857     30.067286     58.639857
  H      48.197429     31.517571     59.511143
  C      46.708571     30.231429     58.764429
  C      45.538857     31.015286     59.369571
  O      45.805571     31.863714     60.247429
  O      44.383143     30.751143     58.941857
  O      46.404000     29.160143     58.061286
  C      46.614429     29.424000     56.224286
  H      46.315000     28.430286     55.887714
  C      48.001714     29.738571     56.227714
  H      48.745857     28.942714     56.304000
  C      48.383571     31.030286     56.484714
  C      47.434714     32.106714     56.155714
  H      47.836143     33.122000     56.133286
  C      46.149286     31.857000     55.868571
  H      45.480571     32.673286     55.585429
  C      45.563143     30.473000     55.873429
  H      44.810143     30.415429     56.678000
  O      44.973286     30.207571     54.620714
  H      44.091000     29.735429     54.761286
  C      49.862857     31.397000     56.628571
  O      50.632714     30.522857     57.103857
  O      50.207143     32.552286     56.280143
24
Coordinates from ORCA-job neb_initial_path.QMRegion E   0.000000000000
  C      48.022286     30.672286     58.789286
  H      48.855714     30.049571     58.653714
  H      48.227857     31.534143     59.429286
  C      46.713143     30.226857     58.764857
  C      45.555714     31.020571     59.383143
  O      45.840143     31.859429     60.262857
  O      44.397286     30.761286     58.963714
  O      46.409000     29.143286     58.132571
  C      46.645857     29.416000     56.139571
  H      46.350000     28.423571     55.798429
  C      48.006429     29.723143     56.219429
  H      48.756714     28.932429     56.288000
  C      48.376143     31.017571     56.548429
  C      47.434429     32.093429     56.180429
  H      47.835286     33.109000     56.160571
  C      46.160571     31.842000     55.859143
  H      45.498143     32.656571     55.558857
  C      45.580286     30.456000     55.843857
  H      44.845286     30.375857     56.661000
  O      44.962571     30.214143     54.602429
  H      44.081000     29.744857     54.752571
  C      49.860714     31.392000     56.650143
  O      50.642429     30.522714     57.113714
  O      50.194286     32.545571     56.289286
24
Coordinates from ORCA-job neb_initial_path.QMRegion E   0.000000000000
  C      48.041429     30.682429     58.718429
  H      48.855571     30.031857     58.667571
  H      48.258286     31.550714     59.347429
  C      46.717714     30.222286     58.765286
  C      45.572571     31.025857     59.396714
  O      45.874714     31.855143     60.278286
  O      44.411429     30.771429     58.985571
  O      46.414000     29.126429     58.203857
  C      46.677286     29.408000     56.054857
  H      46.385000     28.416857     55.709143
  C      48.011143     29.707714     56.211143
  H      48.767571     28.922143     56.272000
  C      48.368714     31.004857     56.612143
  C      47.434143     32.080143     56.205143
  H      47.834429     33.096000     56.187857
  C      46.171857     31.827000     55.849714
  H      45.515714     32.639857     55.532286
  C      45.597429     30.439000     55.814286
  H      44.880429     30.336286     56.644000
  O      44.951857     30.220714     54.584143
  H      44.071000     29.754286     54.743857
  C      49.858571     31.387000     56.671714
  O      50.652143     30.522571     57.123571
  O      50.181429     32.538857     56.298429
24
Coordinates from ORCA-job neb_initial_path.QMRegion E   0.000000000000
  C      48.060571     30.692571     58.647571
  H      48.855429     30.014143     58.681429
  H      48.288714     31.567286     59.265571
  C      46.722286     30.217714     58.765714
  C      45.589429     31.031143     59.410286
  O      45.909286     31.850857     60.293714
  O      44.425571     30.781571     59.007429
  O      46.419000     29.109571     58.275143
  C      46.708714     29.400000     55.970143
  H      46.420000     28.410143     55.619857
  C      48.015857     29.692286     56.202857
  H      48.778429     28.911857     56.256000
  C      48.361286     30.992143     56.675857
  C      47.433857     32.066857     56.229857
  H      47.833571     33.083000     56.215143
  C      46.183143     31.812000     55.840286
  H      45.533286     32.623143     55.505714
  C      45.614571     30.422000     55.784714
  H      44.915571     30.296714     56.627000
  O      44.941143     30.227286     54.565857
  H      44.061000     29.763714     54.735143
  C      49.856429     31.382000     56.693286
  O      50.661857     30.522429     57.133429
  O      50.168571     32.532143     56.307571
24
Coordinates from ORCA-job neb_initial_path.QMRegion E   0.000000000000
  C      48.079714     30.702714     58.576714
  H      48.855286     29.996429     58.695286
  H      48.319143     31.583857     59.183714
  C      46.726857     30.213143     58.766143
  C      45.606286     31.036429     59.423857
  O      45.943857     31.846571     60.309143
  O      44.439714     30.791714     59.029286
  O      46.424000     29.092714     58.346429
  C      46.740143     29.392000     55.885429
  H      46.455000     28.403429     55.530571
  C      48.020571     29.676857     56.194571
  H      48.789286     28.901571     56.240000
  C      48.353857     30.979429     56.739571
  C      47.433571     32.053571     56.254571
  H      47.832714     33.070000     56.242429
  C      46.194429     31.797000     55.830857
  H      45.550857     32.606429     55.479143
  C      45.631714     30.405000     55.755143
  H      44.950714     30.257143     56.610000
  O      44.930429     30.233857     54.547571
  H      44.051000     29.773143     54.726429
  C      49.854286     31.377000     56.714857
  O      50.671571     30.522286     57.143286
  O      50.155714     32.525429     56.316714
24
Coordinates from ORCA-job neb_initial_path.QMRegion E   0.000000000000
  C      48.098857     30.712857     58.505857
  H      48.855143     29.978714     58.709143
  H      48.349571     31.600429     59.101857
  C      46.731429     30.208571     58.766571
  C      45.623143     31.041714     59.437429
  O      45.978429     31.842286     60.324571
  O      44.453857     30.801857     59.051143
  O      46.429000     29.075857     58.417714
  C      46.771571     29.384000     55.800714
  H      46.490000     28.396714     55.441286
  C      48.025286     29.661429     56.186286
  H      48.800143     28.891286     56.224000
  C      48.346429     30.966714     56.803286
  C      47.433286     32.040286     56.279286
  H      47.831857     33.057000     56.269714
  C      46.205714     31.782000     55.821429
  H      45.568429     32.589714     55.452571
  C      45.648857     30.388000     55.725571
  H      44.985857     30.217571     56.593000
  O      44.919714     30.240429     54.529286
  H      44.041000     29.782571     54.717714
  C      49.852143     31.372000     56.736429
  O      50.681286     30.522143     57.153143
  O      50.142857     32.518714     56.325857
24
Coordinates from ORCA-job neb_initial_path.QMRegion E   0.000000000000
  C      48.118000     30.723000     58.435000
  H      48.855000     29.961000     58.723000
  H      48.380000     31.617000     59.020000
  C      46.736000     30.204000     58.767000
  C      45.640000     31.047000     59.451000
  O      46.013000     31.838000     60.340000
  O      44.468000     30.812000     59.073000
  O      46.434000     29.059000     58.489000
  C      46.803000     29.376000     55.716000
  H      46.525000     28.390000     55.352000
  C      48.030000     29.646000     56.178000
  H      48.811000     28.881000     56.208000
  C      48.339000     30.954000     56.867000
  C      47.433000     32.027000     56.304000
  H      47.831000     33.044000     56.297000
  C      46.217000     31.767000     55.812000
  H      45.586000     32.573000     55.426000
  C      45.666000     30.371000     55.696000
  H      45.021000     30.178000     56.576000
  O      44.909000     30.247000     54.511000
  H      44.031000     29.792000     54.709000
  C      49.850000     31.367000     56.758000
  O      50.691000     30.522000     57.163000
  O      50.130000     32.512000     56.335000
