24
Coordinates from ORCA-job neb_MEP.QMRegion E -1076.607152173161
  C      47.876000     30.538000     59.231000
  H      48.767000     30.040000     58.852000
  H      48.003000     31.329000     59.970000
  C      46.630000     30.239000     58.835000
  C      45.428000     31.010000     59.380000
  O      45.662000     31.904000     60.223000
  O      44.288000     30.726000     58.927000
  O      46.361000     29.232000     57.929000
  C      46.548000     29.490000     56.480000
  H      46.267000     28.529000     56.031000
  C      47.998000     29.807000     56.295000
  H      48.728000     29.011000     56.465000
  C      48.440000     31.075000     56.174000
  C      47.475000     32.156000     55.940000
  H      47.876000     33.168000     55.848000
  C      46.152000     31.921000     55.855000
  H      45.462000     32.751000     55.682000
  C      45.543000     30.544000     55.956000
  H      44.740000     30.573000     56.712000
  O      45.019000     30.180000     54.692000
  H      44.132000     29.718000     54.822000
  C      49.910000     31.416000     56.406000
  O      50.628000     30.544000     56.966000
  O      50.301000     32.567000     56.088000
24
Coordinates from ORCA-job neb_MEP.QMRegion E -1076.610222391185
  C      47.956248     30.556364     59.111842
  H      48.835871     30.063322     58.702048
  H      48.116404     31.377894     59.809158
  C      46.697618     30.230720     58.779917
  C      45.508293     30.992864     59.362679
  O      45.756605     31.857112     60.232695
  O      44.360583     30.732192     58.914342
  O      46.404922     29.207288     57.896408
  C      46.570401     29.435492     56.427796
  H      46.284390     28.465337     56.004817
  C      48.014529     29.760075     56.228857
  H      48.749738     28.959687     56.346698
  C      48.437325     31.041163     56.204651
  C      47.459883     32.118878     56.015316
  H      47.849603     33.139346     55.996010
  C      46.143932     31.870586     55.872663
  H      45.449562     32.696373     55.692779
  C      45.552631     30.486196     55.923086
  H      44.756017     30.482980     56.687132
  O      45.024071     30.152031     54.654029
  H      44.129070     29.702433     54.780250
  C      49.893972     31.406292     56.480826
  O      50.625356     30.532570     57.020922
  O      50.255025     32.579723     56.216515
24
Coordinates from ORCA-job neb_MEP.QMRegion E -1076.605768265747
  C      48.001630     30.574681     59.027297
  H      48.869975     30.025473     58.668813
  H      48.207217     31.467939     59.621144
  C      46.731285     30.217164     58.754107
  C      45.553426     30.996030     59.355416
  O      45.815970     31.844952     60.238147
  O      44.397413     30.747381     58.918969
  O      46.428891     29.181123     57.891872
  C      46.598681     29.400920     56.353197
  H      46.321752     28.418011     55.947468
  C      48.028958     29.742033     56.195766
  H      48.769662     28.942253     56.272049
  C      48.425494     31.030858     56.296038
  C      47.447995     32.104231     56.093240
  H      47.830713     33.126821     56.111342
  C      46.149355     31.845303     55.852417
  H      45.461530     32.660341     55.607560
  C      45.567745     30.457712     55.873374
  H      44.807873     30.422104     56.670876
  O      44.989380     30.168875     54.616388
  H      44.089342     29.727264     54.757148
  C      49.876313     31.402245     56.574057
  O      50.628157     30.526893     57.081777
  O      50.218619     32.579547     56.305688
24
Coordinates from ORCA-job neb_MEP.QMRegion E -1076.590168593727
  C      48.026026     30.616298     58.971190
  H      48.880698     30.009044     58.687706
  H      48.247355     31.528032     59.528099
  C      46.734296     30.197144     58.792008
  C      45.559173     31.008233     59.369065
  O      45.821812     31.860189     60.248519
  O      44.405031     30.760010     58.926383
  O      46.436963     29.143482     58.055620
  C      46.634432     29.406184     56.162151
  H      46.334215     28.392386     55.891726
  C      48.013459     29.735020     56.178982
  H      48.759448     28.942492     56.258112
  C      48.395165     31.036324     56.400469
  C      47.437699     32.109035     56.129475
  H      47.825336     33.130003     56.145244
  C      46.151491     31.847768     55.833439
  H      45.467875     32.659588     55.570007
  C      45.579580     30.458195     55.828380
  H      44.855002     30.390300     56.659125
  O      44.951442     30.204882     54.587544
  H      44.063860     29.741190     54.746079
  C      49.860752     31.401160     56.628789
  O      50.627740     30.521087     57.098248
  O      50.199736     32.570160     56.322790
24
Coordinates from ORCA-job neb_MEP.QMRegion E -1076.586230600566
  C      48.049021     30.657284     58.895055
  H      48.888909     29.996147     58.705302
  H      48.270248     31.559136     59.469058
  C      46.731045     30.186206     58.817750
  C      45.557816     31.018144     59.379791
  O      45.825542     31.870529     60.256087
  O      44.408007     30.766501     58.933678
  O      46.440755     29.112766     58.205088
  C      46.661700     29.413257     56.014573
  H      46.343724     28.386336     55.842710
  C      47.993965     29.727360     56.176082
  H      48.748975     28.942065     56.256565
  C      48.369347     31.043902     56.499565
  C      47.431838     32.113336     56.151169
  H      47.823400     33.132474     56.157303
  C      46.154888     31.849897     55.820432
  H      45.473007     32.660760     55.550037
  C      45.589532     30.458191     55.796858
  H      44.884961     30.371113     56.647027
  O      44.926295     30.230685     54.568465
  H      44.051142     29.748481     54.739334
  C      49.850727     31.401715     56.662242
  O      50.629262     30.518021     57.102790
  O      50.188755     32.562452     56.324569
24
Coordinates from ORCA-job neb_MEP.QMRegion E -1076.589599238697
  C      48.072012     30.707136     58.734487
  H      48.885981     29.983059     58.717551
  H      48.286261     31.572202     59.378225
  C      46.724627     30.190088     58.802649
  C      45.559031     31.024469     59.384333
  O      45.840600     31.868964     60.261525
  O      44.409283     30.766880     58.947471
  O      46.438026     29.097355     58.291045
  C      46.680835     29.417739     55.952314
  H      46.356609     28.388968     55.799600
  C      47.980308     29.720915     56.195506
  H      48.744111     28.940583     56.261566
  C      48.342564     31.044470     56.656661
  C      47.424431     32.112097     56.191919
  H      47.823052     33.128604     56.170688
  C      46.161600     31.847713     55.822573
  H      45.487626     32.657000     55.526549
  C      45.593702     30.455864     55.791724
  H      44.891905     30.359232     56.642807
  O      44.918131     30.244465     54.566042
  H      44.049490     29.752974     54.737938
  C      49.844765     31.401845     56.699627
  O      50.638470     30.517953     57.111058
  O      50.177317     32.551495     56.322683
24
Coordinates from ORCA-job neb_MEP.QMRegion E -1076.603307390562
  C      48.085590     30.745406     58.569281
  H      48.864415     29.984394     58.721321
  H      48.299776     31.582644     59.261432
  C      46.715404     30.199969     58.780548
  C      45.562746     31.032193     59.387748
  O      45.858817     31.865957     60.268778
  O      44.411739     30.768917     58.964080
  O      46.434974     29.086439     58.368085
  C      46.698179     29.422336     55.913401
  H      46.375145     28.395240     55.744867
  C      47.974724     29.716198     56.216426
  H      48.742440     28.938596     56.268976
  C      48.324523     31.038584     56.807352
  C      47.419766     32.106150     56.241818
  H      47.824045     33.120855     56.190598
  C      46.170791     31.843398     55.832004
  H      45.509706     32.651110     55.500485
  C      45.598669     30.452120     55.788268
  H      44.900007     30.343887     56.640011
  O      44.911211     30.259487     54.564839
  H      44.048536     29.759068     54.737077
  C      49.840910     31.401169     56.727863
  O      50.647601     30.520292     57.122467
  O      50.164641     32.541075     56.319849
24
Coordinates from ORCA-job neb_MEP.QMRegion E -1076.617706546362
  C      48.091737     30.754528     58.459638
  H      48.831605     29.986525     58.722684
  H      48.334308     31.622042     59.090462
  C      46.712807     30.214749     58.766745
  C      45.582379     31.047804     59.411371
  O      45.912137     31.862057     60.296131
  O      44.421317     30.786125     59.013688
  O      46.433226     29.071775     58.475533
  C      46.738229     29.414121     55.828578
  H      46.431292     28.399784     55.579011
  C      47.987931     29.692771     56.220333
  H      48.759145     28.918331     56.264662
  C      48.323945     31.008874     56.874489
  C      47.424996     32.080691     56.292524
  H      47.831354     33.094525     56.251601
  C      46.194015     31.823111     55.833992
  H      45.557243     32.629985     55.456632
  C      45.622728     30.432195     55.758221
  H      44.946602     30.285269     56.624989
  O      44.899515     30.280402     54.552411
  H      44.040606     29.779692     54.731138
  C      49.840784     31.389713     56.759869
  O      50.664425     30.525123     57.154673
  O      50.145640     32.524192     56.325516
24
Coordinates from ORCA-job neb_MEP.QMRegion E -1076.627230666264
  C      48.102135     30.737239     58.440914
  H      48.838650     29.971681     58.726420
  H      48.354649     31.623361     59.041576
  C      46.721134     30.207435     58.765690
  C      45.612685     31.047580     59.435861
  O      45.968846     31.849790     60.321062
  O      44.443759     30.801544     59.052292
  O      46.430683     29.063834     58.487991
  C      46.775063     29.395508     55.758507
  H      46.484975     28.396032     55.442759
  C      48.011255     29.667152     56.194397
  H      48.788435     28.897804     56.229110
  C      48.332564     30.977368     56.871567
  C      47.432750     32.052542     56.299225
  H      47.835342     33.068322     56.283710
  C      46.210157     31.796267     55.820768
  H      45.578812     32.603649     55.437782
  C      45.648342     30.402998     55.720160
  H      44.992901     30.225914     56.597166
  O      44.900722     30.271526     54.528163
  H      44.034145     29.790667     54.718451
  C      49.846746     31.376523     56.762341
  O      50.679563     30.524021     57.164917
  O      50.137604     32.516332     56.332660
24
Coordinates from ORCA-job neb_MEP.QMRegion E -1076.630404018943
  C      48.118000     30.723000     58.435000
  H      48.855000     29.961000     58.723000
  H      48.380000     31.617000     59.020000
  C      46.736000     30.204000     58.767000
  C      45.640000     31.047000     59.451000
  O      46.013000     31.838000     60.340000
  O      44.468000     30.812000     59.073000
  O      46.434000     29.059000     58.489000
  C      46.803000     29.376000     55.716000
  H      46.525000     28.390000     55.352000
  C      48.030000     29.646000     56.178000
  H      48.811000     28.881000     56.208000
  C      48.339000     30.954000     56.867000
  C      47.433000     32.027000     56.304000
  H      47.831000     33.044000     56.297000
  C      46.217000     31.767000     55.812000
  H      45.586000     32.573000     55.426000
  C      45.666000     30.371000     55.696000
  H      45.021000     30.178000     56.576000
  O      44.909000     30.247000     54.511000
  H      44.031000     29.792000     54.709000
  C      49.850000     31.367000     56.758000
  O      50.691000     30.522000     57.163000
  O      50.130000     32.512000     56.335000
