24
frame 42436 P, aligned onto 20000 on 8 atoms
C      47.98240393    28.25091395    55.90775926
H      48.87682995    27.65752575    56.14857984
H      47.92907377    29.14944839    56.51815402
C      46.76068069    27.48849130    56.32865953
C      45.60646734    28.23529475    57.05163266
O      45.83158795    29.40801456    57.46401592
O      44.55819595    27.58013140    57.17369033
O      46.62746292    26.30150423    56.13382699
C      46.49837653    27.03508453    53.18144683
H      46.30454835    26.10152837    52.64683619
C      47.72786880    27.38403705    53.56493334
H      48.59557672    26.75262863    53.38231253
C      47.99569294    28.62916469    54.36486984
C      46.89720396    29.64792819    54.16380048
H      47.15825876    30.68271385    54.38913587
C      45.66553361    29.29879143    53.79042445
H      44.86221179    30.03715843    53.69580296
C      45.28285926    27.87835189    53.47330797
H      44.76803547    27.44988581    54.36146746
O      44.40294197    27.91160471    52.37856243
H      43.94022636    26.98653763    52.26469338
C      49.40912555    29.22885792    53.98517220
O      50.35484296    28.46377537    53.72236569
O      49.49813221    30.48943585    53.98548029
