24
frame 42436 R, aligned onto 20000 on 8 atoms
C      48.00114925    27.90798333    56.94743672
H      48.88965080    27.39598347    56.58443791
H      48.10266303    28.68875966    57.70110527
C      46.77930613    27.61610785    56.49295229
C      45.54297381    28.30215280    57.04372240
O      45.69400527    29.44856551    57.55538675
O      44.47265788    27.66400411    56.96392235
O      46.55885916    26.61545257    55.57504263
C      46.55097704    26.96667600    54.14381030
H      46.34841756    26.00620596    53.64876490
C      47.90745880    27.49200158    53.80379961
H      48.75098281    26.80647350    53.71715380
C      48.14600753    28.81687643    53.81217478
C      47.03542935    29.76333923    53.97363467
H      47.30938686    30.81181609    54.09102531
C      45.75405534    29.35915342    53.99485863
H      44.94051997    30.08127781    54.11167711
C      45.37790666    27.91339293    53.80172709
H      44.56741447    27.65263609    54.50452528
O      44.96241549    27.75313957    52.45901232
H      44.42799643    26.87971015    52.36070507
C      49.57015336    29.34726973    53.77791707
O      50.52391262    28.55065264    53.67402532
O      49.68344244    30.59990326    53.90882474
