24
frame 42436 TS, aligned onto 20000 on 8 atoms
C      48.04452027    28.07145429    56.46236074
H      48.92889642    27.49311713    56.22504860
H      48.11455350    28.94545261    57.10021970
C      46.77634521    27.49783376    56.40674287
C      45.58357074    28.25288548    57.02142838
O      45.78684273    29.41271261    57.49144727
O      44.49682254    27.64251608    57.01555060
O      46.53777112    26.43190299    55.77626935
C      46.48507642    26.97296691    53.59296332
H      46.27053468    25.95074751    53.27408500
C      47.77722507    27.43340819    53.64248239
H      48.62951295    26.77868810    53.47382137
C      48.04577169    28.73073228    54.11264987
C      46.94181824    29.69038845    54.18770535
H      47.20671744    30.72221310    54.41399353
C      45.67159141    29.31248249    53.97419002
H      44.85229835    30.03585833    54.01214248
C      45.29029190    27.89625335    53.65233875
H      44.61447993    27.52978405    54.44686655
O      44.63629689    27.90301078    52.39890763
H      44.10198663    27.02411395    52.27922465
C      49.47090745    29.27873151    53.94025825
O      50.41704141    28.49661025    53.72774526
O      49.57373986    30.53790231    53.97775623
