24
frame 56098 P, aligned onto 20000 on 8 atoms
C      48.10336679    28.42930222    56.06519090
H      49.03339405    27.86389727    56.20172862
H      48.11582704    29.34824433    56.67147065
C      46.97317673    27.51538016    56.46873879
C      45.69064897    28.04104794    57.16344012
O      45.87851141    28.87499786    58.07505804
O      44.59049388    27.55109368    56.80835621
O      47.08012950    26.32363193    56.25423877
C      46.64998181    27.14612965    53.24429650
H      46.53687347    26.24115054    52.63901447
C      47.84495681    27.54929175    53.67988697
H      48.75229451    26.98125828    53.45765000
C      48.01685708    28.79002139    54.53394215
C      46.85253281    29.73368048    54.34917875
H      47.03872114    30.78644215    54.58148407
C      45.64627131    29.30346938    53.97144126
H      44.78865116    29.98098841    53.90324566
C      45.37370116    27.86405544    53.61151069
H      44.96248559    27.36785493    54.51596014
O      44.41721877    27.83557093    52.58677849
H      44.07079494    26.85048702    52.46634500
C      49.36449731    29.42550426    54.08608800
O      50.42083950    28.81904905    54.43264575
O      49.33292672    30.45937520    53.40105576
