24
frame 56098 R, aligned onto 20000 on 8 atoms
C      47.95220585    28.06643733    56.83356610
H      48.84745166    27.76791733    56.28734568
H      48.01899985    28.81621322    57.62292133
C      46.74845966    27.55939512    56.53396088
C      45.48440271    28.00555683    57.25692198
O      45.62431213    28.85743870    58.16176099
O      44.39028569    27.49905687    56.88955874
O      46.56966422    26.59498313    55.57244868
C      46.55720252    26.97465122    54.15566753
H      46.34301391    26.02607854    53.64175497
C      47.91171785    27.49991325    53.82005019
H      48.74622526    26.79568242    53.77972261
C      48.14386345    28.82625578    53.79125887
C      47.03548224    29.78312517    53.90628517
H      47.30154124    30.84216443    53.93730892
C      45.75713095    29.37898531    53.98886208
H      44.93794540    30.10021709    54.07302126
C      45.38647913    27.92569102    53.82946660
H      44.57469156    27.66618704    54.53064819
O      44.99270693    27.74704801    52.48738496
H      44.33644008    26.93647255    52.43232815
C      49.55229081    29.37100124    53.72635335
O      50.45969796    28.70923223    54.31778808
O      49.72929672    30.46039390    53.14513432
