24
frame 56098 TS, aligned onto 20000 on 8 atoms
C      48.09025158    28.24322863    56.48715838
H      49.00375427    27.75036451    56.16403006
H      48.16323146    29.16478782    57.06750983
C      46.89042524    27.52757442    56.46895647
C      45.62345617    28.05556652    57.17154023
O      45.78772744    28.88142384    58.09840582
O      44.51314873    27.58321412    56.80254798
O      46.77689581    26.46132539    55.78716613
C      46.59432612    26.95165906    53.70350258
H      46.41841368    25.91696063    53.40071814
C      47.86933886    27.47663123    53.69691515
H      48.73823215    26.83421602    53.54527030
C      48.06567183    28.78861550    54.14633903
C      46.92543168    29.71215379    54.18555551
H      47.15246521    30.76730867    54.35599778
C      45.67141415    29.27298179    54.00627451
H      44.81998233    29.96020405    54.01324671
C      45.36479583    27.83205219    53.70910042
H      44.66964685    27.45256009    54.47788914
O      44.79335193    27.78218355    52.42080209
H      44.24041945    26.88229328    52.32633121
C      49.45862450    29.36437357    53.97249936
O      50.44294273    28.68794066    54.37960460
O      49.53671695    30.46092721    53.38451042
