24
frame 53493 P, aligned onto 20000 on 8 atoms
C      48.29073108    28.17044549    55.98232210
H      49.13572355    27.46712863    56.03441935
H      48.47815558    29.03723536    56.61977671
C      47.05074827    27.47259720    56.48126741
C      45.91045865    28.31008506    57.12033132
O      46.27003741    29.24385098    57.86601309
O      44.73242463    27.95855684    56.85133733
O      46.93209895    26.26601852    56.37279063
C      46.63294186    26.95656126    53.31320164
H      46.46911277    25.99868334    52.81860089
C      47.85846181    27.33649874    53.68422504
H      48.72819132    26.69949691    53.52310316
C      48.12359108    28.59854944    54.46313935
C      46.97479846    29.56539126    54.32471097
H      47.18155404    30.60769046    54.56318214
C      45.75231060    29.19443066    53.93429113
H      44.94410879    29.93069695    53.87906628
C      45.39703762    27.78776374    53.53155265
H      44.80107555    27.34957669    54.35363314
O      44.63062503    27.81522362    52.34085383
H      43.79046002    27.26355728    52.43475276
C      49.48914711    29.23929605    54.02828590
O      50.45245438    28.45701971    53.85951439
O      49.54684878    30.48963558    53.90450555
