24
frame 53493 R, aligned onto 20000 on 8 atoms
C      48.09970735    27.79600027    56.90390591
H      48.94025821    27.26634476    56.45294550
H      48.28374528    28.55272985    57.66477147
C      46.83582623    27.57487724    56.52537307
C      45.67349232    28.34902375    57.14234800
O      45.96533662    29.25925724    57.94610100
O      44.50667540    28.01456792    56.79093004
O      46.52254066    26.62074904    55.57865319
C      46.54456758    26.97465456    54.14796605
H      46.35657906    26.01604139    53.64630969
C      47.90691011    27.50066160    53.82763117
H      48.74580054    26.80570174    53.76298114
C      48.14603187    28.82641264    53.81490423
C      47.02943242    29.76995301    53.95644664
H      47.28543138    30.82715956    54.05196025
C      45.74889939    29.36183658    53.96736107
H      44.94049681    30.09241962    54.05996606
C      45.37579175    27.91385533    53.77966457
H      44.55410595    27.67378114    54.46847429
O      44.97924947    27.70585275    52.43083169
H      44.11364159    27.19109700    52.41765929
C      49.56969079    29.36385192    53.77707174
O      50.51927779    28.54541185    53.74919005
O      49.68906434    30.61899007    53.82244977
