24
frame 53493 TS, aligned onto 20000 on 8 atoms
C      48.25514018    28.08641061    56.44192433
H      49.09634740    27.49019402    56.09172884
H      48.44618885    28.99453946    57.00799974
C      46.96583530    27.55872092    56.45663981
C      45.82383107    28.36923467    57.11092780
O      46.15115832    29.28855825    57.89204176
O      44.64116021    28.03518035    56.81374826
O      46.67397056    26.49016700    55.82710638
C      46.55900436    26.91246027    53.70027956
H      46.37239409    25.86938827    53.44167896
C      47.84429273    27.41602430    53.66266182
H      48.70496912    26.76390990    53.52405527
C      48.08567968    28.73329262    54.06281116
C      46.95669955    29.66172538    54.15037260
H      47.18512697    30.70939503    54.34573188
C      45.69281514    29.24359191    53.97080767
H      44.86339682    29.95346522    54.01978841
C      45.34648947    27.81453135    53.66160527
H      44.62460789    27.47221280    54.41711730
O      44.78522024    27.73979086    52.35647409
H      43.92817802    27.19510252    52.38209298
C      49.50247983    29.29143105    53.93528215
O      50.45012686    28.47566415    53.84882883
O      49.61448364    30.54621571    53.89211715
