88
Image 0. Energy: -22845.138945630213 
C  54.76557824432932 31.314715433122306 62.33874514369395
H  55.83399098193055 31.107908416533874 62.26672799490366
H  54.38907901611245 32.20616972728803 61.83569522349663
C  53.884438167179276 30.513908099154744 62.94976160082309
C  52.37940256961111 30.772146317508604 62.962660450779175
O  51.98042487706497 31.930112210374794 62.67908157378139
O  51.65008010034784 29.787375224020547 63.26689251830213
O  54.17759721522577 29.340382816725317 63.62402833523923
C  55.49004794000713 28.763613137933152 63.59441416532044
H  55.3559549861145 27.835957591885432 64.1924145324857
C  56.47949301932337 29.573078842819008 64.3593223438022
H  56.12955027627875 30.046167949182447 65.27807677336763
C  57.78849230806304 29.590651238455056 64.04343280301872
C  58.267524460397745 28.944518598239554 62.8153368518211
H  59.32480779177012 29.031787418025356 62.55380250039981
C  57.41861366293095 28.316784356419614 61.97954562530956
H  57.779293912656435 27.900149144063423 61.03204348150633
C  55.92811187367361 28.235548705211993 62.214330467028326
H  55.441500465415245 28.826635842057495 61.41518900806148
O  55.441908944170905 26.886772567011544 62.17374865579725
H  55.657622565335274 26.50553614858253 61.303838680042375
C  58.73428390043282 30.237590279093897 65.02076898897158
O  58.24444569736247 30.677511605847325 66.0956286954714
O  59.971674194273895 30.274301530447026 64.74324934654439
C  61.2499 27.5507 65.3707
N  61.400477 27.93592 64.106646
H  61.08996 28.598422 64.8029
H  61.596646 26.980882 64.370313
N  60.841001 28.423104 66.287549
H  61.03717 27.468066 66.551216
H  60.955349 28.71564 65.327628
N  61.508221 26.293076 65.717905
H  61.62257 26.585611 64.757984
H  61.197704 26.955578 66.414159
C  66.7037 27.2429 46.1358
O  67.887525 27.304676 45.739263
O  65.992416 26.215517 46.168359
H  66.245721 28.17875 46.488561
C  68.4208 36.0888 47.0932
O  69.604625 36.150576 46.696663
O  67.709516 35.061417 47.125759
H  67.962821 37.02465 47.445961
C  70.0725 28.7101 49.1024
O  71.256325 28.771876 48.705863
O  69.361216 27.682717 49.134959
H  69.614521 29.64595 49.455161
C  66.4277 22.7649 54.5604
O  67.611525 22.826676 54.163863
O  65.716416 21.737517 54.592959
H  65.969721 23.70075 54.913161
C  60.0661 32.7337 43.351
O  61.249925 32.795476 42.954463
O  59.354816 31.706317 43.383559
H  59.608121 33.66955 43.703761
C  50.0592 33.8142 64.2399
N  50.209777 34.19942 62.975846
H  49.89926 34.861922 63.6721
H  50.405946 33.244382 63.239513
N  49.650301 34.686604 65.156749
H  49.84647 33.731566 65.420416
H  49.764649 34.97914 64.196828
N  50.317521 32.556576 64.587105
H  50.43187 32.849111 63.627184
H  50.007004 33.219078 65.283359
C  59.6366 32.4174 67.8231
N  59.787177 32.80262 66.559046
H  59.47666 33.465122 67.2553
H  59.983346 31.847582 66.822713
N  59.227701 33.289804 68.739949
H  59.42387 32.334766 69.003616
H  59.342049 33.58234 67.780028
N  59.894921 31.159776 68.170305
H  60.00927 31.452311 67.210384
H  59.584404 31.822278 68.866559
C  58.7641 25.4049 46.2993
O  59.947925 25.466676 45.902763
O  58.052816 24.377517 46.331859
H  58.306121 26.34075 46.652061
C  52.4529 26.9011 64.0253
N  52.603477 27.28632 62.761246
H  52.29296 27.948822 63.4575
H  52.799646 26.331282 63.024913
N  52.044001 27.773504 64.942149
H  52.24017 26.818466 65.205816
H  52.158349 28.06604 63.982228
N  52.711221 25.643476 64.372505
H  52.82557 25.936011 63.412584
H  52.400704 26.305978 65.068759
88
Image 1. Energy: -22844.558998928514 
C  54.87171892380501 31.370648707924886 62.887356990555254
H  55.94623588799803 31.228216313984476 62.942825208385166
H  54.46279591740474 32.34056176539077 62.61495267301569
C  54.00058402159004 30.3801271471208 63.08881583998301
C  52.48125405830071 30.64611048181724 63.019189712974246
O  52.112325613248366 31.81856930092114 62.77192045813375
O  51.69949395543927 29.680202438815517 63.24081698037754
O  54.326266511860325 29.086373389849566 63.435705554249544
C  55.61074022943459 28.405296510608935 63.27948059781755
H  55.32635452629557 27.341209589908367 63.39752611720235
C  56.490600497048874 28.840368042708143 64.41095800487349
H  56.12318745588772 28.63678425441994 65.42097154703814
C  57.6018376425606 29.581974856264118 64.20263022936243
C  58.07078361377391 29.85708264239194 62.83984990890426
H  58.93054226613393 30.51653210237311 62.71828212301785
C  57.43974904557162 29.361558803435486 61.75637877554016
H  57.79340136963072 29.590518713472417 60.745360216231234
C  56.29543780427775 28.388462615497907 61.885254344948684
H  55.54388489023013 28.559612720140823 61.09385844360424
O  56.819510302055335 27.060933631459125 61.801449125281174
H  57.227515494861535 26.923764778451897 60.92559520895386
C  58.349127344163115 30.21900034862843 65.36192126296694
O  57.71986209849225 30.56211766096817 66.39034576459645
O  59.60190592992185 30.410815913453508 65.20969060198335
C  61.2499 27.5507 65.3707
N  61.400477 27.93592 64.106646
H  61.08996 28.598422 64.8029
H  61.596646 26.980882 64.370313
N  60.841001 28.423104 66.287549
H  61.03717 27.468066 66.551216
H  60.955349 28.71564 65.327628
N  61.508221 26.293076 65.717905
H  61.62257 26.585611 64.757984
H  61.197704 26.955578 66.414159
C  66.7037 27.2429 46.1358
O  67.887525 27.304676 45.739263
O  65.992416 26.215517 46.168359
H  66.245721 28.17875 46.488561
C  68.4208 36.0888 47.0932
O  69.604625 36.150576 46.696663
O  67.709516 35.061417 47.125759
H  67.962821 37.02465 47.445961
C  70.0725 28.7101 49.1024
O  71.256325 28.771876 48.705863
O  69.361216 27.682717 49.134959
H  69.614521 29.64595 49.455161
C  66.4277 22.7649 54.5604
O  67.611525 22.826676 54.163863
O  65.716416 21.737517 54.592959
H  65.969721 23.70075 54.913161
C  60.0661 32.7337 43.351
O  61.249925 32.795476 42.954463
O  59.354816 31.706317 43.383559
H  59.608121 33.66955 43.703761
C  50.0592 33.8142 64.2399
N  50.209777 34.19942 62.975846
H  49.89926 34.861922 63.6721
H  50.405946 33.244382 63.239513
N  49.650301 34.686604 65.156749
H  49.84647 33.731566 65.420416
H  49.764649 34.97914 64.196828
N  50.317521 32.556576 64.587105
H  50.43187 32.849111 63.627184
H  50.007004 33.219078 65.283359
C  59.6366 32.4174 67.8231
N  59.787177 32.80262 66.559046
H  59.47666 33.465122 67.2553
H  59.983346 31.847582 66.822713
N  59.227701 33.289804 68.739949
H  59.42387 32.334766 69.003616
H  59.342049 33.58234 67.780028
N  59.894921 31.159776 68.170305
H  60.00927 31.452311 67.210384
H  59.584404 31.822278 68.866559
C  58.7641 25.4049 46.2993
O  59.947925 25.466676 45.902763
O  58.052816 24.377517 46.331859
H  58.306121 26.34075 46.652061
C  52.4529 26.9011 64.0253
N  52.603477 27.28632 62.761246
H  52.29296 27.948822 63.4575
H  52.799646 26.331282 63.024913
N  52.044001 27.773504 64.942149
H  52.24017 26.818466 65.205816
H  52.158349 28.06604 63.982228
N  52.711221 25.643476 64.372505
H  52.82557 25.936011 63.412584
H  52.400704 26.305978 65.068759
88
Image 2. Energy: -22843.743618831108 
C  54.63838562873602 31.4499415126284 63.54240713790792
H  55.66005459898198 31.432326576481433 63.90516425980806
H  54.137779504469 32.40075186209153 63.36231581752005
C  53.95238117923582 30.337748951741037 63.24965325654481
C  52.40705882941072 30.56079856763036 62.99114599743926
O  52.032458860580256 31.720564052118625 62.70358654991146
O  51.61442699528699 29.600645833231034 63.19228661136107
O  54.44192286851315 29.035588663290124 63.32552539307888
C  55.89504627434162 28.383904407643186 63.08192231171632
H  55.62101412090406 27.313645129656813 63.11254753201269
C  56.67047846765107 28.815195293249324 64.26430762321289
H  56.31277606702702 28.47636406842649 65.2396942452182
C  57.65621486792359 29.735629663823843 64.14957721769261
C  58.147732801167734 30.178668030591744 62.841942637508865
H  58.891112297590155 30.976949762287422 62.81013456126694
C  57.708610626451936 29.608620940608557 61.70404097145221
H  58.14226241528043 29.8764230627472 60.7330447461508
C  56.690039889966805 28.498712612073952 61.726342833944045
H  55.978944001281405 28.61624667802555 60.89725439015949
O  57.39243436308468 27.256759059832582 61.59362302668515
H  57.72696324296379 27.174877781218548 60.674774656403855
C  58.29869690959564 30.346660805650664 65.37232304515167
O  57.588640051241164 30.744884346079154 66.3234079251044
O  59.57087874832218 30.45245459886163 65.34651290276133
C  61.2499 27.5507 65.3707
N  61.400477 27.93592 64.106646
H  61.08996 28.598422 64.8029
H  61.596646 26.980882 64.370313
N  60.841001 28.423104 66.287549
H  61.03717 27.468066 66.551216
H  60.955349 28.71564 65.327628
N  61.508221 26.293076 65.717905
H  61.62257 26.585611 64.757984
H  61.197704 26.955578 66.414159
C  66.7037 27.2429 46.1358
O  67.887525 27.304676 45.739263
O  65.992416 26.215517 46.168359
H  66.245721 28.17875 46.488561
C  68.4208 36.0888 47.0932
O  69.604625 36.150576 46.696663
O  67.709516 35.061417 47.125759
H  67.962821 37.02465 47.445961
C  70.0725 28.7101 49.1024
O  71.256325 28.771876 48.705863
O  69.361216 27.682717 49.134959
H  69.614521 29.64595 49.455161
C  66.4277 22.7649 54.5604
O  67.611525 22.826676 54.163863
O  65.716416 21.737517 54.592959
H  65.969721 23.70075 54.913161
C  60.0661 32.7337 43.351
O  61.249925 32.795476 42.954463
O  59.354816 31.706317 43.383559
H  59.608121 33.66955 43.703761
C  50.0592 33.8142 64.2399
N  50.209777 34.19942 62.975846
H  49.89926 34.861922 63.6721
H  50.405946 33.244382 63.239513
N  49.650301 34.686604 65.156749
H  49.84647 33.731566 65.420416
H  49.764649 34.97914 64.196828
N  50.317521 32.556576 64.587105
H  50.43187 32.849111 63.627184
H  50.007004 33.219078 65.283359
C  59.6366 32.4174 67.8231
N  59.787177 32.80262 66.559046
H  59.47666 33.465122 67.2553
H  59.983346 31.847582 66.822713
N  59.227701 33.289804 68.739949
H  59.42387 32.334766 69.003616
H  59.342049 33.58234 67.780028
N  59.894921 31.159776 68.170305
H  60.00927 31.452311 67.210384
H  59.584404 31.822278 68.866559
C  58.7641 25.4049 46.2993
O  59.947925 25.466676 45.902763
O  58.052816 24.377517 46.331859
H  58.306121 26.34075 46.652061
C  52.4529 26.9011 64.0253
N  52.603477 27.28632 62.761246
H  52.29296 27.948822 63.4575
H  52.799646 26.331282 63.024913
N  52.044001 27.773504 64.942149
H  52.24017 26.818466 65.205816
H  52.158349 28.06604 63.982228
N  52.711221 25.643476 64.372505
H  52.82557 25.936011 63.412584
H  52.400704 26.305978 65.068759
88
Image 3. Energy: -22843.41912286134 
C  54.46892751523975 31.668267882670317 63.70156863881709
H  55.46191723540817 31.619612060421396 64.15661450462505
H  54.14760327612601 32.60084331672289 63.23683134060834
C  53.6885487174132 30.53799889902026 63.6007842660421
C  52.23457307502589 30.710803208211832 63.071198752615594
O  51.85685807637495 31.840469645159985 62.64918892465529
O  51.49750099337833 29.689662472786342 63.17291862062538
O  54.027065667097325 29.35578325478623 63.99882634977458
C  56.57260473723856 28.095209481870274 63.073239254707495
H  55.97714845314955 27.180956562412 63.12112464571594
C  56.838985766370804 28.842527601211113 64.18798775184975
H  56.39807285697732 28.598398359883205 65.15507912590455
C  57.75541987459009 29.91355609550091 64.09480042794092
C  58.2903238033888 30.338035062884426 62.847883693826795
H  58.94912221310514 31.208145461155276 62.8158422902578
C  58.04217503303463 29.614187950455804 61.714543888703
H  58.48272930899204 29.897800146089438 60.75226073524231
C  57.18362929623122 28.39344655628781 61.74882865552266
H  56.30597026545747 28.674687525524728 61.09820722384783
O  57.81986195234428 27.228296139388526 61.29687713284637
H  57.98092499991068 27.26540807958433 60.335589910932235
C  58.32906810121384 30.501512318533646 65.35589047055295
O  57.594868588284115 30.90856016942303 66.27700450759274
O  59.60361200364564 30.49771353001271 65.38284445678762
C  61.2499 27.5507 65.3707
N  61.400477 27.93592 64.106646
H  61.08996 28.598422 64.8029
H  61.596646 26.980882 64.370313
N  60.841001 28.423104 66.287549
H  61.03717 27.468066 66.551216
H  60.955349 28.71564 65.327628
N  61.508221 26.293076 65.717905
H  61.62257 26.585611 64.757984
H  61.197704 26.955578 66.414159
C  66.7037 27.2429 46.1358
O  67.887525 27.304676 45.739263
O  65.992416 26.215517 46.168359
H  66.245721 28.17875 46.488561
C  68.4208 36.0888 47.0932
O  69.604625 36.150576 46.696663
O  67.709516 35.061417 47.125759
H  67.962821 37.02465 47.445961
C  70.0725 28.7101 49.1024
O  71.256325 28.771876 48.705863
O  69.361216 27.682717 49.134959
H  69.614521 29.64595 49.455161
C  66.4277 22.7649 54.5604
O  67.611525 22.826676 54.163863
O  65.716416 21.737517 54.592959
H  65.969721 23.70075 54.913161
C  60.0661 32.7337 43.351
O  61.249925 32.795476 42.954463
O  59.354816 31.706317 43.383559
H  59.608121 33.66955 43.703761
C  50.0592 33.8142 64.2399
N  50.209777 34.19942 62.975846
H  49.89926 34.861922 63.6721
H  50.405946 33.244382 63.239513
N  49.650301 34.686604 65.156749
H  49.84647 33.731566 65.420416
H  49.764649 34.97914 64.196828
N  50.317521 32.556576 64.587105
H  50.43187 32.849111 63.627184
H  50.007004 33.219078 65.283359
C  59.6366 32.4174 67.8231
N  59.787177 32.80262 66.559046
H  59.47666 33.465122 67.2553
H  59.983346 31.847582 66.822713
N  59.227701 33.289804 68.739949
H  59.42387 32.334766 69.003616
H  59.342049 33.58234 67.780028
N  59.894921 31.159776 68.170305
H  60.00927 31.452311 67.210384
H  59.584404 31.822278 68.866559
C  58.7641 25.4049 46.2993
O  59.947925 25.466676 45.902763
O  58.052816 24.377517 46.331859
H  58.306121 26.34075 46.652061
C  52.4529 26.9011 64.0253
N  52.603477 27.28632 62.761246
H  52.29296 27.948822 63.4575
H  52.799646 26.331282 63.024913
N  52.044001 27.773504 64.942149
H  52.24017 26.818466 65.205816
H  52.158349 28.06604 63.982228
N  52.711221 25.643476 64.372505
H  52.82557 25.936011 63.412584
H  52.400704 26.305978 65.068759
88
Image 4. Energy: -22843.4000167954 
C  54.48532190057903 31.613688704453644 64.09197496457038
H  55.40679784213516 31.520689406396514 64.67184333109986
H  54.18342232393455 32.59412672288497 63.7217078724716
C  53.73983247078075 30.495358182940492 63.77710264508786
C  52.32491952890477 30.723429539587013 63.15873645401273
O  51.99800995738701 31.8699532867494 62.74368414268492
O  51.55940434977515 29.717492741602157 63.18822956060114
O  54.06755909055099 29.281888244633116 64.05454586180129
C  56.839915211841536 28.12577089268449 62.8597936037775
H  56.37681773337471 27.135987681659486 62.80948350638577
C  56.889929769790534 28.841083609120652 64.02243890178059
H  56.409043226257815 28.48047338653132 64.93183150667474
C  57.64694754714714 30.043453883142124 64.06311536203495
C  58.18287544950882 30.622686157610996 62.88071597529261
H  58.70442880681654 31.58018747315827 62.94291984850482
C  58.14534325112429 29.93072698565757 61.7015165281041
H  58.625227464303 30.326260432894458 60.7994871201333
C  57.5194576199569 28.577742064184672 61.61136101279734
H  56.69826393586992 28.691015529111997 60.853146779053326
O  58.439013423757984 27.576696655805712 61.24162582611023
H  58.598676515998804 27.58881236368554 60.279146914259776
C  58.1572752181737 30.562537069349673 65.38854587513102
O  57.413630538963716 31.00840438676815 66.27780849211757
O  59.42659687306878 30.46093593938789 65.47757344551846
C  61.2499 27.5507 65.3707
N  61.400477 27.93592 64.106646
H  61.08996 28.598422 64.8029
H  61.596646 26.980882 64.370313
N  60.841001 28.423104 66.287549
H  61.03717 27.468066 66.551216
H  60.955349 28.71564 65.327628
N  61.508221 26.293076 65.717905
H  61.62257 26.585611 64.757984
H  61.197704 26.955578 66.414159
C  66.7037 27.2429 46.1358
O  67.887525 27.304676 45.739263
O  65.992416 26.215517 46.168359
H  66.245721 28.17875 46.488561
C  68.4208 36.0888 47.0932
O  69.604625 36.150576 46.696663
O  67.709516 35.061417 47.125759
H  67.962821 37.02465 47.445961
C  70.0725 28.7101 49.1024
O  71.256325 28.771876 48.705863
O  69.361216 27.682717 49.134959
H  69.614521 29.64595 49.455161
C  66.4277 22.7649 54.5604
O  67.611525 22.826676 54.163863
O  65.716416 21.737517 54.592959
H  65.969721 23.70075 54.913161
C  60.0661 32.7337 43.351
O  61.249925 32.795476 42.954463
O  59.354816 31.706317 43.383559
H  59.608121 33.66955 43.703761
C  50.0592 33.8142 64.2399
N  50.209777 34.19942 62.975846
H  49.89926 34.861922 63.6721
H  50.405946 33.244382 63.239513
N  49.650301 34.686604 65.156749
H  49.84647 33.731566 65.420416
H  49.764649 34.97914 64.196828
N  50.317521 32.556576 64.587105
H  50.43187 32.849111 63.627184
H  50.007004 33.219078 65.283359
C  59.6366 32.4174 67.8231
N  59.787177 32.80262 66.559046
H  59.47666 33.465122 67.2553
H  59.983346 31.847582 66.822713
N  59.227701 33.289804 68.739949
H  59.42387 32.334766 69.003616
H  59.342049 33.58234 67.780028
N  59.894921 31.159776 68.170305
H  60.00927 31.452311 67.210384
H  59.584404 31.822278 68.866559
C  58.7641 25.4049 46.2993
O  59.947925 25.466676 45.902763
O  58.052816 24.377517 46.331859
H  58.306121 26.34075 46.652061
C  52.4529 26.9011 64.0253
N  52.603477 27.28632 62.761246
H  52.29296 27.948822 63.4575
H  52.799646 26.331282 63.024913
N  52.044001 27.773504 64.942149
H  52.24017 26.818466 65.205816
H  52.158349 28.06604 63.982228
N  52.711221 25.643476 64.372505
H  52.82557 25.936011 63.412584
H  52.400704 26.305978 65.068759
88
Image 5. Energy: -22843.27215419984 
C  54.47049389506764 31.60334422268862 64.31343129522234
H  55.38142050758148 31.480102939582252 64.89612849383509
H  54.129645142415306 32.60606521464522 64.06496914010944
C  53.75571682338801 30.500707401027068 63.882805569923136
C  52.36339641645857 30.7502376389097 63.226358165175284
O  52.06326215658727 31.90432866631536 62.81043991549474
O  51.58940358041661 29.750660293094672 63.212811579468934
O  54.093779419649344 29.275352123878893 64.06427942851212
C  56.99701284666969 28.27572904649818 62.5944171591612
H  56.549472130284315 27.301748685170956 62.371625632552266
C  56.93168048086437 28.83455733868586 63.83808198286855
H  56.38595051441214 28.36212194953986 64.65433703607209
C  57.6498649298249 30.036757677327966 64.090641460187
C  58.250339785949635 30.78250775525976 63.03934591160589
H  58.7381869587265 31.730743555998664 63.27519465227013
C  58.32752896005851 30.251075099148906 61.78448251815472
H  58.85962592639647 30.77241476216818 60.98045108528218
C  57.80826515658495 28.879975163772706 61.49213567903536
H  57.13893007704876 28.9675309797485 60.60409360526492
O  58.88755400957127 27.991241756333505 61.25032928698077
H  59.12213597326879 27.991106207276292 60.3033404501863
C  58.066605457358065 30.41286542084901 65.49570758685371
O  57.268238817988006 30.648622561740588 66.40920379852712
O  59.3413982534314 30.447124380343013 65.59612401727394
C  61.2499 27.5507 65.3707
N  61.400477 27.93592 64.106646
H  61.08996 28.598422 64.8029
H  61.596646 26.980882 64.370313
N  60.841001 28.423104 66.287549
H  61.03717 27.468066 66.551216
H  60.955349 28.71564 65.327628
N  61.508221 26.293076 65.717905
H  61.62257 26.585611 64.757984
H  61.197704 26.955578 66.414159
C  66.7037 27.2429 46.1358
O  67.887525 27.304676 45.739263
O  65.992416 26.215517 46.168359
H  66.245721 28.17875 46.488561
C  68.4208 36.0888 47.0932
O  69.604625 36.150576 46.696663
O  67.709516 35.061417 47.125759
H  67.962821 37.02465 47.445961
C  70.0725 28.7101 49.1024
O  71.256325 28.771876 48.705863
O  69.361216 27.682717 49.134959
H  69.614521 29.64595 49.455161
C  66.4277 22.7649 54.5604
O  67.611525 22.826676 54.163863
O  65.716416 21.737517 54.592959
H  65.969721 23.70075 54.913161
C  60.0661 32.7337 43.351
O  61.249925 32.795476 42.954463
O  59.354816 31.706317 43.383559
H  59.608121 33.66955 43.703761
C  50.0592 33.8142 64.2399
N  50.209777 34.19942 62.975846
H  49.89926 34.861922 63.6721
H  50.405946 33.244382 63.239513
N  49.650301 34.686604 65.156749
H  49.84647 33.731566 65.420416
H  49.764649 34.97914 64.196828
N  50.317521 32.556576 64.587105
H  50.43187 32.849111 63.627184
H  50.007004 33.219078 65.283359
C  59.6366 32.4174 67.8231
N  59.787177 32.80262 66.559046
H  59.47666 33.465122 67.2553
H  59.983346 31.847582 66.822713
N  59.227701 33.289804 68.739949
H  59.42387 32.334766 69.003616
H  59.342049 33.58234 67.780028
N  59.894921 31.159776 68.170305
H  60.00927 31.452311 67.210384
H  59.584404 31.822278 68.866559
C  58.7641 25.4049 46.2993
O  59.947925 25.466676 45.902763
O  58.052816 24.377517 46.331859
H  58.306121 26.34075 46.652061
C  52.4529 26.9011 64.0253
N  52.603477 27.28632 62.761246
H  52.29296 27.948822 63.4575
H  52.799646 26.331282 63.024913
N  52.044001 27.773504 64.942149
H  52.24017 26.818466 65.205816
H  52.158349 28.06604 63.982228
N  52.711221 25.643476 64.372505
H  52.82557 25.936011 63.412584
H  52.400704 26.305978 65.068759
88
Image 6. Energy: -22843.20675339499 
C  54.96856034939155 31.477977203135403 64.29927425902086
H  55.59258232824467 31.392482700343113 65.18246099417323
H  54.86437989915877 32.444101803325566 63.81541961710577
C  54.03123490573113 30.468056300333014 64.03992369135598
C  52.66071546646579 30.808513540867764 63.34446649858429
O  52.39838744692209 31.99963719952823 63.038845246215764
O  51.85634026564644 29.83495660335748 63.23876652108068
O  54.16089616119939 29.27302807367681 64.42398766432834
C  57.053306477527805 28.419806369543675 62.50438188271636
H  56.66943562758731 27.427356984679765 62.245744070268984
C  56.842439536673524 28.968047472361796 63.72590783682059
H  56.236683872964136 28.46793680547 64.48044836018579
C  57.39121211661358 30.25910482175985 64.05826400037918
C  58.090750102265766 31.00349126429856 63.04459424931461
H  58.497859765160875 31.98561693679315 63.30578417761006
C  58.35110799693838 30.453898701402373 61.831680756275986
H  58.97153929193455 30.983279076149284 61.099700506592384
C  57.928706517833085 29.061090338224464 61.47232172950447
H  57.35759480992048 29.117990893412934 60.52100133341797
O  59.0700878338508 28.22364740442849 61.33505008517693
H  59.32678730939845 28.159669984318576 60.397347934533705
C  57.88572001631924 30.463818216316334 65.49981873050518
O  57.13034168682842 30.626045271723363 66.46777732006163
O  59.16443666542716 30.424886394550796 65.58016794477727
C  61.2499 27.5507 65.3707
N  61.400477 27.93592 64.106646
H  61.08996 28.598422 64.8029
H  61.596646 26.980882 64.370313
N  60.841001 28.423104 66.287549
H  61.03717 27.468066 66.551216
H  60.955349 28.71564 65.327628
N  61.508221 26.293076 65.717905
H  61.62257 26.585611 64.757984
H  61.197704 26.955578 66.414159
C  66.7037 27.2429 46.1358
O  67.887525 27.304676 45.739263
O  65.992416 26.215517 46.168359
H  66.245721 28.17875 46.488561
C  68.4208 36.0888 47.0932
O  69.604625 36.150576 46.696663
O  67.709516 35.061417 47.125759
H  67.962821 37.02465 47.445961
C  70.0725 28.7101 49.1024
O  71.256325 28.771876 48.705863
O  69.361216 27.682717 49.134959
H  69.614521 29.64595 49.455161
C  66.4277 22.7649 54.5604
O  67.611525 22.826676 54.163863
O  65.716416 21.737517 54.592959
H  65.969721 23.70075 54.913161
C  60.0661 32.7337 43.351
O  61.249925 32.795476 42.954463
O  59.354816 31.706317 43.383559
H  59.608121 33.66955 43.703761
C  50.0592 33.8142 64.2399
N  50.209777 34.19942 62.975846
H  49.89926 34.861922 63.6721
H  50.405946 33.244382 63.239513
N  49.650301 34.686604 65.156749
H  49.84647 33.731566 65.420416
H  49.764649 34.97914 64.196828
N  50.317521 32.556576 64.587105
H  50.43187 32.849111 63.627184
H  50.007004 33.219078 65.283359
C  59.6366 32.4174 67.8231
N  59.787177 32.80262 66.559046
H  59.47666 33.465122 67.2553
H  59.983346 31.847582 66.822713
N  59.227701 33.289804 68.739949
H  59.42387 32.334766 69.003616
H  59.342049 33.58234 67.780028
N  59.894921 31.159776 68.170305
H  60.00927 31.452311 67.210384
H  59.584404 31.822278 68.866559
C  58.7641 25.4049 46.2993
O  59.947925 25.466676 45.902763
O  58.052816 24.377517 46.331859
H  58.306121 26.34075 46.652061
C  52.4529 26.9011 64.0253
N  52.603477 27.28632 62.761246
H  52.29296 27.948822 63.4575
H  52.799646 26.331282 63.024913
N  52.044001 27.773504 64.942149
H  52.24017 26.818466 65.205816
H  52.158349 28.06604 63.982228
N  52.711221 25.643476 64.372505
H  52.82557 25.936011 63.412584
H  52.400704 26.305978 65.068759
88
Image 7. Energy: -22844.152008856956 
C  55.501871730043646 31.350138436784388 64.2343818328248
H  55.55285042905207 31.545401289911165 65.31284759604885
H  55.32442479560542 32.31498964290616 63.71335891734947
C  54.26340075756111 30.465098623946858 64.0577359523407
C  52.836175695049455 30.91109767718145 63.41623207096566
O  52.60454210142122 32.10473810814607 63.16747039058554
O  52.03870833415147 29.933457535565164 63.28869065357062
O  54.24650316924597 29.33070708124206 64.49230146664274
C  57.1524721714208 28.52820932795251 62.548091008565194
H  56.83273155494306 27.504850695507233 62.31174939924051
C  56.8638671173843 29.086347337237953 63.73217847467484
H  56.30673677663612 28.52559515843008 64.48310875352502
C  57.100944332766105 30.546573486151992 64.07107126899355
C  58.03550758508872 31.161807758081533 63.048097953333446
H  58.477009176736125 32.13013574287515 63.30805641982926
C  58.407920664772206 30.574831082428062 61.90193802447017
H  59.08736625184016 31.08270125589732 61.205002895680956
C  58.002303810881116 29.183154903200162 61.493259982914836
H  57.46169529201539 29.217240610280832 60.52929660639901
O  59.1630418162016 28.357720526096077 61.38212907577307
H  59.42041398401508 28.274124672250583 60.44741330293229
C  57.84403717572895 30.594730266999026 65.48704029591178
O  57.18755662876456 30.77337116011368 66.52340792447558
O  59.12022330870603 30.434937520804016 65.50067508296057
C  61.2499 27.5507 65.3707
N  61.400477 27.93592 64.106646
H  61.08996 28.598422 64.8029
H  61.596646 26.980882 64.370313
N  60.841001 28.423104 66.287549
H  61.03717 27.468066 66.551216
H  60.955349 28.71564 65.327628
N  61.508221 26.293076 65.717905
H  61.62257 26.585611 64.757984
H  61.197704 26.955578 66.414159
C  66.7037 27.2429 46.1358
O  67.887525 27.304676 45.739263
O  65.992416 26.215517 46.168359
H  66.245721 28.17875 46.488561
C  68.4208 36.0888 47.0932
O  69.604625 36.150576 46.696663
O  67.709516 35.061417 47.125759
H  67.962821 37.02465 47.445961
C  70.0725 28.7101 49.1024
O  71.256325 28.771876 48.705863
O  69.361216 27.682717 49.134959
H  69.614521 29.64595 49.455161
C  66.4277 22.7649 54.5604
O  67.611525 22.826676 54.163863
O  65.716416 21.737517 54.592959
H  65.969721 23.70075 54.913161
C  60.0661 32.7337 43.351
O  61.249925 32.795476 42.954463
O  59.354816 31.706317 43.383559
H  59.608121 33.66955 43.703761
C  50.0592 33.8142 64.2399
N  50.209777 34.19942 62.975846
H  49.89926 34.861922 63.6721
H  50.405946 33.244382 63.239513
N  49.650301 34.686604 65.156749
H  49.84647 33.731566 65.420416
H  49.764649 34.97914 64.196828
N  50.317521 32.556576 64.587105
H  50.43187 32.849111 63.627184
H  50.007004 33.219078 65.283359
C  59.6366 32.4174 67.8231
N  59.787177 32.80262 66.559046
H  59.47666 33.465122 67.2553
H  59.983346 31.847582 66.822713
N  59.227701 33.289804 68.739949
H  59.42387 32.334766 69.003616
H  59.342049 33.58234 67.780028
N  59.894921 31.159776 68.170305
H  60.00927 31.452311 67.210384
H  59.584404 31.822278 68.866559
C  58.7641 25.4049 46.2993
O  59.947925 25.466676 45.902763
O  58.052816 24.377517 46.331859
H  58.306121 26.34075 46.652061
C  52.4529 26.9011 64.0253
N  52.603477 27.28632 62.761246
H  52.29296 27.948822 63.4575
H  52.799646 26.331282 63.024913
N  52.044001 27.773504 64.942149
H  52.24017 26.818466 65.205816
H  52.158349 28.06604 63.982228
N  52.711221 25.643476 64.372505
H  52.82557 25.936011 63.412584
H  52.400704 26.305978 65.068759
88
Image 8. Energy: -22844.346020093417 
C  55.67739524711995 31.33119567682872 64.23349117904256
H  55.69756184248747 31.922171982094216 65.16814349679628
H  55.57928544755124 32.060548967414235 63.41437198827815
C  54.40101425490244 30.535713723471748 64.29852617811143
C  53.04719901353367 30.93072686499333 63.61296435905075
O  52.81658829191507 32.14769015394345 63.43809407218437
O  52.276671947429826 29.962535450716288 63.365045567380875
O  54.340066439128954 29.448564015241736 64.98849814111983
C  57.236388344320105 28.719069878216956 62.34324063199232
H  56.942651356574046 27.73262683776116 61.9670479401628
C  56.793264888701856 29.15533069262462 63.52587674600673
H  56.12318192086314 28.53533493150423 64.11862244517134
C  57.06110497314892 30.54121335669642 64.08862264600911
C  58.003877061708536 31.30461642190734 63.18337620957416
H  58.29507778992195 32.30537502651579 63.51889587579751
C  58.51634065168226 30.83165562224359 62.039687131452354
H  59.2212965003723 31.432705991605456 61.45531078982745
C  58.23141817793969 29.45783423046863 61.49364445431013
H  57.8506076478677 29.54915965813267 60.46016113114973
O  59.426692253367776 28.670253772818437 61.50688115993259
H  59.741128710565974 28.547214169951676 60.59434394501331
C  57.75532468851972 30.372561608608745 65.49177276928381
O  57.086274775056054 30.193314110769016 66.50434924509364
O  59.04309064533785 30.43206624546066 65.5469671872496
C  61.2499 27.5507 65.3707
N  61.400477 27.93592 64.106646
H  61.08996 28.598422 64.8029
H  61.596646 26.980882 64.370313
N  60.841001 28.423104 66.287549
H  61.03717 27.468066 66.551216
H  60.955349 28.71564 65.327628
N  61.508221 26.293076 65.717905
H  61.62257 26.585611 64.757984
H  61.197704 26.955578 66.414159
C  66.7037 27.2429 46.1358
O  67.887525 27.304676 45.739263
O  65.992416 26.215517 46.168359
H  66.245721 28.17875 46.488561
C  68.4208 36.0888 47.0932
O  69.604625 36.150576 46.696663
O  67.709516 35.061417 47.125759
H  67.962821 37.02465 47.445961
C  70.0725 28.7101 49.1024
O  71.256325 28.771876 48.705863
O  69.361216 27.682717 49.134959
H  69.614521 29.64595 49.455161
C  66.4277 22.7649 54.5604
O  67.611525 22.826676 54.163863
O  65.716416 21.737517 54.592959
H  65.969721 23.70075 54.913161
C  60.0661 32.7337 43.351
O  61.249925 32.795476 42.954463
O  59.354816 31.706317 43.383559
H  59.608121 33.66955 43.703761
C  50.0592 33.8142 64.2399
N  50.209777 34.19942 62.975846
H  49.89926 34.861922 63.6721
H  50.405946 33.244382 63.239513
N  49.650301 34.686604 65.156749
H  49.84647 33.731566 65.420416
H  49.764649 34.97914 64.196828
N  50.317521 32.556576 64.587105
H  50.43187 32.849111 63.627184
H  50.007004 33.219078 65.283359
C  59.6366 32.4174 67.8231
N  59.787177 32.80262 66.559046
H  59.47666 33.465122 67.2553
H  59.983346 31.847582 66.822713
N  59.227701 33.289804 68.739949
H  59.42387 32.334766 69.003616
H  59.342049 33.58234 67.780028
N  59.894921 31.159776 68.170305
H  60.00927 31.452311 67.210384
H  59.584404 31.822278 68.866559
C  58.7641 25.4049 46.2993
O  59.947925 25.466676 45.902763
O  58.052816 24.377517 46.331859
H  58.306121 26.34075 46.652061
C  52.4529 26.9011 64.0253
N  52.603477 27.28632 62.761246
H  52.29296 27.948822 63.4575
H  52.799646 26.331282 63.024913
N  52.044001 27.773504 64.942149
H  52.24017 26.818466 65.205816
H  52.158349 28.06604 63.982228
N  52.711221 25.643476 64.372505
H  52.82557 25.936011 63.412584
H  52.400704 26.305978 65.068759
88
Image 9. Energy: -22843.786571074896 
C  55.79349143590891 31.46506144906749 64.3022982754394
H  55.93783682604881 32.13431110292841 65.17574655986967
H  55.6987757360211 32.13154532619872 63.431876285769015
C  54.47087628125839 30.73679547298849 64.51654107218654
C  53.16339547848094 31.03966616430592 63.69878935487295
O  52.87472250922867 32.246530965474655 63.528671439817735
O  52.47250075714075 30.027623225647844 63.42122147027588
O  54.32931228946999 29.88533052790808 65.41611194903169
C  57.322502662689686 28.92590353402068 62.17625131376357
H  57.049902386382236 27.97955829084261 61.694021989462236
C  56.715278136257645 29.313012240683122 63.30096149578206
H  55.93433951602488 28.69825076214537 63.75278073583934
C  57.08667821583439 30.563829304026267 64.08262159059312
C  58.10623606229866 31.39216604798387 63.337561312700096
H  58.372821493788365 32.350771665378005 63.78881213508837
C  58.70280456390657 31.003835320361887 62.200489834677555
H  59.454954902463605 31.642760938279633 61.72668575392777
C  58.44217065147961 29.68558050039363 61.523777995089326
H  58.183913338225906 29.86641627696628 60.46511738597727
O  59.616639168327396 28.871461985706475 61.60592247490837
H  59.99811619410014 28.777386044339472 60.71494212136292
C  57.72543059302754 29.9825839141355 65.44289034955932
O  57.079157649793984 29.308679731028796 66.12263712488758
O  58.96284422184587 30.277938169192247 65.63360522909275
C  61.2499 27.5507 65.3707
N  61.400477 27.93592 64.106646
H  61.08996 28.598422 64.8029
H  61.596646 26.980882 64.370313
N  60.841001 28.423104 66.287549
H  61.03717 27.468066 66.551216
H  60.955349 28.71564 65.327628
N  61.508221 26.293076 65.717905
H  61.62257 26.585611 64.757984
H  61.197704 26.955578 66.414159
C  66.7037 27.2429 46.1358
O  67.887525 27.304676 45.739263
O  65.992416 26.215517 46.168359
H  66.245721 28.17875 46.488561
C  68.4208 36.0888 47.0932
O  69.604625 36.150576 46.696663
O  67.709516 35.061417 47.125759
H  67.962821 37.02465 47.445961
C  70.0725 28.7101 49.1024
O  71.256325 28.771876 48.705863
O  69.361216 27.682717 49.134959
H  69.614521 29.64595 49.455161
C  66.4277 22.7649 54.5604
O  67.611525 22.826676 54.163863
O  65.716416 21.737517 54.592959
H  65.969721 23.70075 54.913161
C  60.0661 32.7337 43.351
O  61.249925 32.795476 42.954463
O  59.354816 31.706317 43.383559
H  59.608121 33.66955 43.703761
C  50.0592 33.8142 64.2399
N  50.209777 34.19942 62.975846
H  49.89926 34.861922 63.6721
H  50.405946 33.244382 63.239513
N  49.650301 34.686604 65.156749
H  49.84647 33.731566 65.420416
H  49.764649 34.97914 64.196828
N  50.317521 32.556576 64.587105
H  50.43187 32.849111 63.627184
H  50.007004 33.219078 65.283359
C  59.6366 32.4174 67.8231
N  59.787177 32.80262 66.559046
H  59.47666 33.465122 67.2553
H  59.983346 31.847582 66.822713
N  59.227701 33.289804 68.739949
H  59.42387 32.334766 69.003616
H  59.342049 33.58234 67.780028
N  59.894921 31.159776 68.170305
H  60.00927 31.452311 67.210384
H  59.584404 31.822278 68.866559
C  58.7641 25.4049 46.2993
O  59.947925 25.466676 45.902763
O  58.052816 24.377517 46.331859
H  58.306121 26.34075 46.652061
C  52.4529 26.9011 64.0253
N  52.603477 27.28632 62.761246
H  52.29296 27.948822 63.4575
H  52.799646 26.331282 63.024913
N  52.044001 27.773504 64.942149
H  52.24017 26.818466 65.205816
H  52.158349 28.06604 63.982228
N  52.711221 25.643476 64.372505
H  52.82557 25.936011 63.412584
H  52.400704 26.305978 65.068759
88
Image 10. Energy: -22843.03663935966 
C  55.89511297660562 31.572026251762036 64.28396930788043
H  56.088838824560135 32.23739623172241 65.14620320114666
H  55.79499201653404 32.2419683928562 63.39650457141775
C  54.601541163092776 30.827897149381837 64.55399962317746
C  53.2723299421668 31.119028109942732 63.77220196079664
O  52.9502555991885 32.31009657954848 63.605645787417345
O  52.591671496560146 30.076621913803518 63.487995039157326
O  54.54236793475507 29.982569926626084 65.43392383965802
C  57.443774473664114 29.02918495940139 62.16094004708884
H  57.19800173245559 28.08101315857662 61.675990034409544
C  56.79112597974628 29.410710716016514 63.26401005965164
H  56.02392919699664 28.77557769698852 63.70382155999747
C  57.13071629213263 30.631866918204533 64.0702617883725
C  58.23240453884338 31.4470181037284 63.42126735141322
H  58.494876026114056 32.40138274844309 63.89174616203444
C  58.848321660373585 31.09137791918183 62.27800793665818
H  59.608759572196696 31.737478922738728 61.82735257961843
C  58.58350717782707 29.798704689771743 61.55475530109498
H  58.34429214881167 30.01532277319999 60.497557951898926
O  59.75720213329906 28.98317387634007 61.63441700244814
H  60.142197411713305 28.89646228332876 60.744786646831805
C  57.63104703163845 29.99367915686109 65.39381550475353
O  57.55689880403073 28.879005198408358 65.74461962087575
O  58.3017351366856 30.954954783162066 66.21894230215965
C  61.2499 27.5507 65.3707
N  61.400477 27.93592 64.106646
H  61.08996 28.598422 64.8029
H  61.596646 26.980882 64.370313
N  60.841001 28.423104 66.287549
H  61.03717 27.468066 66.551216
H  60.955349 28.71564 65.327628
N  61.508221 26.293076 65.717905
H  61.62257 26.585611 64.757984
H  61.197704 26.955578 66.414159
C  66.7037 27.2429 46.1358
O  67.887525 27.304676 45.739263
O  65.992416 26.215517 46.168359
H  66.245721 28.17875 46.488561
C  68.4208 36.0888 47.0932
O  69.604625 36.150576 46.696663
O  67.709516 35.061417 47.125759
H  67.962821 37.02465 47.445961
C  70.0725 28.7101 49.1024
O  71.256325 28.771876 48.705863
O  69.361216 27.682717 49.134959
H  69.614521 29.64595 49.455161
C  66.4277 22.7649 54.5604
O  67.611525 22.826676 54.163863
O  65.716416 21.737517 54.592959
H  65.969721 23.70075 54.913161
C  60.0661 32.7337 43.351
O  61.249925 32.795476 42.954463
O  59.354816 31.706317 43.383559
H  59.608121 33.66955 43.703761
C  50.0592 33.8142 64.2399
N  50.209777 34.19942 62.975846
H  49.89926 34.861922 63.6721
H  50.405946 33.244382 63.239513
N  49.650301 34.686604 65.156749
H  49.84647 33.731566 65.420416
H  49.764649 34.97914 64.196828
N  50.317521 32.556576 64.587105
H  50.43187 32.849111 63.627184
H  50.007004 33.219078 65.283359
C  59.6366 32.4174 67.8231
N  59.787177 32.80262 66.559046
H  59.47666 33.465122 67.2553
H  59.983346 31.847582 66.822713
N  59.227701 33.289804 68.739949
H  59.42387 32.334766 69.003616
H  59.342049 33.58234 67.780028
N  59.894921 31.159776 68.170305
H  60.00927 31.452311 67.210384
H  59.584404 31.822278 68.866559
C  58.7641 25.4049 46.2993
O  59.947925 25.466676 45.902763
O  58.052816 24.377517 46.331859
H  58.306121 26.34075 46.652061
C  52.4529 26.9011 64.0253
N  52.603477 27.28632 62.761246
H  52.29296 27.948822 63.4575
H  52.799646 26.331282 63.024913
N  52.044001 27.773504 64.942149
H  52.24017 26.818466 65.205816
H  52.158349 28.06604 63.982228
N  52.711221 25.643476 64.372505
H  52.82557 25.936011 63.412584
H  52.400704 26.305978 65.068759
88
Image 11. Energy: -22844.386963008208 
C  55.93003974253853 31.647950833813997 64.19166866344777
H  56.09701243501055 32.36014405397956 65.02271834804532
H  55.80483126822752 32.23709553084868 63.273521269658495
C  54.686045293685204 30.84497834220363 64.52789709808025
C  53.31850818992494 31.09446381628316 63.80516654429274
O  52.967024324297284 32.28849838296695 63.65394190889991
O  52.669538872184305 30.049554976710834 63.53424929720575
O  54.70866288134778 29.9806184556466 65.39625850654322
C  57.59362439884073 29.077866500806675 62.251075084094474
H  57.36184105343312 28.114158237294642 61.78878901014401
C  56.95295594423564 29.468089619282942 63.357238309260154
H  56.20463785234941 28.81549232137317 63.81527397763317
C  57.21602166498913 30.75493122058562 64.10306189256431
C  58.32733164739164 31.55168241690822 63.42889656483283
H  58.58206850281703 32.51666697410808 63.8850681578819
C  58.96711780886337 31.158697632285023 62.31500878088553
H  59.74105909345431 31.790803862284037 61.86666822237179
C  58.704205626199105 29.856014683403426 61.606785979774585
H  58.44407178297913 30.061556569079727 60.553546852912575
O  59.88628709312696 29.053870931816665 61.67104907863216
H  60.260547308804846 28.963373047387208 60.77827844934344
C  57.76000964292383 30.406847864277186 65.54492986362183
O  58.32079179770528 29.30596224897416 65.67012855401126
O  57.652863274669116 31.282719497685733 66.42391467584906
C  61.2499 27.5507 65.3707
N  61.400477 27.93592 64.106646
H  61.08996 28.598422 64.8029
H  61.596646 26.980882 64.370313
N  60.841001 28.423104 66.287549
H  61.03717 27.468066 66.551216
H  60.955349 28.71564 65.327628
N  61.508221 26.293076 65.717905
H  61.62257 26.585611 64.757984
H  61.197704 26.955578 66.414159
C  66.7037 27.2429 46.1358
O  67.887525 27.304676 45.739263
O  65.992416 26.215517 46.168359
H  66.245721 28.17875 46.488561
C  68.4208 36.0888 47.0932
O  69.604625 36.150576 46.696663
O  67.709516 35.061417 47.125759
H  67.962821 37.02465 47.445961
C  70.0725 28.7101 49.1024
O  71.256325 28.771876 48.705863
O  69.361216 27.682717 49.134959
H  69.614521 29.64595 49.455161
C  66.4277 22.7649 54.5604
O  67.611525 22.826676 54.163863
O  65.716416 21.737517 54.592959
H  65.969721 23.70075 54.913161
C  60.0661 32.7337 43.351
O  61.249925 32.795476 42.954463
O  59.354816 31.706317 43.383559
H  59.608121 33.66955 43.703761
C  50.0592 33.8142 64.2399
N  50.209777 34.19942 62.975846
H  49.89926 34.861922 63.6721
H  50.405946 33.244382 63.239513
N  49.650301 34.686604 65.156749
H  49.84647 33.731566 65.420416
H  49.764649 34.97914 64.196828
N  50.317521 32.556576 64.587105
H  50.43187 32.849111 63.627184
H  50.007004 33.219078 65.283359
C  59.6366 32.4174 67.8231
N  59.787177 32.80262 66.559046
H  59.47666 33.465122 67.2553
H  59.983346 31.847582 66.822713
N  59.227701 33.289804 68.739949
H  59.42387 32.334766 69.003616
H  59.342049 33.58234 67.780028
N  59.894921 31.159776 68.170305
H  60.00927 31.452311 67.210384
H  59.584404 31.822278 68.866559
C  58.7641 25.4049 46.2993
O  59.947925 25.466676 45.902763
O  58.052816 24.377517 46.331859
H  58.306121 26.34075 46.652061
C  52.4529 26.9011 64.0253
N  52.603477 27.28632 62.761246
H  52.29296 27.948822 63.4575
H  52.799646 26.331282 63.024913
N  52.044001 27.773504 64.942149
H  52.24017 26.818466 65.205816
H  52.158349 28.06604 63.982228
N  52.711221 25.643476 64.372505
H  52.82557 25.936011 63.412584
H  52.400704 26.305978 65.068759
88
Image 12. Energy: -22844.94627016082 
C  55.90689588558397 31.58026778656327 64.10428112593289
H  55.92252369863796 32.40380725032027 64.84169961323522
H  55.745420533046904 32.04945544252213 63.12436039169309
C  54.71771420658976 30.71114652861346 64.46142558252238
C  53.31365620208599 31.003829604569024 63.82883651408141
O  52.973309407110406 32.1979787964933 63.723878950419746
O  52.63091834221723 29.979168159376247 63.53310306070369
O  54.79053961873167 29.77931555387734 65.24862514699497
C  57.88429245782677 29.091314465002664 62.45314957516978
H  57.75854004807116 28.074447465425823 62.06673065885798
C  57.231591224473746 29.484160984997732 63.55311169041955
H  56.56630027733865 28.788377089853945 64.06858875904994
C  57.29726775318508 30.879676321547993 64.1350772002974
C  58.30123667521749 31.735181211563987 63.37063091827634
H  58.45459371165784 32.75172228663918 63.75055798555288
C  58.985646189024294 31.322196797315954 62.29645369034639
H  59.70012527276766 31.98911704211125 61.803690114154584
C  58.868352771323785 29.944792185271268 61.70254553697685
H  58.55297118677051 30.02927510495423 60.64723025729701
O  60.13319710011773 29.285830620495556 61.77833527118799
H  60.513196520469855 29.20442016132125 60.88691793750305
C  57.887625116963676 30.842327966021465 65.56447873554383
O  59.011326156512155 30.27486859035126 65.70905191308083
O  57.3410553442755 31.46688010480608 66.51477446072643
C  61.2499 27.5507 65.3707
N  61.400477 27.93592 64.106646
H  61.08996 28.598422 64.8029
H  61.596646 26.980882 64.370313
N  60.841001 28.423104 66.287549
H  61.03717 27.468066 66.551216
H  60.955349 28.71564 65.327628
N  61.508221 26.293076 65.717905
H  61.62257 26.585611 64.757984
H  61.197704 26.955578 66.414159
C  66.7037 27.2429 46.1358
O  67.887525 27.304676 45.739263
O  65.992416 26.215517 46.168359
H  66.245721 28.17875 46.488561
C  68.4208 36.0888 47.0932
O  69.604625 36.150576 46.696663
O  67.709516 35.061417 47.125759
H  67.962821 37.02465 47.445961
C  70.0725 28.7101 49.1024
O  71.256325 28.771876 48.705863
O  69.361216 27.682717 49.134959
H  69.614521 29.64595 49.455161
C  66.4277 22.7649 54.5604
O  67.611525 22.826676 54.163863
O  65.716416 21.737517 54.592959
H  65.969721 23.70075 54.913161
C  60.0661 32.7337 43.351
O  61.249925 32.795476 42.954463
O  59.354816 31.706317 43.383559
H  59.608121 33.66955 43.703761
C  50.0592 33.8142 64.2399
N  50.209777 34.19942 62.975846
H  49.89926 34.861922 63.6721
H  50.405946 33.244382 63.239513
N  49.650301 34.686604 65.156749
H  49.84647 33.731566 65.420416
H  49.764649 34.97914 64.196828
N  50.317521 32.556576 64.587105
H  50.43187 32.849111 63.627184
H  50.007004 33.219078 65.283359
C  59.6366 32.4174 67.8231
N  59.787177 32.80262 66.559046
H  59.47666 33.465122 67.2553
H  59.983346 31.847582 66.822713
N  59.227701 33.289804 68.739949
H  59.42387 32.334766 69.003616
H  59.342049 33.58234 67.780028
N  59.894921 31.159776 68.170305
H  60.00927 31.452311 67.210384
H  59.584404 31.822278 68.866559
C  58.7641 25.4049 46.2993
O  59.947925 25.466676 45.902763
O  58.052816 24.377517 46.331859
H  58.306121 26.34075 46.652061
C  52.4529 26.9011 64.0253
N  52.603477 27.28632 62.761246
H  52.29296 27.948822 63.4575
H  52.799646 26.331282 63.024913
N  52.044001 27.773504 64.942149
H  52.24017 26.818466 65.205816
H  52.158349 28.06604 63.982228
N  52.711221 25.643476 64.372505
H  52.82557 25.936011 63.412584
H  52.400704 26.305978 65.068759
88
Image 13. Energy: -22845.319481580547 
C  55.731730224446466 31.165780940803874 63.98346789396408
H  55.503787703252506 31.964150209530512 64.71026898472599
H  55.56713345917102 31.654983067506542 63.00629004138617
C  54.60517036068774 30.176585331842524 64.0932411752046
C  53.16806087012316 30.74317608460208 63.73570463357532
O  52.99474258304245 31.973932610659233 63.79801982735571
O  52.30598385586702 29.874221005611037 63.425401022238454
O  54.69793986666679 28.999344699047086 64.41794013661446
C  58.56456231545889 29.367741271350596 62.49682849000041
H  58.76101650922208 28.39737452550414 62.026692709626474
C  57.5954543639234 29.49455830541444 63.41367632423558
H  56.994681812419756 28.627445137511696 63.70208738665813
C  57.24040810187798 30.800993969978354 64.0883045451159
C  57.97337519105228 31.971566073978355 63.4327042516051
H  57.652346448060555 32.96844296415423 63.75509759770936
C  58.92848303299635 31.83852818773117 62.50819731407264
H  59.39812958876803 32.72234293867489 62.06469306198309
C  59.44567639149684 30.50472303769127 62.050377925713214
H  59.52408297446968 30.493031401002447 60.95043590368501
O  60.76101876821165 30.31156901601862 62.61800693030008
H  61.4052893621142 30.32104126182842 61.89020305521113
C  57.81738907708517 30.851285071187018 65.54414042914809
O  58.98723498087091 30.37035808258817 65.71368573773411
O  57.19579609870336 31.463901865793087 66.44446962213556
C  61.2499 27.5507 65.3707
N  61.400477 27.93592 64.106646
H  61.08996 28.598422 64.8029
H  61.596646 26.980882 64.370313
N  60.841001 28.423104 66.287549
H  61.03717 27.468066 66.551216
H  60.955349 28.71564 65.327628
N  61.508221 26.293076 65.717905
H  61.62257 26.585611 64.757984
H  61.197704 26.955578 66.414159
C  66.7037 27.2429 46.1358
O  67.887525 27.304676 45.739263
O  65.992416 26.215517 46.168359
H  66.245721 28.17875 46.488561
C  68.4208 36.0888 47.0932
O  69.604625 36.150576 46.696663
O  67.709516 35.061417 47.125759
H  67.962821 37.02465 47.445961
C  70.0725 28.7101 49.1024
O  71.256325 28.771876 48.705863
O  69.361216 27.682717 49.134959
H  69.614521 29.64595 49.455161
C  66.4277 22.7649 54.5604
O  67.611525 22.826676 54.163863
O  65.716416 21.737517 54.592959
H  65.969721 23.70075 54.913161
C  60.0661 32.7337 43.351
O  61.249925 32.795476 42.954463
O  59.354816 31.706317 43.383559
H  59.608121 33.66955 43.703761
C  50.0592 33.8142 64.2399
N  50.209777 34.19942 62.975846
H  49.89926 34.861922 63.6721
H  50.405946 33.244382 63.239513
N  49.650301 34.686604 65.156749
H  49.84647 33.731566 65.420416
H  49.764649 34.97914 64.196828
N  50.317521 32.556576 64.587105
H  50.43187 32.849111 63.627184
H  50.007004 33.219078 65.283359
C  59.6366 32.4174 67.8231
N  59.787177 32.80262 66.559046
H  59.47666 33.465122 67.2553
H  59.983346 31.847582 66.822713
N  59.227701 33.289804 68.739949
H  59.42387 32.334766 69.003616
H  59.342049 33.58234 67.780028
N  59.894921 31.159776 68.170305
H  60.00927 31.452311 67.210384
H  59.584404 31.822278 68.866559
C  58.7641 25.4049 46.2993
O  59.947925 25.466676 45.902763
O  58.052816 24.377517 46.331859
H  58.306121 26.34075 46.652061
C  52.4529 26.9011 64.0253
N  52.603477 27.28632 62.761246
H  52.29296 27.948822 63.4575
H  52.799646 26.331282 63.024913
N  52.044001 27.773504 64.942149
H  52.24017 26.818466 65.205816
H  52.158349 28.06604 63.982228
N  52.711221 25.643476 64.372505
H  52.82557 25.936011 63.412584
H  52.400704 26.305978 65.068759
