88
-2 1 -839.5433518902972
C       54.76825818    31.31665896    62.33931497
H       55.83704947    31.10846382    62.27456010
H       54.39608911    32.20634625    61.83000676
C       53.88514701    30.51771116    62.94976011
C       52.38077214    30.77454958    62.96170323
O       51.98163496    31.93294355    62.67973228
O       51.65255409    29.78931302    63.26610336
O       54.17769624    29.34531056    63.62671027
C       55.48792677    28.76507352    63.59807146
H       55.35203487    27.83921169    64.19830930
C       56.48095719    29.57285712    64.35988109
H       56.13549181    30.04728400    65.27901090
C       57.78870481    29.59065331    64.03883845
C       58.26244989    28.94967682    62.80633914
H       59.31860402    29.03901926    62.54126992
C       57.41023505    28.32348618    61.97227457
H       57.76714229    27.91155256    61.02089435
C       55.92207786    28.23189906    62.21825926
H       55.42429916    28.81428470    61.41930338
O       55.44803421    26.87813373    62.19131678
H       55.67016161    26.48866157    61.32659409
C       58.73855148    30.23437954    65.01453831
O       58.25287950    30.67261754    66.09224069
O       59.97516545    30.26923570    64.73370299
C       61.24990000    27.55070000    65.37070000
N       61.40047700    27.93592000    64.10664600
H       61.08996000    28.59842200    64.80290000
H       61.59664600    26.98088200    64.37031300
N       60.84100100    28.42310400    66.28754900
H       61.03717000    27.46806600    66.55121600
H       60.95534900    28.71564000    65.32762800
N       61.50822100    26.29307600    65.71790500
H       61.62257000    26.58561100    64.75798400
H       61.19770400    26.95557800    66.41415900
C       66.70370000    27.24290000    46.13580000
O       67.88752500    27.30467600    45.73926300
O       65.99241600    26.21551700    46.16835900
H       66.24572100    28.17875000    46.48856100
C       68.42080000    36.08880000    47.09320000
O       69.60462500    36.15057600    46.69666300
O       67.70951600    35.06141700    47.12575900
H       67.96282100    37.02465000    47.44596100
C       70.07250000    28.71010000    49.10240000
O       71.25632500    28.77187600    48.70586300
O       69.36121600    27.68271700    49.13495900
H       69.61452100    29.64595000    49.45516100
C       66.42770000    22.76490000    54.56040000
O       67.61152500    22.82667600    54.16386300
O       65.71641600    21.73751700    54.59295900
H       65.96972100    23.70075000    54.91316100
C       60.06610000    32.73370000    43.35100000
O       61.24992500    32.79547600    42.95446300
O       59.35481600    31.70631700    43.38355900
H       59.60812100    33.66955000    43.70376100
C       50.05920000    33.81420000    64.23990000
N       50.20977700    34.19942000    62.97584600
H       49.89926000    34.86192200    63.67210000
H       50.40594600    33.24438200    63.23951300
N       49.65030100    34.68660400    65.15674900
H       49.84647000    33.73156600    65.42041600
H       49.76464900    34.97914000    64.19682800
N       50.31752100    32.55657600    64.58710500
H       50.43187000    32.84911100    63.62718400
H       50.00700400    33.21907800    65.28335900
C       59.63660000    32.41740000    67.82310000
N       59.78717700    32.80262000    66.55904600
H       59.47666000    33.46512200    67.25530000
H       59.98334600    31.84758200    66.82271300
N       59.22770100    33.28980400    68.73994900
H       59.42387000    32.33476600    69.00361600
H       59.34204900    33.58234000    67.78002800
N       59.89492100    31.15977600    68.17030500
H       60.00927000    31.45231100    67.21038400
H       59.58440400    31.82227800    68.86655900
C       58.76410000    25.40490000    46.29930000
O       59.94792500    25.46667600    45.90276300
O       58.05281600    24.37751700    46.33185900
H       58.30612100    26.34075000    46.65206100
C       52.45290000    26.90110000    64.02530000
N       52.60347700    27.28632000    62.76124600
H       52.29296000    27.94882200    63.45750000
H       52.79964600    26.33128200    63.02491300
N       52.04400100    27.77350400    64.94214900
H       52.24017000    26.81846600    65.20581600
H       52.15834900    28.06604000    63.98222800
N       52.71122100    25.64347600    64.37250500
H       52.82557000    25.93601100    63.41258400
H       52.40070400    26.30597800    65.06875900
