88
-2 1 -839.5499025507418
C       55.73263915    31.16297934    63.98459839
H       55.50430890    31.96266604    64.71030466
H       55.56577884    31.65037432    63.00675647
C       54.60624780    30.17351790    64.09720230
C       53.16872305    30.74125049    63.74631194
O       52.99498955    31.97146539    63.81876740
O       52.30683839    29.87482637    63.42743461
O       54.70088268    28.99504682    64.41642962
C       58.56636475    29.36067239    62.50345991
H       58.76572242    28.38745878    62.04237104
C       57.59842572    29.49027456    63.42056701
H       57.00135863    28.62275604    63.71553234
C       57.24179929    30.79910006    64.08971645
C       57.97497321    31.96759226    63.43099683
H       57.65859630    32.96608090    63.75453929
C       58.92484858    31.83210767    62.50128574
H       59.39473834    32.71536945    62.05716584
C       59.43883348    30.49728415    62.04101320
H       59.50109420    30.47777391    60.93972565
O       60.76079365    30.30326920    62.58966433
H       61.40372285    30.42612306    61.87090139
C       57.81964475    30.84951051    65.54515585
O       58.99241269    30.37402931    65.71181787
O       57.19575672    31.45554814    66.44821687
C       61.24990000    27.55070000    65.37070000
N       61.40047700    27.93592000    64.10664600
H       61.08996000    28.59842200    64.80290000
H       61.59664600    26.98088200    64.37031300
N       60.84100100    28.42310400    66.28754900
H       61.03717000    27.46806600    66.55121600
H       60.95534900    28.71564000    65.32762800
N       61.50822100    26.29307600    65.71790500
H       61.62257000    26.58561100    64.75798400
H       61.19770400    26.95557800    66.41415900
C       66.70370000    27.24290000    46.13580000
O       67.88752500    27.30467600    45.73926300
O       65.99241600    26.21551700    46.16835900
H       66.24572100    28.17875000    46.48856100
C       68.42080000    36.08880000    47.09320000
O       69.60462500    36.15057600    46.69666300
O       67.70951600    35.06141700    47.12575900
H       67.96282100    37.02465000    47.44596100
C       70.07250000    28.71010000    49.10240000
O       71.25632500    28.77187600    48.70586300
O       69.36121600    27.68271700    49.13495900
H       69.61452100    29.64595000    49.45516100
C       66.42770000    22.76490000    54.56040000
O       67.61152500    22.82667600    54.16386300
O       65.71641600    21.73751700    54.59295900
H       65.96972100    23.70075000    54.91316100
C       60.06610000    32.73370000    43.35100000
O       61.24992500    32.79547600    42.95446300
O       59.35481600    31.70631700    43.38355900
H       59.60812100    33.66955000    43.70376100
C       50.05920000    33.81420000    64.23990000
N       50.20977700    34.19942000    62.97584600
H       49.89926000    34.86192200    63.67210000
H       50.40594600    33.24438200    63.23951300
N       49.65030100    34.68660400    65.15674900
H       49.84647000    33.73156600    65.42041600
H       49.76464900    34.97914000    64.19682800
N       50.31752100    32.55657600    64.58710500
H       50.43187000    32.84911100    63.62718400
H       50.00700400    33.21907800    65.28335900
C       59.63660000    32.41740000    67.82310000
N       59.78717700    32.80262000    66.55904600
H       59.47666000    33.46512200    67.25530000
H       59.98334600    31.84758200    66.82271300
N       59.22770100    33.28980400    68.73994900
H       59.42387000    32.33476600    69.00361600
H       59.34204900    33.58234000    67.78002800
N       59.89492100    31.15977600    68.17030500
H       60.00927000    31.45231100    67.21038400
H       59.58440400    31.82227800    68.86655900
C       58.76410000    25.40490000    46.29930000
O       59.94792500    25.46667600    45.90276300
O       58.05281600    24.37751700    46.33185900
H       58.30612100    26.34075000    46.65206100
C       52.45290000    26.90110000    64.02530000
N       52.60347700    27.28632000    62.76124600
H       52.29296000    27.94882200    63.45750000
H       52.79964600    26.33128200    63.02491300
N       52.04400100    27.77350400    64.94214900
H       52.24017000    26.81846600    65.20581600
H       52.15834900    28.06604000    63.98222800
N       52.71122100    25.64347600    64.37250500
H       52.82557000    25.93601100    63.41258400
H       52.40070400    26.30597800    65.06875900
