24
frame 57397 P, aligned onto 20000 on 8 atoms
C      48.05785373    28.38317594    56.22923546
H      48.99095088    27.85077882    56.46727123
H      48.02642752    29.34499345    56.75549914
C      46.91492248    27.48168290    56.62068335
C      45.56938330    28.04371094    57.16476495
O      45.55829279    29.23428741    57.56367556
O      44.60802377    27.24838488    57.17284580
O      47.02449680    26.28525466    56.44987950
C      46.65128939    26.93777404    53.46135466
H      46.54587015    25.97499881    52.95410164
C      47.83910724    27.33421411    53.92394523
H      48.71923882    26.70240046    53.81999854
C      48.03181441    28.63184952    54.65915763
C      46.90403708    29.58511424    54.37525152
H      47.13922269    30.63550733    54.56767316
C      45.70729305    29.18739898    53.94292144
H      44.90198769    29.91485096    53.81874461
C      45.39008932    27.75860481    53.57748058
H      44.74876125    27.32429621    54.37209957
O      44.70155790    27.76763424    52.34371198
H      43.97573697    27.06000566    52.30778468
C      49.41634866    29.28177637    54.32490624
O      50.37857978    28.51437397    54.07925437
O      49.47550413    30.52506362    54.36913802
