24
frame 57397 R, aligned onto 20000 on 8 atoms
C      47.89838538    28.12598580    56.84421520
H      48.83429976    27.76700652    56.41723494
H      47.91413933    28.94508108    57.56456493
C      46.71377741    27.61820864    56.48465253
C      45.39910393    28.08975244    57.09228655
O      45.37809429    29.23937662    57.60736308
O      44.43255761    27.29424699    57.03898283
O      46.60531893    26.59226074    55.57265764
C      46.55088883    26.96482625    54.14720953
H      46.34782910    26.01283237    53.63662517
C      47.90188323    27.49585652    53.80634887
H      48.73206505    26.79349355    53.75148185
C      48.15137427    28.81824267    53.79604870
C      47.04458588    29.76939810    53.94196583
H      47.32849066    30.82217995    54.01515351
C      45.76477061    29.36654466    54.02135712
H      44.95604600    30.08944250    54.16606794
C      45.37740084    27.91766242    53.82775978
H      44.54945679    27.65527802    54.50676499
O      44.98943661    27.76224222    52.47136296
H      44.24137849    27.08945160    52.37895714
C      49.58432672    29.32819131    53.77166305
O      50.50220038    28.47798101    53.90582860
O      49.76082285    30.56208953    53.65517141
