24
frame 57397 TS, aligned onto 20000 on 8 atoms
C      48.03042272    28.29918852    56.60050644
H      48.98116536    27.83213802    56.35088706
H      48.03320477    29.26687808    57.10301404
C      46.85568882    27.55508201    56.53435733
C      45.52539495    28.09380008    57.10047801
O      45.50384536    29.25932344    57.57888850
O      44.54503818    27.31415835    57.06121664
O      46.80745679    26.44640395    55.90413935
C      46.56166699    26.90805699    53.79788771
H      46.39268941    25.86441255    53.52660621
C      47.84308586    27.42721783    53.77583567
H      48.70528355    26.77769104    53.65424054
C      48.05723050    28.75175008    54.14552864
C      46.92370351    29.67267723    54.20071596
H      47.18159101    30.72088280    54.36928154
C      45.66161698    29.24040715    54.05598176
H      44.82065856    29.93312848    54.12880453
C      45.33922354    27.79972529    53.75383591
H      44.59839222    27.43566995    54.48508574
O      44.82371986    27.74293236    52.43001463
H      44.08262567    27.04734569    52.34669602
C      49.46972796    29.31999251    54.08400157
O      50.42706945    28.50680042    54.03295056
O      49.57567322    30.56337815    54.05568711
