24
20000 R
C      48.06400000    27.89400000    56.86600000
H      48.92900000    27.40200000    56.42300000
H      48.21100000    28.66100000    57.62700000
C      46.80800000    27.59400000    56.51100000
C      45.61800000    28.27700000    57.17500000
O      45.84200000    29.31200000    57.85500000
O      44.48200000    27.76700000    57.01700000
O      46.53500000    26.61400000    55.57600000
C      46.55000000    26.96800000    54.14000000
H      46.35300000    26.00700000    53.64300000
C      47.90800000    27.50200000    53.80100000
H      48.75800000    26.82600000    53.67900000
C      48.15400000    28.82700000    53.83200000
C      47.03600000    29.77000000    53.96100000
H      47.29600000    30.82500000    54.05700000
C      45.75500000    29.35800000    53.95800000
H      44.94400000    30.08800000    54.03200000
C      45.36400000    27.91000000    53.81900000
H      44.60200000    27.67800000    54.58200000
O      44.84500000    27.68000000    52.51700000
H      43.99800000    27.14100000    52.57400000
C      49.57700000    29.38000000    53.86600000
O      50.55600000    28.58700000    53.82300000
O      49.68100000    30.61600000    54.00100000
