24
24883 TS
C      42.58070668    20.05921447    56.49398499
H      43.24620425    19.23976212    56.23243653
H      43.01300796    20.97628775    56.89486537
C      41.20917244    19.83342872    56.58451303
C      40.25669727    20.89037903    57.16975298
O      40.75185768    21.94390282    57.65031133
O      39.02867549    20.62315411    57.16215539
O      40.67479035    18.79819091    56.06578475
C      40.53689039    19.03864338    53.98385422
H      40.05383751    18.07098812    53.84353260
C      41.90889977    19.15842444    53.82133779
H      42.54541995    18.28074686    53.70359046
C      42.52623549    20.37956885    54.09397971
C      41.70030849    21.59019944    54.14534181
H      42.22710319    22.53586568    54.26571304
C      40.36038913    21.53215067    54.08735063
H      39.76190082    22.44009500    54.18643980
C      39.61670730    20.23922250    53.88666038
H      38.84967309    20.14998224    54.66975741
O      39.01470010    20.22463842    52.59191860
H      38.01315959    20.18577809    52.66086937
C      44.03527767    20.50595669    53.90122486
O      44.73290669    19.46350770    53.99593760
O      44.46558243    21.64898230    53.62120777
