24
43087 R
C      46.02100000    21.72200000    37.47900000
H      46.39000000    21.14600000    36.63000000
H      46.54400000    22.64000000    37.75200000
C      44.93800000    21.36100000    38.18100000
C      44.44200000    22.17500000    39.37100000
O      44.83100000    23.37200000    39.47900000
O      43.68600000    21.58500000    40.17700000
O      44.25000000    20.18900000    37.94700000
C      43.25700000    20.12600000    36.84300000
H      42.85600000    19.10600000    36.91700000
C      44.03400000    20.32200000    35.59100000
H      44.67000000    19.50700000    35.24300000
C      44.16700000    21.55000000    35.05700000
C      43.31700000    22.64100000    35.55100000
H      43.50700000    23.63100000    35.13000000
C      42.36400000    22.45600000    36.48500000
H      41.74200000    23.29300000    36.82100000
C      42.08600000    21.10300000    37.09500000
H      42.02800000    21.21700000    38.19500000
O      40.86100000    20.62000000    36.57400000
H      40.50100000    19.81700000    37.08100000
C      45.29000000    21.81600000    34.05700000
O      46.21100000    20.95500000    34.01500000
O      45.24700000    22.88300000    33.40100000
