24
43087 TS
C      45.92072068    21.66291768    37.27908166
H      46.38889087    20.97099393    36.58496006
H      46.34197660    22.66391752    37.36309959
C      44.98281475    21.21546818    38.19302421
C      44.44884927    22.13236108    39.31296038
O      44.83302643    23.33492631    39.37198552
O      43.67181237    21.58853802    40.13136609
O      44.47127596    20.04140077    38.11597187
C      42.96990605    19.97740391    36.59422060
H      42.69825908    18.94017436    36.80037696
C      43.90929237    20.25592090    35.61233935
H      44.50090960    19.45701368    35.16626886
C      44.27223317    21.57653857    35.36821498
C      43.38892534    22.64458344    35.84125419
H      43.63378401    23.65836149    35.51608516
C      42.32400913    22.39254496    36.62588287
H      41.66732904    23.20164986    36.96032928
C      41.99397790    21.00875372    37.12078848
H      42.09486007    21.02200280    38.22236842
O      40.66649279    20.68788096    36.74318217
H      40.33507371    19.82173196    37.18146442
C      45.38487638    21.85809665    34.35124573
O      46.19288839    20.92100720    34.12183454
O      45.40362595    22.99799708    33.83323976
