24
frame 59999 P
C     43.119000    16.480000    46.201000
H     43.970000    15.788000    46.289000
H     43.500000    17.494000    46.025000
C     42.346000    16.380000    47.491000
C     41.778000    17.611000    48.275000
O     42.234000    18.757000    48.031000
O     40.920000    17.338000    49.135000
O     42.125000    15.277000    47.945000
C     40.282000    14.645000    45.666000
H     39.793000    13.684000    45.852000
C     41.533000    14.707000    45.197000
H     42.086000    13.796000    44.977000
C     42.239000    16.021000    44.956000
C     41.220000    17.110000    44.719000
H     41.558000    17.942000    44.092000
C     39.988000    17.062000    45.234000
H     39.302000    17.900000    45.089000
C     39.483000    15.877000    46.023000
H     39.663000    16.093000    47.099000
O     38.106000    15.729000    45.793000
H     37.731000    14.940000    46.355000
C     43.270000    15.926000    43.782000
O     43.854000    14.835000    43.595000
O     43.479000    16.977000    43.136000
