24
frame 59999 R
C     43.411000    16.733000    46.785000
H     43.875000    15.910000    46.243000
H     43.915000    17.698000    46.822000
C     42.240000    16.600000    47.420000
C     41.627000    17.713000    48.264000
O     42.062000    18.889000    48.105000
O     40.740000    17.386000    49.080000
O     41.545000    15.411000    47.424000
C     40.685000    15.087000    46.271000
H     40.165000    14.173000    46.588000
C     41.587000    14.834000    45.106000
H     42.130000    13.890000    45.074000
C     41.885000    15.821000    44.238000
C     41.132000    17.081000    44.289000
H     41.466000    17.862000    43.599000
C     40.106000    17.273000    45.138000
H     39.564000    18.223000    45.154000
C     39.608000    16.166000    46.042000
H     39.371000    16.583000    47.040000
O     38.469000    15.602000    45.433000
H     37.971000    14.973000    46.095000
C     43.089000    15.708000    43.310000
O     43.830000    14.702000    43.434000
O     43.301000    16.663000    42.521000
