26
-2 1 None
C       56.65676996    36.68980168    56.06680550
H       55.89532290    36.43009285    55.32743966
H       57.18728278    37.63784477    55.97458668
C       56.93222908    35.87385352    57.09406589
C       57.92517766    36.27451888    58.18618366
O       58.81462577    37.10959674    57.86431155
O       57.76878114    35.76889528    59.32706895
O       56.21195499    34.71327997    57.26317465
C       56.83504112    33.45494053    56.91796619
H       56.08163687    32.71166073    57.22249265
C       58.10013042    33.23429838    57.69523169
H       58.01769952    33.04010752    58.76435388
C       59.31761018    33.38673447    57.13570117
C       59.43739648    33.69673559    55.70551448
H       60.43624577    33.93400134    55.33400884
C       58.37163486    33.67972283    54.88793652
H       58.47474623    33.88277630    53.81809137
C       57.00511036    33.29626645    55.38707516
H       56.24588925    33.94878213    54.91710779
O       56.79798373    31.93830095    55.00024960
H       55.84844724    31.75492659    55.05770489
C       60.56219959    33.41602411    58.01676476
O       60.46921080    32.95820538    59.18796028
O       61.57610132    33.99162621    57.53379973
He      76.03146149     5.52073108    27.80122061
He      61.07584246    36.18784656    60.24075805
