24
frame 38344 P, aligned onto 20000 on 8 atoms
C      48.21996865    28.23034989    56.01441883
H      49.06226435    27.52821950    56.08510725
H      48.40714759    29.10167423    56.65345243
C      46.96862250    27.54077734    56.48739084
C      45.89489530    28.35724626    57.24530074
O      46.31755673    29.19311035    58.07333850
O      44.69717566    28.08061765    56.98744753
O      46.77805330    26.35764981    56.27381733
C      46.58938761    27.07619037    53.32761287
H      46.39050942    26.11155546    52.86276671
C      47.82921935    27.42109678    53.68965683
H      48.67175555    26.74370185    53.52767574
C      48.11366657    28.66609624    54.49396529
C      46.99648757    29.66383961    54.31642582
H      47.23882374    30.70480568    54.51267011
C      45.76086159    29.32506869    53.94523488
H      44.98430694    30.09067164    53.87246124
C      45.36601509    27.92869929    53.54826920
H      44.77277589    27.48602537    54.37225163
O      44.59377062    27.96313082    52.35764460
H      43.65004065    27.65718428    52.52116973
C      49.49091899    29.31145086    54.12629942
O      50.53337378    28.69825566    54.48358315
O      49.48778821    30.43687024    53.57691940
