24
frame 38344 R, aligned onto 20000 on 8 atoms
C      48.18592475    27.70304090    56.84611604
H      48.97718715    27.14819115    56.34098677
H      48.44244226    28.42584672    57.62064655
C      46.89585488    27.54169448    56.52834243
C      45.80941987    28.35339143    57.21992179
O      46.17753396    29.18991012    58.07699676
O      44.61380433    28.12496128    56.88658692
O      46.48283061    26.63245093    55.57800348
C      46.54245055    26.98083855    54.14291584
H      46.35897316    26.02084769    53.64125600
C      47.91313069    27.50685947    53.84983063
H      48.74323423    26.79953774    53.81260056
C      48.14814690    28.83380468    53.84686561
C      47.02167842    29.77038882    53.93134572
H      47.27807499    30.82603030    53.99466922
C      45.74248016    29.36166359    53.93629417
H      44.93605530    30.09748913    54.00079791
C      45.36342779    27.91529949    53.78440211
H      44.57693470    27.68076724    54.51658053
O      44.90629036    27.67201881    52.45967501
H      43.92499766    27.44933959    52.48401827
C      49.54586758    29.43815370    53.86375220
O      50.51152668    28.75620342    54.30654711
O      49.62276347    30.64208361    53.50922041
