24
frame 38344 TS, aligned onto 20000 on 8 atoms
C      48.26337319    28.06355149    56.48103962
H      49.08660542    27.45724592    56.11161564
H      48.49124536    28.95516423    57.06335019
C      46.96157239    27.56977980    56.50008629
C      45.86610080    28.38399233    57.21210383
O      46.23648756    29.21697077    58.07212904
O      44.66902355    28.13199310    56.90174249
O      46.61732500    26.53072422    55.84709301
C      46.59299675    26.95101515    53.72816459
H      46.40814011    25.90685724    53.47753175
C      47.88627907    27.44337558    53.71583314
H      48.73421284    26.76823816    53.59441812
C      48.12419119    28.75932453    54.12815871
C      46.99241747    29.68832059    54.17407034
H      47.22140077    30.73552043    54.35569800
C      45.72997185    29.27732294    53.98102282
H      44.91048367    29.99987128    54.00204827
C      45.37455865    27.84954318    53.68229802
H      44.67533145    27.50129924    54.45877269
O      44.77997526    27.75801362    52.39330351
H      43.80548025    27.50079613    52.47415090
C      49.51896554    29.37500467    54.03261033
O      50.52493665    28.72162446    54.41279182
O      49.55705963    30.54862120    53.58452790
