24
Coordinates from ORCA-job neb_initial_path.QMRegion E   0.000000000000
  C      44.966000     29.666000     67.097000
  H      45.675000     28.840000     67.030000
  H      45.278000     30.603000     67.557000
  C      43.707000     29.563000     66.656000
  C      42.715000     30.711000     66.782000
  O      43.170000     31.841000     67.095000
  O      41.505000     30.459000     66.565000
  O      43.224000     28.397000     66.087000
  C      43.438000     28.193000     64.644000
  H      42.994000     27.207000     64.450000
  C      44.915000     28.184000     64.403000
  H      45.497000     27.316000     64.718000
  C      45.549000     29.312000     64.029000
  C      44.774000     30.504000     63.666000
  H      45.354000     31.407000     63.479000
  C      43.434000     30.489000     63.596000
  H      42.881000     31.394000     63.330000
  C      42.641000     29.227000     63.816000
  H      41.750000     29.470000     64.412000
  O      42.283000     28.682000     62.559000
  H      41.280000     28.569000     62.497000
  C      47.060000     29.450000     64.118000
  O      47.762000     28.489000     64.497000
  O      47.505000     30.596000     63.830000
24
Coordinates from ORCA-job neb_initial_path.QMRegion E   0.000000000000
  C      45.011667     29.652222     67.007000
  H      45.708444     28.825556     66.991444
  H      45.330667     30.591667     67.458222
  C      43.732778     29.541000     66.660111
  C      42.751778     30.700556     66.794667
  O      43.219222     31.819667     67.118889
  O      41.540889     30.460333     66.571778
  O      43.250000     28.381111     66.166222
  C      43.466667     28.185444     64.533667
  H      43.029444     27.201444     64.324111
  C      44.915889     28.189222     64.377444
  H      45.505000     27.320667     64.670111
  C      45.541333     29.335778     64.104778
  C      44.767222     30.526333     63.721000
  H      45.337000     31.437000     63.561556
  C      43.440000     30.500444     63.601222
  H      42.890111     31.402333     63.321222
  C      42.652667     29.234000     63.782111
  H      41.778556     29.444444     64.403556
  O      42.261444     28.748667     62.526222
  H      41.266889     28.602667     62.477333
  C      47.053556     29.469667     64.147000
  O      47.760556     28.511333     64.523000
  O      47.492222     30.604333     63.826333
24
Coordinates from ORCA-job neb_initial_path.QMRegion E   0.000000000000
  C      45.057333     29.638444     66.917000
  H      45.741889     28.811111     66.952889
  H      45.383333     30.580333     67.359444
  C      43.758556     29.519000     66.664222
  C      42.788556     30.690111     66.807333
  O      43.268444     31.798333     67.142778
  O      41.576778     30.461667     66.578556
  O      43.276000     28.365222     66.245444
  C      43.495333     28.177889     64.423333
  H      43.064889     27.195889     64.198222
  C      44.916778     28.194444     64.351889
  H      45.513000     27.325333     64.622222
  C      45.533667     29.359556     64.180556
  C      44.760444     30.548667     63.776000
  H      45.320000     31.467000     63.644111
  C      43.446000     30.511889     63.606444
  H      42.899222     31.410667     63.312444
  C      42.664333     29.241000     63.748222
  H      41.807111     29.418889     64.395111
  O      42.239889     28.815333     62.493444
  H      41.253778     28.636333     62.457667
  C      47.047111     29.489333     64.176000
  O      47.759111     28.533667     64.549000
  O      47.479444     30.612667     63.822667
24
Coordinates from ORCA-job neb_initial_path.QMRegion E   0.000000000000
  C      45.103000     29.624667     66.827000
  H      45.775333     28.796667     66.914333
  H      45.436000     30.569000     67.260667
  C      43.784333     29.497000     66.668333
  C      42.825333     30.679667     66.820000
  O      43.317667     31.777000     67.166667
  O      41.612667     30.463000     66.585333
  O      43.302000     28.349333     66.324667
  C      43.524000     28.170333     64.313000
  H      43.100333     27.190333     64.072333
  C      44.917667     28.199667     64.326333
  H      45.521000     27.330000     64.574333
  C      45.526000     29.383333     64.256333
  C      44.753667     30.571000     63.831000
  H      45.303000     31.497000     63.726667
  C      43.452000     30.523333     63.611667
  H      42.908333     31.419000     63.303667
  C      42.676000     29.248000     63.714333
  H      41.835667     29.393333     64.386667
  O      42.218333     28.882000     62.460667
  H      41.240667     28.670000     62.438000
  C      47.040667     29.509000     64.205000
  O      47.757667     28.556000     64.575000
  O      47.466667     30.621000     63.819000
24
Coordinates from ORCA-job neb_initial_path.QMRegion E   0.000000000000
  C      45.148667     29.610889     66.737000
  H      45.808778     28.782222     66.875778
  H      45.488667     30.557667     67.161889
  C      43.810111     29.475000     66.672444
  C      42.862111     30.669222     66.832667
  O      43.366889     31.755667     67.190556
  O      41.648556     30.464333     66.592111
  O      43.328000     28.333444     66.403889
  C      43.552667     28.162778     64.202667
  H      43.135778     27.184778     63.946444
  C      44.918556     28.204889     64.300778
  H      45.529000     27.334667     64.526444
  C      45.518333     29.407111     64.332111
  C      44.746889     30.593333     63.886000
  H      45.286000     31.527000     63.809222
  C      43.458000     30.534778     63.616889
  H      42.917444     31.427333     63.294889
  C      42.687667     29.255000     63.680444
  H      41.864222     29.367778     64.378222
  O      42.196778     28.948667     62.427889
  H      41.227556     28.703667     62.418333
  C      47.034222     29.528667     64.234000
  O      47.756222     28.578333     64.601000
  O      47.453889     30.629333     63.815333
24
Coordinates from ORCA-job neb_initial_path.QMRegion E   0.000000000000
  C      45.194333     29.597111     66.647000
  H      45.842222     28.767778     66.837222
  H      45.541333     30.546333     67.063111
  C      43.835889     29.453000     66.676556
  C      42.898889     30.658778     66.845333
  O      43.416111     31.734333     67.214444
  O      41.684444     30.465667     66.598889
  O      43.354000     28.317556     66.483111
  C      43.581333     28.155222     64.092333
  H      43.171222     27.179222     63.820556
  C      44.919444     28.210111     64.275222
  H      45.537000     27.339333     64.478556
  C      45.510667     29.430889     64.407889
  C      44.740111     30.615667     63.941000
  H      45.269000     31.557000     63.891778
  C      43.464000     30.546222     63.622111
  H      42.926556     31.435667     63.286111
  C      42.699333     29.262000     63.646556
  H      41.892778     29.342222     64.369778
  O      42.175222     29.015333     62.395111
  H      41.214444     28.737333     62.398667
  C      47.027778     29.548333     64.263000
  O      47.754778     28.600667     64.627000
  O      47.441111     30.637667     63.811667
24
Coordinates from ORCA-job neb_initial_path.QMRegion E   0.000000000000
  C      45.240000     29.583333     66.557000
  H      45.875667     28.753333     66.798667
  H      45.594000     30.535000     66.964333
  C      43.861667     29.431000     66.680667
  C      42.935667     30.648333     66.858000
  O      43.465333     31.713000     67.238333
  O      41.720333     30.467000     66.605667
  O      43.380000     28.301667     66.562333
  C      43.610000     28.147667     63.982000
  H      43.206667     27.173667     63.694667
  C      44.920333     28.215333     64.249667
  H      45.545000     27.344000     64.430667
  C      45.503000     29.454667     64.483667
  C      44.733333     30.638000     63.996000
  H      45.252000     31.587000     63.974333
  C      43.470000     30.557667     63.627333
  H      42.935667     31.444000     63.277333
  C      42.711000     29.269000     63.612667
  H      41.921333     29.316667     64.361333
  O      42.153667     29.082000     62.362333
  H      41.201333     28.771000     62.379000
  C      47.021333     29.568000     64.292000
  O      47.753333     28.623000     64.653000
  O      47.428333     30.646000     63.808000
24
Coordinates from ORCA-job neb_initial_path.QMRegion E   0.000000000000
  C      45.285667     29.569556     66.467000
  H      45.909111     28.738889     66.760111
  H      45.646667     30.523667     66.865556
  C      43.887444     29.409000     66.684778
  C      42.972444     30.637889     66.870667
  O      43.514556     31.691667     67.262222
  O      41.756222     30.468333     66.612444
  O      43.406000     28.285778     66.641556
  C      43.638667     28.140111     63.871667
  H      43.242111     27.168111     63.568778
  C      44.921222     28.220556     64.224111
  H      45.553000     27.348667     64.382778
  C      45.495333     29.478444     64.559444
  C      44.726556     30.660333     64.051000
  H      45.235000     31.617000     64.056889
  C      43.476000     30.569111     63.632556
  H      42.944778     31.452333     63.268556
  C      42.722667     29.276000     63.578778
  H      41.949889     29.291111     64.352889
  O      42.132111     29.148667     62.329556
  H      41.188222     28.804667     62.359333
  C      47.014889     29.587667     64.321000
  O      47.751889     28.645333     64.679000
  O      47.415556     30.654333     63.804333
24
Coordinates from ORCA-job neb_initial_path.QMRegion E   0.000000000000
  C      45.331333     29.555778     66.377000
  H      45.942556     28.724444     66.721556
  H      45.699333     30.512333     66.766778
  C      43.913222     29.387000     66.688889
  C      43.009222     30.627444     66.883333
  O      43.563778     31.670333     67.286111
  O      41.792111     30.469667     66.619222
  O      43.432000     28.269889     66.720778
  C      43.667333     28.132556     63.761333
  H      43.277556     27.162556     63.442889
  C      44.922111     28.225778     64.198556
  H      45.561000     27.353333     64.334889
  C      45.487667     29.502222     64.635222
  C      44.719778     30.682667     64.106000
  H      45.218000     31.647000     64.139444
  C      43.482000     30.580556     63.637778
  H      42.953889     31.460667     63.259778
  C      42.734333     29.283000     63.544889
  H      41.978444     29.265556     64.344444
  O      42.110556     29.215333     62.296778
  H      41.175111     28.838333     62.339667
  C      47.008444     29.607333     64.350000
  O      47.750444     28.667667     64.705000
  O      47.402778     30.662667     63.800667
24
Coordinates from ORCA-job neb_initial_path.QMRegion E   0.000000000000
  C      45.377000     29.542000     66.287000
  H      45.976000     28.710000     66.683000
  H      45.752000     30.501000     66.668000
  C      43.939000     29.365000     66.693000
  C      43.046000     30.617000     66.896000
  O      43.613000     31.649000     67.310000
  O      41.828000     30.471000     66.626000
  O      43.458000     28.254000     66.800000
  C      43.696000     28.125000     63.651000
  H      43.313000     27.157000     63.317000
  C      44.923000     28.231000     64.173000
  H      45.569000     27.358000     64.287000
  C      45.480000     29.526000     64.711000
  C      44.713000     30.705000     64.161000
  H      45.201000     31.677000     64.222000
  C      43.488000     30.592000     63.643000
  H      42.963000     31.469000     63.251000
  C      42.746000     29.290000     63.511000
  H      42.007000     29.240000     64.336000
  O      42.089000     29.282000     62.264000
  H      41.162000     28.872000     62.320000
  C      47.002000     29.627000     64.379000
  O      47.749000     28.690000     64.731000
  O      47.390000     30.671000     63.797000
