24
Coordinates from ORCA-job neb_NEB-CI_converged.QMRegion
  C          45.20957061483615     29.58853225436414     66.72424222079412
  H          45.87576823803938     28.72872928744517     66.75238218137103
  H          45.59417815473741     30.56428785102129     67.02074449221338
  C          43.83536544273839     29.42137556300144     66.61363607105532
  C          42.89582115462594     30.63302227849157     66.76842388671029
  O          43.39183872736804     31.72928917717360     67.12712389258287
  O          41.67750893218110     30.43746380645187     66.53289630615970
  O          43.31655807825396     28.30665178888061     66.25112603308820
  C          43.52697031311283     28.03632850453369     64.18659640570262
  H          43.06467924123489     27.04715026448522     64.18249649744234
  C          44.91144488486384     28.14803970623395     64.20459570378652
  H          45.54767410261497     27.28133833734276     64.38333551949059
  C          45.48640644220922     29.41419060764093     64.28139292651606
  C          44.68080890459294     30.58648048375077     63.93066993857108
  H          45.19863247496502     31.54389530716918     63.91235514448717
  C          43.37385131726921     30.47534550271523     63.65045135878027
  H          42.78510939773629     31.35170539460262     63.36749588360320
  C          42.64314598023286     29.16394351050990     63.68638718670696
  H          41.80151483968528     29.27067819682017     64.38590551685438
  O          42.18694081322862     28.85307455943988     62.38215540156943
  H          41.18980176656222     28.65139138743623     62.38606263369876
  C          47.00098853834935     29.55684331335639     64.27896630144717
  O          47.71621208576087     28.60554061143470     64.65491044690282
  O          47.43731502931714     30.65807846662996     63.84832387413559
