24
Coordinates from ORCA-job neb_MEP.QMRegion E -1076.449828205319
  C      44.966000     29.666000     67.097000
  H      45.675000     28.840000     67.030000
  H      45.278000     30.603000     67.557000
  C      43.707000     29.563000     66.656000
  C      42.715000     30.711000     66.782000
  O      43.170000     31.841000     67.095000
  O      41.505000     30.459000     66.565000
  O      43.224000     28.397000     66.087000
  C      43.438000     28.193000     64.644000
  H      42.994000     27.207000     64.450000
  C      44.915000     28.184000     64.403000
  H      45.497000     27.316000     64.718000
  C      45.549000     29.312000     64.029000
  C      44.774000     30.504000     63.666000
  H      45.354000     31.407000     63.479000
  C      43.434000     30.489000     63.596000
  H      42.881000     31.394000     63.330000
  C      42.641000     29.227000     63.816000
  H      41.750000     29.470000     64.412000
  O      42.283000     28.682000     62.559000
  H      41.280000     28.569000     62.497000
  C      47.060000     29.450000     64.118000
  O      47.762000     28.489000     64.497000
  O      47.505000     30.596000     63.830000
24
Coordinates from ORCA-job neb_MEP.QMRegion E -1076.457726440971
  C      44.965363     29.621745     67.110414
  H      45.671745     28.796521     67.017482
  H      45.276186     30.537598     67.613717
  C      43.711698     29.538486     66.651203
  C      42.725742     30.690730     66.779294
  O      43.181942     31.812893     67.114590
  O      41.517690     30.449190     66.535814
  O      43.229376     28.384182     66.059616
  C      43.454649     28.190058     64.619923
  H      43.009935     27.206491     64.413582
  C      44.933181     28.180518     64.386264
  H      45.513992     27.315939     64.712460
  C      45.570303     29.303870     64.003901
  C      44.799560     30.498577     63.640005
  H      45.381755     31.399566     63.450141
  C      43.458319     30.489020     63.578332
  H      42.908316     31.400728     63.326998
  C      42.664124     29.226419     63.791042
  H      41.766706     29.466269     64.379853
  O      42.316134     28.683503     62.530456
  H      41.315107     28.553819     62.475452
  C      47.080993     29.435619     64.101385
  O      47.775515     28.465466     64.469525
  O      47.529268     30.585531     63.835430
24
Coordinates from ORCA-job neb_MEP.QMRegion E -1076.449410045853
  C      45.157591     29.561192     66.826685
  H      45.862753     28.736461     66.730297
  H      45.541724     30.536914     67.128554
  C      43.845549     29.441438     66.551656
  C      42.894156     30.620967     66.752587
  O      43.383100     31.715884     67.128410
  O      41.671868     30.425368     66.531122
  O      43.314894     28.298377     65.993664
  C      43.484315     28.099629     64.441826
  H      43.056480     27.101832     64.263029
  C      44.936983     28.165231     64.214748
  H      45.557913     27.284064     64.378691
  C      45.514649     29.382832     64.132025
  C      44.693360     30.575982     63.887159
  H      45.209878     31.534697     63.886456
  C      43.373750     30.483855     63.660267
  H      42.785941     31.366082     63.393314
  C      42.633354     29.177641     63.727692
  H      41.770114     29.316097     64.390637
  O      42.222093     28.803716     62.428661
  H      41.220519     28.636525     62.405203
  C      47.016708     29.545670     64.220732
  O      47.725344     28.607564     64.644270
  O      47.456636     30.665339     63.845896
24
Coordinates from ORCA-job neb_MEP.QMRegion E -1076.437252880525
  C      45.185768     29.578979     66.778238
  H      45.872265     28.734690     66.741635
  H      45.576717     30.557614     67.058639
  C      43.842999     29.430210     66.587912
  C      42.898473     30.628075     66.762661
  O      43.389408     31.725192     67.128303
  O      41.677436     30.434205     66.531811
  O      43.317866     28.300803     66.123997
  C      43.507520     28.064767     64.307255
  H      43.062383     27.067671     64.218125
  C      44.927216     28.157431     64.206916
  H      45.554544     27.283453     64.379713
  C      45.499213     29.399411     64.213546
  C      44.685596     30.583217     63.917510
  H      45.202607     31.541572     63.907174
  C      43.374074     30.479664     63.655817
  H      42.785932     31.357326     63.376096
  C      42.638851     29.171041     63.703869
  H      41.789779     29.288162     64.389497
  O      42.201499     28.835917     62.401054
  H      41.201457     28.648202     62.393249
  C      47.007551     29.553632     64.258409
  O      47.720477     28.608229     64.654222
  O      47.445032     30.662329     63.849190
24
Coordinates from ORCA-job neb_MEP.QMRegion E -1076.434495091359
  C      45.209571     29.588532     66.724242
  H      45.875768     28.728729     66.752382
  H      45.594178     30.564288     67.020744
  C      43.835365     29.421376     66.613636
  C      42.895821     30.633022     66.768424
  O      43.391839     31.729289     67.127124
  O      41.677509     30.437464     66.532896
  O      43.316558     28.306652     66.251126
  C      43.526970     28.036329     64.186596
  H      43.064679     27.047150     64.182496
  C      44.911445     28.148040     64.204596
  H      45.547674     27.281338     64.383336
  C      45.486406     29.414191     64.281393
  C      44.680809     30.586480     63.930670
  H      45.198632     31.543895     63.912355
  C      43.373851     30.475346     63.650451
  H      42.785109     31.351705     63.367496
  C      42.643146     29.163944     63.686387
  H      41.801515     29.270678     64.385906
  O      42.186941     28.853075     62.382155
  H      41.189802     28.651391     62.386063
  C      47.000989     29.556843     64.278966
  O      47.716212     28.605541     64.654910
  O      47.437315     30.658078     63.848324
24
Coordinates from ORCA-job neb_MEP.QMRegion E -1076.436015485843
  C      45.231163     29.595293     66.659560
  H      45.879283     28.726654     66.759920
  H      45.609327     30.565864     66.984083
  C      43.834233     29.419659     66.623600
  C      42.896480     30.637163     66.773582
  O      43.397087     31.731748     67.128609
  O      41.679629     30.439979     66.538124
  O      43.318466     28.309150     66.324967
  C      43.539256     28.024619     64.131406
  H      43.071141     27.038935     64.152350
  C      44.903361     28.146153     64.215076
  H      45.544798     27.282084     64.390153
  C      45.479144     29.429080     64.349482
  C      44.679251     30.591715     63.944517
  H      45.197042     31.548950     63.919755
  C      43.377560     30.474107     63.647304
  H      42.788508     31.349106     63.359611
  C      42.648005     29.161318     63.677472
  H      41.810258     29.261633     64.383996
  O      42.179956     28.868191     62.372683
  H      41.184954     28.656806     62.382298
  C      46.998053     29.561981     64.296938
  O      47.715397     28.606940     64.658587
  O      47.432815     30.656896     63.848816
24
Coordinates from ORCA-job neb_MEP.QMRegion E -1076.440542649345
  C      45.250873     29.596704     66.574021
  H      45.878000     28.725371     66.763578
  H      45.620409     30.559728     66.940994
  C      43.831662     29.417616     66.625559
  C      42.895649     30.639526     66.777839
  O      43.401516     31.731789     67.129780
  O      41.680140     30.440468     66.543499
  O      43.317847     28.310081     66.387248
  C      43.549118     28.015454     64.090255
  H      43.077457     27.031376     64.122771
  C      44.894825     28.144515     64.228003
  H      45.540503     27.281954     64.397448
  C      45.471165     29.444087     64.431104
  C      44.676423     30.596012     63.961503
  H      45.194146     31.552991     63.925752
  C      43.380984     30.471551     63.645711
  H      42.792556     31.344489     63.348974
  C      42.651271     29.157675     63.669885
  H      41.816600     29.253130     64.381540
  O      42.173362     28.880040     62.365037
  H      41.180397     28.659452     62.379706
  C      46.994291     29.565786     64.313718
  O      47.714063     28.607619     64.661516
  O      47.426332     30.654424     63.848118
24
Coordinates from ORCA-job neb_MEP.QMRegion E -1076.450157467070
  C      45.273023     29.594688     66.453765
  H      45.870313     28.730487     66.761889
  H      45.632117     30.543055     66.886058
  C      43.828420     29.416216     66.615458
  C      42.895528     30.642542     66.782312
  O      43.405645     31.730891     67.132423
  O      41.680641     30.439166     66.551768
  O      43.317755     28.312923     66.445485
  C      43.559655     28.008816     64.055481
  H      43.084376     27.026484     64.091710
  C      44.887049     28.145253     64.247523
  H      45.534878     27.282609     64.406762
  C      45.463915     29.463253     64.543599
  C      44.673456     30.601309     63.989766
  H      45.190618     31.557637     63.929546
  C      43.387156     30.467435     63.648038
  H      42.798648     31.335646     63.336219
  C      42.655281     29.153752     63.663703
  H      41.823434     29.249525     64.378135
  O      42.167508     28.888215     62.359581
  H      41.175018     28.662938     62.378486
  C      46.990908     29.569712     64.333138
  O      47.715278     28.609012     64.664996
  O      47.416815     30.650356     63.845424
24
Coordinates from ORCA-job neb_MEP.QMRegion E -1076.479810401934
  C      45.326625     29.591639     66.296699
  H      45.916085     28.769796     66.727943
  H      45.673576     30.553614     66.700764
  C      43.875330     29.403569     66.642540
  C      42.959699     30.637880     66.848435
  O      43.499277     31.690554     67.250543
  O      41.744846     30.462544     66.593911
  O      43.391528     28.289632     66.680154
  C      43.668691     28.060949     63.791811
  H      43.250102     27.071343     63.590476
  C      44.924190     28.202893     64.228253
  H      45.584918     27.342338     64.349454
  C      45.473135     29.524252     64.708137
  C      44.694105     30.675177     64.117350
  H      45.183861     31.648234     64.137331
  C      43.454716     30.533902     63.639703
  H      42.893830     31.397670     63.267289
  C      42.725655     29.218248     63.567507
  H      41.956001     29.222540     64.362530
  O      42.120493     29.111129     62.295697
  H      41.157978     28.793198     62.359602
  C      46.994661     29.618541     64.388179
  O      47.730216     28.663736     64.713104
  O      47.394990     30.670984     63.827391
24
Coordinates from ORCA-job neb_MEP.QMRegion E -1076.482541999788
  C      45.377000     29.542000     66.287000
  H      45.976000     28.710000     66.683000
  H      45.752000     30.501000     66.668000
  C      43.939000     29.365000     66.693000
  C      43.046000     30.617000     66.896000
  O      43.613000     31.649000     67.310000
  O      41.828000     30.471000     66.626000
  O      43.458000     28.254000     66.800000
  C      43.696000     28.125000     63.651000
  H      43.313000     27.157000     63.317000
  C      44.923000     28.231000     64.173000
  H      45.569000     27.358000     64.287000
  C      45.480000     29.526000     64.711000
  C      44.713000     30.705000     64.161000
  H      45.201000     31.677000     64.222000
  C      43.488000     30.592000     63.643000
  H      42.963000     31.469000     63.251000
  C      42.746000     29.290000     63.511000
  H      42.007000     29.240000     64.336000
  O      42.089000     29.282000     62.264000
  H      41.162000     28.872000     62.320000
  C      47.002000     29.627000     64.379000
  O      47.749000     28.690000     64.731000
  O      47.390000     30.671000     63.797000
