24
Coordinates from ORCA-job neb_MEP.QMRegion E -1076.670700267440
  C      46.021000     21.722000     37.479000
  H      46.390000     21.146000     36.630000
  H      46.544000     22.640000     37.752000
  C      44.938000     21.361000     38.181000
  C      44.442000     22.175000     39.371000
  O      44.831000     23.372000     39.479000
  O      43.686000     21.585000     40.177000
  O      44.250000     20.189000     37.947000
  C      43.257000     20.126000     36.843000
  H      42.856000     19.106000     36.917000
  C      44.034000     20.322000     35.591000
  H      44.670000     19.507000     35.243000
  C      44.167000     21.550000     35.057000
  C      43.317000     22.641000     35.551000
  H      43.507000     23.631000     35.130000
  C      42.364000     22.456000     36.485000
  H      41.742000     23.293000     36.821000
  C      42.086000     21.103000     37.095000
  H      42.028000     21.217000     38.195000
  O      40.861000     20.620000     36.574000
  H      40.501000     19.817000     37.081000
  C      45.290000     21.816000     34.057000
  O      46.211000     20.955000     34.015000
  O      45.247000     22.883000     33.401000
24
Coordinates from ORCA-job neb_MEP.QMRegion E -1076.672002355505
  C      45.987102     21.641002     37.428372
  H      46.343802     21.043247     36.590887
  H      46.496304     22.579816     37.650477
  C      44.915817     21.290631     38.154484
  C      44.431137     22.129629     39.332277
  O      44.826024     23.326191     39.423302
  O      43.675470     21.556979     40.151884
  O      44.222957     20.116869     37.934759
  C      43.203194     20.069115     36.849191
  H      42.800976     19.049812     36.917075
  C      43.964324     20.287570     35.591220
  H      44.569791     19.469947     35.198429
  C      44.149852     21.540447     35.131970
  C      43.328655     22.630621     35.679256
  H      43.553660     23.637280     35.316446
  C      42.358316     22.425320     36.592695
  H      41.753872     23.260682     36.962627
  C      42.050723     21.054693     37.148673
  H      42.016380     21.129955     38.251567
  O      40.806391     20.622601     36.635038
  H      40.442958     19.805255     37.122820
  C      45.310234     21.833608     34.179538
  O      46.186925     20.933138     34.063707
  O      45.339809     22.962851     33.636591
24
Coordinates from ORCA-job neb_MEP.QMRegion E -1076.667547592132
  C      45.958931     21.618117     37.370703
  H      46.346919     20.986014     36.574003
  H      46.409896     22.604579     37.497441
  C      44.916939     21.249240     38.138762
  C      44.429650     22.117035     39.300943
  O      44.831543     23.313858     39.381645
  O      43.672250     21.562488     40.130252
  O      44.235449     20.067099     37.935418
  C      43.156762     20.022671     36.814419
  H      42.765529     18.995464     36.877225
  C      43.933532     20.274600     35.587636
  H      44.513784     19.459275     35.156488
  C      44.184559     21.551557     35.227193
  C      43.362498     22.632655     35.790648
  H      43.610925     23.649398     35.474175
  C      42.342952     22.399813     36.640359
  H      41.704153     23.217121     36.992146
  C      42.023477     21.020654     37.162357
  H      42.048627     21.064281     38.265478
  O      40.741603     20.645311     36.699520
  H      40.378605     19.810564     37.167590
  C      45.351444     21.851281     34.290023
  O      46.188413     20.928299     34.104344
  O      45.408426     23.008678     33.807964
24
Coordinates from ORCA-job neb_MEP.QMRegion E -1076.657196938826
  C      45.948891     21.642418     37.338505
  H      46.367588     20.986657     36.577827
  H      46.371598     22.645784     37.424620
  C      44.946400     21.237134     38.157549
  C      44.439536     22.126699     39.301992
  O      44.834254     23.325523     39.377503
  O      43.672124     21.578909     40.129122
  O      44.318938     20.055165     37.994592
  C      43.089465     20.002609     36.731279
  H      42.740994     18.967158     36.843213
  C      43.928228     20.269813     35.592559
  H      44.508498     19.458065     35.155624
  C      44.225327     21.560925     35.287435
  C      43.380150     22.638537     35.817961
  H      43.625162     23.654022     35.495197
  C      42.333812     22.395900     36.630192
  H      41.678909     23.206967     36.965432
  C      42.009959     21.015932     37.143452
  H      42.076763     21.046703     38.244854
  O      40.706048     20.665078     36.720761
  H      40.353580     19.817035     37.177266
  C      45.370395     21.853658     34.320105
  O      46.194783     20.923012     34.114724
  O      45.404815     22.999916     33.816186
24
Coordinates from ORCA-job neb_MEP.QMRegion E -1076.652417808531
  C      45.936813     21.650755     37.311194
  H      46.375943     20.975622     36.580626
  H      46.356312     22.654187     37.392860
  C      44.966206     21.223346     38.177031
  C      44.444028     22.128947     39.307108
  O      44.832788     23.330197     39.374344
  O      43.670727     21.584054     40.129428
  O      44.399926     20.047467     38.061608
  C      43.021986     19.988669     36.654627
  H      42.720561     18.951045     36.824490
  C      43.915016     20.262322     35.600219
  H      44.503044     19.457771     35.160127
  C      44.245965     21.568550     35.326687
  C      43.383989     22.641564     35.831420
  H      43.630054     23.656173     35.508720
  C      42.329020     22.394211     36.630840
  H      41.673871     23.204293     36.966336
  C      42.001552     21.012224     37.133486
  H      42.085134     21.032973     38.235291
  O      40.685958     20.675905     36.731680
  H      40.344938     19.818627     37.179756
  C      45.378210     21.856487     34.337357
  O      46.192917     20.922128     34.118414
  O      45.406195     23.000634     33.828665
24
Coordinates from ORCA-job neb_MEP.QMRegion E -1076.651474325618
  C      45.920721     21.662918     37.279082
  H      46.388891     20.970994     36.584960
  H      46.341977     22.663918     37.363100
  C      44.982815     21.215468     38.193024
  C      44.448849     22.132361     39.312960
  O      44.833026     23.334926     39.371986
  O      43.671812     21.588538     40.131366
  O      44.471276     20.041401     38.115972
  C      42.969906     19.977404     36.594221
  H      42.698259     18.940174     36.800377
  C      43.909292     20.255921     35.612339
  H      44.500910     19.457014     35.166269
  C      44.272233     21.576539     35.368215
  C      43.388925     22.644583     35.841254
  H      43.633784     23.658361     35.516085
  C      42.324009     22.392545     36.625883
  H      41.667329     23.201650     36.960329
  C      41.993978     21.008754     37.120788
  H      42.094860     21.022003     38.222368
  O      40.666493     20.687881     36.743182
  H      40.335074     19.821732     37.181464
  C      45.384876     21.858097     34.351246
  O      46.192888     20.921007     34.121835
  O      45.403626     22.997997     33.833240
24
Coordinates from ORCA-job neb_MEP.QMRegion E -1076.652568490592
  C      45.884498     21.673181     37.227935
  H      46.399157     20.961533     36.589374
  H      46.313982     22.672489     37.318383
  C      44.991171     21.206851     38.200879
  C      44.451675     22.134989     39.315458
  O      44.834332     23.337759     39.369358
  O      43.676348     21.592231     40.134286
  O      44.528938     20.030825     38.162918
  C      42.934620     19.970243     36.551781
  H      42.673842     18.933418     36.770758
  C      43.911197     20.253636     35.630932
  H      44.501210     19.458516     35.175284
  C      44.312042     21.587205     35.422682
  C      43.399473     22.649252     35.858020
  H      43.638133     23.661944     35.526647
  C      42.321747     22.391515     36.622479
  H      41.658239     23.198628     36.948895
  C      41.987783     21.006093     37.111065
  H      42.102560     21.013042     38.212099
  O      40.650621     20.699542     36.754415
  H      40.328713     19.825353     37.183138
  C      45.395096     21.860494     34.367908
  O      46.195210     20.920168     34.126385
  O      45.400295     22.996210     33.840713
24
Coordinates from ORCA-job neb_MEP.QMRegion E -1076.656605398365
  C      45.817563     21.680878     37.145217
  H      46.406730     20.949435     36.597751
  H      46.273957     22.670297     37.263676
  C      44.990007     21.199728     38.202892
  C      44.454048     22.136532     39.317554
  O      44.838364     23.337730     39.364648
  O      43.681702     21.593797     40.137056
  O      44.581655     20.022722     38.208029
  C      42.908329     19.964791     36.516795
  H      42.652167     18.927082     36.741589
  C      43.915038     20.252140     35.652095
  H      44.503697     19.461151     35.186248
  C      44.377145     21.602504     35.505707
  C      43.414407     22.655237     35.882544
  H      43.641905     23.666561     35.537921
  C      42.323716     22.390454     36.621884
  H      41.649140     23.194699     36.935149
  C      41.984291     21.003048     37.105954
  H      42.107589     21.005391     38.206199
  O      40.639398     20.710414     36.765410
  H      40.326799     19.829140     37.184563
  C      45.408785     21.864741     34.387191
  O      46.198527     20.920650     34.128279
  O      45.395907     22.993921     33.847315
24
Coordinates from ORCA-job neb_MEP.QMRegion E -1076.669303659218
  C      45.711830     21.685959     37.023186
  H      46.409724     20.947429     36.617043
  H      46.210791     22.657962     37.199573
  C      44.976838     21.197033     38.197896
  C      44.457892     22.137205     39.322660
  O      44.844824     23.336259     39.359731
  O      43.691885     21.592634     40.143811
  O      44.635131     20.019550     38.254151
  C      42.888310     19.964041     36.480924
  H      42.625109     18.924649     36.697543
  C      43.928184     20.254709     35.679135
  H      44.507845     19.465593     35.196500
  C      44.481884     21.625769     35.626603
  C      43.438394     22.662577     35.913018
  H      43.644371     23.671559     35.544833
  C      42.329977     22.389311     36.618416
  H      41.636948     23.189411     36.906450
  C      41.983406     21.000834     37.102854
  H      42.111454     20.999444     38.203169
  O      40.631240     20.722463     36.775825
  H      40.324532     19.835615     37.185430
  C      45.427790     21.869695     34.408653
  O      46.201813     20.919444     34.127294
  O      45.390165     22.987796     33.849029
24
Coordinates from ORCA-job neb_MEP.QMRegion E -1076.693159696435
  C      45.577000     21.701000     36.966000
  H      46.418000     21.042000     36.710000
  H      45.945000     22.729000     37.061000
  C      44.977000     21.201000     38.245000
  C      44.489000     22.141000     39.389000
  O      44.846000     23.348000     39.379000
  O      43.788000     21.583000     40.256000
  O      44.819000     20.004000     38.393000
  C      42.739000     19.959000     36.266000
  H      42.311000     18.954000     36.226000
  C      43.917000     20.233000     35.693000
  H      44.492000     19.466000     35.174000
  C      44.543000     21.604000     35.761000
  C      43.478000     22.654000     35.975000
  H      43.733000     23.670000     35.663000
  C      42.301000     22.379000     36.549000
  H      41.564000     23.168000     36.732000
  C      41.931000     20.991000     37.016000
  H      42.199000     20.932000     38.095000
  O      40.540000     20.806000     36.874000
  H      40.242000     19.898000     37.231000
  C      45.448000     21.857000     34.495000
  O      46.210000     20.911000     34.175000
  O      45.395000     22.981000     33.952000
