24
Coordinates from ORCA-job neb_initial_path.QMRegion E   0.000000000000
  C      46.021000     21.722000     37.479000
  H      46.390000     21.146000     36.630000
  H      46.544000     22.640000     37.752000
  C      44.938000     21.361000     38.181000
  C      44.442000     22.175000     39.371000
  O      44.831000     23.372000     39.479000
  O      43.686000     21.585000     40.177000
  O      44.250000     20.189000     37.947000
  C      43.257000     20.126000     36.843000
  H      42.856000     19.106000     36.917000
  C      44.034000     20.322000     35.591000
  H      44.670000     19.507000     35.243000
  C      44.167000     21.550000     35.057000
  C      43.317000     22.641000     35.551000
  H      43.507000     23.631000     35.130000
  C      42.364000     22.456000     36.485000
  H      41.742000     23.293000     36.821000
  C      42.086000     21.103000     37.095000
  H      42.028000     21.217000     38.195000
  O      40.861000     20.620000     36.574000
  H      40.501000     19.817000     37.081000
  C      45.290000     21.816000     34.057000
  O      46.211000     20.955000     34.015000
  O      45.247000     22.883000     33.401000
24
Coordinates from ORCA-job neb_initial_path.QMRegion E   0.000000000000
  C      45.980800     21.705800     37.420200
  H      46.381800     21.102000     36.616400
  H      46.484800     22.640400     37.652400
  C      44.937200     21.329800     38.177600
  C      44.441000     22.164200     39.356000
  O      44.833400     23.360800     39.454400
  O      43.684600     21.583600     40.168400
  O      44.279400     20.159000     37.973200
  C      43.209000     20.098400     36.804800
  H      42.828600     19.074800     36.897200
  C      44.011800     20.311800     35.599800
  H      44.635800     19.500200     35.228000
  C      44.202000     21.558400     35.138000
  C      43.337600     22.644200     35.619800
  H      43.536200     23.638800     35.215600
  C      42.359400     22.444600     36.518600
  H      41.725400     23.274400     36.847400
  C      42.070600     21.085200     37.106000
  H      42.036600     21.179200     38.206800
  O      40.828200     20.632000     36.605000
  H      40.472000     19.818000     37.099000
  C      45.312800     21.826400     34.122600
  O      46.209800     20.950000     34.039200
  O      45.276200     22.905800     33.490000
24
Coordinates from ORCA-job neb_initial_path.QMRegion E   0.000000000000
  C      45.940600     21.689600     37.361400
  H      46.373600     21.058000     36.602800
  H      46.425600     22.640800     37.552800
  C      44.936400     21.298600     38.174200
  C      44.440000     22.153400     39.341000
  O      44.835800     23.349600     39.429800
  O      43.683200     21.582200     40.159800
  O      44.308800     20.129000     37.999400
  C      43.161000     20.070800     36.766600
  H      42.801200     19.043600     36.877400
  C      43.989600     20.301600     35.608600
  H      44.601600     19.493400     35.213000
  C      44.237000     21.566800     35.219000
  C      43.358200     22.647400     35.688600
  H      43.565400     23.646600     35.301200
  C      42.354800     22.433200     36.552200
  H      41.708800     23.255800     36.873800
  C      42.055200     21.067400     37.117000
  H      42.045200     21.141400     38.218600
  O      40.795400     20.644000     36.636000
  H      40.443000     19.819000     37.117000
  C      45.335600     21.836800     34.188200
  O      46.208600     20.945000     34.063400
  O      45.305400     22.928600     33.579000
24
Coordinates from ORCA-job neb_initial_path.QMRegion E   0.000000000000
  C      45.900400     21.673400     37.302600
  H      46.365400     21.014000     36.589200
  H      46.366400     22.641200     37.453200
  C      44.935600     21.267400     38.170800
  C      44.439000     22.142600     39.326000
  O      44.838200     23.338400     39.405200
  O      43.681800     21.580800     40.151200
  O      44.338200     20.099000     38.025600
  C      43.113000     20.043200     36.728400
  H      42.773800     19.012400     36.857600
  C      43.967400     20.291400     35.617400
  H      44.567400     19.486600     35.198000
  C      44.272000     21.575200     35.300000
  C      43.378800     22.650600     35.757400
  H      43.594600     23.654400     35.386800
  C      42.350200     22.421800     36.585800
  H      41.692200     23.237200     36.900200
  C      42.039800     21.049600     37.128000
  H      42.053800     21.103600     38.230400
  O      40.762600     20.656000     36.667000
  H      40.414000     19.820000     37.135000
  C      45.358400     21.847200     34.253800
  O      46.207400     20.940000     34.087600
  O      45.334600     22.951400     33.668000
24
Coordinates from ORCA-job neb_initial_path.QMRegion E   0.000000000000
  C      45.860200     21.657200     37.243800
  H      46.357200     20.970000     36.575600
  H      46.307200     22.641600     37.353600
  C      44.934800     21.236200     38.167400
  C      44.438000     22.131800     39.311000
  O      44.840600     23.327200     39.380600
  O      43.680400     21.579400     40.142600
  O      44.367600     20.069000     38.051800
  C      43.065000     20.015600     36.690200
  H      42.746400     18.981200     36.837800
  C      43.945200     20.281200     35.626200
  H      44.533200     19.479800     35.183000
  C      44.307000     21.583600     35.381000
  C      43.399400     22.653800     35.826200
  H      43.623800     23.662200     35.472400
  C      42.345600     22.410400     36.619400
  H      41.675600     23.218600     36.926600
  C      42.024400     21.031800     37.139000
  H      42.062400     21.065800     38.242200
  O      40.729800     20.668000     36.698000
  H      40.385000     19.821000     37.153000
  C      45.381200     21.857600     34.319400
  O      46.206200     20.935000     34.111800
  O      45.363800     22.974200     33.757000
24
Coordinates from ORCA-job neb_initial_path.QMRegion E   0.000000000000
  C      45.820000     21.641000     37.185000
  H      46.349000     20.926000     36.562000
  H      46.248000     22.642000     37.254000
  C      44.934000     21.205000     38.164000
  C      44.437000     22.121000     39.296000
  O      44.843000     23.316000     39.356000
  O      43.679000     21.578000     40.134000
  O      44.397000     20.039000     38.078000
  C      43.017000     19.988000     36.652000
  H      42.719000     18.950000     36.818000
  C      43.923000     20.271000     35.635000
  H      44.499000     19.473000     35.168000
  C      44.342000     21.592000     35.462000
  C      43.420000     22.657000     35.895000
  H      43.653000     23.670000     35.558000
  C      42.341000     22.399000     36.653000
  H      41.659000     23.200000     36.953000
  C      42.009000     21.014000     37.150000
  H      42.071000     21.028000     38.254000
  O      40.697000     20.680000     36.729000
  H      40.356000     19.822000     37.171000
  C      45.404000     21.868000     34.385000
  O      46.205000     20.930000     34.136000
  O      45.393000     22.997000     33.846000
24
Coordinates from ORCA-job neb_initial_path.QMRegion E   0.000000000000
  C      45.759250     21.656000     37.130250
  H      46.366250     20.955000     36.599000
  H      46.172250     22.663750     37.205750
  C      44.944750     21.204000     38.184250
  C      44.450000     22.126000     39.319250
  O      44.843750     23.324000     39.361750
  O      43.706250     21.579250     40.164500
  O      44.502500     20.030250     38.156750
  C      42.947500     19.980750     36.555500
  H      42.617000     18.951000     36.670000
  C      43.921500     20.261500     35.649500
  H      44.497250     19.471250     35.169500
  C      44.392250     21.595000     35.536750
  C      43.434500     22.656250     35.915000
  H      43.673000     23.670000     35.584250
  C      42.331000     22.394000     36.627000
  H      41.635250     23.192000     36.897750
  C      41.989500     21.008250     37.116500
  H      42.103000     21.004000     38.214250
  O      40.657750     20.711500     36.765250
  H      40.327500     19.841000     37.186000
  C      45.415000     21.865250     34.412500
  O      46.206250     20.925250     34.145750
  O      45.393500     22.993000     33.872500
24
Coordinates from ORCA-job neb_initial_path.QMRegion E   0.000000000000
  C      45.698500     21.671000     37.075500
  H      46.383500     20.984000     36.636000
  H      46.096500     22.685500     37.157500
  C      44.955500     21.203000     38.204500
  C      44.463000     22.131000     39.342500
  O      44.844500     23.332000     39.367500
  O      43.733500     21.580500     40.195000
  O      44.608000     20.021500     38.235500
  C      42.878000     19.973500     36.459000
  H      42.515000     18.952000     36.522000
  C      43.920000     20.252000     35.664000
  H      44.495500     19.469500     35.171000
  C      44.442500     21.598000     35.611500
  C      43.449000     22.655500     35.935000
  H      43.693000     23.670000     35.610500
  C      42.321000     22.389000     36.601000
  H      41.611500     23.184000     36.842500
  C      41.970000     21.002500     37.083000
  H      42.135000     20.980000     38.174500
  O      40.618500     20.743000     36.801500
  H      40.299000     19.860000     37.201000
  C      45.426000     21.862500     34.440000
  O      46.207500     20.920500     34.155500
  O      45.394000     22.989000     33.899000
24
Coordinates from ORCA-job neb_initial_path.QMRegion E   0.000000000000
  C      45.637750     21.686000     37.020750
  H      46.400750     21.013000     36.673000
  H      46.020750     22.707250     37.109250
  C      44.966250     21.202000     38.224750
  C      44.476000     22.136000     39.365750
  O      44.845250     23.340000     39.373250
  O      43.760750     21.581750     40.225500
  O      44.713500     20.012750     38.314250
  C      42.808500     19.966250     36.362500
  H      42.413000     18.953000     36.374000
  C      43.918500     20.242500     35.678500
  H      44.493750     19.467750     35.172500
  C      44.492750     21.601000     35.686250
  C      43.463500     22.654750     35.955000
  H      43.713000     23.670000     35.636750
  C      42.311000     22.384000     36.575000
  H      41.587750     23.176000     36.787250
  C      41.950500     20.996750     37.049500
  H      42.167000     20.956000     38.134750
  O      40.579250     20.774500     36.837750
  H      40.270500     19.879000     37.216000
  C      45.437000     21.859750     34.467500
  O      46.208750     20.915750     34.165250
  O      45.394500     22.985000     33.925500
24
Coordinates from ORCA-job neb_initial_path.QMRegion E   0.000000000000
  C      45.577000     21.701000     36.966000
  H      46.418000     21.042000     36.710000
  H      45.945000     22.729000     37.061000
  C      44.977000     21.201000     38.245000
  C      44.489000     22.141000     39.389000
  O      44.846000     23.348000     39.379000
  O      43.788000     21.583000     40.256000
  O      44.819000     20.004000     38.393000
  C      42.739000     19.959000     36.266000
  H      42.311000     18.954000     36.226000
  C      43.917000     20.233000     35.693000
  H      44.492000     19.466000     35.174000
  C      44.543000     21.604000     35.761000
  C      43.478000     22.654000     35.975000
  H      43.733000     23.670000     35.663000
  C      42.301000     22.379000     36.549000
  H      41.564000     23.168000     36.732000
  C      41.931000     20.991000     37.016000
  H      42.199000     20.932000     38.095000
  O      40.540000     20.806000     36.874000
  H      40.242000     19.898000     37.231000
  C      45.448000     21.857000     34.495000
  O      46.210000     20.911000     34.175000
  O      45.395000     22.981000     33.952000
