24
frame 55446 P, aligned onto 20000 on 8 atoms
C      48.21965058    28.42127897    56.03430399
H      49.16744173    27.89491953    56.22476308
H      48.21800692    29.37125584    56.57700396
C      47.10961270    27.50253384    56.49629241
C      45.77498986    28.01353688    57.10143022
O      45.85643901    28.83669884    58.03467157
O      44.71693779    27.49651531    56.67008406
O      47.26807753    26.29893489    56.40826700
C      46.65649459    27.02479340    53.32956586
H      46.51042376    26.06149565    52.83725421
C      47.86261849    27.39979166    53.75806373
H      48.73011458    26.75059085    53.66164880
C      48.11034056    28.69911340    54.47803719
C      46.97091917    29.66858175    54.25919930
H      47.18181736    30.71209544    54.50384421
C      45.76294674    29.28538413    53.82887013
H      44.95221522    30.01573148    53.72745931
C      45.41225474    27.85816872    53.49331493
H      44.83560992    27.45650793    54.35078992
O      44.61130778    27.82712281    52.32754817
H      44.04993796    26.98233046    52.33707735
C      49.49229784    29.30637110    54.04135521
O      50.41854024    28.51904947    53.73957107
O      49.59656863    30.55950061    54.03502639
