24
frame 55446 R, aligned onto 20000 on 8 atoms
C      47.96180712    28.03447764    56.86057180
H      48.86390295    27.68434638    56.36054659
H      48.04895477    28.77904800    57.64903440
C      46.74791417    27.57796953    56.52964845
C      45.47299081    28.03048258    57.23265298
O      45.55809213    28.96186800    58.06426585
O      44.40925204    27.43045991    56.92912105
O      46.57484779    26.60266248    55.57120483
C      46.55314041    26.97714906    54.15067726
H      46.35350249    26.02548912    53.63848779
C      47.90800082    27.50296796    53.80946506
H      48.74083318    26.80324412    53.74981764
C      48.15335483    28.82668350    53.78754343
C      47.04297602    29.77298606    53.94453512
H      47.30597801    30.82694813    54.05267351
C      45.76011113    29.36611197    53.97593806
H      44.95602002    30.09968599    54.09255131
C      45.36965483    27.91646943    53.82898779
H      44.58232261    27.67768316    54.56468957
O      44.90013009    27.69837919    52.50977812
H      44.25965600    26.91106466    52.51217883
C      49.58458350    29.33221843    53.71834859
O      50.50466776    28.50457282    53.50121110
O      49.75264882    30.56704262    53.91142182
