24
frame 55446 TS, aligned onto 20000 on 8 atoms
C      48.16022568    28.18078144    56.45260049
H      49.05576736    27.65284216    56.12977043
H      48.29653806    29.09176819    57.03198203
C      46.93451292    27.51135270    56.42975848
C      45.65810721    28.03630186    57.12876622
O      45.76848460    28.89265656    58.03160765
O      44.57117009    27.50690138    56.77886974
O      46.79806955    26.44641165    55.74835229
C      46.57240514    26.95087548    53.65059913
H      46.40408327    25.91523846    53.34944730
C      47.84899834    27.47310791    53.64637565
H      48.71761946    26.83898609    53.49819072
C      48.07327723    28.77725593    54.09436191
C      46.92875618    29.68912316    54.19829823
H      47.14389045    30.72846272    54.45456714
C      45.67143150    29.25520346    53.99763561
H      44.83088080    29.94986599    54.08115281
C      45.33856430    27.82076012    53.68586974
H      44.67721348    27.44757116    54.48803751
O      44.68916218    27.74545065    52.42567670
H      44.09666412    26.91411910    52.40914486
C      49.48941355    29.33528487    53.95350581
O      50.42681464    28.53423289    53.72001025
O      49.61759731    30.58573806    54.01874248
