100
Image 0. Energy: -22875.27278116087 
C  53.423197734769275 34.710582128196165 62.33426385137863
H  54.20863476618614 34.19014453769135 61.786929643046
H  53.290078910179304 35.773091947950526 62.11675418702074
C  52.635855795022344 34.143758620680075 63.25146100524591
C  51.54327365108455 34.83054263579864 64.06400519113117
O  50.431974353622 34.93948245606538 63.5009124041657
O  51.84918451453334 35.12443300458549 65.25362315205018
O  52.64622168728351 32.816786141798346 63.662562291746404
C  53.85787348705101 32.06176883917245 63.70519055923762
H  53.62434991916264 31.217085005168133 64.38625565880737
C  54.95933409771427 32.86188214012111 64.28389289581348
H  54.696942712130785 33.69604933295933 64.97523694361877
C  56.25213991954486 32.59111546879512 64.12321549384828
C  56.59988211749812 31.492473733496833 63.205080986974345
H  57.651702398650045 31.209570686093613 63.15007910713759
C  55.668594594218696 30.908322906406553 62.42462038215828
H  55.94750415228735 30.144252625824645 61.69080417677169
C  54.236596765668914 31.40720819309606 62.37578719864825
H  54.19729650159877 32.14951326317237 61.55491767936873
O  53.23565624218858 30.416761578992453 62.15691142427653
H  53.484385456373175 29.879420066485306 61.384108314335265
C  57.31912848786986 33.37549348178645 64.91021006811982
O  56.90801862827367 34.40008207383134 65.54462561990901
O  58.46962853710696 32.93278909184712 64.86795826516985
C  67.0611 31.2189 45.404
O  68.244925 31.280676 45.007463
O  66.349816 30.191517 45.436559
H  66.603121 32.15475 45.756761
C  60.9492 22.4278 52.2698
O  62.133025 22.489576 51.873263
O  60.237916 21.400417 52.302359
H  60.491221 23.36365 52.622561
C  60.29 45.7459 60.1201
N  60.440577 46.13112 58.856046
H  60.13006 46.793622 59.5523
H  60.636746 45.176082 59.119713
N  59.881101 46.618304 61.036949
H  60.07727 45.663266 61.300616
H  59.995449 46.91084 60.077028
N  60.548321 44.488276 60.467305
H  60.66267 44.780811 59.507384
H  60.237804 45.150778 61.163559
C  65.9423 32.4132 65.0537
N  66.092877 32.79842 63.789646
H  65.78236 33.460922 64.4859
H  66.289046 31.843382 64.053313
N  65.533401 33.285604 65.970549
H  65.72957 32.330566 66.234216
H  65.647749 33.57814 65.010628
N  66.200621 31.155576 65.400905
H  66.31497 31.448111 64.440984
H  65.890104 31.818078 66.097159
C  60.3656 26.3737 64.4494
N  60.516177 26.75892 63.185346
H  60.20566 27.421422 63.8816
H  60.712346 25.803882 63.449013
N  59.956701 27.246104 65.366249
H  60.15287 26.291066 65.629916
H  60.071049 27.53864 64.406328
N  60.623921 25.116076 64.796605
H  60.73827 25.408611 63.836684
H  60.313404 25.778578 65.492859
C  54.3383 23.3498 51.2794
O  55.522125 23.411576 50.882863
O  53.627016 22.322417 51.311959
H  53.880321 24.28565 51.632161
C  54.3627 35.3371 66.6061
N  54.513277 35.72232 65.342046
H  54.20276 36.384822 66.0383
H  54.709446 34.767282 65.605713
N  53.953801 36.209504 67.522949
H  54.14997 35.254466 67.786616
H  54.068149 36.50204 66.563028
N  54.621021 34.079476 66.953305
H  54.73537 34.372011 65.993384
H  54.310504 34.741978 67.649559
C  50.3201 31.3776 63.3469
N  50.470677 31.76282 62.082846
H  50.16016 32.425322 62.7791
H  50.666846 30.807782 62.346513
N  49.911201 32.250004 64.263749
H  50.10737 31.294966 64.527416
H  50.025549 32.54254 63.303828
N  50.578421 30.119976 63.694105
H  50.69277 30.412511 62.734184
H  50.267904 30.782478 64.390359
C  48.1569 38.3728 60.5729
N  48.307477 38.75802 59.308846
H  47.99696 39.420522 60.0051
H  48.503646 37.802982 59.572513
N  47.748001 39.245204 61.489749
H  47.94417 38.290166 61.753416
H  47.862349 39.53774 60.529828
N  48.415221 37.115176 60.920105
H  48.52957 37.407711 59.960184
H  48.104704 37.777678 61.616359
C  56.2695 32.1526 44.0397
O  57.453325 32.214376 43.643163
O  55.558216 31.125217 44.072259
H  55.811521 33.08845 44.392461
100
Image 1. Energy: -22874.744787641925 
C  53.34354651271054 34.234711260831645 62.42275562279719
H  54.11494321617499 33.72847513622597 61.841977370010504
H  53.09205792163226 35.258187812350066 62.13432742342207
C  52.696205819162 33.70666022185333 63.46823898264775
C  51.6926639448184 34.53157684161479 64.28663196501887
O  50.691056780769635 34.95359894672281 63.67024640868685
O  51.97034937897584 34.6747473184558 65.50922845050201
O  52.78892013103645 32.41597018151723 63.953982923354
C  54.027068150593244 31.637523964822844 63.8494056191466
H  53.75984233626012 30.718290169000838 64.39315243834602
C  55.100404855079766 32.3727106112008 64.57155384953784
H  54.92546046089426 32.547437459844794 65.64268227188623
C  56.2641463570214 32.73436810853073 63.99695441557319
C  56.560439962228806 32.339508195873876 62.62030564376489
H  57.520662439300516 32.6449311498174 62.206246071293116
C  55.683826805756496 31.62211807587084 61.88593115677395
H  55.92075152321222 31.34554448892835 60.85552822487984
C  54.33917695493388 31.18126269598887 62.4038425618745
H  53.57737404202306 31.628646914148366 61.72939718823343
O  54.18947831349184 29.770970952716823 62.417004928746124
H  54.50357515279572 29.400932164842 61.574213852833196
C  57.31281018721323 33.51321824670172 64.7959285277489
O  56.85360859205478 34.41518986652029 65.56831713749264
O  58.49286303184063 33.195448965610964 64.62140517544842
C  67.0611 31.2189 45.404
O  68.244925 31.280676 45.007463
O  66.349816 30.191517 45.436559
H  66.603121 32.15475 45.756761
C  60.9492 22.4278 52.2698
O  62.133025 22.489576 51.873263
O  60.237916 21.400417 52.302359
H  60.491221 23.36365 52.622561
C  60.29 45.7459 60.1201
N  60.440577 46.13112 58.856046
H  60.13006 46.793622 59.5523
H  60.636746 45.176082 59.119713
N  59.881101 46.618304 61.036949
H  60.07727 45.663266 61.300616
H  59.995449 46.91084 60.077028
N  60.548321 44.488276 60.467305
H  60.66267 44.780811 59.507384
H  60.237804 45.150778 61.163559
C  65.9423 32.4132 65.0537
N  66.092877 32.79842 63.789646
H  65.78236 33.460922 64.4859
H  66.289046 31.843382 64.053313
N  65.533401 33.285604 65.970549
H  65.72957 32.330566 66.234216
H  65.647749 33.57814 65.010628
N  66.200621 31.155576 65.400905
H  66.31497 31.448111 64.440984
H  65.890104 31.818078 66.097159
C  60.3656 26.3737 64.4494
N  60.516177 26.75892 63.185346
H  60.20566 27.421422 63.8816
H  60.712346 25.803882 63.449013
N  59.956701 27.246104 65.366249
H  60.15287 26.291066 65.629916
H  60.071049 27.53864 64.406328
N  60.623921 25.116076 64.796605
H  60.73827 25.408611 63.836684
H  60.313404 25.778578 65.492859
C  54.3383 23.3498 51.2794
O  55.522125 23.411576 50.882863
O  53.627016 22.322417 51.311959
H  53.880321 24.28565 51.632161
C  54.3627 35.3371 66.6061
N  54.513277 35.72232 65.342046
H  54.20276 36.384822 66.0383
H  54.709446 34.767282 65.605713
N  53.953801 36.209504 67.522949
H  54.14997 35.254466 67.786616
H  54.068149 36.50204 66.563028
N  54.621021 34.079476 66.953305
H  54.73537 34.372011 65.993384
H  54.310504 34.741978 67.649559
C  50.3201 31.3776 63.3469
N  50.470677 31.76282 62.082846
H  50.16016 32.425322 62.7791
H  50.666846 30.807782 62.346513
N  49.911201 32.250004 64.263749
H  50.10737 31.294966 64.527416
H  50.025549 32.54254 63.303828
N  50.578421 30.119976 63.694105
H  50.69277 30.412511 62.734184
H  50.267904 30.782478 64.390359
C  48.1569 38.3728 60.5729
N  48.307477 38.75802 59.308846
H  47.99696 39.420522 60.0051
H  48.503646 37.802982 59.572513
N  47.748001 39.245204 61.489749
H  47.94417 38.290166 61.753416
H  47.862349 39.53774 60.529828
N  48.415221 37.115176 60.920105
H  48.52957 37.407711 59.960184
H  48.104704 37.777678 61.616359
C  56.2695 32.1526 44.0397
O  57.453325 32.214376 43.643163
O  55.558216 31.125217 44.072259
H  55.811521 33.08845 44.392461
100
Image 2. Energy: -22873.854396371662 
C  53.190737440612736 34.20076444341233 62.582079882786296
H  53.91512810583536 33.602499946109084 62.02569083243993
H  52.988104231140454 35.209685503305515 62.2171140299416
C  52.554827704359596 33.72573367701931 63.6890880299591
C  51.582988011339644 34.69430109173752 64.42895538792435
O  50.57225481579509 35.06054200584197 63.78564604485823
O  51.87480486024857 34.99247483546499 65.62333918883817
O  52.66173644170928 32.51680947110553 64.20558924906175
C  54.52037974987257 31.089978748546176 63.816896851014384
H  53.80032438998905 30.442438249140327 64.31447525047301
C  55.381076816513556 31.889462666752102 64.53538949682714
H  55.22267223074401 32.03349586182656 65.60703853718564
C  56.44871929749063 32.53329640374824 63.89982071157861
C  56.72422193448639 32.3301635851559 62.50644496704337
H  57.58726172516304 32.83023454192976 62.06358472644035
C  55.94343078634723 31.498530021420066 61.77024781571335
H  56.14230630013074 31.320270224802652 60.70740556263676
C  54.72536215935993 30.84686100186342 62.35487204867984
H  53.902153400109796 31.434810935566407 61.8790686294945
O  54.57407883016227 29.475797550857358 62.10719388388982
H  54.72142634153753 29.282936120146292 61.164152679983864
C  57.354039952979214 33.410765890899405 64.73864401699097
O  56.757108937999234 34.304561003862105 65.40331766071627
O  58.559865876048036 33.14503575949412 64.70305443549577
C  67.0611 31.2189 45.404
O  68.244925 31.280676 45.007463
O  66.349816 30.191517 45.436559
H  66.603121 32.15475 45.756761
C  60.9492 22.4278 52.2698
O  62.133025 22.489576 51.873263
O  60.237916 21.400417 52.302359
H  60.491221 23.36365 52.622561
C  60.29 45.7459 60.1201
N  60.440577 46.13112 58.856046
H  60.13006 46.793622 59.5523
H  60.636746 45.176082 59.119713
N  59.881101 46.618304 61.036949
H  60.07727 45.663266 61.300616
H  59.995449 46.91084 60.077028
N  60.548321 44.488276 60.467305
H  60.66267 44.780811 59.507384
H  60.237804 45.150778 61.163559
C  65.9423 32.4132 65.0537
N  66.092877 32.79842 63.789646
H  65.78236 33.460922 64.4859
H  66.289046 31.843382 64.053313
N  65.533401 33.285604 65.970549
H  65.72957 32.330566 66.234216
H  65.647749 33.57814 65.010628
N  66.200621 31.155576 65.400905
H  66.31497 31.448111 64.440984
H  65.890104 31.818078 66.097159
C  60.3656 26.3737 64.4494
N  60.516177 26.75892 63.185346
H  60.20566 27.421422 63.8816
H  60.712346 25.803882 63.449013
N  59.956701 27.246104 65.366249
H  60.15287 26.291066 65.629916
H  60.071049 27.53864 64.406328
N  60.623921 25.116076 64.796605
H  60.73827 25.408611 63.836684
H  60.313404 25.778578 65.492859
C  54.3383 23.3498 51.2794
O  55.522125 23.411576 50.882863
O  53.627016 22.322417 51.311959
H  53.880321 24.28565 51.632161
C  54.3627 35.3371 66.6061
N  54.513277 35.72232 65.342046
H  54.20276 36.384822 66.0383
H  54.709446 34.767282 65.605713
N  53.953801 36.209504 67.522949
H  54.14997 35.254466 67.786616
H  54.068149 36.50204 66.563028
N  54.621021 34.079476 66.953305
H  54.73537 34.372011 65.993384
H  54.310504 34.741978 67.649559
C  50.3201 31.3776 63.3469
N  50.470677 31.76282 62.082846
H  50.16016 32.425322 62.7791
H  50.666846 30.807782 62.346513
N  49.911201 32.250004 64.263749
H  50.10737 31.294966 64.527416
H  50.025549 32.54254 63.303828
N  50.578421 30.119976 63.694105
H  50.69277 30.412511 62.734184
H  50.267904 30.782478 64.390359
C  48.1569 38.3728 60.5729
N  48.307477 38.75802 59.308846
H  47.99696 39.420522 60.0051
H  48.503646 37.802982 59.572513
N  47.748001 39.245204 61.489749
H  47.94417 38.290166 61.753416
H  47.862349 39.53774 60.529828
N  48.415221 37.115176 60.920105
H  48.52957 37.407711 59.960184
H  48.104704 37.777678 61.616359
C  56.2695 32.1526 44.0397
O  57.453325 32.214376 43.643163
O  55.558216 31.125217 44.072259
H  55.811521 33.08845 44.392461
100
Image 3. Energy: -22873.99289747469 
C  52.99291486761564 33.98744588780138 62.74252993227233
H  53.79923536870571 33.371939350555884 62.328782698637696
H  52.70134980923109 34.86542628114396 62.16152708550027
C  52.49621853577801 33.79314664965334 64.01092415034687
C  51.5034138736951 34.86881034319962 64.52378728455771
O  50.497716482707666 35.11237868355048 63.81330652314755
O  51.79228528673842 35.398026551504564 65.63867856657139
O  52.78188221478389 32.82113783403574 64.82542850955393
C  54.833524243323474 30.713511403414415 63.685956841370775
H  54.03011485028005 30.119236882474613 64.12928526079502
C  55.51208273367507 31.65450475334828 64.40543888847031
H  55.23188417179058 31.865620595567503 65.43727125014637
C  56.5826080974507 32.36747914761221 63.81339280662162
C  56.93978767674256 32.16529310274788 62.460664242087965
H  57.7741691813191 32.72700486787094 62.03580951164063
C  56.27072530782667 31.23587985855335 61.69992707378117
H  56.530173963044 31.058995681768 60.64951960194085
C  55.094254347356845 30.53035737064695 62.250163298260254
H  54.365441474387055 31.359371303520277 61.900985009101795
O  54.71593672651628 29.29764872522323 61.78803204660597
H  54.93403805892401 29.172533403251684 60.84727202645338
C  57.3666297364296 33.33425861287009 64.6817824504353
O  56.661309194656454 34.19150681822125 65.28511423824698
O  58.581091647019875 33.159355251452816 64.72338233344726
C  67.0611 31.2189 45.404
O  68.244925 31.280676 45.007463
O  66.349816 30.191517 45.436559
H  66.603121 32.15475 45.756761
C  60.9492 22.4278 52.2698
O  62.133025 22.489576 51.873263
O  60.237916 21.400417 52.302359
H  60.491221 23.36365 52.622561
C  60.29 45.7459 60.1201
N  60.440577 46.13112 58.856046
H  60.13006 46.793622 59.5523
H  60.636746 45.176082 59.119713
N  59.881101 46.618304 61.036949
H  60.07727 45.663266 61.300616
H  59.995449 46.91084 60.077028
N  60.548321 44.488276 60.467305
H  60.66267 44.780811 59.507384
H  60.237804 45.150778 61.163559
C  65.9423 32.4132 65.0537
N  66.092877 32.79842 63.789646
H  65.78236 33.460922 64.4859
H  66.289046 31.843382 64.053313
N  65.533401 33.285604 65.970549
H  65.72957 32.330566 66.234216
H  65.647749 33.57814 65.010628
N  66.200621 31.155576 65.400905
H  66.31497 31.448111 64.440984
H  65.890104 31.818078 66.097159
C  60.3656 26.3737 64.4494
N  60.516177 26.75892 63.185346
H  60.20566 27.421422 63.8816
H  60.712346 25.803882 63.449013
N  59.956701 27.246104 65.366249
H  60.15287 26.291066 65.629916
H  60.071049 27.53864 64.406328
N  60.623921 25.116076 64.796605
H  60.73827 25.408611 63.836684
H  60.313404 25.778578 65.492859
C  54.3383 23.3498 51.2794
O  55.522125 23.411576 50.882863
O  53.627016 22.322417 51.311959
H  53.880321 24.28565 51.632161
C  54.3627 35.3371 66.6061
N  54.513277 35.72232 65.342046
H  54.20276 36.384822 66.0383
H  54.709446 34.767282 65.605713
N  53.953801 36.209504 67.522949
H  54.14997 35.254466 67.786616
H  54.068149 36.50204 66.563028
N  54.621021 34.079476 66.953305
H  54.73537 34.372011 65.993384
H  54.310504 34.741978 67.649559
C  50.3201 31.3776 63.3469
N  50.470677 31.76282 62.082846
H  50.16016 32.425322 62.7791
H  50.666846 30.807782 62.346513
N  49.911201 32.250004 64.263749
H  50.10737 31.294966 64.527416
H  50.025549 32.54254 63.303828
N  50.578421 30.119976 63.694105
H  50.69277 30.412511 62.734184
H  50.267904 30.782478 64.390359
C  48.1569 38.3728 60.5729
N  48.307477 38.75802 59.308846
H  47.99696 39.420522 60.0051
H  48.503646 37.802982 59.572513
N  47.748001 39.245204 61.489749
H  47.94417 38.290166 61.753416
H  47.862349 39.53774 60.529828
N  48.415221 37.115176 60.920105
H  48.52957 37.407711 59.960184
H  48.104704 37.777678 61.616359
C  56.2695 32.1526 44.0397
O  57.453325 32.214376 43.643163
O  55.558216 31.125217 44.072259
H  55.811521 33.08845 44.392461
100
Image 4. Energy: -22874.36282518232 
C  52.49115918086248 33.5668961835058 62.77137217622549
H  53.266694995962084 32.87592843713913 62.4134673022888
H  52.070388289998675 34.25626412106455 62.0358944397143
C  52.41558822874319 33.845127444964895 64.12317148210094
C  51.46984906620258 35.01498316000879 64.55615145391671
O  50.469488053769496 35.23894047552792 63.8361680444691
O  51.79795393419618 35.630760006706865 65.61108648713304
O  53.02445724984584 33.19016932738566 65.04185778275551
C  55.09550029042319 30.53519939440259 63.59114031121518
H  54.311336992314565 29.88998205461197 63.99747713915037
C  55.65346867694202 31.543451889369454 64.32451306300517
H  55.29674850592099 31.764047267577855 65.32946150422516
C  56.72950137921595 32.30049409576512 63.788470004425605
C  57.18620424218008 32.09146757011957 62.4673660563257
H  58.014645411463576 32.69064250554391 62.08421069276722
C  56.62800400804638 31.102598100615037 61.689663253772984
H  56.96907066532541 30.91816738929896 60.664741826810825
C  55.46481631964947 30.329715176891135 62.18061907673522
H  54.69248411190321 31.067397112509994 61.7458889552777
O  55.24089468687479 29.046929032520094 61.74841851897019
H  55.279548322367646 28.982364086076817 60.77720259176597
C  57.41517231403602 33.30014422948124 64.69883297471804
O  56.653513750851545 34.138877511703896 65.24929978896758
O  58.636076602899905 33.14974258721802 64.8223384132318
C  67.0611 31.2189 45.404
O  68.244925 31.280676 45.007463
O  66.349816 30.191517 45.436559
H  66.603121 32.15475 45.756761
C  60.9492 22.4278 52.2698
O  62.133025 22.489576 51.873263
O  60.237916 21.400417 52.302359
H  60.491221 23.36365 52.622561
C  60.29 45.7459 60.1201
N  60.440577 46.13112 58.856046
H  60.13006 46.793622 59.5523
H  60.636746 45.176082 59.119713
N  59.881101 46.618304 61.036949
H  60.07727 45.663266 61.300616
H  59.995449 46.91084 60.077028
N  60.548321 44.488276 60.467305
H  60.66267 44.780811 59.507384
H  60.237804 45.150778 61.163559
C  65.9423 32.4132 65.0537
N  66.092877 32.79842 63.789646
H  65.78236 33.460922 64.4859
H  66.289046 31.843382 64.053313
N  65.533401 33.285604 65.970549
H  65.72957 32.330566 66.234216
H  65.647749 33.57814 65.010628
N  66.200621 31.155576 65.400905
H  66.31497 31.448111 64.440984
H  65.890104 31.818078 66.097159
C  60.3656 26.3737 64.4494
N  60.516177 26.75892 63.185346
H  60.20566 27.421422 63.8816
H  60.712346 25.803882 63.449013
N  59.956701 27.246104 65.366249
H  60.15287 26.291066 65.629916
H  60.071049 27.53864 64.406328
N  60.623921 25.116076 64.796605
H  60.73827 25.408611 63.836684
H  60.313404 25.778578 65.492859
C  54.3383 23.3498 51.2794
O  55.522125 23.411576 50.882863
O  53.627016 22.322417 51.311959
H  53.880321 24.28565 51.632161
C  54.3627 35.3371 66.6061
N  54.513277 35.72232 65.342046
H  54.20276 36.384822 66.0383
H  54.709446 34.767282 65.605713
N  53.953801 36.209504 67.522949
H  54.14997 35.254466 67.786616
H  54.068149 36.50204 66.563028
N  54.621021 34.079476 66.953305
H  54.73537 34.372011 65.993384
H  54.310504 34.741978 67.649559
C  50.3201 31.3776 63.3469
N  50.470677 31.76282 62.082846
H  50.16016 32.425322 62.7791
H  50.666846 30.807782 62.346513
N  49.911201 32.250004 64.263749
H  50.10737 31.294966 64.527416
H  50.025549 32.54254 63.303828
N  50.578421 30.119976 63.694105
H  50.69277 30.412511 62.734184
H  50.267904 30.782478 64.390359
C  48.1569 38.3728 60.5729
N  48.307477 38.75802 59.308846
H  47.99696 39.420522 60.0051
H  48.503646 37.802982 59.572513
N  47.748001 39.245204 61.489749
H  47.94417 38.290166 61.753416
H  47.862349 39.53774 60.529828
N  48.415221 37.115176 60.920105
H  48.52957 37.407711 59.960184
H  48.104704 37.777678 61.616359
C  56.2695 32.1526 44.0397
O  57.453325 32.214376 43.643163
O  55.558216 31.125217 44.072259
H  55.811521 33.08845 44.392461
100
Image 5. Energy: -22874.080088518895 
C  53.05477531700293 33.5772232687341 62.67771266170187
H  53.97501328830247 32.998503403642495 62.53977397681056
H  52.68327028287881 34.142516854598384 61.82113555611462
C  52.591956925135264 33.828363608784024 63.9473367374372
C  51.47119251597245 34.884924147676145 64.10098302002527
O  50.479112273019894 34.78128665413688 63.31894114953519
O  51.6452424249508 35.7442975990295 65.00446292068195
O  53.022000004668925 33.27601851192209 65.03648838560484
C  55.104030784923545 30.376987051314266 63.64989544625256
H  54.31906823872957 29.71810127380682 64.03203412594297
C  55.63118892386024 31.391386296922814 64.39318142247583
H  55.268425173620045 31.598435985428264 65.39840806611335
C  56.70183367331323 32.16768869841351 63.86954784596617
C  57.18326267301429 31.9683708707609 62.555981038492455
H  58.010743712754 32.5775887299755 62.19062173042824
C  56.635234748010404 30.99283536973434 61.75613140336993
H  56.9803744566078 30.822221777830233 60.72984345325569
C  55.473234246704756 30.213052393786626 62.22745574009027
H  54.709368671125546 30.951567537897105 61.79760761093019
O  55.18148383592846 28.99037059260337 61.67271894685484
H  55.97950872512384 28.450607728286304 61.56548901719367
C  57.34746491278863 33.19465889764701 64.7726031996836
O  56.56902439833527 34.10145022853056 65.17477371263054
O  58.53953256324841 33.02125144854627 65.0255378523906
C  67.0611 31.2189 45.404
O  68.244925 31.280676 45.007463
O  66.349816 30.191517 45.436559
H  66.603121 32.15475 45.756761
C  60.9492 22.4278 52.2698
O  62.133025 22.489576 51.873263
O  60.237916 21.400417 52.302359
H  60.491221 23.36365 52.622561
C  60.29 45.7459 60.1201
N  60.440577 46.13112 58.856046
H  60.13006 46.793622 59.5523
H  60.636746 45.176082 59.119713
N  59.881101 46.618304 61.036949
H  60.07727 45.663266 61.300616
H  59.995449 46.91084 60.077028
N  60.548321 44.488276 60.467305
H  60.66267 44.780811 59.507384
H  60.237804 45.150778 61.163559
C  65.9423 32.4132 65.0537
N  66.092877 32.79842 63.789646
H  65.78236 33.460922 64.4859
H  66.289046 31.843382 64.053313
N  65.533401 33.285604 65.970549
H  65.72957 32.330566 66.234216
H  65.647749 33.57814 65.010628
N  66.200621 31.155576 65.400905
H  66.31497 31.448111 64.440984
H  65.890104 31.818078 66.097159
C  60.3656 26.3737 64.4494
N  60.516177 26.75892 63.185346
H  60.20566 27.421422 63.8816
H  60.712346 25.803882 63.449013
N  59.956701 27.246104 65.366249
H  60.15287 26.291066 65.629916
H  60.071049 27.53864 64.406328
N  60.623921 25.116076 64.796605
H  60.73827 25.408611 63.836684
H  60.313404 25.778578 65.492859
C  54.3383 23.3498 51.2794
O  55.522125 23.411576 50.882863
O  53.627016 22.322417 51.311959
H  53.880321 24.28565 51.632161
C  54.3627 35.3371 66.6061
N  54.513277 35.72232 65.342046
H  54.20276 36.384822 66.0383
H  54.709446 34.767282 65.605713
N  53.953801 36.209504 67.522949
H  54.14997 35.254466 67.786616
H  54.068149 36.50204 66.563028
N  54.621021 34.079476 66.953305
H  54.73537 34.372011 65.993384
H  54.310504 34.741978 67.649559
C  50.3201 31.3776 63.3469
N  50.470677 31.76282 62.082846
H  50.16016 32.425322 62.7791
H  50.666846 30.807782 62.346513
N  49.911201 32.250004 64.263749
H  50.10737 31.294966 64.527416
H  50.025549 32.54254 63.303828
N  50.578421 30.119976 63.694105
H  50.69277 30.412511 62.734184
H  50.267904 30.782478 64.390359
C  48.1569 38.3728 60.5729
N  48.307477 38.75802 59.308846
H  47.99696 39.420522 60.0051
H  48.503646 37.802982 59.572513
N  47.748001 39.245204 61.489749
H  47.94417 38.290166 61.753416
H  47.862349 39.53774 60.529828
N  48.415221 37.115176 60.920105
H  48.52957 37.407711 59.960184
H  48.104704 37.777678 61.616359
C  56.2695 32.1526 44.0397
O  57.453325 32.214376 43.643163
O  55.558216 31.125217 44.072259
H  55.811521 33.08845 44.392461
100
Image 6. Energy: -22873.90113754247 
C  53.41329315734405 33.730376041791544 62.73054187734382
H  54.385966801299254 33.231352958219574 62.75586552384837
H  53.150499766431025 34.27077940361141 61.819843326485454
C  52.676448767624215 33.881878867608165 63.87485825035122
C  51.44719150007838 34.80528618246802 63.81494655772422
O  50.51543457152228 34.484711199407315 63.00318789156836
O  51.45765547425666 35.77901204840542 64.60224071793266
O  52.9288318368812 33.35647187525312 65.04122331674202
C  55.15915306488375 30.187832439808126 63.61799934021035
H  54.413143929601354 29.485484591547152 64.00306509374076
C  55.58798035901281 31.25743838691624 64.34029185397327
H  55.169909845637996 31.487588838186387 65.32120036481977
C  56.641435074547246 32.07451600225937 63.82897261640953
C  57.16697591203162 31.888358614166272 62.52675266765504
H  57.95423033348168 32.55341989695628 62.16587047124684
C  56.73733480070749 30.83271208356597 61.76651249509562
H  57.149530387953824 30.62953238632474 60.771884621339936
C  55.64864854057657 29.941808144724074 62.23834312128979
H  54.80156582459632 30.365272019267152 61.62227332649652
O  55.73869442502393 28.601831039727635 61.88487963413469
H  56.52611150831168 28.223398334710293 62.30055194048096
C  57.251087792520146 33.097613562264584 64.75254392549806
O  56.49843463118512 34.03712936283427 65.10659091801301
O  58.42056191445312 32.865324459969365 65.07807689761104
C  67.0611 31.2189 45.404
O  68.244925 31.280676 45.007463
O  66.349816 30.191517 45.436559
H  66.603121 32.15475 45.756761
C  60.9492 22.4278 52.2698
O  62.133025 22.489576 51.873263
O  60.237916 21.400417 52.302359
H  60.491221 23.36365 52.622561
C  60.29 45.7459 60.1201
N  60.440577 46.13112 58.856046
H  60.13006 46.793622 59.5523
H  60.636746 45.176082 59.119713
N  59.881101 46.618304 61.036949
H  60.07727 45.663266 61.300616
H  59.995449 46.91084 60.077028
N  60.548321 44.488276 60.467305
H  60.66267 44.780811 59.507384
H  60.237804 45.150778 61.163559
C  65.9423 32.4132 65.0537
N  66.092877 32.79842 63.789646
H  65.78236 33.460922 64.4859
H  66.289046 31.843382 64.053313
N  65.533401 33.285604 65.970549
H  65.72957 32.330566 66.234216
H  65.647749 33.57814 65.010628
N  66.200621 31.155576 65.400905
H  66.31497 31.448111 64.440984
H  65.890104 31.818078 66.097159
C  60.3656 26.3737 64.4494
N  60.516177 26.75892 63.185346
H  60.20566 27.421422 63.8816
H  60.712346 25.803882 63.449013
N  59.956701 27.246104 65.366249
H  60.15287 26.291066 65.629916
H  60.071049 27.53864 64.406328
N  60.623921 25.116076 64.796605
H  60.73827 25.408611 63.836684
H  60.313404 25.778578 65.492859
C  54.3383 23.3498 51.2794
O  55.522125 23.411576 50.882863
O  53.627016 22.322417 51.311959
H  53.880321 24.28565 51.632161
C  54.3627 35.3371 66.6061
N  54.513277 35.72232 65.342046
H  54.20276 36.384822 66.0383
H  54.709446 34.767282 65.605713
N  53.953801 36.209504 67.522949
H  54.14997 35.254466 67.786616
H  54.068149 36.50204 66.563028
N  54.621021 34.079476 66.953305
H  54.73537 34.372011 65.993384
H  54.310504 34.741978 67.649559
C  50.3201 31.3776 63.3469
N  50.470677 31.76282 62.082846
H  50.16016 32.425322 62.7791
H  50.666846 30.807782 62.346513
N  49.911201 32.250004 64.263749
H  50.10737 31.294966 64.527416
H  50.025549 32.54254 63.303828
N  50.578421 30.119976 63.694105
H  50.69277 30.412511 62.734184
H  50.267904 30.782478 64.390359
C  48.1569 38.3728 60.5729
N  48.307477 38.75802 59.308846
H  47.99696 39.420522 60.0051
H  48.503646 37.802982 59.572513
N  47.748001 39.245204 61.489749
H  47.94417 38.290166 61.753416
H  47.862349 39.53774 60.529828
N  48.415221 37.115176 60.920105
H  48.52957 37.407711 59.960184
H  48.104704 37.777678 61.616359
C  56.2695 32.1526 44.0397
O  57.453325 32.214376 43.643163
O  55.558216 31.125217 44.072259
H  55.811521 33.08845 44.392461
100
Image 7. Energy: -22873.68168315568 
C  53.68275933461538 33.85694311503419 62.90585764441538
H  54.65226633311876 33.36587350883981 63.01430675036555
H  53.55238278024912 34.529843071763544 62.05500098542567
C  52.77850393403901 33.812407782436054 63.932733017673954
C  51.55639955934102 34.740445889163084 63.845301659998704
O  50.640611560136335 34.43787828305141 63.009051675356915
O  51.548820812743756 35.701910594063904 64.64977702780683
O  52.86647766398227 33.11345932249505 65.03451983503592
C  55.2420378628385 29.940193243239424 63.51009112971687
H  54.57505469225789 29.166485966214307 63.904910927584666
C  55.55139561239004 31.054439883332062 64.22298961778594
H  55.11155255062555 31.24928432271253 65.20202831132137
C  56.52748931497899 31.969659879791447 63.709385798390066
C  57.047634525227124 31.844897398283333 62.39175477218431
H  57.748594559662706 32.593350888703334 62.017223491947945
C  56.74563914596153 30.737336662884804 61.65096469226449
H  57.18869151756338 30.566755825387744 60.66265649598689
C  55.81783854839502 29.687054374834233 62.15813554589655
H  54.95522408369655 29.727585408989885 61.446593598733365
O  56.33662011234414 28.38216351553842 62.050446332503014
H  57.12664645853691 28.34970890190706 62.606927984726994
C  57.131040396647805 32.96903646559014 64.6634519144234
O  56.451651242961454 33.9349099703338 65.06905935315137
O  58.28856509770753 32.63692425540712 64.96519989732431
C  67.0611 31.2189 45.404
O  68.244925 31.280676 45.007463
O  66.349816 30.191517 45.436559
H  66.603121 32.15475 45.756761
C  60.9492 22.4278 52.2698
O  62.133025 22.489576 51.873263
O  60.237916 21.400417 52.302359
H  60.491221 23.36365 52.622561
C  60.29 45.7459 60.1201
N  60.440577 46.13112 58.856046
H  60.13006 46.793622 59.5523
H  60.636746 45.176082 59.119713
N  59.881101 46.618304 61.036949
H  60.07727 45.663266 61.300616
H  59.995449 46.91084 60.077028
N  60.548321 44.488276 60.467305
H  60.66267 44.780811 59.507384
H  60.237804 45.150778 61.163559
C  65.9423 32.4132 65.0537
N  66.092877 32.79842 63.789646
H  65.78236 33.460922 64.4859
H  66.289046 31.843382 64.053313
N  65.533401 33.285604 65.970549
H  65.72957 32.330566 66.234216
H  65.647749 33.57814 65.010628
N  66.200621 31.155576 65.400905
H  66.31497 31.448111 64.440984
H  65.890104 31.818078 66.097159
C  60.3656 26.3737 64.4494
N  60.516177 26.75892 63.185346
H  60.20566 27.421422 63.8816
H  60.712346 25.803882 63.449013
N  59.956701 27.246104 65.366249
H  60.15287 26.291066 65.629916
H  60.071049 27.53864 64.406328
N  60.623921 25.116076 64.796605
H  60.73827 25.408611 63.836684
H  60.313404 25.778578 65.492859
C  54.3383 23.3498 51.2794
O  55.522125 23.411576 50.882863
O  53.627016 22.322417 51.311959
H  53.880321 24.28565 51.632161
C  54.3627 35.3371 66.6061
N  54.513277 35.72232 65.342046
H  54.20276 36.384822 66.0383
H  54.709446 34.767282 65.605713
N  53.953801 36.209504 67.522949
H  54.14997 35.254466 67.786616
H  54.068149 36.50204 66.563028
N  54.621021 34.079476 66.953305
H  54.73537 34.372011 65.993384
H  54.310504 34.741978 67.649559
C  50.3201 31.3776 63.3469
N  50.470677 31.76282 62.082846
H  50.16016 32.425322 62.7791
H  50.666846 30.807782 62.346513
N  49.911201 32.250004 64.263749
H  50.10737 31.294966 64.527416
H  50.025549 32.54254 63.303828
N  50.578421 30.119976 63.694105
H  50.69277 30.412511 62.734184
H  50.267904 30.782478 64.390359
C  48.1569 38.3728 60.5729
N  48.307477 38.75802 59.308846
H  47.99696 39.420522 60.0051
H  48.503646 37.802982 59.572513
N  47.748001 39.245204 61.489749
H  47.94417 38.290166 61.753416
H  47.862349 39.53774 60.529828
N  48.415221 37.115176 60.920105
H  48.52957 37.407711 59.960184
H  48.104704 37.777678 61.616359
C  56.2695 32.1526 44.0397
O  57.453325 32.214376 43.643163
O  55.558216 31.125217 44.072259
H  55.811521 33.08845 44.392461
100
Image 8. Energy: -22873.41382696722 
C  54.00745534331919 33.775300498277744 63.101940954362554
H  54.9933979414795 33.49474134761539 63.455033850381
H  53.979236948670156 34.42447216894137 62.22527622338756
C  52.937524955567696 33.60950334209575 63.951081723962346
C  51.74653043115424 34.5727904134078 63.81671543622755
O  50.847245228086955 34.328460669742626 62.952622720705186
O  51.74288840232841 35.50585930412318 64.65592413582675
O  52.87038185464856 32.814287209586276 64.97590145375099
C  55.29411890352662 29.77163759447397 63.42499583110606
H  54.71324727275494 28.944575269077745 63.84576662017346
C  55.491224836097736 30.92090415284572 64.11582765617922
H  55.03396532568035 31.089322218344744 65.09145406613742
C  56.37145707892122 31.9305880559094 63.58904720299075
C  56.91772405674538 31.8142094621946 62.27219988774652
H  57.55116220853896 32.612816901557885 61.88154176959344
C  56.7392395380275 30.664860833109394 61.565256713570136
H  57.228205302336974 30.50911473199129 60.59731555783395
C  55.94127389086843 29.5195827634554 62.10065710914604
H  55.14585792022929 29.30150149961148 61.35527669833086
O  56.72571368818231 28.334597041057773 62.174814183360276
H  57.45875925501312 28.54314790330361 62.769519143972914
C  57.039343302738395 32.87421922022075 64.57998354636914
O  56.45457814004814 33.864191042505794 65.07930732453094
O  58.17714334502414 32.44728469654137 64.81076034033636
C  67.0611 31.2189 45.404
O  68.244925 31.280676 45.007463
O  66.349816 30.191517 45.436559
H  66.603121 32.15475 45.756761
C  60.9492 22.4278 52.2698
O  62.133025 22.489576 51.873263
O  60.237916 21.400417 52.302359
H  60.491221 23.36365 52.622561
C  60.29 45.7459 60.1201
N  60.440577 46.13112 58.856046
H  60.13006 46.793622 59.5523
H  60.636746 45.176082 59.119713
N  59.881101 46.618304 61.036949
H  60.07727 45.663266 61.300616
H  59.995449 46.91084 60.077028
N  60.548321 44.488276 60.467305
H  60.66267 44.780811 59.507384
H  60.237804 45.150778 61.163559
C  65.9423 32.4132 65.0537
N  66.092877 32.79842 63.789646
H  65.78236 33.460922 64.4859
H  66.289046 31.843382 64.053313
N  65.533401 33.285604 65.970549
H  65.72957 32.330566 66.234216
H  65.647749 33.57814 65.010628
N  66.200621 31.155576 65.400905
H  66.31497 31.448111 64.440984
H  65.890104 31.818078 66.097159
C  60.3656 26.3737 64.4494
N  60.516177 26.75892 63.185346
H  60.20566 27.421422 63.8816
H  60.712346 25.803882 63.449013
N  59.956701 27.246104 65.366249
H  60.15287 26.291066 65.629916
H  60.071049 27.53864 64.406328
N  60.623921 25.116076 64.796605
H  60.73827 25.408611 63.836684
H  60.313404 25.778578 65.492859
C  54.3383 23.3498 51.2794
O  55.522125 23.411576 50.882863
O  53.627016 22.322417 51.311959
H  53.880321 24.28565 51.632161
C  54.3627 35.3371 66.6061
N  54.513277 35.72232 65.342046
H  54.20276 36.384822 66.0383
H  54.709446 34.767282 65.605713
N  53.953801 36.209504 67.522949
H  54.14997 35.254466 67.786616
H  54.068149 36.50204 66.563028
N  54.621021 34.079476 66.953305
H  54.73537 34.372011 65.993384
H  54.310504 34.741978 67.649559
C  50.3201 31.3776 63.3469
N  50.470677 31.76282 62.082846
H  50.16016 32.425322 62.7791
H  50.666846 30.807782 62.346513
N  49.911201 32.250004 64.263749
H  50.10737 31.294966 64.527416
H  50.025549 32.54254 63.303828
N  50.578421 30.119976 63.694105
H  50.69277 30.412511 62.734184
H  50.267904 30.782478 64.390359
C  48.1569 38.3728 60.5729
N  48.307477 38.75802 59.308846
H  47.99696 39.420522 60.0051
H  48.503646 37.802982 59.572513
N  47.748001 39.245204 61.489749
H  47.94417 38.290166 61.753416
H  47.862349 39.53774 60.529828
N  48.415221 37.115176 60.920105
H  48.52957 37.407711 59.960184
H  48.104704 37.777678 61.616359
C  56.2695 32.1526 44.0397
O  57.453325 32.214376 43.643163
O  55.558216 31.125217 44.072259
H  55.811521 33.08845 44.392461
100
Image 9. Energy: -22873.088598815935 
C  54.382117719231495 33.47553497329801 63.17480904893412
H  55.183326150289034 33.80300440141965 63.841185655588596
H  54.347672116536714 34.01911536989025 62.222988572587354
C  53.15589161120766 33.374860661927265 63.925111132756705
C  51.9733660441314 34.392224512601324 63.75087260322703
O  51.08960634236192 34.19705400322904 62.87344255251337
O  51.95248613307414 35.2802730255285 64.63153948136578
O  52.992649173195694 32.6235645081075 64.92233238519081
C  55.3699472225637 29.65941919299905 63.40847198167364
H  54.87806578542835 28.798430610979047 63.870682045008
C  55.456750076103525 30.84012763792456 64.05500950549045
H  55.044092241615004 30.96053548257806 65.05744929307502
C  56.14582937986491 31.994568700488383 63.47397726968205
C  56.83517968241302 31.771202084238002 62.20046276983374
H  57.48769864134609 32.56038247692068 61.81655766970396
C  56.78171799474327 30.583048592452634 61.556882944745325
H  57.35581674222974 30.411714270325124 60.63939972251114
C  56.01708370111306 29.402704827947975 62.07889829058853
H  55.25097431388016 29.129556208428625 61.329138727134726
O  56.85321501414538 28.24684159741899 62.17907575868781
H  57.56842025364257 28.50803600037399 62.772831159004795
C  56.98224094134215 32.80296010733836 64.51415579706281
O  56.48668965910386 33.816231866869856 65.10246328932992
O  58.10061572042952 32.31599700672398 64.70033420431628
C  67.0611 31.2189 45.404
O  68.244925 31.280676 45.007463
O  66.349816 30.191517 45.436559
H  66.603121 32.15475 45.756761
C  60.9492 22.4278 52.2698
O  62.133025 22.489576 51.873263
O  60.237916 21.400417 52.302359
H  60.491221 23.36365 52.622561
C  60.29 45.7459 60.1201
N  60.440577 46.13112 58.856046
H  60.13006 46.793622 59.5523
H  60.636746 45.176082 59.119713
N  59.881101 46.618304 61.036949
H  60.07727 45.663266 61.300616
H  59.995449 46.91084 60.077028
N  60.548321 44.488276 60.467305
H  60.66267 44.780811 59.507384
H  60.237804 45.150778 61.163559
C  65.9423 32.4132 65.0537
N  66.092877 32.79842 63.789646
H  65.78236 33.460922 64.4859
H  66.289046 31.843382 64.053313
N  65.533401 33.285604 65.970549
H  65.72957 32.330566 66.234216
H  65.647749 33.57814 65.010628
N  66.200621 31.155576 65.400905
H  66.31497 31.448111 64.440984
H  65.890104 31.818078 66.097159
C  60.3656 26.3737 64.4494
N  60.516177 26.75892 63.185346
H  60.20566 27.421422 63.8816
H  60.712346 25.803882 63.449013
N  59.956701 27.246104 65.366249
H  60.15287 26.291066 65.629916
H  60.071049 27.53864 64.406328
N  60.623921 25.116076 64.796605
H  60.73827 25.408611 63.836684
H  60.313404 25.778578 65.492859
C  54.3383 23.3498 51.2794
O  55.522125 23.411576 50.882863
O  53.627016 22.322417 51.311959
H  53.880321 24.28565 51.632161
C  54.3627 35.3371 66.6061
N  54.513277 35.72232 65.342046
H  54.20276 36.384822 66.0383
H  54.709446 34.767282 65.605713
N  53.953801 36.209504 67.522949
H  54.14997 35.254466 67.786616
H  54.068149 36.50204 66.563028
N  54.621021 34.079476 66.953305
H  54.73537 34.372011 65.993384
H  54.310504 34.741978 67.649559
C  50.3201 31.3776 63.3469
N  50.470677 31.76282 62.082846
H  50.16016 32.425322 62.7791
H  50.666846 30.807782 62.346513
N  49.911201 32.250004 64.263749
H  50.10737 31.294966 64.527416
H  50.025549 32.54254 63.303828
N  50.578421 30.119976 63.694105
H  50.69277 30.412511 62.734184
H  50.267904 30.782478 64.390359
C  48.1569 38.3728 60.5729
N  48.307477 38.75802 59.308846
H  47.99696 39.420522 60.0051
H  48.503646 37.802982 59.572513
N  47.748001 39.245204 61.489749
H  47.94417 38.290166 61.753416
H  47.862349 39.53774 60.529828
N  48.415221 37.115176 60.920105
H  48.52957 37.407711 59.960184
H  48.104704 37.777678 61.616359
C  56.2695 32.1526 44.0397
O  57.453325 32.214376 43.643163
O  55.558216 31.125217 44.072259
H  55.811521 33.08845 44.392461
100
Image 10. Energy: -22873.80919407468 
C  54.70554753767565 33.194704627608694 63.196270785337006
H  55.23029817717031 33.90855156904942 63.86171566299228
H  54.601182326971056 33.69424744496184 62.21253461113906
C  53.35801052083418 33.16196290194146 63.896413317640295
C  52.1831733163662 34.247551062641875 63.735796407932504
O  51.32934337873465 34.0864003689839 62.83261950101754
O  52.09232731838232 35.06638335890264 64.67413851456824
O  53.082215970178055 32.39145078854175 64.82401072578423
C  55.464444352209206 29.569370786039144 63.40587992807945
H  55.031609974842134 28.68521175944888 63.8901086531088
C  55.478402764810276 30.76051716878498 64.02666547895038
H  55.10018548589357 30.833843231970008 65.0484961925011
C  55.99211704325322 32.045076408229384 63.41051087579621
C  56.82270728638508 31.71377422915774 62.169509189151995
H  57.49996904599736 32.490915930465164 61.7941154331581
C  56.85779424802445 30.50772140779345 61.575299662479594
H  57.48224054811916 30.332324639368984 60.68830772110541
C  56.095971349974846 29.30623192549414 62.06410136744994
H  55.34530635181185 29.00624952302312 61.30831833177334
O  56.95744863066873 28.16263472560185 62.17512291006437
H  57.67144047076833 28.437376853153342 62.76480594093974
C  56.980451668635745 32.72083769355175 64.48345575733796
O  56.53006602829805 33.74335855828641 65.11800496414897
O  58.08297630398633 32.20011094701416 64.65172162754723
C  67.0611 31.2189 45.404
O  68.244925 31.280676 45.007463
O  66.349816 30.191517 45.436559
H  66.603121 32.15475 45.756761
C  60.9492 22.4278 52.2698
O  62.133025 22.489576 51.873263
O  60.237916 21.400417 52.302359
H  60.491221 23.36365 52.622561
C  60.29 45.7459 60.1201
N  60.440577 46.13112 58.856046
H  60.13006 46.793622 59.5523
H  60.636746 45.176082 59.119713
N  59.881101 46.618304 61.036949
H  60.07727 45.663266 61.300616
H  59.995449 46.91084 60.077028
N  60.548321 44.488276 60.467305
H  60.66267 44.780811 59.507384
H  60.237804 45.150778 61.163559
C  65.9423 32.4132 65.0537
N  66.092877 32.79842 63.789646
H  65.78236 33.460922 64.4859
H  66.289046 31.843382 64.053313
N  65.533401 33.285604 65.970549
H  65.72957 32.330566 66.234216
H  65.647749 33.57814 65.010628
N  66.200621 31.155576 65.400905
H  66.31497 31.448111 64.440984
H  65.890104 31.818078 66.097159
C  60.3656 26.3737 64.4494
N  60.516177 26.75892 63.185346
H  60.20566 27.421422 63.8816
H  60.712346 25.803882 63.449013
N  59.956701 27.246104 65.366249
H  60.15287 26.291066 65.629916
H  60.071049 27.53864 64.406328
N  60.623921 25.116076 64.796605
H  60.73827 25.408611 63.836684
H  60.313404 25.778578 65.492859
C  54.3383 23.3498 51.2794
O  55.522125 23.411576 50.882863
O  53.627016 22.322417 51.311959
H  53.880321 24.28565 51.632161
C  54.3627 35.3371 66.6061
N  54.513277 35.72232 65.342046
H  54.20276 36.384822 66.0383
H  54.709446 34.767282 65.605713
N  53.953801 36.209504 67.522949
H  54.14997 35.254466 67.786616
H  54.068149 36.50204 66.563028
N  54.621021 34.079476 66.953305
H  54.73537 34.372011 65.993384
H  54.310504 34.741978 67.649559
C  50.3201 31.3776 63.3469
N  50.470677 31.76282 62.082846
H  50.16016 32.425322 62.7791
H  50.666846 30.807782 62.346513
N  49.911201 32.250004 64.263749
H  50.10737 31.294966 64.527416
H  50.025549 32.54254 63.303828
N  50.578421 30.119976 63.694105
H  50.69277 30.412511 62.734184
H  50.267904 30.782478 64.390359
C  48.1569 38.3728 60.5729
N  48.307477 38.75802 59.308846
H  47.99696 39.420522 60.0051
H  48.503646 37.802982 59.572513
N  47.748001 39.245204 61.489749
H  47.94417 38.290166 61.753416
H  47.862349 39.53774 60.529828
N  48.415221 37.115176 60.920105
H  48.52957 37.407711 59.960184
H  48.104704 37.777678 61.616359
C  56.2695 32.1526 44.0397
O  57.453325 32.214376 43.643163
O  55.558216 31.125217 44.072259
H  55.811521 33.08845 44.392461
100
Image 11. Energy: -22874.429797280714 
C  54.84112343032045 33.017937190478385 63.16793741885094
H  55.23357496382429 33.96425386046666 63.58159689006098
H  54.67816772858716 33.23527833886715 62.09775676218883
C  53.4865857307874 32.900296021164756 63.82909781113866
C  52.38362892063528 34.015350903609885 63.789844291377314
O  51.61294084814859 34.0361166695833 62.80538352746473
O  52.21840189188936 34.63740321499171 64.86774066015353
O  53.0934823152592 31.95033562277646 64.50900225331293
C  55.595447122393516 29.48364524770351 63.41046814102686
H  55.21290073419694 28.582780228702234 63.90338593795601
C  55.54264912882726 30.670346261442845 64.0310902343454
H  55.14673408469017 30.71503560553445 65.04620776701968
C  56.01550608728524 31.983377767914575 63.43490307741469
C  56.84969635697357 31.694830763748367 62.18829976527973
H  57.446139739169 32.51680835252137 61.78174145671373
C  56.94865653533231 30.49252409553797 61.58934144658875
H  57.58394060938873 30.3576686783122 60.70690167135465
C  56.251171790848446 29.25417805490549 62.07785597201404
H  55.53588664218839 28.89413679360232 61.316429739526704
O  57.177523935300336 28.16175311246603 62.21382513168592
H  57.860331110486484 28.497356031244053 62.805568015900654
C  56.96942961765579 32.66513357321054 64.52307245955876
O  56.50350364207508 33.69417094763882 65.1327561655409
O  58.07158461373491 32.14551039357588 64.70756867355038
C  67.0611 31.2189 45.404
O  68.244925 31.280676 45.007463
O  66.349816 30.191517 45.436559
H  66.603121 32.15475 45.756761
C  60.9492 22.4278 52.2698
O  62.133025 22.489576 51.873263
O  60.237916 21.400417 52.302359
H  60.491221 23.36365 52.622561
C  60.29 45.7459 60.1201
N  60.440577 46.13112 58.856046
H  60.13006 46.793622 59.5523
H  60.636746 45.176082 59.119713
N  59.881101 46.618304 61.036949
H  60.07727 45.663266 61.300616
H  59.995449 46.91084 60.077028
N  60.548321 44.488276 60.467305
H  60.66267 44.780811 59.507384
H  60.237804 45.150778 61.163559
C  65.9423 32.4132 65.0537
N  66.092877 32.79842 63.789646
H  65.78236 33.460922 64.4859
H  66.289046 31.843382 64.053313
N  65.533401 33.285604 65.970549
H  65.72957 32.330566 66.234216
H  65.647749 33.57814 65.010628
N  66.200621 31.155576 65.400905
H  66.31497 31.448111 64.440984
H  65.890104 31.818078 66.097159
C  60.3656 26.3737 64.4494
N  60.516177 26.75892 63.185346
H  60.20566 27.421422 63.8816
H  60.712346 25.803882 63.449013
N  59.956701 27.246104 65.366249
H  60.15287 26.291066 65.629916
H  60.071049 27.53864 64.406328
N  60.623921 25.116076 64.796605
H  60.73827 25.408611 63.836684
H  60.313404 25.778578 65.492859
C  54.3383 23.3498 51.2794
O  55.522125 23.411576 50.882863
O  53.627016 22.322417 51.311959
H  53.880321 24.28565 51.632161
C  54.3627 35.3371 66.6061
N  54.513277 35.72232 65.342046
H  54.20276 36.384822 66.0383
H  54.709446 34.767282 65.605713
N  53.953801 36.209504 67.522949
H  54.14997 35.254466 67.786616
H  54.068149 36.50204 66.563028
N  54.621021 34.079476 66.953305
H  54.73537 34.372011 65.993384
H  54.310504 34.741978 67.649559
C  50.3201 31.3776 63.3469
N  50.470677 31.76282 62.082846
H  50.16016 32.425322 62.7791
H  50.666846 30.807782 62.346513
N  49.911201 32.250004 64.263749
H  50.10737 31.294966 64.527416
H  50.025549 32.54254 63.303828
N  50.578421 30.119976 63.694105
H  50.69277 30.412511 62.734184
H  50.267904 30.782478 64.390359
C  48.1569 38.3728 60.5729
N  48.307477 38.75802 59.308846
H  47.99696 39.420522 60.0051
H  48.503646 37.802982 59.572513
N  47.748001 39.245204 61.489749
H  47.94417 38.290166 61.753416
H  47.862349 39.53774 60.529828
N  48.415221 37.115176 60.920105
H  48.52957 37.407711 59.960184
H  48.104704 37.777678 61.616359
C  56.2695 32.1526 44.0397
O  57.453325 32.214376 43.643163
O  55.558216 31.125217 44.072259
H  55.811521 33.08845 44.392461
100
Image 12. Energy: -22875.19385036938 
C  54.88912559044123 32.882073329163724 63.088313316550604
H  55.21661397847839 33.91258273995355 63.288249008329664
H  54.67464435517259 32.84595921457475 62.003947878050745
C  53.5514080560147 32.711401471186974 63.74929469729299
C  52.49816425591784 33.833638466227114 63.87483779711676
O  51.74457564917939 34.0085701938624 62.88984910512368
O  52.344051180921504 34.30301524435463 65.03105009032483
O  53.09837492052757 31.649519103464684 64.1990849421911
C  55.81880399962835 29.429038497544305 63.46896734198989
H  55.460677802020314 28.519600603327216 63.96349126720281
C  55.66516989126319 30.621007850375076 64.05524243315892
H  55.20966376169225 30.66395837551941 65.04430655731218
C  56.09369025079478 31.939694055400103 63.4471258558487
C  56.950813094118374 31.690315074973565 62.21568625185669
H  57.436976982866625 32.55918117417371 61.764726283642254
C  57.140625380511956 30.492282912348823 61.64618842941445
H  57.757761258420594 30.38713107488124 60.74801051156624
C  56.56247886475087 29.223384515117363 62.185952453832826
H  55.91220184386906 28.759912803304886 61.41387946941368
O  57.670232170825365 28.3316566619654 62.488323497096694
H  57.401680613113015 27.45665235151965 62.22787036568586
C  56.95464508942605 32.69440066705688 64.5450990631619
O  56.416812887400795 33.71985864731173 65.08814400444652
O  58.07359316265343 32.23081248240105 64.79998636939213
C  67.0611 31.2189 45.404
O  68.244925 31.280676 45.007463
O  66.349816 30.191517 45.436559
H  66.603121 32.15475 45.756761
C  60.9492 22.4278 52.2698
O  62.133025 22.489576 51.873263
O  60.237916 21.400417 52.302359
H  60.491221 23.36365 52.622561
C  60.29 45.7459 60.1201
N  60.440577 46.13112 58.856046
H  60.13006 46.793622 59.5523
H  60.636746 45.176082 59.119713
N  59.881101 46.618304 61.036949
H  60.07727 45.663266 61.300616
H  59.995449 46.91084 60.077028
N  60.548321 44.488276 60.467305
H  60.66267 44.780811 59.507384
H  60.237804 45.150778 61.163559
C  65.9423 32.4132 65.0537
N  66.092877 32.79842 63.789646
H  65.78236 33.460922 64.4859
H  66.289046 31.843382 64.053313
N  65.533401 33.285604 65.970549
H  65.72957 32.330566 66.234216
H  65.647749 33.57814 65.010628
N  66.200621 31.155576 65.400905
H  66.31497 31.448111 64.440984
H  65.890104 31.818078 66.097159
C  60.3656 26.3737 64.4494
N  60.516177 26.75892 63.185346
H  60.20566 27.421422 63.8816
H  60.712346 25.803882 63.449013
N  59.956701 27.246104 65.366249
H  60.15287 26.291066 65.629916
H  60.071049 27.53864 64.406328
N  60.623921 25.116076 64.796605
H  60.73827 25.408611 63.836684
H  60.313404 25.778578 65.492859
C  54.3383 23.3498 51.2794
O  55.522125 23.411576 50.882863
O  53.627016 22.322417 51.311959
H  53.880321 24.28565 51.632161
C  54.3627 35.3371 66.6061
N  54.513277 35.72232 65.342046
H  54.20276 36.384822 66.0383
H  54.709446 34.767282 65.605713
N  53.953801 36.209504 67.522949
H  54.14997 35.254466 67.786616
H  54.068149 36.50204 66.563028
N  54.621021 34.079476 66.953305
H  54.73537 34.372011 65.993384
H  54.310504 34.741978 67.649559
C  50.3201 31.3776 63.3469
N  50.470677 31.76282 62.082846
H  50.16016 32.425322 62.7791
H  50.666846 30.807782 62.346513
N  49.911201 32.250004 64.263749
H  50.10737 31.294966 64.527416
H  50.025549 32.54254 63.303828
N  50.578421 30.119976 63.694105
H  50.69277 30.412511 62.734184
H  50.267904 30.782478 64.390359
C  48.1569 38.3728 60.5729
N  48.307477 38.75802 59.308846
H  47.99696 39.420522 60.0051
H  48.503646 37.802982 59.572513
N  47.748001 39.245204 61.489749
H  47.94417 38.290166 61.753416
H  47.862349 39.53774 60.529828
N  48.415221 37.115176 60.920105
H  48.52957 37.407711 59.960184
H  48.104704 37.777678 61.616359
C  56.2695 32.1526 44.0397
O  57.453325 32.214376 43.643163
O  55.558216 31.125217 44.072259
H  55.811521 33.08845 44.392461
100
Image 13. Energy: -22876.21349923397 
C  54.40351445595466 32.18713079420529 62.564133782434105
H  54.62857360531544 33.143036116872175 62.073518329390446
H  53.957897545741865 31.525554615572545 61.799707616899454
C  53.39203718732012 32.39250212691346 63.67013495162088
C  52.52541884951846 33.65817032835314 63.896404276101336
O  51.797572986898444 33.98238396672886 62.922497899676195
O  52.42081191938516 34.09335906358991 65.06826164424051
O  52.98951885938718 31.440503996600757 64.35146783663181
C  56.448861661016714 29.130604494373895 63.22713613513705
H  56.24062309097431 28.095105325372156 63.51439901839595
C  55.53305359569277 30.077543986625784 63.46631963360115
H  54.596656545860014 29.814593062842217 63.95998323289564
C  55.71601766609643 31.53349165998452 63.09910803963475
C  56.8692093196621 31.698817618511345 62.133911262388274
H  56.939373490504515 32.65876251903824 61.61111932009805
C  57.8193429884921 30.770691067960296 61.949562752273565
H  58.647304635752754 30.973641669098594 61.26333264238292
C  57.7825685532011 29.412306055320677 62.59787114815795
H  58.02561085452155 28.647297557514644 61.842673037457395
O  58.83954726885828 29.253679665216435 63.61666382186153
H  58.63849633890319 29.94864028220952 64.26951131474344
C  56.12849226096988 32.350957182724954 64.38453669177389
O  55.39686475654076 33.383113678099946 64.58909118949803
O  57.08919408342242 31.993180476275544 65.06613309268936
C  67.0611 31.2189 45.404
O  68.244925 31.280676 45.007463
O  66.349816 30.191517 45.436559
H  66.603121 32.15475 45.756761
C  60.9492 22.4278 52.2698
O  62.133025 22.489576 51.873263
O  60.237916 21.400417 52.302359
H  60.491221 23.36365 52.622561
C  60.29 45.7459 60.1201
N  60.440577 46.13112 58.856046
H  60.13006 46.793622 59.5523
H  60.636746 45.176082 59.119713
N  59.881101 46.618304 61.036949
H  60.07727 45.663266 61.300616
H  59.995449 46.91084 60.077028
N  60.548321 44.488276 60.467305
H  60.66267 44.780811 59.507384
H  60.237804 45.150778 61.163559
C  65.9423 32.4132 65.0537
N  66.092877 32.79842 63.789646
H  65.78236 33.460922 64.4859
H  66.289046 31.843382 64.053313
N  65.533401 33.285604 65.970549
H  65.72957 32.330566 66.234216
H  65.647749 33.57814 65.010628
N  66.200621 31.155576 65.400905
H  66.31497 31.448111 64.440984
H  65.890104 31.818078 66.097159
C  60.3656 26.3737 64.4494
N  60.516177 26.75892 63.185346
H  60.20566 27.421422 63.8816
H  60.712346 25.803882 63.449013
N  59.956701 27.246104 65.366249
H  60.15287 26.291066 65.629916
H  60.071049 27.53864 64.406328
N  60.623921 25.116076 64.796605
H  60.73827 25.408611 63.836684
H  60.313404 25.778578 65.492859
C  54.3383 23.3498 51.2794
O  55.522125 23.411576 50.882863
O  53.627016 22.322417 51.311959
H  53.880321 24.28565 51.632161
C  54.3627 35.3371 66.6061
N  54.513277 35.72232 65.342046
H  54.20276 36.384822 66.0383
H  54.709446 34.767282 65.605713
N  53.953801 36.209504 67.522949
H  54.14997 35.254466 67.786616
H  54.068149 36.50204 66.563028
N  54.621021 34.079476 66.953305
H  54.73537 34.372011 65.993384
H  54.310504 34.741978 67.649559
C  50.3201 31.3776 63.3469
N  50.470677 31.76282 62.082846
H  50.16016 32.425322 62.7791
H  50.666846 30.807782 62.346513
N  49.911201 32.250004 64.263749
H  50.10737 31.294966 64.527416
H  50.025549 32.54254 63.303828
N  50.578421 30.119976 63.694105
H  50.69277 30.412511 62.734184
H  50.267904 30.782478 64.390359
C  48.1569 38.3728 60.5729
N  48.307477 38.75802 59.308846
H  47.99696 39.420522 60.0051
H  48.503646 37.802982 59.572513
N  47.748001 39.245204 61.489749
H  47.94417 38.290166 61.753416
H  47.862349 39.53774 60.529828
N  48.415221 37.115176 60.920105
H  48.52957 37.407711 59.960184
H  48.104704 37.777678 61.616359
C  56.2695 32.1526 44.0397
O  57.453325 32.214376 43.643163
O  55.558216 31.125217 44.072259
H  55.811521 33.08845 44.392461
