100
-2 1 -840.6839861286867
C       54.40553585    32.18217305    62.61975746
H       54.63961068    33.15356603    62.16507449
H       53.95757100    31.55235948    61.82976471
C       53.39084360    32.35965538    63.72264876
C       52.53156720    33.63020198    63.94363219
O       51.81829575    33.95952329    62.96179046
O       52.42528824    34.07076547    65.11360656
O       53.00460083    31.40852608    64.40684663
C       56.45365413    29.10818996    63.11011782
H       56.26618882    28.04772813    63.30986941
C       55.53145683    30.02869437    63.42266197
H       54.59288271    29.73727655    63.90570556
C       55.71264466    31.50329499    63.12774645
C       56.84020753    31.72061097    62.14245499
H       56.86033086    32.69967201    61.65270892
C       57.79789651    30.81844559    61.89764944
H       58.58794649    31.04473432    61.17193944
C       57.80219712    29.46239354    62.55359782
H       58.12877055    28.69795222    61.83785617
O       58.79336801    29.37983219    63.64045577
H       58.50798324    30.06681008    64.26694852
C       56.16305594    32.29097582    64.41843835
O       55.50892687    33.37152706    64.62650776
O       57.10573910    31.87015875    65.08969902
C       67.06110000    31.21890000    45.40400000
O       68.24492500    31.28067600    45.00746300
O       66.34981600    30.19151700    45.43655900
H       66.60312100    32.15475000    45.75676100
C       60.94920000    22.42780000    52.26980000
O       62.13302500    22.48957600    51.87326300
O       60.23791600    21.40041700    52.30235900
H       60.49122100    23.36365000    52.62256100
C       60.29000000    45.74590000    60.12010000
N       60.44057700    46.13112000    58.85604600
H       60.13006000    46.79362200    59.55230000
H       60.63674600    45.17608200    59.11971300
N       59.88110100    46.61830400    61.03694900
H       60.07727000    45.66326600    61.30061600
H       59.99544900    46.91084000    60.07702800
N       60.54832100    44.48827600    60.46730500
H       60.66267000    44.78081100    59.50738400
H       60.23780400    45.15077800    61.16355900
C       65.94230000    32.41320000    65.05370000
N       66.09287700    32.79842000    63.78964600
H       65.78236000    33.46092200    64.48590000
H       66.28904600    31.84338200    64.05331300
N       65.53340100    33.28560400    65.97054900
H       65.72957000    32.33056600    66.23421600
H       65.64774900    33.57814000    65.01062800
N       66.20062100    31.15557600    65.40090500
H       66.31497000    31.44811100    64.44098400
H       65.89010400    31.81807800    66.09715900
C       60.36560000    26.37370000    64.44940000
N       60.51617700    26.75892000    63.18534600
H       60.20566000    27.42142200    63.88160000
H       60.71234600    25.80388200    63.44901300
N       59.95670100    27.24610400    65.36624900
H       60.15287000    26.29106600    65.62991600
H       60.07104900    27.53864000    64.40632800
N       60.62392100    25.11607600    64.79660500
H       60.73827000    25.40861100    63.83668400
H       60.31340400    25.77857800    65.49285900
C       54.33830000    23.34980000    51.27940000
O       55.52212500    23.41157600    50.88286300
O       53.62701600    22.32241700    51.31195900
H       53.88032100    24.28565000    51.63216100
C       54.36270000    35.33710000    66.60610000
N       54.51327700    35.72232000    65.34204600
H       54.20276000    36.38482200    66.03830000
H       54.70944600    34.76728200    65.60571300
N       53.95380100    36.20950400    67.52294900
H       54.14997000    35.25446600    67.78661600
H       54.06814900    36.50204000    66.56302800
N       54.62102100    34.07947600    66.95330500
H       54.73537000    34.37201100    65.99338400
H       54.31050400    34.74197800    67.64955900
C       50.32010000    31.37760000    63.34690000
N       50.47067700    31.76282000    62.08284600
H       50.16016000    32.42532200    62.77910000
H       50.66684600    30.80778200    62.34651300
N       49.91120100    32.25000400    64.26374900
H       50.10737000    31.29496600    64.52741600
H       50.02554900    32.54254000    63.30382800
N       50.57842100    30.11997600    63.69410500
H       50.69277000    30.41251100    62.73418400
H       50.26790400    30.78247800    64.39035900
C       48.15690000    38.37280000    60.57290000
N       48.30747700    38.75802000    59.30884600
H       47.99696000    39.42052200    60.00510000
H       48.50364600    37.80298200    59.57251300
N       47.74800100    39.24520400    61.48974900
H       47.94417000    38.29016600    61.75341600
H       47.86234900    39.53774000    60.52982800
N       48.41522100    37.11517600    60.92010500
H       48.52957000    37.40771100    59.96018400
H       48.10470400    37.77767800    61.61635900
C       56.26950000    32.15260000    44.03970000
O       57.45332500    32.21437600    43.64316300
O       55.55821600    31.12521700    44.07225900
H       55.81152100    33.08845000    44.39246100
