24
Coordinates from ORCA-job neb.QMRegion E -1076.170190739076
  C      44.234665     18.864904     34.121214
  H      44.515027     18.095669     33.407838
  H      44.876296     19.733188     34.239352
  C      43.353594     18.541687     35.153896
  C      43.191142     19.450095     36.391301
  O      44.114258     20.260665     36.638798
  O      42.161110     19.275012     37.098523
  O      42.589277     17.529708     35.061510
  C      41.010004     17.914578     33.683516
  H      40.560803     16.931230     33.831207
  C      41.883144     18.127262     32.633973
  H      42.232129     17.300019     32.018767
  C      42.525863     19.363547     32.507902
  C      41.942185     20.522388     33.198098
  H      42.369857     21.497863     32.961519
  C      40.912782     20.387227     34.050414
  H      40.463256     21.266285     34.521875
  C      40.301846     19.053802     34.382602
  H      40.378072     18.901100     35.473424
  O      38.947294     19.062935     33.963876
  H      38.413480     18.401222     34.524458
  C      43.417197     19.611183     31.280052
  O      43.780585     18.645437     30.572296
  O      43.719233     20.800359     31.030439
24
Coordinates from ORCA-job neb.QMRegion E -1076.170500191616
  C      44.242519     18.860330     34.122500
  H      44.517024     18.092169     33.405977
  H      44.893654     19.720811     34.247991
  C      43.358498     18.537936     35.154071
  C      43.194527     19.446940     36.391196
  O      44.116537     20.258659     36.638960
  O      42.163617     19.271842     37.097028
  O      42.594018     17.526984     35.060603
  C      41.002384     17.915323     33.676146
  H      40.553761     16.931668     33.823966
  C      41.875092     18.128447     32.627312
  H      42.223009     17.301953     32.010397
  C      42.519697     19.364750     32.503288
  C      41.934215     20.523468     33.192741
  H      42.361868     21.499127     32.957041
  C      40.906491     20.387289     34.046964
  H      40.458896     21.265562     34.521766
  C      40.296020     19.053609     34.378716
  H      40.374393     18.899402     35.469080
  O      38.940322     19.064415     33.963071
  H      38.407118     18.402007     34.523554
  C      43.413888     19.612146     31.277115
  O      43.779396     18.645886     30.570993
  O      43.716293     20.801346     31.027961
24
Coordinates from ORCA-job neb.QMRegion E -1076.170611024899
  C      44.244611     18.860942     34.119389
  H      44.520544     18.091596     33.404878
  H      44.898776     19.719264     34.248757
  C      43.361516     18.536167     35.152743
  C      43.197066     19.445817     36.389928
  O      44.118425     20.258159     36.637932
  O      42.165738     19.270575     37.094836
  O      42.600435     17.524390     35.061014
  C      40.999519     17.914130     33.672012
  H      40.552941     16.929644     33.821094
  C      41.875638     18.127275     32.627630
  H      42.222678     17.302179     32.008283
  C      42.519532     19.365318     32.503092
  C      41.934006     20.522815     33.194449
  H      42.360178     21.499081     32.958492
  C      40.908019     20.384920     34.050670
  H      40.461614     21.262273     34.528449
  C      40.296981     19.050850     34.380159
  H      40.377467     18.893622     35.470001
  O      38.940220     19.063650     33.967344
  H      38.407113     18.400568     34.527157
  C      43.412592     19.612993     31.276073
  O      43.778532     18.646406     30.570473
  O      43.714324     20.802243     31.026700
24
Coordinates from ORCA-job neb.QMRegion E -1076.170778101327
  C      44.250295     18.861789     34.117599
  H      44.528176     18.091874     33.404105
  H      44.905281     19.719448     34.250357
  C      43.367210     18.533947     35.151164
  C      43.201155     19.444491     36.388123
  O      44.121394     20.257814     36.636571
  O      42.169008     19.269383     37.091741
  O      42.608555     17.521582     35.060061
  C      40.991922     17.914592     33.663650
  H      40.546422     16.929611     33.812944
  C      41.871087     18.127870     32.623171
  H      42.217974     17.303739     32.002418
  C      42.517022     19.365992     32.500931
  C      41.932387     20.522306     33.194412
  H      42.360799     21.498425     32.961817
  C      40.906232     20.383724     34.050660
  H      40.462572     21.260159     34.532731
  C      40.293806     19.049829     34.377772
  H      40.377476     18.889030     35.466715
  O      38.935354     19.067017     33.970020
  H      38.402536     18.402588     34.528855
  C      43.410468     19.614134     31.274371
  O      43.777447     18.647155     30.569684
  O      43.711792     20.803534     31.025116
24
Coordinates from ORCA-job neb.QMRegion E -1076.170875760315
  C      44.258719     18.860890     34.117462
  H      44.536167     18.092244     33.402077
  H      44.915386     19.716588     34.254895
  C      43.373690     18.530424     35.148915
  C      43.206371     19.441966     36.385884
  O      44.125307     20.256647     36.634829
  O      42.173116     19.267114     37.087964
  O      42.617448     17.517289     35.058083
  C      40.984580     17.914092     33.654134
  H      40.539343     16.928491     33.801469
  C      41.869358     18.128187     32.619425
  H      42.216518     17.305555     31.996879
  C      42.514396     19.367361     32.498208
  C      41.930037     20.521688     33.193870
  H      42.357526     21.498398     32.962189
  C      40.904165     20.381520     34.050698
  H      40.461163     21.256838     34.535525
  C      40.290724     19.047444     34.374886
  H      40.379535     18.882051     35.462747
  O      38.929815     19.069574     33.974779
  H      38.397507     18.403715     34.532582
  C      43.408448     19.615747     31.272735
  O      43.776453     18.648318     30.568961
  O      43.709472     20.805264     31.023870
24
Coordinates from ORCA-job neb.QMRegion E -1076.170861091098
  C      44.278104     18.854951     34.130341
  H      44.543855     18.095852     33.398482
  H      44.933900     19.711599     34.269352
  C      43.381285     18.527308     35.146424
  C      43.211037     19.438626     36.383074
  O      44.128280     20.254857     36.634007
  O      42.175822     19.264778     37.082924
  O      42.617026     17.515087     35.048346
  C      40.989411     17.911200     33.657404
  H      40.540568     16.926278     33.798067
  C      41.872415     18.128608     32.617324
  H      42.216772     17.306935     31.992110
  C      42.501617     19.370133     32.485161
  C      41.927435     20.520589     33.191663
  H      42.352562     21.498134     32.959083
  C      40.907667     20.378278     34.056207
  H      40.466619     21.252332     34.545102
  C      40.295159     19.043751     34.379484
  H      40.390293     18.874144     35.466135
  O      38.932911     19.068690     33.985846
  H      38.399075     18.403326     34.542956
  C      43.404109     19.617530     31.268052
  O      43.775751     18.649433     30.566863
  O      43.707864     20.807040     31.021929
24
Coordinates from ORCA-job neb.QMRegion E -1076.171075949453
  C      44.268936     18.862321     34.114561
  H      44.548975     18.094571     33.400372
  H      44.930427     19.712992     34.263071
  C      43.383298     18.525080     35.146910
  C      43.213593     19.438792     36.383364
  O      44.130970     20.255007     36.632565
  O      42.178351     19.264426     37.082358
  O      42.636950     17.509276     35.059713
  C      40.974787     17.911735     33.640590
  H      40.532272     16.924616     33.787307
  C      41.871468     18.125181     32.620349
  H      42.220433     17.304576     31.996066
  C      42.515715     19.368219     32.499258
  C      41.928125     20.519765     33.195442
  H      42.352136     21.497987     32.963767
  C      40.903891     20.376083     34.053921
  H      40.461145     21.249180     34.543076
  C      40.290658     19.041241     34.374354
  H      40.388545     18.869087     35.460580
  O      38.926386     19.070991     33.986939
  H      38.394437     18.402691     34.542309
  C      43.406668     19.617864     31.271662
  O      43.774763     18.650045     30.568248
  O      43.705538     20.807692     31.022165
24
Coordinates from ORCA-job neb.QMRegion E -1076.171274267469
  C      44.268390     18.866603     34.109350
  H      44.555296     18.096958     33.399845
  H      44.926898     19.719647     34.258935
  C      43.386553     18.524328     35.145808
  C      43.216109     19.439141     36.382009
  O      44.133152     20.255622     36.631088
  O      42.180571     19.264821     37.080408
  O      42.645914     17.506604     35.061739
  C      40.966319     17.913426     33.632115
  H      40.523610     16.926309     33.778332
  C      41.868766     18.125490     32.619043
  H      42.217983     17.305318     31.994310
  C      42.519094     19.367882     32.502669
  C      41.930227     20.519432     33.197748
  H      42.356955     21.497259     32.969262
  C      40.903141     20.376247     34.052989
  H      40.461357     21.249049     34.543499
  C      40.287589     19.041989     34.371293
  H      40.388862     18.867017     35.456800
  O      38.921598     19.076530     33.989991
  H      38.390611     18.406207     34.544148
  C      43.407390     19.618273     31.272819
  O      43.774502     18.650550     30.568729
  O      43.704709     20.808280     31.022427
24
Coordinates from ORCA-job neb.QMRegion E -1076.171311760893
  C      44.268417     18.868740     34.106320
  H      44.558988     18.098817     33.398476
  H      44.925198     19.722806     34.257095
  C      43.388676     18.523226     35.145103
  C      43.218047     19.438726     36.381324
  O      44.134911     20.255492     36.630189
  O      42.182250     19.264464     37.079217
  O      42.652403     17.503798     35.063339
  C      40.962865     17.913296     33.627569
  H      40.519209     16.926262     33.771770
  C      41.870667     18.124769     32.620614
  H      42.220265     17.305260     31.995241
  C      42.522565     19.367879     32.505798
  C      41.931554     20.519079     33.199522
  H      42.356931     21.497355     32.970572
  C      40.903404     20.375310     34.053403
  H      40.460292     21.247772     34.543364
  C      40.287307     19.041033     34.370381
  H      40.391697     18.864152     35.455411
  O      38.920246     19.078555     33.993762
  H      38.389550     18.407301     34.546995
  C      43.408455     19.618631     31.274137
  O      43.774576     18.651000     30.569322
  O      43.704617     20.808757     31.023111
