24
Coordinates from ORCA-job neb.QMRegion
  C          44.26841730852367     18.86873986681291     34.10632023501636
  H          44.55898805932491     18.09881727036300     33.39847571155115
  H          44.92519838065123     19.72280630661201     34.25709484360967
  C          43.38867584627479     18.52322576940053     35.14510300715541
  C          43.21804654272407     19.43872644415315     36.38132402996901
  O          44.13491145536550     20.25549190626320     36.63018912559566
  O          42.18224994158800     19.26446380926831     37.07921678376459
  O          42.65240349412475     17.50379844587869     35.06333908119327
  C          40.96286459879175     17.91329645920469     33.62756930870741
  H          40.51920898081459     16.92626157429887     33.77177047262406
  C          41.87066698580865     18.12476886842918     32.62061399989116
  H          42.22026510224167     17.30526023904926     31.99524082581604
  C          42.52256489592380     19.36787930847748     32.50579758299423
  C          41.93155418007742     20.51907890432548     33.19952192849121
  H          42.35693061442331     21.49735526333399     32.97057229831733
  C          40.90340411655824     20.37531026730083     34.05340270393604
  H          40.46029213247208     21.24777213767610     34.54336365438022
  C          40.28730689836798     19.04103335097048     34.37038123939374
  H          40.39169734115019     18.86415232503794     35.45541139921253
  O          38.92024564083624     19.07855541788201     33.99376170013760
  H          38.38955021682893     18.40730148193047     34.54699457367261
  C          43.40845504783790     19.61863089522337     31.27413711308159
  O          43.77457552183335     18.65099966416261     30.56932235730553
  O          43.70461672879956     20.80875723438806     31.02311097810667
