24
Coordinates from ORCA-job neb_initial_path.QMRegion E   0.000000000000
  C      44.412000     18.826000     34.602000
  H      44.605000     18.213000     33.722000
  H      45.140000     19.579000     34.902000
  C      43.310000     18.669000     35.344000
  C      43.078000     19.483000     36.612000
  O      43.951000     20.331000     36.909000
  O      42.034000     19.245000     37.277000
  O      42.352000     17.726000     35.039000
  C      41.330000     18.015000     34.022000
  H      40.711000     17.108000     34.027000
  C      42.015000     18.193000     32.703000
  H      42.371000     17.310000     32.172000
  C      42.335000     19.421000     32.246000
  C      41.842000     20.606000     32.960000
  H      42.219000     21.574000     32.623000
  C      40.965000     20.513000     33.977000
  H      40.596000     21.416000     34.474000
  C      40.419000     19.187000     34.447000
  H      40.404000     19.176000     35.551000
  O      39.110000     19.026000     33.923000
  H      38.570000     18.439000     34.540000
  C      43.317000     19.586000     31.086000
  O      43.591000     18.604000     30.364000
  O      43.854000     20.716000     30.958000
24
Coordinates from ORCA-job neb_initial_path.QMRegion E   0.000000000000
  C      44.373000     18.835167     34.513000
  H      44.588500     18.192667     33.667833
  H      45.089667     19.605167     34.785667
  C      43.312667     18.648833     35.308667
  C      43.096000     19.477333     36.573167
  O      43.978833     20.317667     36.861333
  O      42.055833     19.249500     37.247167
  O      42.383667     17.696667     35.037833
  C      41.282500     17.997167     33.970667
  H      40.688500     17.078333     33.995833
  C      41.995000     18.182167     32.693500
  H      42.347833     17.308833     32.146667
  C      42.375667     19.409333     32.297833
  C      41.861500     20.591500     33.002667
  H      42.245000     21.561167     32.680333
  C      40.957833     20.491500     33.990000
  H      40.573000     21.390667     34.480000
  C      40.401167     19.164000     34.438167
  H      40.398833     19.130667     35.540167
  O      39.085500     19.030167     33.928833
  H      38.545500     18.431833     34.536500
  C      43.335833     19.589667     31.121000
  O      43.622500     18.610833     30.399667
  O      43.831167     20.729667     30.971000
24
Coordinates from ORCA-job neb_initial_path.QMRegion E   0.000000000000
  C      44.334000     18.844333     34.424000
  H      44.572000     18.172333     33.613667
  H      45.039333     19.631333     34.669333
  C      43.315333     18.628667     35.273333
  C      43.114000     19.471667     36.534333
  O      44.006667     20.304333     36.813667
  O      42.077667     19.254000     37.217333
  O      42.415333     17.667333     35.036667
  C      41.235000     17.979333     33.919333
  H      40.666000     17.048667     33.964667
  C      41.975000     18.171333     32.684000
  H      42.324667     17.307667     32.121333
  C      42.416333     19.397667     32.349667
  C      41.881000     20.577000     33.045333
  H      42.271000     21.548333     32.737667
  C      40.950667     20.470000     34.003000
  H      40.550000     21.365333     34.486000
  C      40.383333     19.141000     34.429333
  H      40.393667     19.085333     35.529333
  O      39.061000     19.034333     33.934667
  H      38.521000     18.424667     34.533000
  C      43.354667     19.593333     31.156000
  O      43.654000     18.617667     30.435333
  O      43.808333     20.743333     30.984000
24
Coordinates from ORCA-job neb_initial_path.QMRegion E   0.000000000000
  C      44.295000     18.853500     34.335000
  H      44.555500     18.152000     33.559500
  H      44.989000     19.657500     34.553000
  C      43.318000     18.608500     35.238000
  C      43.132000     19.466000     36.495500
  O      44.034500     20.291000     36.766000
  O      42.099500     19.258500     37.187500
  O      42.447000     17.638000     35.035500
  C      41.187500     17.961500     33.868000
  H      40.643500     17.019000     33.933500
  C      41.955000     18.160500     32.674500
  H      42.301500     17.306500     32.096000
  C      42.457000     19.386000     32.401500
  C      41.900500     20.562500     33.088000
  H      42.297000     21.535500     32.795000
  C      40.943500     20.448500     34.016000
  H      40.527000     21.340000     34.492000
  C      40.365500     19.118000     34.420500
  H      40.388500     19.040000     35.518500
  O      39.036500     19.038500     33.940500
  H      38.496500     18.417500     34.529500
  C      43.373500     19.597000     31.191000
  O      43.685500     18.624500     30.471000
  O      43.785500     20.757000     30.997000
24
Coordinates from ORCA-job neb_initial_path.QMRegion E   0.000000000000
  C      44.256000     18.862667     34.246000
  H      44.539000     18.131667     33.505333
  H      44.938667     19.683667     34.436667
  C      43.320667     18.588333     35.202667
  C      43.150000     19.460333     36.456667
  O      44.062333     20.277667     36.718333
  O      42.121333     19.263000     37.157667
  O      42.478667     17.608667     35.034333
  C      41.140000     17.943667     33.816667
  H      40.621000     16.989333     33.902333
  C      41.935000     18.149667     32.665000
  H      42.278333     17.305333     32.070667
  C      42.497667     19.374333     32.453333
  C      41.920000     20.548000     33.130667
  H      42.323000     21.522667     32.852333
  C      40.936333     20.427000     34.029000
  H      40.504000     21.314667     34.498000
  C      40.347667     19.095000     34.411667
  H      40.383333     18.994667     35.507667
  O      39.012000     19.042667     33.946333
  H      38.472000     18.410333     34.526000
  C      43.392333     19.600667     31.226000
  O      43.717000     18.631333     30.506667
  O      43.762667     20.770667     31.010000
24
Coordinates from ORCA-job neb_initial_path.QMRegion E   0.000000000000
  C      44.217000     18.871833     34.157000
  H      44.522500     18.111333     33.451167
  H      44.888333     19.709833     34.320333
  C      43.323333     18.568167     35.167333
  C      43.168000     19.454667     36.417833
  O      44.090167     20.264333     36.670667
  O      42.143167     19.267500     37.127833
  O      42.510333     17.579333     35.033167
  C      41.092500     17.925833     33.765333
  H      40.598500     16.959667     33.871167
  C      41.915000     18.138833     32.655500
  H      42.255167     17.304167     32.045333
  C      42.538333     19.362667     32.505167
  C      41.939500     20.533500     33.173333
  H      42.349000     21.509833     32.909667
  C      40.929167     20.405500     34.042000
  H      40.481000     21.289333     34.504000
  C      40.329833     19.072000     34.402833
  H      40.378167     18.949333     35.496833
  O      38.987500     19.046833     33.952167
  H      38.447500     18.403167     34.522500
  C      43.411167     19.604333     31.261000
  O      43.748500     18.638167     30.542333
  O      43.739833     20.784333     31.023000
24
Coordinates from ORCA-job neb_initial_path.QMRegion E   0.000000000000
  C      44.178000     18.881000     34.068000
  H      44.506000     18.091000     33.397000
  H      44.838000     19.736000     34.204000
  C      43.326000     18.548000     35.132000
  C      43.186000     19.449000     36.379000
  O      44.118000     20.251000     36.623000
  O      42.165000     19.272000     37.098000
  O      42.542000     17.550000     35.032000
  C      41.045000     17.908000     33.714000
  H      40.576000     16.930000     33.840000
  C      41.895000     18.128000     32.646000
  H      42.232000     17.303000     32.020000
  C      42.579000     19.351000     32.557000
  C      41.959000     20.519000     33.216000
  H      42.375000     21.497000     32.967000
  C      40.922000     20.384000     34.055000
  H      40.458000     21.264000     34.510000
  C      40.312000     19.049000     34.394000
  H      40.373000     18.904000     35.486000
  O      38.963000     19.051000     33.958000
  H      38.423000     18.396000     34.519000
  C      43.430000     19.608000     31.296000
  O      43.780000     18.645000     30.578000
  O      43.717000     20.798000     31.036000
24
Coordinates from ORCA-job neb_initial_path.QMRegion E   0.000000000000
  C      44.110000     18.900667     33.988333
  H      44.527667     18.098667     33.404667
  H      44.765667     19.756333     34.142000
  C      43.361000     18.523333     35.140667
  C      43.211000     19.441667     36.374667
  O      44.142667     20.246333     36.605333
  O      42.188000     19.267333     37.088333
  O      42.741333     17.468667     35.124333
  C      40.960000     17.916333     33.603667
  H      40.451667     16.958000     33.667000
  C      41.904333     18.107333     32.661000
  H      42.251000     17.289667     32.030333
  C      42.656667     19.326333     32.638667
  C      41.986667     20.499667     33.258000
  H      42.410333     21.479000     33.031667
  C      40.913333     20.367333     34.042333
  H      40.433333     21.248000     34.478333
  C      40.283333     19.036000     34.354333
  H      40.387000     18.851000     35.436667
  O      38.922000     19.089000     33.990667
  H      38.392333     18.420333     34.542000
  C      43.441000     19.608333     31.330333
  O      43.803667     18.654000     30.606333
  O      43.673000     20.804000     31.057333
24
Coordinates from ORCA-job neb_initial_path.QMRegion E   0.000000000000
  C      44.042000     18.920333     33.908667
  H      44.549333     18.106333     33.412333
  H      44.693333     19.776667     34.080000
  C      43.396000     18.498667     35.149333
  C      43.236000     19.434333     36.370333
  O      44.167333     20.241667     36.587667
  O      42.211000     19.262667     37.078667
  O      42.940667     17.387333     35.216667
  C      40.875000     17.924667     33.493333
  H      40.327333     16.986000     33.494000
  C      41.913667     18.086667     32.676000
  H      42.270000     17.276333     32.040667
  C      42.734333     19.301667     32.720333
  C      42.014333     20.480333     33.300000
  H      42.445667     21.461000     33.096333
  C      40.904667     20.350667     34.029667
  H      40.408667     21.232000     34.446667
  C      40.254667     19.023000     34.314667
  H      40.401000     18.798000     35.387333
  O      38.881000     19.127000     34.023333
  H      38.361667     18.444667     34.565000
  C      43.452000     19.608667     31.364667
  O      43.827333     18.663000     30.634667
  O      43.629000     20.810000     31.078667
24
Coordinates from ORCA-job neb_initial_path.QMRegion E   0.000000000000
  C      43.974000     18.940000     33.829000
  H      44.571000     18.114000     33.420000
  H      44.621000     19.797000     34.018000
  C      43.431000     18.474000     35.158000
  C      43.261000     19.427000     36.366000
  O      44.192000     20.237000     36.570000
  O      42.234000     19.258000     37.069000
  O      43.140000     17.306000     35.309000
  C      40.790000     17.933000     33.383000
  H      40.203000     17.014000     33.321000
  C      41.923000     18.066000     32.691000
  H      42.289000     17.263000     32.051000
  C      42.812000     19.277000     32.802000
  C      42.042000     20.461000     33.342000
  H      42.481000     21.443000     33.161000
  C      40.896000     20.334000     34.017000
  H      40.384000     21.216000     34.415000
  C      40.226000     19.010000     34.275000
  H      40.415000     18.745000     35.338000
  O      38.840000     19.165000     34.056000
  H      38.331000     18.469000     34.588000
  C      43.463000     19.609000     31.399000
  O      43.851000     18.672000     30.663000
  O      43.585000     20.816000     31.100000
