24
Coordinates from ORCA-job neb_MEP.QMRegion E -1076.193741783370
  C      44.412000     18.826000     34.602000
  H      44.605000     18.213000     33.722000
  H      45.140000     19.579000     34.902000
  C      43.310000     18.669000     35.344000
  C      43.078000     19.483000     36.612000
  O      43.951000     20.331000     36.909000
  O      42.034000     19.245000     37.277000
  O      42.352000     17.726000     35.039000
  C      41.330000     18.015000     34.022000
  H      40.711000     17.108000     34.027000
  C      42.015000     18.193000     32.703000
  H      42.371000     17.310000     32.172000
  C      42.335000     19.421000     32.246000
  C      41.842000     20.606000     32.960000
  H      42.219000     21.574000     32.623000
  C      40.965000     20.513000     33.977000
  H      40.596000     21.416000     34.474000
  C      40.419000     19.187000     34.447000
  H      40.404000     19.176000     35.551000
  O      39.110000     19.026000     33.923000
  H      38.570000     18.439000     34.540000
  C      43.317000     19.586000     31.086000
  O      43.591000     18.604000     30.364000
  O      43.854000     20.716000     30.958000
24
Coordinates from ORCA-job neb_MEP.QMRegion E -1076.196599784786
  C      44.392043     18.816628     34.533833
  H      44.571333     18.199431     33.655367
  H      45.109886     19.589516     34.803672
  C      43.306652     18.654497     35.300284
  C      43.094559     19.472972     36.569201
  O      43.978710     20.311961     36.859216
  O      42.053234     19.247667     37.243414
  O      42.347301     17.706821     35.018049
  C      41.311820     17.991968     34.002307
  H      40.701067     17.079561     34.009311
  C      41.995769     18.182520     32.686225
  H      42.343509     17.306341     32.138860
  C      42.339077     19.414829     32.259295
  C      41.852140     20.591926     32.992826
  H      42.245216     21.561796     32.680556
  C      40.957355     20.488708     33.993271
  H      40.577844     21.386316     34.491716
  C      40.403640     19.159362     34.443070
  H      40.393720     19.132296     35.546135
  O      39.094266     19.014315     33.922022
  H      38.548855     18.425025     34.533441
  C      43.325508     19.591845     31.104614
  O      43.628981     18.610685     30.393228
  O      43.835195     20.731991     30.966525
24
Coordinates from ORCA-job neb_MEP.QMRegion E -1076.197895744997
  C      44.370203     18.806740     34.462803
  H      44.538004     18.185134     33.585527
  H      45.075331     19.601661     34.699189
  C      43.304134     18.637428     35.255253
  C      43.111744     19.462767     36.522911
  O      44.006657     20.293348     36.804435
  O      42.074340     19.249809     37.207883
  O      42.342231     17.686064     34.993581
  C      41.294613     17.966889     33.982736
  H      40.690241     17.050202     33.988761
  C      41.974989     18.171741     32.668615
  H      42.313854     17.303441     32.103857
  C      42.342252     19.408114     32.274367
  C      41.862593     20.575851     33.028153
  H      42.271520     21.547092     32.742022
  C      40.950814     20.462815     34.012050
  H      40.560255     21.355302     34.511408
  C      40.388423     19.130286     34.439607
  H      40.383686     19.086268     35.542268
  O      39.077455     19.004452     33.921384
  H      38.526324     18.411516     34.526749
  C      43.333335     19.599092     31.125890
  O      43.670353     18.619295     30.426359
  O      43.811730     20.750462     30.976693
24
Coordinates from ORCA-job neb_MEP.QMRegion E -1076.198099519682
  C      44.345567     18.795333     34.382813
  H      44.504463     18.166525     33.509308
  H      45.031273     19.618066     34.577608
  C      43.301983     18.617282     35.204251
  C      43.131437     19.451726     36.469754
  O      44.038274     20.273018     36.741123
  O      42.098992     19.252396     37.167234
  O      42.336975     17.662530     34.963918
  C      41.275163     17.938862     33.959727
  H      40.677271     17.017449     33.962518
  C      41.951053     18.161260     32.648307
  H      42.280839     17.302882     32.063609
  C      42.347475     19.400907     32.294432
  C      41.874999     20.557170     33.070641
  H      42.301473     21.528966     32.814800
  C      40.942566     20.433716     34.033463
  H      40.537927     21.320618     34.531772
  C      40.370576     19.098005     34.435224
  H      40.373502     19.033261     35.536820
  O      39.056892     18.995966     33.922535
  H      38.499728     18.397729     34.520380
  C      43.342555     19.607680     31.153293
  O      43.717599     18.630091     30.468318
  O      43.783038     20.771159     30.989839
24
Coordinates from ORCA-job neb_MEP.QMRegion E -1076.193043812171
  C      44.310018     18.794958     34.271332
  H      44.482111     18.135383     33.424110
  H      44.953382     19.664708     34.393133
  C      43.309263     18.586670     35.144750
  C      43.162330     19.440714     36.404875
  O      44.082307     20.252596     36.663336
  O      42.135204     19.260262     37.117263
  O      42.351110     17.620942     34.931110
  C      41.229105     17.903495     33.908567
  H      40.642825     16.972193     33.910257
  C      41.921358     18.148690     32.625950
  H      42.242892     17.304620     32.017806
  C      42.385663     19.387024     32.354042
  C      41.905055     20.532147     33.141293
  H      42.344566     21.505014     32.914139
  C      40.928987     20.399120     34.057101
  H      40.497236     21.280413     34.542017
  C      40.340919     19.061615     34.422216
  H      40.367652     18.958493     35.519071
  O      39.015575     19.007110     33.935737
  H      38.454911     18.391473     34.518580
  C      43.367812     19.615679     31.209775
  O      43.773009     18.643266     30.532684
  O      43.745597     20.794644     31.013612
24
Coordinates from ORCA-job neb_MEP.QMRegion E -1076.178528077265
  C      44.280599     18.822889     34.201649
  H      44.494043     18.114567     33.405304
  H      44.906930     19.706423     34.296256
  C      43.332225     18.562927     35.139651
  C      43.180897     19.443051     36.389012
  O      44.102590     20.254806     36.643037
  O      42.152135     19.269190     37.101985
  O      42.441400     17.576760     34.970836
  C      41.136806     17.900576     33.814296
  H      40.601028     16.945130     33.867933
  C      41.902634     18.140491     32.622664
  H      42.233503     17.303498     32.011496
  C      42.447313     19.374064     32.425673
  C      41.928088     20.523749     33.179209
  H      42.362911     21.498255     32.949927
  C      40.919817     20.389940     34.057537
  H      40.474668     21.269453     34.532352
  C      40.318721     19.054841     34.403628
  H      40.372809     18.922096     35.495775
  O      38.978986     19.035112     33.950758
  H      38.428441     18.396822     34.522189
  C      43.395015     19.613608     31.251235
  O      43.784134     18.645939     30.560216
  O      43.728877     20.800388     31.025598
24
Coordinates from ORCA-job neb_MEP.QMRegion E -1076.170183024660
  C      44.234665     18.864904     34.121214
  H      44.515027     18.095669     33.407838
  H      44.876296     19.733188     34.239352
  C      43.353594     18.541687     35.153896
  C      43.191142     19.450095     36.391301
  O      44.114258     20.260665     36.638798
  O      42.161110     19.275012     37.098523
  O      42.589277     17.529708     35.061510
  C      41.010004     17.914578     33.683516
  H      40.560803     16.931230     33.831207
  C      41.883144     18.127262     32.633973
  H      42.232129     17.300019     32.018767
  C      42.525863     19.363547     32.507902
  C      41.942185     20.522388     33.198098
  H      42.369857     21.497863     32.961519
  C      40.912782     20.387227     34.050414
  H      40.463256     21.266285     34.521875
  C      40.301846     19.053802     34.382602
  H      40.378072     18.901100     35.473424
  O      38.947294     19.062935     33.963876
  H      38.413480     18.401222     34.524458
  C      43.417197     19.611183     31.280052
  O      43.780585     18.645437     30.572296
  O      43.719233     20.800359     31.030439
24
Coordinates from ORCA-job neb_MEP.QMRegion E -1076.174428007791
  C      44.129763     18.916448     34.001156
  H      44.527857     18.084498     33.422818
  H      44.824338     19.739484     34.186492
  C      43.344049     18.541199     35.150348
  C      43.196003     19.453155     36.393095
  O      44.124117     20.258165     36.631950
  O      42.170398     19.274026     37.101339
  O      42.670107     17.504117     35.116413
  C      40.961163     17.920590     33.624592
  H      40.531401     16.932916     33.797713
  C      41.890012     18.116179     32.657392
  H      42.237915     17.296419     32.030309
  C      42.643721     19.346343     32.614837
  C      41.963401     20.520689     33.220197
  H      42.374811     21.500032     32.969579
  C      40.914501     20.384063     34.044234
  H      40.453810     21.264401     34.504964
  C      40.297757     19.050689     34.373809
  H      40.380411     18.891962     35.464575
  O      38.936476     19.079401     33.974968
  H      38.410212     18.405571     34.526123
  C      43.439648     19.609115     31.305714
  O      43.775763     18.646608     30.580829
  O      43.711646     20.800328     31.034386
24
Coordinates from ORCA-job neb_MEP.QMRegion E -1076.191896771169
  C      44.010005     18.956935     33.876910
  H      44.523090     18.090273     33.439518
  H      44.739634     19.747305     34.108764
  C      43.328008     18.540587     35.140500
  C      43.205315     19.454975     36.390933
  O      44.141166     20.253739     36.619948
  O      42.186477     19.272493     37.102007
  O      42.767210     17.470956     35.174488
  C      40.922761     17.924766     33.571377
  H      40.480655     16.939888     33.731291
  C      41.911804     18.104396     32.683104
  H      42.251452     17.290480     32.044456
  C      42.767638     19.325270     32.722471
  C      41.998122     20.511644     33.253055
  H      42.387609     21.497341     32.990031
  C      40.921199     20.374795     34.038390
  H      40.440295     21.257209     34.476752
  C      40.292778     19.043815     34.361243
  H      40.386985     18.872887     35.450962
  O      38.923916     19.100645     33.991639
  H      38.403553     18.414067     34.530813
  C      43.462784     19.607408     31.335616
  O      43.775768     18.649427     30.595551
  O      43.696706     20.801878     31.043892
24
Coordinates from ORCA-job neb_MEP.QMRegion E -1076.209088035362
  C      43.974000     18.940000     33.829000
  H      44.571000     18.114000     33.420000
  H      44.621000     19.797000     34.018000
  C      43.431000     18.474000     35.158000
  C      43.261000     19.427000     36.366000
  O      44.192000     20.237000     36.570000
  O      42.234000     19.258000     37.069000
  O      43.140000     17.306000     35.309000
  C      40.790000     17.933000     33.383000
  H      40.203000     17.014000     33.321000
  C      41.923000     18.066000     32.691000
  H      42.289000     17.263000     32.051000
  C      42.812000     19.277000     32.802000
  C      42.042000     20.461000     33.342000
  H      42.481000     21.443000     33.161000
  C      40.896000     20.334000     34.017000
  H      40.384000     21.216000     34.415000
  C      40.226000     19.010000     34.275000
  H      40.415000     18.745000     35.338000
  O      38.840000     19.165000     34.056000
  H      38.331000     18.469000     34.588000
  C      43.463000     19.609000     31.399000
  O      43.851000     18.672000     30.663000
  O      43.585000     20.816000     31.100000
