24
frame 54795 P, aligned onto 20000 on 8 atoms
C      48.25116676    28.43209326    55.97298513
H      49.14370678    27.80889684    56.13426295
H      48.36810706    29.36597336    56.53644049
C      47.05865472    27.64415637    56.47458705
C      45.82945088    28.26293448    57.16074415
O      46.08218026    28.96268071    58.15902321
O      44.69945945    27.94324925    56.72155089
O      47.05628784    26.43216950    56.35664550
C      46.61522555    27.05670354    53.32413379
H      46.44347889    26.08345777    52.86322407
C      47.84182812    27.42674186    53.70278901
H      48.69951271    26.76308349    53.57775418
C      48.12265951    28.72390000    54.41998040
C      46.99408501    29.70510826    54.22420263
H      47.22417435    30.75542747    54.41616474
C      45.76719376    29.33290514    53.84804347
H      44.97284791    30.08058727    53.76882792
C      45.38904950    27.91576127    53.49589267
H      44.79434482    27.51919336    54.34075788
O      44.61664724    27.92207944    52.31431287
H      43.90464211    27.20207353    52.35028781
C      49.50282719    29.29130724    53.93230815
O      50.46156550    28.48590177    53.87190230
O      49.58035303    30.51160311    53.64107848
