24
frame 54795 R, aligned onto 20000 on 8 atoms
C      47.91295931    28.00592627    56.94724147
H      48.84324177    27.61302201    56.53138237
H      47.96405807    28.76437966    57.72913300
C      46.71296323    27.58611214    56.52889414
C      45.41830760    28.10909749    57.14162909
O      45.49007792    29.16265583    57.82569038
O      44.36060729    27.47748610    56.94746658
O      46.58838371    26.59520154    55.57696077
C      46.55523408    26.97169217    54.14929383
H      46.36138412    26.01802314    53.64150985
C      47.91240826    27.50251336    53.80150640
H      48.74338655    26.80001881    53.71301640
C      48.15553612    28.82825536    53.77071690
C      47.04524059    29.77524868    53.93398817
H      47.30664835    30.83399500    53.99826262
C      45.76532649    29.36594390    54.00708734
H      44.96356616    30.09600687    54.14329833
C      45.37490753    27.91803285    53.82955244
H      44.57110297    27.66531103    54.53981994
O      44.93570673    27.73410557    52.49506924
H      44.13797018    27.10975435    52.47588710
C      49.58050448    29.35339429    53.65860862
O      50.53185662    28.53352738    53.69898625
O      49.71713694    30.60478043    53.56663958
