24
frame 54795 TS, aligned onto 20000 on 8 atoms
C      48.12019381    28.24873762    56.47494533
H      49.03338050    27.71609414    56.21231902
H      48.22249841    29.18089731    57.02922906
C      46.90292191    27.55130433    56.48083394
C      45.60903115    28.11197682    57.11854370
O      45.69863292    29.10110490    57.88501739
O      44.53340707    27.52877437    56.86341335
O      46.79441532    26.45092183    55.86159437
C      46.54429717    26.92720312    53.67564191
H      46.35993247    25.88275783    53.42008611
C      47.82957161    27.42253302    53.66745062
H      48.68328386    26.76234571    53.51740105
C      48.08044114    28.74552634    54.06394730
C      46.95456839    29.68032155    54.13745283
H      47.19208466    30.73239182    54.30911011
C      45.68666695    29.25904697    53.99549231
H      44.86149055    29.96987517    54.07426104
C      45.32983909    27.82674401    53.69659150
H      44.64008403    27.46747036    54.47923377
O      44.71905552    27.77427376    52.41694486
H      43.95071783    27.09992437    52.41584379
C      49.50252727    29.27329034    53.86265999
O      50.44260586    28.44271249    53.85005651
O      49.63888019    30.51123003    53.66675387
