24
frame 58698 P, aligned onto 20000 on 8 atoms
C      47.95055307    28.23259787    56.05927162
H      48.88034639    27.66596295    56.19292138
H      47.96047138    29.13090967    56.69415393
C      46.80015343    27.31873911    56.43434605
C      45.53045413    27.81175858    57.23262638
O      45.54721556    28.91779838    57.82736835
O      44.57021169    27.01349321    57.23000727
O      46.82251554    26.15345844    56.08543505
C      46.51413566    27.12499338    53.11447701
H      46.44772535    26.29674836    52.40252136
C      47.69551282    27.52273928    53.59965656
H      48.62553760    27.03282367    53.31154443
C      47.84108897    28.68667422    54.54526591
C      46.61633717    29.56427466    54.52182476
H      46.74618994    30.55120089    54.96504015
C      45.42421347    29.11968094    54.12303846
H      44.53136293    29.72717319    54.28223664
C      45.20667586    27.74660721    53.54271189
H      44.80521225    27.13597727    54.37548500
O      44.25503634    27.82795128    52.50819782
H      43.98624761    26.89222001    52.16846613
C      49.12690379    29.49258492    54.11971429
O      50.23221569    28.87517689    54.03421041
O      48.96106910    30.70262086    53.88288338
