24
frame 58698 R, aligned onto 20000 on 8 atoms
C      47.85792091    28.04207470    56.91811107
H      48.78193643    27.72778689    56.43021714
H      47.88779583    28.79787532    57.70286766
C      46.67205375    27.53051222    56.56477850
C      45.38385523    27.89666174    57.29953091
O      45.36241829    28.95054338    57.99573918
O      44.42276102    27.10334311    57.18584513
O      46.55092956    26.56054392    55.58455636
C      46.58027481    26.98615710    54.17765719
H      46.39436342    26.05152839    53.62622257
C      47.93595445    27.52689044    53.82493327
H      48.77525607    26.83253108    53.75773302
C      48.15616784    28.84935276    53.68819824
C      47.04427107    29.78957541    53.87271911
H      47.32091470    30.84458554    53.92120545
C      45.77721163    29.37397986    54.03757874
H      44.98714308    30.09307733    54.27076432
C      45.39313690    27.92598830    53.84757859
H      44.58887406    27.66036310    54.55725213
O      44.96609851    27.79149738    52.50736054
H      44.49256851    26.90830114    52.30751124
C      49.54859754    29.44001030    53.47837641
O      50.55647653    28.69057384    53.64140687
O      49.60575797    30.65959345    53.21688720
