24
frame 58698 TS, aligned onto 20000 on 8 atoms
C      47.95028056    28.14069869    56.52983916
H      48.88097061    27.69224911    56.19452051
H      47.97733957    29.07482738    57.09268359
C      46.77253100    27.39557215    56.47615872
C      45.48250076    27.86741626    57.20259165
O      45.47277684    28.95577951    57.84322375
O      44.50380996    27.08826032    57.13961237
O      46.68341696    26.32988952    55.77816540
C      46.46969347    26.93633278    53.63406717
H      46.31338025    25.91255915    53.28547638
C      47.73599600    27.49106991    53.61812426
H      48.61526099    26.89303562    53.38498695
C      47.92407605    28.79716489    54.07202355
C      46.75711542    29.64865277    54.29976526
H      46.97385825    30.66677936    54.62064262
C      45.50614488    29.18820242    54.15353330
H      44.65363840    29.82421682    54.40424802
C      45.21326611    27.77514585    53.73167687
H      44.57217279    27.33902529    54.51378345
O      44.54483035    27.80077089    52.48449232
H      44.17600209    26.87360050    52.21677637
C      49.27419143    29.49403232    53.88213566
O      50.34397383    28.81546514    53.88322651
O      49.20161887    30.72500650    53.69589400
