24
frame 44388 P
C     43.418000    18.933000    34.623000
H     44.024000    18.133000    34.176000
H     44.041000    19.752000    34.981000
C     42.779000    18.415000    35.872000
C     42.499000    19.401000    37.056000
O     43.043000    20.534000    37.032000
O     41.756000    18.952000    37.956000
O     42.503000    17.240000    36.006000
C     40.271000    18.143000    33.977000
H     39.650000    17.249000    33.898000
C     41.433000    18.233000    33.329000
H     41.821000    17.412000    32.726000
C     42.368000    19.400000    33.524000
C     41.634000    20.612000    34.027000
H     42.126000    21.573000    33.879000
C     40.462000    20.531000    34.660000
H     39.984000    21.426000    35.069000
C     39.731000    19.230000    34.868000
H     39.863000    18.924000    35.927000
O     38.354000    19.429000    34.599000
H     37.790000    19.012000    35.315000
C     43.129000    19.696000    32.184000
O     43.791000    18.761000    31.682000
O     43.091000    20.863000    31.707000
