24
frame 44388 R
C     43.964000    18.839000    35.243000
H     44.196000    18.212000    34.380000
H     44.680000    19.599000    35.553000
C     42.809000    18.738000    35.905000
C     42.486000    19.584000    37.121000
O     43.054000    20.705000    37.232000
O     41.673000    19.093000    37.941000
O     41.855000    17.799000    35.564000
C     40.866000    18.173000    34.540000
H     40.218000    17.288000    34.472000
C     41.631000    18.401000    33.278000
H     42.074000    17.538000    32.781000
C     41.987000    19.644000    32.900000
C     41.454000    20.808000    33.614000
H     41.843000    21.784000    33.318000
C     40.564000    20.686000    34.615000
H     40.203000    21.570000    35.147000
C     39.984000    19.351000    35.009000
H     39.931000    19.283000    36.109000
O     38.681000    19.242000    34.446000
H     38.052000    18.871000    35.132000
C     43.076000    19.837000    31.861000
O     43.784000    18.843000    31.575000
O     43.271000    21.003000    31.419000
