24
Coordinates from ORCA-job neb_NEB-CI_converged.QMRegion
  C          43.78771670296761     18.84994371491071     34.95750475044503
  H          44.11385604089271     18.10656065802366     34.23226524316911
  H          44.43832791430753     19.68108706167886     35.20554172118897
  C          42.81088191898784     18.53106951946524     35.89951197326466
  C          42.51199270496809     19.48846017289283     37.07360344211252
  O          43.06000020661579     20.62474409044388     37.09716485097315
  O          41.73126527933007     19.04241333433513     37.94703224758004
  O          42.06819956420983     17.51839972653891     35.76774285118940
  C          40.50228092773820     18.06795519053480     34.22217262539543
  H          40.00707288809807     17.09820482979380     34.29113967237733
  C          41.49930892389452     18.27094591456387     33.30175739692486
  H          41.89910133934228     17.44715442439174     32.71229497755596
  C          42.17855546854783     19.50412701548131     33.25760372965231
  C          41.57828466131576     20.65764917112416     33.92829259677323
  H          42.04301899603795     21.62846386314785     33.75567171788645
  C          40.50308927140227     20.52453980692319     34.72125405359459
  H          40.06731096902401     21.39420917876592     35.21929325172301
  C          39.83371923601019     19.20002018204002     34.96676797992301
  H          39.88781820199583     18.97838334602922     36.04724164680395
  O          38.47465875641992     19.28479984880379     34.55196243054957
  H          37.87189903905662     18.92025893924172     35.26852077360859
  C          43.12804941725209     19.74415987220600     32.08463911954320
  O          43.78838124761761     18.77621309789116     31.64895441626643
  O          43.19836685429683     20.91750732437322     31.62319976583659
