24
frame 52192 P, aligned onto 20000 on 8 atoms
C      48.08962483    28.28580527    56.17205829
H      49.02868461    27.74696283    56.34046425
H      48.05241149    29.21025515    56.76368451
C      46.96366422    27.35247432    56.54613050
C      45.62421667    27.86118741    57.15040548
O      45.65504957    28.93555912    57.79003332
O      44.62550351    27.12424364    56.98192432
O      47.09179327    26.16811015    56.32202012
C      46.62002837    26.95238359    53.41145367
H      46.51639543    25.99957073    52.88699788
C      47.81918036    27.35595546    53.83816816
H      48.69588432    26.72181772    53.70293691
C      48.01899762    28.62415191    54.63182605
C      46.84605107    29.55358704    54.46835213
H      46.98855383    30.58150803    54.81143288
C      45.64162760    29.14161036    54.07081932
H      44.80331996    29.83876202    54.10297308
C      45.34917686    27.73768457    53.60342449
H      44.73305812    27.24653568    54.38203381
O      44.63151198    27.79142232    52.38346409
H      43.85226073    27.16539335    52.37145457
C      49.36374717    29.27459961    54.16529048
O      50.44740518    28.69603217    54.47763487
O      49.29147893    30.32374437    53.49541468
