24
frame 52192 R, aligned onto 20000 on 8 atoms
C      47.80856883    28.14631750    56.89703531
H      48.75033177    27.89560900    56.40632784
H      47.78215040    28.90467353    57.67881227
C      46.66139765    27.56446871    56.52897518
C      45.33200377    27.88726611    57.19888767
O      45.27685590    28.95068830    57.86893614
O      44.39134316    27.07559517    57.04188479
O      46.60506433    26.58228584    55.56929744
C      46.56435554    26.97672139    54.15935688
H      46.37013257    26.03527615    53.62640257
C      47.91890733    27.51031713    53.81774742
H      48.73652710    26.79171870    53.76680408
C      48.15951230    28.83336324    53.73931765
C      47.04765908    29.77952914    53.89092735
H      47.30247500    30.84010431    53.94651643
C      45.77361123    29.37291447    54.03280968
H      44.98606269    30.10308264    54.23829383
C      45.37949255    27.92340009    53.85956840
H      44.57690865    27.66063940    54.56853167
O      44.94017553    27.75397325    52.51883536
H      44.13844325    27.16489973    52.46454230
C      49.56893380    29.37626493    53.57622630
O      50.53200380    28.70835846    54.06136556
O      49.69864986    30.48280075    53.00244217
