24
frame 52192 TS, aligned onto 20000 on 8 atoms
C      48.04526875    28.18673091    56.51663053
H      48.98827463    27.73421257    56.21949724
H      48.05169248    29.12478588    57.07126257
C      46.88335325    27.41518227    56.47732169
C      45.55374115    27.88177968    57.10677689
O      45.54182910    28.95794043    57.75413013
O      44.56418285    27.12400599    56.95396154
O      46.84992692    26.33242854    55.81228826
C      46.58863383    26.82444698    53.73162678
H      46.45639168    25.78412861    53.43090011
C      47.85486400    27.38017186    53.72407519
H      48.72524420    26.74079753    53.58862525
C      48.04246257    28.70018230    54.13917296
C      46.87077724    29.57881873    54.23623421
H      47.05040196    30.62862040    54.47734230
C      45.62296200    29.10470393    54.09909208
H      44.76788740    29.76265370    54.26310611
C      45.33344851    27.67165370    53.73518923
H      44.63103025    27.25705070    54.47554547
O      44.77537664    27.63370769    52.42541281
H      43.94372391    27.07445484    52.38427724
C      49.42286452    29.31894530    53.94150249
O      50.46154625    28.68765927    54.29097586
O      49.43267920    30.43546733    53.37738314
