25
Coordinates from ORCA-job job
  C          44.94018501811968     20.25207225070906     40.36461604294617
  H          45.10675308344280     20.10188995032557     39.29941553843574
  H          45.77181134964529     20.54809157203569     41.00132684702900
  C          43.72726260930513     20.12086581141347     40.91686431984259
  C          43.50168313906546     20.43375723117134     42.41193262938847
  O          44.45111970359548     20.23233504516754     43.18499301289729
  O          42.35447149532020     20.90361914338206     42.73386741407158
  O          42.63180035082198     19.68747976099618     40.18902277066059
  C          42.00863785272244     20.59165301351576     39.21919347491592
  H          41.15921133501566     19.98385508301504     38.85714284393573
  C          42.89200000000000     20.97500000000000     38.05400000000000
  H          43.44126032670973     20.19429541743809     37.52635323871458
  C          42.96900000000000     22.24400000000000     37.60500000000000
  C          42.11800000000000     23.28100000000000     38.20199999999999
  H          42.15156550457271     24.24463394854816     37.69013752507787
  C          41.18800000000000     23.00200000000000     39.13000000000000
  H          40.50283745043195     23.75693705313529     39.52329790246684
  C          41.46935501078629     21.79687876124520     39.99278611693331
  H          42.31949326195949     22.12787874242322     40.61634569054161
  O          40.43522570810829     21.43075608550378     40.89346288038379
  H          40.95902304137757     21.20721528427527     41.70137296274061
  C          43.86771349642989     22.61379881296084     36.39643463244934
  O          44.48120864202080     21.66639158421012     35.85073754849904
  O          43.88225132490038     23.83482798639733     36.09530665292337
  N          40.83200000000000     18.75000000000000     42.55100000000000
