25
Coordinates from ORCA-job job E -836.396077717907
  C      44.921594     19.991496     40.351762
  H      45.087125     19.785255     39.292783
  H      45.768418     20.218883     41.000778
  C      43.693575     20.009303     40.888479
  C      43.495618     20.398146     42.376816
  O      44.445273     20.186973     43.143137
  O      42.376574     20.929084     42.685602
  O      42.570160     19.652500     40.166742
  C      41.995271     20.590279     39.206467
  H      41.124235     20.017398     38.825282
  C      42.892000     20.975000     38.054000
  H      43.448178     20.203947     37.513102
  C      42.969000     22.244000     37.605000
  C      42.118000     23.281000     38.202000
  H      42.164857     24.241185     37.679096
  C      41.188000     23.002000     39.130000
  H      40.498586     23.754033     39.531866
  C      41.471423     21.794754     39.992997
  H      42.337300     22.120884     40.603906
  O      40.456499     21.421170     40.900943
  H      41.024517     21.178862     41.681170
  C      43.858978     22.617461     36.380358
  O      44.481818     21.671812     35.851767
  O      43.840462     23.832225     36.067764
  N      40.832000     18.750000     42.551000
25
Coordinates from ORCA-job job E -836.396515793511
  C      44.909028     20.008703     40.346028
  H      45.069119     19.818580     39.285953
  H      45.755776     20.242391     40.988490
  C      43.684800     20.004815     40.888851
  C      43.484249     20.365793     42.382382
  O      44.433974     20.144773     43.148587
  O      42.359249     20.883484     42.703896
  O      42.564200     19.648921     40.161834
  C      41.988794     20.590516     39.202947
  H      41.121320     20.020663     38.819025
  C      42.892000     20.975000     38.054000
  H      43.447783     20.202926     37.519691
  C      42.969000     22.244000     37.605000
  C      42.118000     23.281000     38.202000
  H      42.159968     24.240725     37.682832
  C      41.188000     23.002000     39.130000
  H      40.502405     23.753917     39.529283
  C      41.471414     21.796728     39.991637
  H      42.336740     22.122268     40.598613
  O      40.453446     21.432963     40.906841
  H      41.003991     21.201636     41.701678
  C      43.866307     22.616219     36.388718
  O      44.490782     21.670449     35.856531
  O      43.869251     23.835395     36.085130
  N      40.832000     18.750000     42.551000
25
Coordinates from ORCA-job job E -836.395292101307
  C      44.916002     20.079801     40.322811
  H      45.063499     19.892123     39.263030
  H      45.765290     20.343066     40.946510
  C      43.701347     20.040264     40.882936
  C      43.506360     20.391750     42.375854
  O      44.459356     20.171304     43.140919
  O      42.375468     20.897593     42.710138
  O      42.582333     19.659747     40.161986
  C      41.988475     20.590776     39.202630
  H      41.129625     20.012298     38.822344
  C      42.892000     20.975000     38.054000
  H      43.448332     20.200477     37.529180
  C      42.969000     22.244000     37.605000
  C      42.118000     23.281000     38.202000
  H      42.152490     24.241481     37.688187
  C      41.188000     23.002000     39.130000
  H      40.505894     23.754546     39.525475
  C      41.473553     21.797899     39.990576
  H      42.336423     22.123475     40.596452
  O      40.450140     21.442787     40.910499
  H      40.977673     21.219395     41.720081
  C      43.875189     22.614279     36.401312
  O      44.422188     21.654722     35.805389
  O      43.828621     23.822834     36.052484
  N      40.832000     18.750000     42.551000
25
Coordinates from ORCA-job job E -836.396368044805
  C      44.929311     20.138735     40.308495
  H      45.070438     19.944333     39.249403
  H      45.780106     20.424699     40.920030
  C      43.720780     20.077464     40.879564
  C      43.530107     20.433895     42.368866
  O      44.485819     20.221333     43.133457
  O      42.396947     20.935561     42.707068
  O      42.603231     19.672050     40.165984
  C      41.992169     20.590475     39.204976
  H      41.139394     20.001479     38.829592
  C      42.892000     20.975000     38.054000
  H      43.448407     20.198015     37.533790
  C      42.969000     22.244000     37.605000
  C      42.118000     23.281000     38.202000
  H      42.147611     24.242885     37.690958
  C      41.188000     23.002000     39.130000
  H      40.506358     23.755646     39.523189
  C      41.475364     21.797219     39.990134
  H      42.336003     22.122484     40.598624
  O      40.448022     21.444012     40.908499
  H      40.964983     21.220263     41.721486
  C      43.876267     22.612323     36.406257
  O      44.501537     21.666736     35.864713
  O      43.917152     23.837923     36.117602
  N      40.832000     18.750000     42.551000
25
Coordinates from ORCA-job job E -836.396374739585
  C      44.920075     20.071490     40.382134
  H      45.094222     19.893517     39.320020
  H      45.760041     20.311891     41.034996
  C      43.690708     20.034944     40.914247
  C      43.471039     20.370900     42.408458
  O      44.418645     20.157454     43.178336
  O      42.339602     20.873113     42.727420
  O      42.583281     19.656989     40.176157
  C      41.997250     20.589561     39.211765
  H      41.133470     20.006891     38.832525
  C      42.892000     20.975000     38.054000
  H      43.444294     20.198422     37.518546
  C      42.969000     22.244000     37.605000
  C      42.118000     23.281000     38.202000
  H      42.156737     24.243951     37.684510
  C      41.188000     23.002000     39.130000
  H      40.499578     23.756429     39.527165
  C      41.471645     21.795473     39.991914
  H      42.331812     22.120748     40.608324
  O      40.448869     21.430337     40.896680
  H      40.997342     21.199149     41.687397
  C      43.863291     22.614960     36.390504
  O      44.491297     21.670675     35.860615
  O      43.875887     23.835531     36.093940
  N      40.832000     18.750000     42.551000
25
Coordinates from ORCA-job job E -836.396811835485
  C      44.928247     20.128621     40.349590
  H      45.087121     19.948444     39.287918
  H      45.772102     20.397457     40.982028
  C      43.709683     20.066380     40.901312
  C      43.500384     20.407909     42.393234
  O      44.451712     20.197601     43.161743
  O      42.365411     20.904376     42.720304
  O      42.600145     19.667578     40.174304
  C      41.997306     20.590139     39.210774
  H      41.141042     19.999938     38.835639
  C      42.892000     20.975000     38.054000
  H      43.444742     20.197111     37.526061
  C      42.969000     22.244000     37.605000
  C      42.118000     23.281000     38.202000
  H      42.151472     24.243831     37.688612
  C      41.188000     23.002000     39.130000
  H      40.502683     23.756234     39.524056
  C      41.472293     21.796272     39.991445
  H      42.330521     22.122161     40.606748
  O      40.444392     21.436243     40.900216
  H      40.974202     21.209830     41.704224
  C      43.869265     22.613576     36.398293
  O      44.481591     21.666149     35.850501
  O      43.884316     23.834636     36.095984
  N      40.832000     18.750000     42.551000
25
Coordinates from ORCA-job job E -836.396828177980
  C      44.929094     20.153294     40.352034
  H      45.088999     19.978800     39.289589
  H      45.770948     20.428222     40.984447
  C      43.711545     20.077143     40.904215
  C      43.498575     20.413464     42.396452
  O      44.449827     20.205740     43.165813
  O      42.360829     20.903858     42.722858
  O      42.605183     19.670967     40.176381
  C      41.998614     20.590198     39.211901
  H      41.144143     19.996526     38.838428
  C      42.892000     20.975000     38.054000
  H      43.444057     20.196337     37.526567
  C      42.969000     22.244000     37.605000
  C      42.118000     23.281000     38.202000
  H      42.151144     24.244255     37.689460
  C      41.188000     23.002000     39.130000
  H      40.502727     23.756468     39.523508
  C      41.471044     21.795974     39.991354
  H      42.327513     22.121985     40.608955
  O      40.440933     21.435292     40.897798
  H      40.968140     21.210061     41.703614
  C      43.869223     22.613553     36.398720
  O      44.481756     21.666170     35.851205
  O      43.886680     23.835100     36.098634
  N      40.832000     18.750000     42.551000
25
Coordinates from ORCA-job job E -836.396852258338
  C      44.934332     20.221834     40.362601
  H      45.098537     20.062668     39.298338
  H      45.769687     20.512356     40.996861
  C      43.719508     20.108009     40.914433
  C      43.496262     20.429633     42.407753
  O      44.446736     20.228556     43.179802
  O      42.351366     20.904255     42.730944
  O      42.622032     19.681620     40.184549
  C      42.004448     20.590865     39.216655
  H      41.154508     19.986987     38.849370
  C      42.892000     20.975000     38.054000
  H      43.441644     20.194248     37.526943
  C      42.969000     22.244000     37.605000
  C      42.118000     23.281000     38.202000
  H      42.150884     24.245153     37.691275
  C      41.188000     23.002000     39.130000
  H      40.502759     23.757031     39.522490
  C      41.468261     21.795936     39.991718
  H      42.319568     22.123813     40.615148
  O      40.433071     21.432332     40.891967
  H      40.955567     21.209255     41.700876
  C      43.868675     22.613663     36.398216
  O      44.480550     21.666096     35.850801
  O      43.887781     23.835605     36.100477
  N      40.832000     18.750000     42.551000
25
Coordinates from ORCA-job job E -836.396856181285
  C      44.936865     20.237501     40.364650
  H      45.102320     20.082142     39.299975
  H      45.770434     20.531156     40.999882
  C      43.722797     20.115148     40.916384
  C      43.497704     20.433169     42.410260
  O      44.447808     20.233056     43.182939
  O      42.351400     20.904779     42.732417
  O      42.626878     19.684548     40.186859
  C      42.006436     20.591212     39.218009
  H      41.157146     19.985000     38.852947
  C      42.892000     20.975000     38.054000
  H      43.441193     20.193987     37.526737
  C      42.969000     22.244000     37.605000
  C      42.118000     23.281000     38.202000
  H      42.151159     24.245160     37.691200
  C      41.188000     23.002000     39.130000
  H      40.502827     23.757104     39.522706
  C      41.468084     21.796229     39.992063
  H      42.318364     22.125332     40.616303
  O      40.432530     21.431418     40.891575
  H      40.955002     21.208391     41.700405
  C      43.868283     22.613759     36.397371
  O      44.480235     21.666161     35.850263
  O      43.885943     23.835432     36.098766
  N      40.832000     18.750000     42.551000
25
Coordinates from ORCA-job job E -836.396858555515
  C      44.939821     20.253291     40.365717
  H      45.106421     20.102602     39.300594
  H      45.771417     20.550020     41.002103
  C      43.726786     20.121888     40.917691
  C      43.500451     20.435493     42.412489
  O      44.450032     20.235313     43.185760
  O      42.352880     20.904608     42.733967
  O      42.631926     19.687617     40.189174
  C      42.008562     20.591587     39.219283
  H      41.159581     19.983329     38.856904
  C      42.892000     20.975000     38.054000
  H      43.441027     20.194049     37.526527
  C      42.969000     22.244000     37.605000
  C      42.118000     23.281000     38.202000
  H      42.151482     24.244883     37.690589
  C      41.188000     23.002000     39.130000
  H      40.502813     23.757082     39.523092
  C      41.468630     21.796685     39.992612
  H      42.318302     22.127405     40.616982
  O      40.433561     21.430597     40.892359
  H      40.956529     21.207362     41.700798
  C      43.867900     22.613878     36.396565
  O      44.480589     21.666369     35.850202
  O      43.883396     23.835119     36.096362
  N      40.832000     18.750000     42.551000
25
Coordinates from ORCA-job job E -836.396858991853
  C      44.940185     20.252072     40.364616
  H      45.106753     20.101890     39.299416
  H      45.771811     20.548092     41.001327
  C      43.727263     20.120866     40.916864
  C      43.501683     20.433757     42.411933
  O      44.451120     20.232335     43.184993
  O      42.354471     20.903619     42.733867
  O      42.631800     19.687480     40.189023
  C      42.008638     20.591653     39.219193
  H      41.159211     19.983855     38.857143
  C      42.892000     20.975000     38.054000
  H      43.441260     20.194295     37.526353
  C      42.969000     22.244000     37.605000
  C      42.118000     23.281000     38.202000
  H      42.151566     24.244634     37.690138
  C      41.188000     23.002000     39.130000
  H      40.502837     23.756937     39.523298
  C      41.469355     21.796879     39.992786
  H      42.319493     22.127879     40.616346
  O      40.435226     21.430756     40.893463
  H      40.959023     21.207215     41.701373
  C      43.867713     22.613799     36.396435
  O      44.481209     21.666392     35.850738
  O      43.882251     23.834828     36.095307
  N      40.832000     18.750000     42.551000
