25
restart of the def2-SVP minimum (armb_anch) with def2-SVPD
C      44.78036551    20.62152064    40.41075919
H      44.95922963    20.80771839    39.35144689
H      45.55835688    20.90544975    41.12415460
C      43.64810694    20.09860301    40.89153601
C      43.30633962    19.86691005    42.36022010
O      43.55763995    18.73388512    42.84382708
O      42.60445702    20.77239872    42.89350814
O      42.55888984    19.66464088    40.14094244
C      41.96575506    20.54711419    39.14836211
H      41.19350631    19.88694534    38.70172620
C      42.89200000    20.97500000    38.05400000
H      43.49371662    20.21634543    37.54537242
C      42.96900000    22.24400000    37.60500000
C      42.11800000    23.28100000    38.20200000
H      42.23090259    24.27084514    37.75131363
C      41.18800000    23.00200000    39.13000000
H      40.55368638    23.78436403    39.56537553
C      41.20626315    21.68295694    39.87191656
H      41.71363675    21.84177126    40.84200364
O      39.88821757    21.22086347    40.25173278
H      39.34585722    21.31844821    39.45620699
C      43.92320731    22.63396114    36.43899794
O      44.66722940    21.71996435    36.02847106
O      43.82253410    23.82499352    36.06413871
N      40.83200000    18.75000000    42.55100000
