25
Coordinates from ORCA-job job
  C          43.76068374925850     22.82078869277736     41.52094769429123
  H          44.28212916277700     23.31326024342991     40.70246682543834
  H          43.71815070146943     23.27825259063358     42.50889398694617
  C          43.20930440641701     21.62316468092482     41.36930764960798
  C          42.44624976596496     20.89524285004444     42.54825035756716
  O          43.10703907170644     20.15573188875929     43.25433246134213
  O          41.24777266300071     21.22599387180202     42.52654492605050
  O          43.22114853103244     20.78242191827339     40.33526956120416
  C          42.16692723124082     20.67267168224390     39.32268374423089
  H          41.83597613051448     19.62802613795503     39.37342187658634
  C          42.89200000000000     20.97500000000000     38.05400000000000
  H          43.47537623199527     20.19253351958338     37.56916105035795
  C          42.96900000000000     22.24400000000000     37.60500000000000
  C          42.11800000000000     23.28100000000000     38.20199999999999
  H          42.26391580559605     24.29702344224527     37.83315952915139
  C          41.18800000000000     23.00200000000000     39.13000000000000
  H          40.51815565285403     23.77190234975370     39.51461770375114
  C          40.96131124981650     21.57821250152767     39.60331764371143
  H          40.77209206408268     21.44586883348206     40.67817477582407
  O          39.80792451542566     21.04820153714512     38.93690450937034
  H          39.87374907115145     21.27775710486909     38.00135249367485
  C          43.85255932199448     22.61085808289171     36.42234177595901
  O          43.96905480119575     21.76736370202856     35.50643516501688
  O          44.39507015338584     23.73932632979984     36.49726678182753
  N          40.83200000000000     18.75000000000000     42.55100000000000
