25
Coordinates from ORCA-job job E -836.539089250800
  C      44.780366     20.621521     40.410759
  H      44.959230     20.807718     39.351447
  H      45.558357     20.905450     41.124155
  C      43.648107     20.098603     40.891536
  C      43.306340     19.866910     42.360220
  O      43.557640     18.733885     42.843827
  O      42.604457     20.772399     42.893508
  O      42.558890     19.664641     40.140942
  C      41.965755     20.547114     39.148362
  H      41.193506     19.886945     38.701726
  C      42.892000     20.975000     38.054000
  H      43.493717     20.216345     37.545372
  C      42.969000     22.244000     37.605000
  C      42.118000     23.281000     38.202000
  H      42.230903     24.270845     37.751314
  C      41.188000     23.002000     39.130000
  H      40.553686     23.784364     39.565376
  C      41.206263     21.682957     39.871917
  H      41.713637     21.841771     40.842004
  O      39.888218     21.220863     40.251733
  H      39.345857     21.318448     39.456207
  C      43.923207     22.633961     36.438998
  O      44.667229     21.719964     36.028471
  O      43.822534     23.824994     36.064139
  N      40.832000     18.750000     42.551000
25
Coordinates from ORCA-job job E -836.539779746547
  C      44.754652     20.628046     40.477969
  H      44.966353     20.827661     39.431146
  H      45.501395     20.907678     41.221362
  C      43.613900     20.091172     40.914262
  C      43.235013     19.830364     42.364405
  O      43.480863     18.687723     42.832224
  O      42.521224     20.727325     42.899479
  O      42.544283     19.657334     40.136576
  C      41.957584     20.546206     39.141854
  H      41.191896     19.888937     38.689114
  C      42.892000     20.975000     38.054000
  H      43.490937     20.214957     37.549059
  C      42.969000     22.244000     37.605000
  C      42.118000     23.281000     38.202000
  H      42.230276     24.271753     37.758844
  C      41.188000     23.002000     39.130000
  H      40.559959     23.784251     39.566131
  C      41.200588     21.681013     39.867008
  H      41.701977     21.835191     40.836935
  O      39.878106     21.220150     40.244128
  H      39.326742     21.313882     39.456694
  C      43.918267     22.631288     36.436968
  O      44.633232     21.707249     35.992773
  O      43.824213     23.825142     36.063356
  N      40.832000     18.750000     42.551000
25
Coordinates from ORCA-job job E -836.537792953730
  C      44.760616     20.647991     40.468425
  H      44.975579     20.857056     39.426824
  H      45.494627     20.927420     41.221317
  C      43.624892     20.097431     40.893309
  C      43.248378     19.815260     42.332019
  O      43.493204     18.660436     42.779332
  O      42.538304     20.710981     42.882547
  O      42.553002     19.657420     40.120273
  C      41.953695     20.546323     39.133066
  H      41.197254     19.885073     38.678730
  C      42.892000     20.975000     38.054000
  H      43.489409     20.212959     37.553985
  C      42.969000     22.244000     37.605000
  C      42.118000     23.281000     38.202000
  H      42.228852     24.273513     37.766925
  C      41.188000     23.002000     39.130000
  H      40.565347     23.784372     39.567021
  C      41.196375     21.678033     39.861319
  H      41.689259     21.827616     40.832869
  O      39.869547     21.217112     40.233188
  H      39.308300     21.306776     39.454256
  C      43.911110     22.628121     36.434112
  O      44.692594     21.727204     36.053983
  O      43.931664     23.856128     36.169943
  N      40.832000     18.750000     42.551000
25
Coordinates from ORCA-job job E -836.540214338479
  C      44.785053     20.670074     40.412177
  H      44.985059     20.883132     39.368619
  H      45.521480     20.951992     41.161071
  C      43.660244     20.109785     40.849077
  C      43.306007     19.819992     42.283680
  O      43.552167     18.656632     42.717125
  O      42.604322     20.718815     42.849439
  O      42.573587     19.660816     40.099753
  C      41.953583     20.547181     39.125536
  H      41.204301     19.879547     38.672265
  C      42.892000     20.975000     38.054000
  H      43.489987     20.210710     37.559023
  C      42.969000     22.244000     37.605000
  C      42.118000     23.281000     38.202000
  H      42.227982     24.276124     37.774020
  C      41.188000     23.002000     39.130000
  H      40.568068     23.785137     39.567705
  C      41.194865     21.675390     39.857342
  H      41.680965     21.821926     40.831377
  O      39.865475     21.214450     40.225170
  H      39.295629     21.301721     39.452999
  C      43.912911     22.627962     36.439146
  O      44.604264     21.699504     35.959652
  O      43.871474     23.839473     36.104243
  N      40.832000     18.750000     42.551000
25
Coordinates from ORCA-job job E -836.540577203991
  C      44.764955     20.686770     40.464058
  H      44.977016     20.906335     39.419751
  H      45.496750     20.968738     41.222918
  C      43.636774     20.114736     40.887726
  C      43.256235     19.822503     42.324702
  O      43.498820     18.668326     42.765519
  O      42.535167     20.707426     42.876876
  O      42.569356     19.661190     40.117895
  C      41.958250     20.546578     39.135667
  H      41.200809     19.878536     38.683437
  C      42.892000     20.975000     38.054000
  H      43.491942     20.210686     37.555359
  C      42.969000     22.244000     37.605000
  C      42.118000     23.281000     38.202000
  H      42.229855     24.277165     37.769430
  C      41.188000     23.002000     39.130000
  H      40.562128     23.786942     39.567065
  C      41.196537     21.676281     39.861541
  H      41.683479     21.824560     40.840618
  O      39.871161     21.213455     40.225477
  H      39.314414     21.300486     39.440813
  C      43.925379     22.632621     36.450111
  O      44.624566     21.705430     35.985585
  O      43.859808     23.836099     36.097954
  N      40.832000     18.750000     42.551000
25
Coordinates from ORCA-job job E -836.540814315406
  C      44.770042     20.714226     40.457508
  H      44.980230     20.941162     39.416019
  H      45.495250     20.998659     41.219982
  C      43.649010     20.127713     40.877232
  C      43.271566     19.821027     42.308634
  O      43.514366     18.660829     42.736090
  O      42.550714     20.702887     42.870129
  O      42.581997     19.665543     40.111282
  C      41.959410     20.546971     39.133516
  H      41.207122     19.874176     38.683572
  C      42.892000     20.975000     38.054000
  H      43.491931     20.210186     37.558203
  C      42.969000     22.244000     37.605000
  C      42.118000     23.281000     38.202000
  H      42.228936     24.277504     37.772563
  C      41.188000     23.002000     39.130000
  H      40.563903     23.786474     39.566784
  C      41.194197     21.674628     39.859146
  H      41.674689     21.820834     40.840039
  O      39.866676     21.210476     40.217083
  H      39.309537     21.294053     39.433320
  C      43.924326     22.632062     36.450140
  O      44.623490     21.705387     35.982645
  O      43.884701     23.843586     36.119858
  N      40.832000     18.750000     42.551000
25
Coordinates from ORCA-job job E -836.540904730316
  C      44.767806     20.756154     40.465703
  H      44.978501     20.993539     39.427069
  H      45.483521     21.045288     41.234934
  C      43.656083     20.147036     40.877113
  C      43.273806     19.823008     42.302345
  O      43.517068     18.659330     42.717322
  O      42.545343     20.696765     42.868755
  O      42.596485     19.671945     40.109368
  C      41.962469     20.547359     39.134422
  H      41.213722     19.868632     38.688442
  C      42.892000     20.975000     38.054000
  H      43.492688     20.209765     37.560277
  C      42.969000     22.244000     37.605000
  C      42.118000     23.281000     38.202000
  H      42.228658     24.278049     37.774410
  C      41.188000     23.002000     39.130000
  H      40.563760     23.786222     39.566044
  C      41.191512     21.673171     39.857629
  H      41.664591     21.817555     40.841992
  O      39.862164     21.207362     40.206751
  H      39.309843     21.286728     39.419370
  C      43.926993     22.633121     36.453362
  O      44.621107     21.705185     35.980716
  O      43.899741     23.848232     36.134855
  N      40.832000     18.750000     42.551000
25
Coordinates from ORCA-job job E -836.540994167725
  C      44.759487     20.840054     40.490170
  H      44.971736     21.094018     39.455766
  H      45.457811     21.140598     41.271144
  C      43.666498     20.188370     40.886231
  C      43.271533     19.836452     42.301100
  O      43.518984     18.670595     42.699656
  O      42.523158     20.694088     42.868966
  O      42.624749     19.687132     40.111879
  C      41.970201     20.548277     39.139283
  H      41.226578     19.857505     38.702971
  C      42.892000     20.975000     38.054000
  H      43.494630     20.209429     37.562986
  C      42.969000     22.244000     37.605000
  C      42.118000     23.281000     38.202000
  H      42.229069     24.278785     37.776187
  C      41.188000     23.002000     39.130000
  H      40.562077     23.785714     39.564712
  C      41.186838     21.671192     39.855773
  H      41.645977     21.813073     40.847197
  O      39.854166     21.201993     40.186307
  H      39.315328     21.273752     39.388758
  C      43.932861     22.636003     36.458824
  O      44.619373     21.706344     35.979062
  O      43.916890     23.854384     36.153008
  N      40.832000     18.750000     42.551000
25
Coordinates from ORCA-job job E -836.541017300657
  C      44.752368     20.879591     40.505616
  H      44.965636     21.136626     39.472007
  H      45.443043     21.189309     41.289991
  C      43.667869     20.210630     40.896198
  C      43.265072     19.852871     42.307919
  O      43.519026     18.690015     42.707764
  O      42.503456     20.704068     42.868507
  O      42.636690     19.696078     40.116844
  C      41.974108     20.548580     39.142575
  H      41.232860     19.851600     38.711751
  C      42.892000     20.975000     38.054000
  H      43.495478     20.209741     37.563262
  C      42.969000     22.244000     37.605000
  C      42.118000     23.281000     38.202000
  H      42.229789     24.278725     37.775852
  C      41.188000     23.002000     39.130000
  H      40.560746     23.785195     39.564151
  C      41.184005     21.670529     39.854560
  H      41.636021     21.811349     40.849550
  O      39.849323     21.199687     40.174434
  H      39.319180     21.268505     39.370661
  C      43.933700     22.636971     36.458873
  O      44.617283     21.706772     35.976495
  O      43.917832     23.855582     36.154643
  N      40.832000     18.750000     42.551000
25
Coordinates from ORCA-job job E -836.541042257924
  C      44.741214     20.929623     40.527201
  H      44.956729     21.185346     39.493579
  H      45.422012     21.254668     41.314166
  C      43.666513     20.242118     40.912165
  C      43.252095     19.883359     42.320884
  O      43.518916     18.728043     42.730946
  O      42.469644     20.726952     42.864846
  O      42.650906     19.708992     40.125234
  C      41.978780     20.548709     39.146620
  H      41.241953     19.842577     38.723208
  C      42.892000     20.975000     38.054000
  H      43.496545     20.210457     37.563122
  C      42.969000     22.244000     37.605000
  C      42.118000     23.281000     38.202000
  H      42.231675     24.278556     37.775563
  C      41.188000     23.002000     39.130000
  H      40.559089     23.784382     39.563633
  C      41.178426     21.669301     39.851379
  H      41.618606     21.807706     40.852065
  O      39.840141     21.196492     40.153680
  H      39.323094     21.262399     39.341035
  C      43.933233     22.637689     36.457464
  O      44.613825     21.707068     35.972255
  O      43.916220     23.856262     36.153814
  N      40.832000     18.750000     42.551000
25
Coordinates from ORCA-job job E -836.541074858910
  C      44.722254     21.006217     40.559796
  H      44.942944     21.255841     39.525596
  H      45.386052     21.357412     41.350090
  C      43.661411     20.293623     40.936674
  C      43.228319     19.937004     42.340683
  O      43.518331     18.796581     42.772388
  O      42.410586     20.767305     42.854082
  O      42.671894     19.730135     40.138190
  C      41.984979     20.548760     39.151608
  H      41.257458     19.826968     38.739270
  C      42.892000     20.975000     38.054000
  H      43.498373     20.211569     37.563228
  C      42.969000     22.244000     37.605000
  C      42.118000     23.281000     38.202000
  H      42.235532     24.278631     37.776636
  C      41.188000     23.002000     39.130000
  H      40.557304     23.783276     39.563173
  C      41.166810     21.666330     39.843702
  H      41.583813     21.798571     40.855010
  O      39.821962     21.190701     40.112858
  H      39.326810     21.253490     39.286352
  C      43.932304     22.638442     36.455744
  O      44.608777     21.707282     35.966250
  O      43.915936     23.857456     36.154337
  N      40.832000     18.750000     42.551000
25
Coordinates from ORCA-job job E -836.541119083695
  C      44.707650     21.061240     40.582881
  H      44.934160     21.301480     39.547637
  H      45.357502     21.434374     41.374609
  C      43.654811     20.334561     40.954497
  C      43.206279     19.984255     42.355110
  O      43.517365     18.859581     42.810432
  O      42.358071     20.802757     42.839099
  O      42.686667     19.747025     40.147674
  C      41.988377     20.548531     39.153874
  H      41.270461     19.813357     38.749432
  C      42.892000     20.975000     38.054000
  H      43.499822     20.212487     37.563490
  C      42.969000     22.244000     37.605000
  C      42.118000     23.281000     38.202000
  H      42.239325     24.279104     37.778793
  C      41.188000     23.002000     39.130000
  H      40.556527     23.782644     39.563046
  C      41.154273     21.662799     39.834553
  H      41.547794     21.787038     40.856100
  O      39.803259     21.185871     40.070756
  H      39.327071     21.249221     39.233230
  C      43.931826     22.638683     36.455227
  O      44.605890     21.707296     35.962876
  O      43.917361     23.858304     36.156034
  N      40.832000     18.750000     42.551000
25
Coordinates from ORCA-job job E -836.541162287973
  C      44.697271     21.100209     40.598180
  H      44.928519     21.334253     39.562512
  H      45.336313     21.488278     41.391452
  C      43.649880     20.363863     40.965723
  C      43.190614     20.017146     42.363629
  O      43.516621     18.904354     42.835295
  O      42.320453     20.825622     42.826858
  O      42.696962     19.759345     40.153811
  C      41.990360     20.548459     39.155003
  H      41.279765     19.803703     38.755890
  C      42.892000     20.975000     38.054000
  H      43.501063     20.213010     37.564186
  C      42.969000     22.244000     37.605000
  C      42.118000     23.281000     38.202000
  H      42.241814     24.279626     37.780810
  C      41.188000     23.002000     39.130000
  H      40.556147     23.782371     39.562874
  C      41.144667     21.659827     39.827302
  H      41.520238     21.777172     40.856339
  O      39.789520     21.182194     40.038203
  H      39.327256     21.247158     39.193055
  C      43.932417     22.638947     36.455895
  O      44.604988     21.707373     35.961807
  O      43.920403     23.859197     36.159025
  N      40.832000     18.750000     42.551000
25
Coordinates from ORCA-job job E -836.541213779067
  C      44.686369     21.139122     40.612948
  H      44.922634     21.367307     39.577052
  H      45.314204     21.541736     41.407864
  C      43.644558     20.393101     40.976460
  C      43.174705     20.049725     42.371658
  O      43.515446     18.949476     42.859733
  O      42.282863     20.847376     42.813899
  O      42.706914     19.771879     40.159947
  C      41.992242     20.548441     39.156090
  H      41.288931     19.794350     38.762260
  C      42.892000     20.975000     38.054000
  H      43.502428     20.213521     37.565050
  C      42.969000     22.244000     37.605000
  C      42.118000     23.281000     38.202000
  H      42.244150     24.280172     37.782828
  C      41.188000     23.002000     39.130000
  H      40.555749     23.782162     39.562618
  C      41.135156     21.656784     39.819968
  H      41.492883     21.766918     40.856113
  O      39.776361     21.178558     40.005471
  H      39.328009     21.245811     39.153045
  C      43.933187     22.639275     36.456683
  O      44.604364     21.707511     35.961024
  O      43.923364     23.860073     36.161960
  N      40.832000     18.750000     42.551000
25
Coordinates from ORCA-job job E -836.541275947077
  C      44.674943     21.178105     40.627569
  H      44.916486     21.401068     39.591695
  H      45.291158     21.594694     41.424346
  C      43.638884     20.422209     40.986832
  C      43.158749     20.081352     42.379185
  O      43.513831     18.993976     42.883207
  O      42.245925     20.867576     42.800735
  O      42.716615     19.784672     40.165993
  C      41.994026     20.548505     39.157089
  H      41.297996     19.785277     38.768552
  C      42.892000     20.975000     38.054000
  H      43.503808     20.214007     37.565995
  C      42.969000     22.244000     37.605000
  C      42.118000     23.281000     38.202000
  H      42.246366     24.280735     37.784883
  C      41.188000     23.002000     39.130000
  H      40.555386     23.781964     39.562351
  C      41.125740     21.653716     39.812513
  H      41.465648     21.756227     40.855387
  O      39.763779     21.174992     39.972494
  H      39.329286     21.245116     39.113154
  C      43.934084     22.639615     36.457563
  O      44.603889     21.707661     35.960388
  O      43.926451     23.860948     36.164979
  N      40.832000     18.750000     42.551000
25
Coordinates from ORCA-job job E -836.541349866421
  C      44.663176     21.216008     40.641273
  H      44.909899     21.434171     39.605549
  H      45.267879     21.645911     41.439767
  C      43.632878     20.450512     40.996462
  C      43.142949     20.111777     42.385986
  O      43.511934     19.037677     42.905742
  O      42.210049     20.886235     42.787104
  O      42.725778     19.797356     40.171733
  C      41.995625     20.548590     39.157920
  H      41.306773     19.776575     38.774598
  C      42.892000     20.975000     38.054000
  H      43.505192     20.214483     37.566966
  C      42.969000     22.244000     37.605000
  C      42.118000     23.281000     38.202000
  H      42.248532     24.281322     37.786945
  C      41.188000     23.002000     39.130000
  H      40.555015     23.781781     39.562087
  C      41.116408     21.650621     39.804869
  H      41.438546     21.745091     40.854096
  O      39.751730     21.171623     39.939223
  H      39.331079     21.245185     39.073312
  C      43.934993     22.639964     36.458426
  O      44.603428     21.707808     35.959773
  O      43.929487     23.861802     36.167933
  N      40.832000     18.750000     42.551000
25
Coordinates from ORCA-job job E -836.541437837153
  C      44.650982     21.253481     40.654640
  H      44.902983     21.467421     39.619265
  H      45.243971     21.696119     41.454937
  C      43.626572     20.478312     41.005633
  C      43.127291     20.141051     42.392261
  O      43.509747     19.080537     42.927396
  O      42.175181     20.903397     42.773311
  O      42.734591     19.810081     40.177276
  C      41.997115     20.548703     39.158635
  H      41.315391     19.768159     38.780472
  C      42.892000     20.975000     38.054000
  H      43.506628     20.214968     37.568000
  C      42.969000     22.244000     37.605000
  C      42.118000     23.281000     38.202000
  H      42.250631     24.281891     37.789009
  C      41.188000     23.002000     39.130000
  H      40.554625     23.781602     39.561773
  C      41.107194     21.647493     39.797109
  H      41.411580     21.733518     40.852354
  O      39.740261     21.168356     39.905699
  H      39.333415     21.245820     39.033560
  C      43.935909     22.640315     36.459308
  O      44.602836     21.707912     35.959075
  O      43.932701     23.862661     36.171013
  N      40.832000     18.750000     42.551000
25
Coordinates from ORCA-job job E -836.541544867467
  C      44.638375     21.290203     40.667697
  H      44.895700     21.500773     39.632916
  H      45.219464     21.744757     41.470010
  C      43.619996     20.505225     41.014201
  C      43.111882     20.168654     42.397786
  O      43.507415     19.122005     42.947838
  O      42.141660     20.918803     42.759254
  O      42.742991     19.822670     40.182412
  C      41.998445     20.548846     39.159201
  H      41.323730     19.760126     38.786082
  C      42.892000     20.975000     38.054000
  H      43.508075     20.215424     37.569084
  C      42.969000     22.244000     37.605000
  C      42.118000     23.281000     38.202000
  H      42.252691     24.282467     37.791136
  C      41.188000     23.002000     39.130000
  H      40.554235     23.781404     39.561448
  C      41.098135     21.644356     39.789266
  H      41.384808     21.721428     40.850152
  O      39.729419     21.165300     39.871979
  H      39.336302     21.247090     38.993973
  C      43.936501     22.640684     36.460014
  O      44.601516     21.707969     35.957698
  O      43.935947     23.863521     36.174061
  N      40.832000     18.750000     42.551000
25
Coordinates from ORCA-job job E -836.541681324394
  C      44.625463     21.325344     40.679980
  H      44.888325     21.533114     39.646005
  H      45.194537     21.790952     41.484543
  C      43.613037     20.530724     41.021772
  C      43.096500     20.194644     42.402240
  O      43.504866     19.162514     42.967325
  O      42.109318     20.932844     42.744113
  O      42.750720     19.834718     40.186763
  C      41.999472     20.548892     39.159421
  H      41.331542     19.752533     38.790997
  C      42.892000     20.975000     38.054000
  H      43.509513     20.215868     37.570215
  C      42.969000     22.244000     37.605000
  C      42.118000     23.281000     38.202000
  H      42.254747     24.283077     37.793345
  C      41.188000     23.002000     39.130000
  H      40.553788     23.781189     39.561070
  C      41.089238     21.641118     39.781329
  H      41.358419     21.708422     40.847530
  O      39.719194     21.162449     39.838118
  H      39.339636     21.249014     38.954636
  C      43.936667     22.641029     36.460485
  O      44.599328     21.707981     35.955440
  O      43.939273     23.864269     36.176834
  N      40.832000     18.750000     42.551000
25
Coordinates from ORCA-job job E -836.541860335356
  C      44.611472     21.360088     40.691936
  H      44.880399     21.565665     39.659088
  H      45.167695     21.836360     41.499208
  C      43.605278     20.555437     41.028485
  C      43.080426     20.219929     42.405693
  O      43.501815     19.203615     42.986649
  O      42.077067     20.946266     42.727178
  O      42.757891     19.846332     40.190331
  C      42.000224     20.548798     39.159284
  H      41.338880     19.745340     38.795122
  C      42.892000     20.975000     38.054000
  H      43.511101     20.216301     37.571542
  C      42.969000     22.244000     37.605000
  C      42.118000     23.281000     38.202000
  H      42.256660     24.283687     37.795552
  C      41.188000     23.002000     39.130000
  H      40.553187     23.780907     39.560537
  C      41.080576     21.637731     39.773395
  H      41.332651     21.694304     40.844541
  O      39.709697     21.159678     39.804377
  H      39.343360     21.251431     38.915877
  C      43.936573     22.641371     36.461022
  O      44.596914     21.708119     35.952857
  O      43.942828     23.864843     36.179253
  N      40.832000     18.750000     42.551000
25
Coordinates from ORCA-job job E -836.542091509795
  C      44.596930     21.394118     40.703620
  H      44.872444     21.598342     39.672255
  H      45.139644     21.880220     41.514208
  C      43.597158     20.579112     41.034307
  C      43.064339     20.243852     42.408144
  O      43.498673     19.244345     43.005261
  O      42.045800     20.958556     42.708834
  O      42.764749     19.857488     40.193094
  C      42.000784     20.548613     39.158886
  H      41.345771     19.738569     38.798590
  C      42.892000     20.975000     38.054000
  H      43.512741     20.216699     37.573021
  C      42.969000     22.244000     37.605000
  C      42.118000     23.281000     38.202000
  H      42.258359     24.284313     37.797703
  C      41.188000     23.002000     39.130000
  H      40.552417     23.780581     39.559826
  C      41.072206     21.634274     39.765543
  H      41.307572     21.679163     40.841246
  O      39.700967     21.157200     39.770968
  H      39.347420     21.254504     38.877912
  C      43.936313     22.641702     36.461767
  O      44.594840     21.708526     35.950483
  O      43.946342     23.865171     36.181121
  N      40.832000     18.750000     42.551000
25
Coordinates from ORCA-job job E -836.542378787970
  C      44.582083     21.427423     40.714923
  H      44.864542     21.631160     39.685366
  H      45.110778     21.922478     41.529342
  C      43.588961     20.601760     41.039235
  C      43.048654     20.266306     42.409739
  O      43.495590     19.284383     43.023102
  O      42.015931     20.969600     42.689392
  O      42.771464     19.868291     40.195109
  C      42.001211     20.548396     39.158282
  H      41.352278     19.732219     38.801580
  C      42.892000     20.975000     38.054000
  H      43.514456     20.217054     37.574667
  C      42.969000     22.244000     37.605000
  C      42.118000     23.281000     38.202000
  H      42.259832     24.284931     37.799798
  C      41.188000     23.002000     39.130000
  H      40.551592     23.780204     39.559074
  C      41.064163     21.630805     39.757781
  H      41.283302     21.663074     40.837594
  O      39.693020     21.155061     39.737980
  H      39.351810     21.258233     38.840824
  C      43.936086     22.641994     36.462877
  O      44.593504     21.709182     35.948721
  O      43.949847     23.865281     36.182589
  N      40.832000     18.750000     42.551000
25
Coordinates from ORCA-job job E -836.542719498366
  C      44.566497     21.461120     40.726397
  H      44.856179     21.665314     39.698974
  H      45.080486     21.964485     41.545116
  C      43.580530     20.624161     41.043799
  C      43.033292     20.287859     42.411060
  O      43.492532     19.324196     43.040572
  O      41.987144     20.979629     42.669553
  O      42.778259     19.879199     40.196825
  C      42.001651     20.548240     39.157661
  H      41.358639     19.726156     38.804491
  C      42.892000     20.975000     38.054000
  H      43.516270     20.217387     37.576486
  C      42.969000     22.244000     37.605000
  C      42.118000     23.281000     38.202000
  H      42.261059     24.285532     37.801777
  C      41.188000     23.002000     39.130000
  H      40.550673     23.779798     39.558227
  C      41.056472     21.627392     39.750158
  H      41.259828     21.646427     40.833654
  O      39.685891     21.153188     39.705422
  H      39.356648     21.262422     38.804544
  C      43.935812     22.642213     36.464202
  O      44.592759     21.710046     35.947426
  O      43.953165     23.865189     36.183637
  N      40.832000     18.750000     42.551000
25
Coordinates from ORCA-job job E -836.543106618111
  C      44.550310     21.495312     40.738222
  H      44.847338     21.700917     39.713220
  H      45.049051     22.006319     41.561611
  C      43.572071     20.646403     41.048239
  C      43.018604     20.308369     42.412438
  O      43.489658     19.363271     43.057620
  O      41.959828     20.988482     42.650033
  O      42.785328     19.890389     40.198443
  C      42.002214     20.548221     39.157145
  H      41.365037     19.720336     38.807624
  C      42.892000     20.975000     38.054000
  H      43.518127     20.217691     37.578423
  C      42.969000     22.244000     37.605000
  C      42.118000     23.281000     38.202000
  H      42.262064     24.286122     37.803645
  C      41.188000     23.002000     39.130000
  H      40.549728     23.779378     39.557355
  C      41.049113     21.624092     39.742649
  H      41.237062     21.629550     40.829365
  O      39.679534     21.151632     39.673271
  H      39.361929     21.267059     38.769014
  C      43.935544     22.642373     36.465727
  O      44.592612     21.711083     35.946640
  O      43.956245     23.864963     36.184387
  N      40.832000     18.750000     42.551000
25
Coordinates from ORCA-job job E -836.543530089449
  C      44.533510     21.530223     40.750568
  H      44.837866     21.738117     39.728217
  H      45.016621     22.048230     41.578887
  C      43.563638     20.668726     41.052837
  C      43.004728     20.327998     42.414231
  O      43.486951     19.401452     43.074378
  O      41.934115     20.996305     42.631447
  O      42.792793     19.902098     40.200229
  C      42.003007     20.548408     39.156877
  H      41.371640     19.714694     38.811309
  C      42.892000     20.975000     38.054000
  H      43.520001     20.217967     37.580452
  C      42.969000     22.244000     37.605000
  C      42.118000     23.281000     38.202000
  H      42.262893     24.286679     37.805384
  C      41.188000     23.002000     39.130000
  H      40.548720     23.778944     39.556405
  C      41.042078     21.620945     39.735274
  H      41.214865     21.612793     40.824786
  O      39.673965     21.150338     39.641409
  H      39.367802     21.272013     38.734049
  C      43.935277     22.642461     36.467330
  O      44.592955     21.712221     35.946276
  O      43.959014     23.864606     36.184812
  N      40.832000     18.750000     42.551000
25
Coordinates from ORCA-job job E -836.543978880871
  C      44.515855     21.566234     40.763579
  H      44.827398     21.777165     39.744051
  H      44.982991     22.090785     41.596932
  C      43.555126     20.691441     41.057845
  C      42.991517     20.347067     42.416715
  O      43.484237     19.438859     43.091019
  O      41.909714     21.003276     42.614169
  O      42.800703     19.914533     40.202398
  C      42.004078     20.548856     39.156932
  H      41.378563     19.709190     38.815761
  C      42.892000     20.975000     38.054000
  H      43.521900     20.218240     37.582545
  C      42.969000     22.244000     37.605000
  C      42.118000     23.281000     38.202000
  H      42.263536     24.287191     37.806994
  C      41.188000     23.002000     39.130000
  H      40.547733     23.778520     39.555459
  C      41.035343     21.617978     39.728023
  H      41.193143     21.596455     40.819878
  O      39.669156     21.149263     39.609778
  H      39.374329     21.277180     38.699547
  C      43.934965     22.642533     36.468905
  O      44.593617     21.713454     35.946192
  O      43.961370     23.864216     36.184975
  N      40.832000     18.750000     42.551000
25
Coordinates from ORCA-job job E -836.544443659253
  C      44.497463     21.603233     40.777177
  H      44.815923     21.817855     39.760593
  H      44.948483     22.133835     41.615566
  C      43.546660     20.714536     41.063282
  C      42.979096     20.365561     42.419904
  O      43.481506     19.475149     43.107360
  O      41.886795     21.009483     42.598406
  O      42.809111     19.927765     40.204972
  C      42.005443     20.549601     39.157351
  H      41.385822     19.703815     38.821137
  C      42.892000     20.975000     38.054000
  H      43.523780     20.218490     37.584690
  C      42.969000     22.244000     37.605000
  C      42.118000     23.281000     38.202000
  H      42.264093     24.287684     37.808504
  C      41.188000     23.002000     39.130000
  H      40.546796     23.778111     39.554537
  C      41.028895     21.615229     39.720906
  H      41.171887     21.580772     40.814724
  O      39.665076     21.148459     39.578369
  H      39.381537     21.282580     38.665468
  C      43.934695     22.642597     36.470475
  O      44.594626     21.714714     35.946473
  O      43.963419     23.863812     36.185010
  N      40.832000     18.750000     42.551000
25
Coordinates from ORCA-job job E -836.544915939012
  C      44.477338     21.642519     40.791785
  H      44.802554     21.861343     39.778261
  H      44.911676     22.179137     41.635137
  C      43.537618     20.738977     41.069579
  C      42.966585     20.384539     42.424164
  O      43.478178     19.511597     43.124024
  O      41.864104     21.015533     42.584195
  O      42.818010     19.942209     40.208327
  C      42.007181     20.550677     39.158238
  H      41.393626     19.698492     38.827661
  C      42.892000     20.975000     38.054000
  H      43.525677     20.218752     37.586879
  C      42.969000     22.244000     37.605000
  C      42.118000     23.281000     38.202000
  H      42.264526     24.288130     37.809866
  C      41.188000     23.002000     39.130000
  H      40.545888     23.777733     39.553617
  C      41.022767     21.612709     39.713967
  H      41.151109     21.566074     40.809373
  O      39.661793     21.147739     39.547204
  H      39.389631     21.287906     38.631782
  C      43.934379     22.642663     36.471911
  O      44.595827     21.716033     35.946920
  O      43.965022     23.863438     36.184866
  N      40.832000     18.750000     42.551000
25
Coordinates from ORCA-job job E -836.545561780650
  C      44.444073     21.706067     40.813580
  H      44.777696     21.928507     39.803545
  H      44.854156     22.254807     41.661272
  C      43.523321     20.779913     41.081817
  C      42.944749     20.417263     42.432345
  O      43.468130     19.569261     43.150330
  O      41.826019     21.025982     42.564361
  O      42.832785     19.966305     40.215941
  C      42.011099     20.552577     39.160734
  H      41.407437     19.689607     38.840863
  C      42.892000     20.975000     38.054000
  H      43.528473     20.219367     37.589602
  C      42.969000     22.244000     37.605000
  C      42.118000     23.281000     38.202000
  H      42.266026     24.288585     37.811568
  C      41.188000     23.002000     39.130000
  H      40.544173     23.776801     39.552564
  C      41.013683     21.608807     39.703120
  H      41.118479     21.546822     40.800445
  O      39.657803     21.144920     39.499881
  H      39.403654     21.291440     38.580284
  C      43.934224     22.643114     36.473226
  O      44.597203     21.717919     35.947144
  O      43.965931     23.863458     36.184616
  N      40.832000     18.750000     42.551000
25
Coordinates from ORCA-job job E -836.546464046361
  C      44.388900     21.807707     40.847873
  H      44.733412     22.034738     39.842451
  H      44.762661     22.375933     41.699513
  C      43.500019     20.847077     41.103927
  C      42.909733     20.469223     42.447238
  O      43.447606     19.654692     43.188421
  O      41.768039     21.041870     42.540460
  O      42.856330     20.007236     40.231025
  C      42.018717     20.556777     39.166680
  H      41.430783     19.676524     38.866207
  C      42.892000     20.975000     38.054000
  H      43.532088     20.220172     37.593112
  C      42.969000     22.244000     37.605000
  C      42.118000     23.281000     38.202000
  H      42.268929     24.289106     37.813924
  C      41.188000     23.002000     39.130000
  H      40.541722     23.775225     39.551513
  C      41.001065     21.603602     39.686973
  H      41.069642     21.522349     40.785962
  O      39.654636     21.140355     39.430000
  H      39.428573     21.293181     38.504113
  C      43.933742     22.643900     36.474045
  O      44.598048     21.720258     35.946577
  O      43.966130     23.863829     36.184159
  N      40.832000     18.750000     42.551000
25
Coordinates from ORCA-job job E -836.548019828464
  C      44.316553     21.927076     40.898141
  H      44.681576     22.182046     39.907066
  H      44.634549     22.497359     41.770708
  C      43.470022     20.917550     41.120770
  C      42.889159     20.512352     42.466675
  O      43.449817     19.751116     43.236036
  O      41.732082     21.051816     42.514918
  O      42.882291     20.060686     40.240940
  C      42.023050     20.564703     39.171268
  H      41.452609     19.667258     38.889437
  C      42.892000     20.975000     38.054000
  H      43.539223     20.220464     37.603264
  C      42.969000     22.244000     37.605000
  C      42.118000     23.281000     38.202000
  H      42.265826     24.290675     37.817196
  C      41.188000     23.002000     39.130000
  H      40.540206     23.775830     39.546706
  C      40.985654     21.599771     39.668296
  H      41.015230     21.478943     40.765956
  O      39.656660     21.149348     39.335425
  H      39.461356     21.333583     38.408508
  C      43.931642     22.643288     36.480136
  O      44.610551     21.726268     35.956632
  O      43.967008     23.859955     36.177393
  N      40.832000     18.750000     42.551000
25
Coordinates from ORCA-job job E -836.549401575923
  C      44.131087     22.175929     40.969641
  H      44.520637     22.454183     39.994323
  H      44.348439     22.778751     41.850987
  C      43.389527     21.079485     41.163439
  C      42.791582     20.635330     42.497052
  O      43.375385     19.958174     43.317123
  O      41.592584     21.075681     42.450859
  O      42.930599     20.170028     40.274399
  C      42.038979     20.578837     39.186491
  H      41.507187     19.645247     38.955562
  C      42.892000     20.975000     38.054000
  H      43.545042     20.220862     37.611687
  C      42.969000     22.244000     37.605000
  C      42.118000     23.281000     38.202000
  H      42.268366     24.291997     37.822517
  C      41.188000     23.002000     39.130000
  H      40.538159     23.774552     39.544696
  C      40.960723     21.590776     39.634766
  H      40.919522     21.436005     40.727899
  O      39.662934     21.144812     39.192721
  H      39.521475     21.349848     38.260886
  C      43.928585     22.644468     36.481636
  O      44.620126     21.733542     35.962255
  O      43.959504     23.859369     36.170017
  N      40.832000     18.750000     42.551000
25
Coordinates from ORCA-job job E -836.549743049344
  C      43.966413     22.395226     41.018754
  H      44.366655     22.678821     40.048348
  H      44.117197     23.032504     41.890580
  C      43.319124     21.239409     41.211472
  C      42.712657     20.757205     42.533684
  O      43.303499     20.131498     43.383751
  O      41.492148     21.123210     42.424766
  O      42.970542     20.286767     40.318928
  C      42.059981     20.593263     39.202239
  H      41.573168     19.622789     39.030771
  C      42.892000     20.975000     38.054000
  H      43.548258     20.221462     37.613159
  C      42.969000     22.244000     37.605000
  C      42.118000     23.281000     38.202000
  H      42.281905     24.293541     37.830345
  C      41.188000     23.002000     39.130000
  H      40.531633     23.768595     39.548011
  C      40.932136     21.572420     39.579469
  H      40.788161     21.378121     40.656362
  O      39.685745     21.119007     39.012454
  H      39.621907     21.326253     38.071932
  C      43.923032     22.646035     36.474893
  O      44.616244     21.736773     35.956961
  O      43.934166     23.858194     36.152540
  N      40.832000     18.750000     42.551000
25
Coordinates from ORCA-job job E -836.548346243026
  C      43.800963     22.498559     41.080799
  H      44.241663     22.874080     40.162398
  H      43.878610     23.058583     42.012767
  C      43.254050     21.268992     41.188809
  C      42.697810     20.803211     42.565501
  O      43.292051     20.258230     43.456730
  O      41.492848     21.153815     42.376651
  O      42.976002     20.339627     40.300955
  C      42.042809     20.604368     39.200215
  H      41.569585     19.628334     39.030724
  C      42.892000     20.975000     38.054000
  H      43.537049     20.213393     37.615609
  C      42.969000     22.244000     37.605000
  C      42.118000     23.281000     38.202000
  H      42.253926     24.298965     37.839233
  C      41.188000     23.002000     39.130000
  H      40.558914     23.790704     39.544779
  C      40.922145     21.587807     39.594631
  H      40.811915     21.420007     40.679108
  O      39.683088     21.156954     39.019769
  H      39.605688     21.438132     38.101893
  C      43.894186     22.634485     36.471435
  O      44.646935     21.749118     35.985645
  O      43.875222     23.832965     36.090853
  N      40.832000     18.750000     42.551000
25
Coordinates from ORCA-job job E -836.550883793058
  C      43.839026     22.488931     41.072727
  H      44.272679     22.809665     40.130973
  H      43.944576     23.101483     41.967402
  C      43.262884     21.284476     41.224688
  C      42.675892     20.789518     42.563693
  O      43.279531     20.182462     43.417669
  O      41.452241     21.119889     42.422400
  O      42.979814     20.334118     40.325822
  C      42.056319     20.604922     39.213128
  H      41.582983     19.626640     39.058828
  C      42.892000     20.975000     38.054000
  H      43.532958     20.214912     37.605341
  C      42.969000     22.244000     37.605000
  C      42.118000     23.281000     38.202000
  H      42.272459     24.296167     37.837460
  C      41.188000     23.002000     39.130000
  H      40.551566     23.781461     39.550871
  C      40.930004     21.588595     39.595032
  H      40.805171     21.448525     40.679996
  O      39.682805     21.141307     39.034804
  H      39.640807     21.369083     38.098709
  C      43.894911     22.638236     36.454402
  O      44.604520     21.734627     35.946570
  O      43.886889     23.847824     36.115363
  N      40.832000     18.750000     42.551000
25
Coordinates from ORCA-job job E -836.551292273484
  C      43.852486     22.498835     41.069315
  H      44.280725     22.802896     40.118047
  H      43.950738     23.139310     41.945252
  C      43.271403     21.301930     41.237454
  C      42.658093     20.811332     42.559480
  O      43.250963     20.197991     43.418885
  O      41.437512     21.147644     42.414171
  O      42.993155     20.344761     40.334183
  C      42.066433     20.602841     39.216911
  H      41.599533     19.619081     39.072873
  C      42.892000     20.975000     38.054000
  H      43.532333     20.217333     37.599414
  C      42.969000     22.244000     37.605000
  C      42.118000     23.281000     38.202000
  H      42.281105     24.295110     37.836396
  C      41.188000     23.002000     39.130000
  H      40.545187     23.776344     39.552509
  C      40.931204     21.576384     39.585260
  H      40.783190     21.413859     40.667425
  O      39.701281     21.117557     38.992914
  H      39.700744     21.326641     38.050552
  C      43.893799     22.640515     36.446438
  O      44.581511     21.729006     35.926890
  O      43.887033     23.852359     36.120681
  N      40.832000     18.750000     42.551000
25
Coordinates from ORCA-job job E -836.551620055144
  C      43.802555     22.537391     41.097043
  H      44.224255     22.877496     40.155345
  H      43.878980     23.156701     41.989871
  C      43.263568     21.317095     41.238658
  C      42.670797     20.789271     42.556470
  O      43.279574     20.155331     43.386372
  O      41.451630     21.131446     42.436618
  O      43.012315     20.367148     40.327877
  C      42.070826     20.605847     39.219748
  H      41.613857     19.616713     39.085366
  C      42.892000     20.975000     38.054000
  H      43.530009     20.216244     37.599019
  C      42.969000     22.244000     37.605000
  C      42.118000     23.281000     38.202000
  H      42.279030     24.296078     37.839318
  C      41.188000     23.002000     39.130000
  H      40.547028     23.777848     39.551218
  C      40.930128     21.573738     39.582117
  H      40.773618     21.406089     40.661684
  O      39.711186     21.114919     38.970555
  H      39.737275     21.326450     38.029143
  C      43.889592     22.641152     36.443485
  O      44.553075     21.724366     35.901758
  O      43.908484     23.858735     36.141073
  N      40.832000     18.750000     42.551000
25
Coordinates from ORCA-job job E -836.552336948112
  C      43.729323     22.613570     41.162355
  H      44.171076     22.980658     40.240303
  H      43.772789     23.216380     42.068560
  C      43.232216     21.371708     41.270648
  C      42.627795     20.813006     42.573654
  O      43.237538     20.168095     43.394369
  O      41.411033     21.146884     42.446944
  O      43.040316     20.426666     40.347605
  C      42.085041     20.620175     39.242749
  H      41.644429     19.620587     39.136760
  C      42.892000     20.975000     38.054000
  H      43.522924     20.213291     37.594538
  C      42.969000     22.244000     37.605000
  C      42.118000     23.281000     38.202000
  H      42.274749     24.295803     37.837051
  C      41.188000     23.002000     39.130000
  H      40.549036     23.781367     39.546676
  C      40.935233     21.582955     39.593359
  H      40.778899     21.434648     40.674310
  O      39.721807     21.121595     38.972666
  H      39.780528     21.337970     38.033498
  C      43.879895     22.641569     36.433088
  O      44.494620     21.713779     35.854179
  O      43.938898     23.866183     36.170492
  N      40.832000     18.750000     42.551000
25
Coordinates from ORCA-job job E -836.554077959512
  C      43.637365     22.726142     41.274800
  H      44.108727     23.134079     40.384241
  H      43.639216     23.298203     42.202028
  C      43.191563     21.462178     41.326793
  C      42.558960     20.841630     42.596174
  O      43.166986     20.165581     43.394857
  O      41.349172     21.178361     42.472328
  O      43.089023     20.534615     40.378448
  C      42.115275     20.643908     39.279682
  H      41.704945     19.627036     39.222014
  C      42.892000     20.975000     38.054000
  H      43.509829     20.208965     37.584768
  C      42.969000     22.244000     37.605000
  C      42.118000     23.281000     38.202000
  H      42.268522     24.293291     37.826960
  C      41.188000     23.002000     39.130000
  H      40.542156     23.782462     39.533948
  C      40.945254     21.591705     39.603589
  H      40.776935     21.460561     40.683425
  O      39.749988     21.110574     38.960049
  H      39.843238     21.337854     38.025494
  C      43.876800     22.648738     36.424161
  O      44.387360     21.704108     35.775267
  O      44.022492     23.878510     36.249399
  N      40.832000     18.750000     42.551000
25
Coordinates from ORCA-job job E -836.554124576727
  C      43.604228     22.820751     41.462575
  H      44.122606     23.285646     40.625705
  H      43.586067     23.321828     42.430592
  C      43.174566     21.554466     41.409652
  C      42.484836     20.842871     42.622171
  O      43.081255     20.089069     43.365631
  O      41.297609     21.228881     42.537979
  O      43.157148     20.680900     40.414628
  C      42.165331     20.680156     39.336285
  H      41.794262     19.644821     39.335674
  C      42.892000     20.975000     38.054000
  H      43.482717     20.201446     37.564476
  C      42.969000     22.244000     37.605000
  C      42.118000     23.281000     38.202000
  H      42.252619     24.286312     37.801573
  C      41.188000     23.002000     39.130000
  H      40.526392     23.783318     39.507300
  C      40.970972     21.610677     39.633679
  H      40.808112     21.517297     40.715794
  O      39.792097     21.084744     38.989924
  H      39.894466     21.330951     38.060016
  C      43.891603     22.660683     36.418851
  O      44.243656     21.708760     35.684907
  O      44.156607     23.876855     36.386343
  N      40.832000     18.750000     42.551000
25
Coordinates from ORCA-job job E -836.555495643048
  C      43.654045     22.784763     41.397924
  H      44.155470     23.227485     40.539339
  H      43.643272     23.310687     42.352903
  C      43.194907     21.528433     41.376570
  C      42.511601     20.849924     42.607510
  O      43.112180     20.131134     43.378788
  O      41.314444     21.216318     42.507596
  O      43.139549     20.636826     40.392918
  C      42.150234     20.663216     39.311805
  H      41.765636     19.633063     39.290810
  C      42.892000     20.975000     38.054000
  H      43.491855     20.203790     37.570437
  C      42.969000     22.244000     37.605000
  C      42.118000     23.281000     38.202000
  H      42.261761     24.289298     37.812113
  C      41.188000     23.002000     39.130000
  H      40.525809     23.779605     39.515311
  C      40.961968     21.596476     39.614778
  H      40.792847     21.478076     40.694575
  O      39.782752     21.076495     38.969152
  H      39.852352     21.321311     38.036690
  C      43.895171     22.656167     36.425185
  O      44.318270     21.707063     35.727108
  O      44.100650     23.882599     36.335956
  N      40.832000     18.750000     42.551000
25
Coordinates from ORCA-job job E -836.555946727627
  C      43.641231     22.803388     41.405520
  H      44.131511     23.259268     40.547768
  H      43.613739     23.323018     42.363365
  C      43.188717     21.547379     41.372931
  C      42.510980     20.854784     42.598497
  O      43.123477     20.139823     43.360205
  O      41.307623     21.206544     42.508867
  O      43.148129     20.655319     40.385789
  C      42.152316     20.663233     39.311063
  H      41.773756     19.631680     39.298562
  C      42.892000     20.975000     38.054000
  H      43.490437     20.201668     37.571576
  C      42.969000     22.244000     37.605000
  C      42.118000     23.281000     38.202000
  H      42.266159     24.291100     37.819308
  C      41.188000     23.002000     39.130000
  H      40.523956     23.776855     39.517203
  C      40.959304     21.588362     39.606327
  H      40.778140     21.454759     40.683034
  O      39.788472     21.064939     38.952665
  H      39.852487     21.311206     38.020906
  C      43.895713     22.649492     36.422257
  O      44.315062     21.706864     35.717264
  O      44.114656     23.875987     36.340450
  N      40.832000     18.750000     42.551000
25
Coordinates from ORCA-job job E -836.556318349866
  C      43.775477     22.730740     41.431957
  H      44.269045     23.185564     40.575379
  H      43.777668     23.226393     42.402744
  C      43.242381     21.512506     41.370191
  C      42.544639     20.823142     42.593269
  O      43.156243     20.082445     43.334186
  O      41.346834     21.200775     42.541546
  O      43.159545     20.636973     40.367337
  C      42.156194     20.655282     39.307044
  H      41.772093     19.625813     39.281509
  C      42.892000     20.975000     38.054000
  H      43.485259     20.199826     37.568472
  C      42.969000     22.244000     37.605000
  C      42.118000     23.281000     38.202000
  H      42.264543     24.291371     37.819554
  C      41.188000     23.002000     39.130000
  H      40.518243     23.773519     39.514263
  C      40.967745     21.583536     39.613797
  H      40.803123     21.450248     40.693495
  O      39.791383     21.045965     38.989603
  H      39.806995     21.296950     38.057785
  C      43.903840     22.638243     36.422221
  O      44.342367     21.698793     35.732067
  O      44.107200     23.870117     36.340051
  N      40.832000     18.750000     42.551000
25
Coordinates from ORCA-job job E -836.556912783348
  C      43.766917     22.767078     41.470782
  H      44.268576     23.238705     40.628089
  H      43.750516     23.243852     42.450708
  C      43.233292     21.554230     41.374330
  C      42.524060     20.838540     42.582613
  O      43.147164     20.093106     43.308051
  O      41.324795     21.204084     42.540759
  O      43.182649     20.689341     40.361628
  C      42.164185     20.663817     39.317293
  H      41.797213     19.628191     39.316971
  C      42.892000     20.975000     38.054000
  H      43.481595     20.196665     37.569222
  C      42.969000     22.244000     37.605000
  C      42.118000     23.281000     38.202000
  H      42.260698     24.291922     37.819747
  C      41.188000     23.002000     39.130000
  H      40.513802     23.771302     39.510424
  C      40.966295     21.581459     39.611352
  H      40.788224     21.446357     40.688114
  O      39.799897     21.041475     38.974529
  H      39.814859     21.300658     38.044882
  C      43.900704     22.622772     36.412566
  O      44.305682     21.689400     35.702393
  O      44.135649     23.854805     36.364246
  N      40.832000     18.750000     42.551000
25
Coordinates from ORCA-job job E -836.556501369011
  C      43.835004     22.764499     41.525025
  H      44.354963     23.270308     40.714513
  H      43.806029     23.180432     42.531343
  C      43.260102     21.588046     41.342463
  C      42.524102     20.827787     42.525681
  O      43.171950     20.051334     43.191688
  O      41.332949     21.194718     42.534627
  O      43.234972     20.754839     40.307832
  C      42.166600     20.667850     39.323300
  H      41.826190     19.625935     39.359801
  C      42.892000     20.975000     38.054000
  H      43.475026     20.191038     37.571124
  C      42.969000     22.244000     37.605000
  C      42.118000     23.281000     38.202000
  H      42.244526     24.294207     37.820880
  C      41.188000     23.002000     39.130000
  H      40.508903     23.768626     39.504456
  C      40.963725     21.576110     39.616435
  H      40.779622     21.444008     40.691447
  O      39.802083     21.044929     38.974925
  H      39.805970     21.317590     38.048913
  C      43.880290     22.568169     36.388981
  O      44.139650     21.671256     35.588905
  O      44.282735     23.769482     36.448747
  N      40.832000     18.750000     42.551000
25
Coordinates from ORCA-job job E -836.557561754831
  C      43.743069     22.814137     41.502983
  H      44.254300     23.303296     40.676310
  H      43.707131     23.272773     42.490553
  C      43.212996     21.604614     41.368114
  C      42.488887     20.863365     42.560587
  O      43.132391     20.115010     43.264745
  O      41.289862     21.209800     42.527043
  O      43.205029     20.750723     40.348760
  C      42.163969     20.672973     39.326914
  H      41.819686     19.631290     39.361576
  C      42.892000     20.975000     38.054000
  H      43.481067     20.194528     37.572678
  C      42.969000     22.244000     37.605000
  C      42.118000     23.281000     38.202000
  H      42.253284     24.293398     37.820964
  C      41.188000     23.002000     39.130000
  H      40.514130     23.771281     39.509371
  C      40.961563     21.582732     39.611737
  H      40.773783     21.451590     40.686290
  O      39.801888     21.052977     38.956664
  H      39.837781     21.315204     38.028090
  C      43.888957     22.595561     36.405181
  O      44.162270     21.691190     35.607408
  O      44.270234     23.797479     36.451001
  N      40.832000     18.750000     42.551000
25
Coordinates from ORCA-job job E -836.557893351614
  C      43.769775     22.784757     41.482549
  H      44.280361     23.262106     40.648603
  H      43.746875     23.254483     42.465305
  C      43.227038     21.578230     41.363248
  C      42.497604     20.855852     42.562784
  O      43.136431     20.107228     43.274113
  O      41.301794     21.211942     42.528159
  O      43.196755     20.720032     40.347018
  C      42.159036     20.666628     39.318350
  H      41.807519     19.626636     39.338847
  C      42.892000     20.975000     38.054000
  H      43.482686     20.196436     37.571882
  C      42.969000     22.244000     37.605000
  C      42.118000     23.281000     38.202000
  H      42.257266     24.293957     37.823709
  C      41.188000     23.002000     39.130000
  H      40.517458     23.772628     39.512728
  C      40.962429     21.582979     39.611954
  H      40.784595     21.455127     40.688781
  O      39.797119     21.053990     38.963311
  H      39.840576     21.307971     38.032866
  C      43.895334     22.607085     36.419945
  O      44.174167     21.704819     35.616450
  O      44.275488     23.806427     36.466597
  N      40.832000     18.750000     42.551000
25
Coordinates from ORCA-job job E -836.558435206724
  C      43.778758     22.775382     41.465055
  H      44.292745     23.239677     40.625684
  H      43.763055     23.259558     42.440895
  C      43.227657     21.570942     41.359936
  C      42.485468     20.868315     42.565536
  O      43.128781     20.132988     43.289809
  O      41.291244     21.219185     42.522619
  O      43.186387     20.705737     40.349313
  C      42.150360     20.663632     39.310156
  H      41.797274     19.624746     39.326021
  C      42.892000     20.975000     38.054000
  H      43.484873     20.197428     37.572998
  C      42.969000     22.244000     37.605000
  C      42.118000     23.281000     38.202000
  H      42.263824     24.295867     37.830856
  C      41.188000     23.002000     39.130000
  H      40.521953     23.774031     39.517480
  C      40.958132     21.584077     39.605716
  H      40.780998     21.454845     40.682425
  O      39.790662     21.065004     38.949087
  H      39.854857     21.309632     38.017157
  C      43.897107     22.619227     36.444904
  O      44.123764     21.744790     35.586770
  O      44.344802     23.789524     36.526819
  N      40.832000     18.750000     42.551000
25
Coordinates from ORCA-job job E -836.558730694672
  C      43.802959     22.758214     41.457692
  H      44.321430     23.221577     40.620451
  H      43.788963     23.239180     42.435195
  C      43.236671     21.562479     41.346466
  C      42.482608     20.866585     42.552540
  O      43.131622     20.131880     43.273183
  O      41.291211     21.219623     42.517792
  O      43.188466     20.697851     40.335473
  C      42.145095     20.658972     39.301706
  H      41.791310     19.620927     39.314076
  C      42.892000     20.975000     38.054000
  H      43.483307     20.196571     37.572636
  C      42.969000     22.244000     37.605000
  C      42.118000     23.281000     38.202000
  H      42.265774     24.297334     37.835590
  C      41.188000     23.002000     39.130000
  H      40.523035     23.774266     39.518688
  C      40.956799     21.581517     39.603053
  H      40.783277     21.449699     40.680791
  O      39.787365     21.064963     38.947751
  H      39.850071     21.304893     38.014544
  C      43.891062     22.621852     36.454021
  O      44.060030     21.778128     35.547935
  O      44.405713     23.760764     36.563100
  N      40.832000     18.750000     42.551000
25
Coordinates from ORCA-job job E -836.558848391481
  C      43.801214     22.769738     41.470795
  H      44.321356     23.241093     40.639073
  H      43.780154     23.241783     42.452552
  C      43.232629     21.577923     41.345533
  C      42.473593     20.873086     42.546589
  O      43.128795     20.137615     43.259810
  O      41.280887     21.220092     42.518673
  O      43.196570     20.716048     40.331250
  C      42.147204     20.661260     39.304308
  H      41.797614     19.622387     39.325509
  C      42.892000     20.975000     38.054000
  H      43.480007     20.194177     37.571977
  C      42.969000     22.244000     37.605000
  C      42.118000     23.281000     38.202000
  H      42.265210     24.297801     37.836223
  C      41.188000     23.002000     39.130000
  H      40.521067     23.773276     39.517134
  C      40.955979     21.580008     39.601390
  H      40.776714     21.445177     40.677668
  O      39.789441     21.064240     38.942930
  H      39.846874     21.305556     38.009795
  C      43.876060     22.616546     36.443574
  O      43.990110     21.794569     35.508804
  O      44.439584     23.731371     36.561321
  N      40.832000     18.750000     42.551000
25
Coordinates from ORCA-job job E -836.558870863810
  C      43.795442     22.775898     41.477687
  H      44.316585     23.252134     40.649432
  H      43.769692     23.242808     42.461800
  C      43.228776     21.583784     41.345702
  C      42.470407     20.874598     42.544884
  O      43.126416     20.138499     43.255921
  O      41.277195     21.220294     42.518435
  O      43.200990     20.724403     40.329541
  C      42.149953     20.662170     39.306383
  H      41.801673     19.622891     39.330769
  C      42.892000     20.975000     38.054000
  H      43.478252     20.193263     37.571276
  C      42.969000     22.244000     37.605000
  C      42.118000     23.281000     38.202000
  H      42.263959     24.297631     37.835017
  C      41.188000     23.002000     39.130000
  H      40.520042     23.772882     39.516121
  C      40.956693     21.578791     39.601765
  H      40.775538     21.443823     40.677836
  O      39.792288     21.061029     38.943326
  H      39.845912     21.303717     38.010353
  C      43.866576     22.613584     36.434166
  O      43.965290     21.791799     35.497931
  O      44.437446     23.725478     36.544601
  N      40.832000     18.750000     42.551000
25
Coordinates from ORCA-job job E -836.558880267060
  C      43.793610     22.779424     41.482452
  H      44.314275     23.257564     40.655032
  H      43.766215     23.244760     42.467285
  C      43.227342     21.587309     41.348422
  C      42.469432     20.876155     42.546092
  O      43.124939     20.138964     43.256324
  O      41.275261     21.220574     42.520354
  O      43.203633     20.729196     40.330729
  C      42.152718     20.663000     39.308849
  H      41.804788     19.623571     39.335225
  C      42.892000     20.975000     38.054000
  H      43.477909     20.193007     37.571235
  C      42.969000     22.244000     37.605000
  C      42.118000     23.281000     38.202000
  H      42.263936     24.297402     37.834300
  C      41.188000     23.002000     39.130000
  H      40.519452     23.772502     39.515892
  C      40.957822     21.578356     39.602794
  H      40.775819     21.443561     40.678887
  O      39.794410     21.059361     38.944777
  H      39.846631     21.301833     38.011669
  C      43.861299     22.612589     36.429228
  O      43.957136     21.786830     35.496277
  O      44.429671     23.726317     36.531321
  N      40.832000     18.750000     42.551000
25
Coordinates from ORCA-job job E -836.558888285717
  C      43.785578     22.787811     41.490136
  H      44.306133     23.268786     40.664312
  H      43.754477     23.251784     42.475500
  C      43.222737     21.594128     41.353362
  C      42.465357     20.879910     42.548468
  O      43.120853     20.143196     43.259649
  O      41.269919     21.221464     42.521750
  O      43.206868     20.738241     40.333140
  C      42.156661     20.664602     39.312329
  H      41.810587     19.624497     39.342250
  C      42.892000     20.975000     38.054000
  H      43.477346     20.192771     37.570920
  C      42.969000     22.244000     37.605000
  C      42.118000     23.281000     38.202000
  H      42.264109     24.297199     37.833642
  C      41.188000     23.002000     39.130000
  H      40.519121     23.772094     39.516093
  C      40.959137     21.577905     39.603331
  H      40.775505     21.444151     40.679116
  O      39.797921     21.056916     38.944047
  H      39.851063     21.298615     38.010790
  C      43.856079     22.611986     36.424922
  O      43.953366     21.779705     35.497527
  O      44.417533     23.729862     36.516026
  N      40.832000     18.750000     42.551000
25
Coordinates from ORCA-job job E -836.558893842113
  C      43.774283     22.799887     41.500222
  H      44.294485     23.284441     40.676206
  H      43.738863     23.262515     42.486112
  C      43.215919     21.604381     41.359738
  C      42.458548     20.885536     42.550844
  O      43.115725     20.149318     43.261720
  O      41.261580     21.222928     42.524538
  O      43.210570     20.751920     40.335770
  C      42.161143     20.666898     39.316511
  H      41.818776     19.625538     39.351857
  C      42.892000     20.975000     38.054000
  H      43.476446     20.192532     37.570235
  C      42.969000     22.244000     37.605000
  C      42.118000     23.281000     38.202000
  H      42.264209     24.297053     37.833006
  C      41.188000     23.002000     39.130000
  H      40.518570     23.771526     39.516199
  C      40.960628     21.577573     39.603577
  H      40.775363     21.445277     40.679129
  O      39.802136     21.053775     38.942296
  H      39.858276     21.293557     38.008719
  C      43.852504     22.611555     36.422191
  O      43.955086     21.772654     35.500691
  O      44.405626     23.734165     36.503340
  N      40.832000     18.750000     42.551000
25
Coordinates from ORCA-job job E -836.558899556518
  C      43.773959     22.803450     41.504874
  H      44.294632     23.288987     40.681774
  H      43.737299     23.265682     42.490862
  C      43.215988     21.607967     41.362280
  C      42.456213     20.887843     42.550195
  O      43.113338     20.150344     43.260488
  O      41.259020     21.224086     42.524589
  O      43.214136     20.758586     40.335359
  C      42.163490     20.667817     39.318320
  H      41.823830     19.625559     39.356699
  C      42.892000     20.975000     38.054000
  H      43.476123     20.192712     37.569692
  C      42.969000     22.244000     37.605000
  C      42.118000     23.281000     38.202000
  H      42.264335     24.296941     37.832973
  C      41.188000     23.002000     39.130000
  H      40.518413     23.771263     39.516321
  C      40.961399     21.577236     39.603765
  H      40.775499     21.445524     40.679372
  O      39.804308     21.051936     38.940890
  H      39.864020     21.289191     38.006895
  C      43.852781     22.611672     36.422869
  O      43.961653     21.770021     35.504111
  O      44.400790     23.736943     36.500719
  N      40.832000     18.750000     42.551000
25
Coordinates from ORCA-job job E -836.558903348639
  C      43.769117     22.812408     41.514165
  H      44.290717     23.300609     40.693240
  H      43.729388     23.273106     42.500681
  C      43.213472     21.616302     41.367057
  C      42.450691     20.892659     42.549663
  O      43.108926     20.154139     43.258937
  O      41.252819     21.225544     42.524986
  O      43.218725     20.771728     40.335809
  C      42.166432     20.670219     39.321481
  H      41.831805     19.626452     39.366071
  C      42.892000     20.975000     38.054000
  H      43.475860     20.192845     37.569231
  C      42.969000     22.244000     37.605000
  C      42.118000     23.281000     38.202000
  H      42.263984     24.296802     37.832695
  C      41.188000     23.002000     39.130000
  H      40.517896     23.771070     39.515780
  C      40.961888     21.577332     39.603674
  H      40.773729     21.446057     40.678975
  O      39.807369     21.049602     38.937604
  H      39.871897     21.283466     38.003035
  C      43.853366     22.611145     36.423509
  O      43.970453     21.766999     35.507833
  O      44.395416     23.739626     36.498205
  N      40.832000     18.750000     42.551000
25
Coordinates from ORCA-job job E -836.558904745812
  C      43.765659     22.816067     41.516792
  H      44.287604     23.305585     40.696862
  H      43.724772     23.275794     42.503727
  C      43.211735     21.619326     41.367951
  C      42.448516     20.894125     42.548819
  O      43.107640     20.155444     43.257244
  O      41.250377     21.225766     42.524771
  O      43.219831     20.776389     40.335522
  C      42.166718     20.671127     39.322035
  H      41.833971     19.626837     39.369080
  C      42.892000     20.975000     38.054000
  H      43.475580     20.192784     37.568935
  C      42.969000     22.244000     37.605000
  C      42.118000     23.281000     38.202000
  H      42.263826     24.296880     37.832763
  C      41.188000     23.002000     39.130000
  H      40.517873     23.771258     39.515370
  C      40.961580     21.577491     39.603256
  H      40.772417     21.445551     40.678293
  O      39.807990     21.048886     38.936042
  H      39.873874     21.281399     38.001206
  C      43.853524     22.610949     36.423416
  O      43.972317     21.766789     35.508135
  O      44.394677     23.739982     36.498058
  N      40.832000     18.750000     42.551000
25
Coordinates from ORCA-job job E -836.558905234031
  C      43.762471     22.818752     41.519164
  H      44.283970     23.310157     40.700099
  H      43.720626     23.277107     42.506707
  C      43.210173     21.621485     41.368583
  C      42.447115     20.894613     42.548191
  O      43.107558     20.155406     43.254935
  O      41.248773     21.225611     42.525991
  O      43.220481     20.779953     40.335187
  C      42.166544     20.672111     39.322288
  H      41.834978     19.627620     39.371540
  C      42.892000     20.975000     38.054000
  H      43.475534     20.192679     37.569145
  C      42.969000     22.244000     37.605000
  C      42.118000     23.281000     38.202000
  H      42.263785     24.296995     37.833043
  C      41.188000     23.002000     39.130000
  H      40.518096     23.771685     39.514916
  C      40.961353     21.578112     39.603275
  H      40.772399     21.445818     40.678053
  O      39.807735     21.048636     38.936709
  H      39.873414     21.279420     38.001444
  C      43.853207     22.610783     36.422950
  O      43.970706     21.767529     35.506920
  O      44.395653     23.739269     36.498374
  N      40.832000     18.750000     42.551000
25
Coordinates from ORCA-job job E -836.558905940424
  C      43.760684     22.820789     41.520948
  H      44.282129     23.313260     40.702467
  H      43.718151     23.278253     42.508894
  C      43.209304     21.623165     41.369308
  C      42.446250     20.895243     42.548250
  O      43.107039     20.155732     43.254332
  O      41.247773     21.225994     42.526545
  O      43.221149     20.782422     40.335270
  C      42.166927     20.672672     39.322684
  H      41.835976     19.628026     39.373422
  C      42.892000     20.975000     38.054000
  H      43.475376     20.192534     37.569161
  C      42.969000     22.244000     37.605000
  C      42.118000     23.281000     38.202000
  H      42.263916     24.297023     37.833160
  C      41.188000     23.002000     39.130000
  H      40.518156     23.771902     39.514618
  C      40.961311     21.578213     39.603318
  H      40.772092     21.445869     40.678175
  O      39.807925     21.048202     38.936905
  H      39.873749     21.277757     38.001352
  C      43.852559     22.610858     36.422342
  O      43.969055     21.767364     35.506435
  O      44.395070     23.739326     36.497267
  N      40.832000     18.750000     42.551000
