24
Coordinates from ORCA-job neb_MEP.QMRegion E -1076.193741783371
  C      44.412000     18.826000     34.602000
  H      44.605000     18.213000     33.722000
  H      45.140000     19.579000     34.902000
  C      43.310000     18.669000     35.344000
  C      43.078000     19.483000     36.612000
  O      43.951000     20.331000     36.909000
  O      42.034000     19.245000     37.277000
  O      42.352000     17.726000     35.039000
  C      41.330000     18.015000     34.022000
  H      40.711000     17.108000     34.027000
  C      42.015000     18.193000     32.703000
  H      42.371000     17.310000     32.172000
  C      42.335000     19.421000     32.246000
  C      41.842000     20.606000     32.960000
  H      42.219000     21.574000     32.623000
  C      40.965000     20.513000     33.977000
  H      40.596000     21.416000     34.474000
  C      40.419000     19.187000     34.447000
  H      40.404000     19.176000     35.551000
  O      39.110000     19.026000     33.923000
  H      38.570000     18.439000     34.540000
  C      43.317000     19.586000     31.086000
  O      43.591000     18.604000     30.364000
  O      43.854000     20.716000     30.958000
24
Coordinates from ORCA-job neb_MEP.QMRegion E -1076.198238235806
  C      44.407473     18.803398     34.550389
  H      44.584556     18.190302     33.668401
  H      45.140071     19.556255     34.839281
  C      43.312038     18.651488     35.304149
  C      43.096333     19.470199     36.572775
  O      43.979518     20.309204     36.865230
  O      42.051078     19.247235     37.241306
  O      42.348991     17.709856     35.013384
  C      41.316109     17.995585     34.002558
  H      40.704582     17.083513     34.009064
  C      41.995195     18.185425     32.682336
  H      42.349567     17.308248     32.140459
  C      42.323794     19.417258     32.242731
  C      41.834911     20.595192     32.973710
  H      42.218734     21.565803     32.652235
  C      40.954561     20.491490     33.987002
  H      40.588003     21.388922     34.495710
  C      40.404275     19.160990     34.439769
  H      40.388960     19.136456     35.542496
  O      39.097716     19.008300     33.912613
  H      38.553316     18.416445     34.522323
  C      43.312617     19.591466     31.089507
  O      43.608896     18.609371     30.376271
  O      43.831525     20.728596     30.958182
24
Coordinates from ORCA-job neb_MEP.QMRegion E -1076.201068102489
  C      44.397945     18.772498     34.470640
  H      44.552094     18.162737     33.582387
  H      45.136328     19.526284     34.741540
  C      43.317412     18.623139     35.246509
  C      43.124866     19.451664     36.512451
  O      44.022677     20.278438     36.794801
  O      42.081156     19.248764     37.190371
  O      42.346540     17.682858     34.975862
  C      41.295857     17.964161     33.976969
  H      40.692942     17.046074     33.984334
  C      41.963881     18.172243     32.654521
  H      42.313718     17.303703     32.096407
  C      42.306629     19.410135     32.243614
  C      41.826865     20.575762     33.001059
  H      42.220318     21.549565     32.702336
  C      40.946044     20.457191     34.012431
  H      40.586359     21.346059     34.540962
  C      40.385180     19.121472     34.435898
  H      40.369270     19.074116     35.537798
  O      39.080070     18.987760     33.903084
  H      38.528228     18.388589     34.501939
  C      43.304527     19.601822     31.100467
  O      43.642481     18.620587     30.402514
  O      43.788381     20.752734     30.962089
24
Coordinates from ORCA-job neb_MEP.QMRegion E -1076.197066615469
  C      44.351531     18.771046     34.301898
  H      44.506362     18.140747     33.429067
  H      45.037794     19.599898     34.477500
  C      43.320419     18.580961     35.141499
  C      43.169482     19.431160     36.405231
  O      44.089101     20.241164     36.669958
  O      42.135464     19.256254     37.107882
  O      42.350098     17.624321     34.911342
  C      41.236619     17.903749     33.908630
  H      40.646512     16.974053     33.906181
  C      41.915993     18.151395     32.613161
  H      42.240783     17.305569     32.008809
  C      42.347536     19.394652     32.315961
  C      41.872275     20.536104     33.113002
  H      42.302238     21.512217     32.879735
  C      40.924277     20.396036     34.057686
  H      40.524996     21.271478     34.580232
  C      40.339141     19.055363     34.420717
  H      40.360561     18.951783     35.517255
  O      39.015686     18.992120     33.927381
  H      38.452446     18.379486     34.511463
  C      43.341275     19.620376     31.180824
  O      43.750428     18.646459     30.508707
  O      43.730468     20.799268     30.997637
24
Coordinates from ORCA-job neb_MEP.QMRegion E -1076.182677283258
  C      44.327663     18.807035     34.233057
  H      44.524681     18.132123     33.403077
  H      44.966864     19.680440     34.357953
  C      43.340737     18.562231     35.129372
  C      43.186050     19.435456     36.383393
  O      44.109014     20.243370     36.645041
  O      42.153068     19.264501     37.091061
  O      42.426980     17.584832     34.942606
  C      41.145658     17.898647     33.815072
  H      40.602426     16.945066     33.853867
  C      41.897299     18.144830     32.604883
  H      42.228737     17.307425     31.994693
  C      42.416223     19.381654     32.392322
  C      41.912100     20.522390     33.169046
  H      42.345901     21.498668     32.945967
  C      40.916666     20.383054     34.062436
  H      40.481510     21.257962     34.554674
  C      40.314035     19.047404     34.402191
  H      40.372651     18.910238     35.493585
  O      38.973139     19.028559     33.952380
  H      38.417602     18.398518     34.529964
  C      43.381030     19.620190     31.234349
  O      43.783000     18.650328     30.551572
  O      43.720848     20.806730     31.016927
24
Coordinates from ORCA-job neb_MEP.QMRegion E -1076.173486061617
  C      44.305627     18.836177     34.190238
  H      44.535793     18.120595     33.405547
  H      44.945912     19.706223     34.318978
  C      43.363215     18.541876     35.147683
  C      43.195765     19.440819     36.389489
  O      44.114706     20.253891     36.646953
  O      42.158067     19.272175     37.089412
  O      42.534985     17.547521     35.010777
  C      41.050440     17.907960     33.719947
  H      40.570182     16.931747     33.827334
  C      41.882190     18.136873     32.611085
  H      42.228402     17.305134     32.001103
  C      42.463797     19.375402     32.443433
  C      41.923871     20.522288     33.181840
  H      42.352187     21.499266     32.952000
  C      40.911626     20.382772     34.055900
  H      40.473746     21.257825     34.545268
  C      40.301647     19.048774     34.385302
  H      40.378723     18.895005     35.474427
  O      38.949332     19.051839     33.962774
  H      38.407931     18.401694     34.531475
  C      43.398155     19.618003     31.254227
  O      43.779735     18.649401     30.558568
  O      43.715763     20.805843     31.018741
24
Coordinates from ORCA-job neb_MEP.QMRegion E -1076.170844697622
  C      44.269623     18.869444     34.129744
  H      44.554726     18.106833     33.410843
  H      44.917877     19.731541     34.269502
  C      43.381937     18.529444     35.157398
  C      43.204795     19.444007     36.392388
  O      44.121871     20.259878     36.644862
  O      42.165604     19.273037     37.086649
  O      42.637528     17.509755     35.067625
  C      40.976518     17.914874     33.644925
  H      40.527533     16.930359     33.787323
  C      41.878506     18.125061     32.626970
  H      42.230488     17.300036     32.010553
  C      42.519875     19.367084     32.501771
  C      41.933219     20.520894     33.193843
  H      42.361160     21.497797     32.963794
  C      40.903220     20.381189     34.046124
  H      40.461233     21.255995     34.532507
  C      40.287629     19.047911     34.367477
  H      40.381494     18.879550     35.454839
  O      38.925253     19.075277     33.974341
  H      38.393663     18.409256     34.533460
  C      43.412949     19.615088     31.275574
  O      43.777845     18.648378     30.569141
  O      43.712676     20.804727     31.025553
24
Coordinates from ORCA-job neb_MEP.QMRegion E -1076.175002204320
  C      44.168578     18.918224     34.016508
  H      44.562546     18.094921     33.422500
  H      44.861935     19.742386     34.212379
  C      43.372542     18.529864     35.152584
  C      43.208788     19.447394     36.392877
  O      44.131834     20.257163     36.637483
  O      42.175019     19.271918     37.089996
  O      42.710386     17.485016     35.117204
  C      40.937653     17.921007     33.596747
  H      40.498105     16.934334     33.753125
  C      41.889414     18.115492     32.652171
  H      42.237807     17.297061     32.023651
  C      42.633074     19.350300     32.604397
  C      41.955956     20.519111     33.217350
  H      42.367893     21.499915     32.973843
  C      40.906070     20.378870     34.041063
  H      40.450771     21.255594     34.513656
  C      40.284690     19.045746     34.360737
  H      40.383398     18.872130     35.448040
  O      38.917455     19.090255     33.984104
  H      38.391545     18.414512     34.535002
  C      43.435401     19.612826     31.301219
  O      43.774424     18.649379     30.578173
  O      43.706183     20.804504     31.030696
24
Coordinates from ORCA-job neb_MEP.QMRegion E -1076.191236915359
  C      44.041494     18.961588     33.887086
  H      44.551628     18.096727     33.439335
  H      44.773514     19.752375     34.133054
  C      43.357790     18.533879     35.144070
  C      43.215903     19.448839     36.393964
  O      44.143764     20.254808     36.625962
  O      42.186483     19.272744     37.093893
  O      42.795753     17.454554     35.172840
  C      40.910966     17.926599     33.555718
  H      40.458004     16.942936     33.700704
  C      41.909637     18.105294     32.679839
  H      42.252182     17.291167     32.040544
  C      42.762741     19.328831     32.716846
  C      41.987725     20.512253     33.245558
  H      42.381129     21.498668     32.990956
  C      40.912914     20.373680     34.035015
  H      40.437498     21.253994     34.484174
  C      40.283098     19.042153     34.353098
  H      40.388454     18.859597     35.439542
  O      38.910900     19.108583     33.996883
  H      38.389338     18.422508     34.536236
  C      43.458465     19.610099     31.330345
  O      43.771978     18.650897     30.590907
  O      43.697312     20.803658     31.040055
24
Coordinates from ORCA-job neb_MEP.QMRegion E -1076.209088035362
  C      43.974000     18.940000     33.829000
  H      44.571000     18.114000     33.420000
  H      44.621000     19.797000     34.018000
  C      43.431000     18.474000     35.158000
  C      43.261000     19.427000     36.366000
  O      44.192000     20.237000     36.570000
  O      42.234000     19.258000     37.069000
  O      43.140000     17.306000     35.309000
  C      40.790000     17.933000     33.383000
  H      40.203000     17.014000     33.321000
  C      41.923000     18.066000     32.691000
  H      42.289000     17.263000     32.051000
  C      42.812000     19.277000     32.802000
  C      42.042000     20.461000     33.342000
  H      42.481000     21.443000     33.161000
  C      40.896000     20.334000     34.017000
  H      40.384000     21.216000     34.415000
  C      40.226000     19.010000     34.275000
  H      40.415000     18.745000     35.338000
  O      38.840000     19.165000     34.056000
  H      38.331000     18.469000     34.588000
  C      43.463000     19.609000     31.399000
  O      43.851000     18.672000     30.663000
  O      43.585000     20.816000     31.100000
