24
Coordinates from ORCA-job neb_NEB-CI_converged.QMRegion
  C          44.26962284053337     18.86944401546390     34.12974410341450
  H          44.55472631834154     18.10683283646600     33.41084250525444
  H          44.91787736704126     19.73154135964784     34.26950220058846
  C          43.38193682505423     18.52944414488142     35.15739785276023
  C          43.20479549065889     19.44400660169393     36.39238763294374
  O          44.12187056474652     20.25987776367937     36.64486197349253
  O          42.16560370445405     19.27303747801330     37.08664850143284
  O          42.63752824666375     17.50975473535447     35.06762486443453
  C          40.97651760783744     17.91487447817873     33.64492467267660
  H          40.52753342518433     16.93035948418256     33.78732327588573
  C          41.87850617452354     18.12506061156447     32.62696979459527
  H          42.23048817108365     17.30003640473401     32.01055339303185
  C          42.51987520627832     19.36708386955387     32.50177088780396
  C          41.93321854544279     20.52089351301949     33.19384331574893
  H          42.36115974506467     21.49779651383998     32.96379395786557
  C          40.90322048757107     20.38118854568513     34.04612373226399
  H          40.46123341231674     21.25599502097974     34.53250734014281
  C          40.28762875020820     19.04791078829238     34.36747707001928
  H          40.38149445745913     18.87955038799507     35.45483907456968
  O          38.92525319743019     19.07527669854140     33.97434149007285
  H          38.39366346272088     18.40925580540664     34.53345971265892
  C          43.41294875361209     19.61508796831057     31.27557369255320
  O          43.77784450325800     18.64837800624749     30.56914106157066
  O          43.71267568825676     20.80472724605723     31.02555316030486
