37
Coordinates from ORCA-job job
  C          44.28628869143769     22.16771965143858     38.79682352504769
  H          44.16701290714752     22.10839162829282     37.71350208902877
  H          45.13558814169819     22.70720702653710     39.21900203790399
  C          43.41120084727026     21.61639837396890     39.64533233901980
  C          43.53923864185114     21.77748073289198     41.17237741743647
  O          44.66982204544319     21.83484295377774     41.65844963352087
  O          42.42730672603783     21.85270187795475     41.80374838938698
  O          42.33421818360993     20.84661989739442     39.23862197754899
  C          41.25507609558596     21.41844924420220     38.47131248343966
  H          40.46639908767045     20.63115772429394     38.54007784128322
  C          41.53870849911729     21.65177453144041     37.01575301056188
  H          42.31589538032614     21.08466493408708     36.49648487885533
  C          40.70847602518189     22.42819338678352     36.29052464268414
  C          39.60546031655055     23.12170920444058     36.96952591570911
  H          38.87134819659456     23.58447720020651     36.30539175820826
  C          39.54868725881292     23.21040397348538     38.31237780675647
  H          38.77467770080489     23.78089737819818     38.83747966835014
  C          40.65593061155847     22.64305769091157     39.16543322382481
  H          41.46354198772976     23.40779025061273     39.23064112442574
  O          40.20127840009275     22.32548559205647     40.46648506494291
  H          41.03794976633754     22.17177227900743     41.00199111984507
  C          40.83212457493159     22.53343367882575     34.74082433604144
  O          41.83542117135106     21.98536364296375     34.24298736777619
  O          39.88428479067166     23.14089164613327     34.19136226897783
  C          39.38800000000000     20.55700000000000     43.51300000000000
  H          39.58792508999999     20.54988523000000     44.58448464000000
  H          38.53316284942900     19.89804123199164     43.31275427961402
  H          39.11883043844974     21.57958747220087     43.21340693551335
  N          40.57874911891229     20.11580690480668     42.76872784123795
  H          41.36395434822594     20.77852269794995     42.82137934477060
  C          40.59326521034114     19.36820290417669     41.66949424867728
  N          39.66070358724539     19.58305419738316     40.75744146683488
  H          39.41776465932239     20.56896192265513     40.62827011111831
  H          39.73222745740608     19.12366156854072     39.86397883714172
  N          41.77632769338136     18.99335222774880     41.21963670554751
  H          42.55966420610446     19.08281782061183     41.84941269639260
  H          42.04236505965683     19.36416736950460     40.30512967730127
