37
Coordinates from ORCA-job job E -836.392772778956
  C      44.842000     22.068000     40.142000
  H      45.265000     21.440000     39.358000
  H      45.368000     22.976000     40.435000
  C      43.689000     21.758000     40.746000
  C      43.115000     22.623000     41.859000
  O      43.577000     23.785000     42.012000
  O      42.221000     22.117000     42.579000
  O      42.985000     20.610000     40.433000
  C      42.079000     20.646000     39.270000
  H      41.683000     19.622000     39.219000
  C      42.892000     20.975000     38.054000
  H      43.551000     20.209000     37.638000
  C      42.969000     22.244000     37.605000
  C      42.118000     23.281000     38.202000
  H      42.307000     24.301000     37.867000
  C      41.188000     23.002000     39.130000
  H      40.598000     23.809000     39.575000
  C      40.887000     21.588000     39.553000
  H      40.742000     21.566000     40.644000
  O      39.715000     21.144000     38.884000
  H      39.068000     20.737000     39.535000
  C      44.024000     22.694000     36.600000
  O      44.937000     21.905000     36.259000
  O      43.944000     23.900000     36.236000
  C      39.388000     20.557000     43.513000
  H      39.587925     20.549885     44.584485
  H      38.481000     19.989000     43.303000
  H      39.228000     21.585000     43.184000
  N      40.526000     20.009000     42.765000
  H      41.208000     20.692000     42.431000
  C      40.832000     18.750000     42.551000
  N      40.096000     17.780000     43.009000
  H      39.254000     17.999000     43.497000
  H      40.384000     16.830000     42.804000
  N      41.894000     18.432000     41.873000
  H      42.451000     19.181000     41.462000
  H      42.094000     17.464000     41.688000
37
Coordinates from ORCA-job job E -836.401796231375
  C      44.844652     22.054033     40.162556
  H      45.257680     21.443047     39.356149
  H      45.348160     22.981691     40.436512
  C      43.689787     21.747721     40.767043
  C      43.093772     22.622766     41.876502
  O      43.589271     23.758642     42.030201
  O      42.184181     22.099331     42.585871
  O      42.981190     20.597548     40.436294
  C      42.083148     20.650224     39.268187
  H      41.677540     19.622651     39.217207
  C      42.881721     20.979390     38.045744
  H      43.559827     20.223078     37.639971
  C      42.977660     22.253186     37.614095
  C      42.120487     23.284691     38.206498
  H      42.316010     24.303507     37.869677
  C      41.180723     23.004512     39.125609
  H      40.585271     23.806363     39.572589
  C      40.891553     21.593502     39.555426
  H      40.750679     21.573494     40.650438
  O      39.706523     21.132205     38.889233
  H      39.107433     20.741671     39.534907
  C      44.055468     22.707093     36.619590
  O      44.897559     21.853228     36.242187
  O      43.922836     23.889199     36.196599
  C      39.388000     20.557000     43.513000
  H      39.587925     20.549885     44.584485
  H      38.473021     19.992829     43.303750
  H      39.229969     21.594696     43.192588
  N      40.528705     20.008040     42.766427
  H      41.212809     20.709529     42.436232
  C      40.839950     18.745292     42.547645
  N      40.094775     17.766607     43.007082
  H      39.248637     17.978905     43.505272
  H      40.359284     16.812917     42.820381
  N      41.910953     18.441768     41.858694
  H      42.464629     19.196910     41.443236
  H      42.144157     17.487114     41.651891
37
Coordinates from ORCA-job job E -836.401630282668
  C      44.846182     22.045995     40.165739
  H      45.254909     21.443675     39.349569
  H      45.343013     22.977877     40.441513
  C      43.690535     21.748842     40.773988
  C      43.089513     22.632254     41.895058
  O      43.599373     23.746439     42.029224
  O      42.158156     22.094110     42.586914
  O      42.980472     20.587015     40.434657
  C      42.089439     20.652999     39.265933
  H      41.673506     19.622531     39.218968
  C      42.873125     20.979934     38.039333
  H      43.565580     20.231624     37.639523
  C      42.992563     22.258656     37.625846
  C      42.126445     23.285533     38.211358
  H      42.320297     24.301813     37.862486
  C      41.177198     23.006062     39.122428
  H      40.576099     23.802482     39.571638
  C      40.897691     21.598623     39.556402
  H      40.759272     21.579785     40.653960
  O      39.695368     21.120649     38.889088
  H      39.136078     20.749603     39.536391
  C      44.007410     22.687254     36.525702
  O      44.899234     21.841400     36.282018
  O      43.937895     23.904039     36.231072
  C      39.388000     20.557000     43.513000
  H      39.587925     20.549885     44.584485
  H      38.466150     19.995250     43.305542
  H      39.230437     21.603270     43.200320
  N      40.528467     20.006772     42.768681
  H      41.214093     20.726946     42.443421
  C      40.843446     18.741237     42.547888
  N      40.089281     17.754715     43.006979
  H      39.238471     17.957398     43.514069
  H      40.329042     16.797527     42.839511
  N      41.923122     18.445916     41.853439
  H      42.478290     19.204789     41.433497
  H      42.185651     17.504944     41.623867
37
Coordinates from ORCA-job job E -836.407144347988
  C      44.835952     22.046100     40.176700
  H      45.239713     21.447276     39.357436
  H      45.348360     22.960514     40.475303
  C      43.683662     21.750419     40.788676
  C      43.100020     22.626218     41.925693
  O      43.611385     23.739363     42.070652
  O      42.159784     22.099869     42.604401
  O      42.974384     20.591406     40.445013
  C      42.091704     20.660839     39.271686
  H      41.670984     19.636270     39.219302
  C      42.884092     20.989380     38.052002
  H      43.559727     20.237038     37.635324
  C      42.981314     22.259982     37.613467
  C      42.125773     23.292150     38.206096
  H      42.322978     24.307352     37.855605
  C      41.177952     23.015005     39.118900
  H      40.567321     23.809032     39.560552
  C      40.904395     21.608376     39.557403
  H      40.762146     21.587564     40.652369
  O      39.705981     21.120421     38.899045
  H      39.147135     20.730561     39.580930
  C      44.029352     22.686413     36.545113
  O      44.866231     21.806994     36.241187
  O      43.918472     23.869185     36.153995
  C      39.388000     20.557000     43.513000
  H      39.587925     20.549885     44.584485
  H      38.462961     20.003565     43.305538
  H      39.238734     21.603359     43.204494
  N      40.526525     20.000284     42.768729
  H      41.207817     20.720383     42.452520
  C      40.848392     18.735713     42.542913
  N      40.096352     17.744297     43.000348
  H      39.249120     17.941211     43.511223
  H      40.334539     16.782702     42.835918
  N      41.934773     18.455802     41.846894
  H      42.482639     19.219260     41.428355
  H      42.217209     17.521634     41.607178
37
Coordinates from ORCA-job job E -836.408114930690
  C      44.838706     22.044382     40.202380
  H      45.239912     21.452746     39.376947
  H      45.340197     22.968059     40.493744
  C      43.686821     21.746443     40.812710
  C      43.097758     22.622809     41.946203
  O      43.653526     23.715410     42.138516
  O      42.159723     22.099418     42.621753
  O      42.973886     20.595875     40.456376
  C      42.095447     20.670851     39.280149
  H      41.667548     19.651492     39.225808
  C      42.888118     20.993855     38.058918
  H      43.560095     20.240567     37.638271
  C      42.972824     22.258037     37.601899
  C      42.124823     23.296963     38.193759
  H      42.319195     24.309143     37.831895
  C      41.182209     23.026318     39.114236
  H      40.564446     23.819992     39.546721
  C      40.912233     21.621814     39.562533
  H      40.768001     21.600505     40.656130
  O      39.715114     21.128054     38.910532
  H      39.169202     20.725987     39.599243
  C      44.010094     22.667079     36.514157
  O      44.826457     21.774448     36.188877
  O      43.907835     23.846725     36.108829
  C      39.388000     20.557000     43.513000
  H      39.587925     20.549885     44.584485
  H      38.461104     20.009158     43.304971
  H      39.244937     21.603504     43.207691
  N      40.525825     19.996184     42.769189
  H      41.204645     20.717339     42.462943
  C      40.852716     18.731983     42.540388
  N      40.102023     17.737311     42.994922
  H      39.257454     17.929322     43.508597
  H      40.340285     16.773206     42.832251
  N      41.944958     18.462588     41.847016
  H      42.487109     19.229219     41.429903
  H      42.242124     17.534877     41.600694
37
Coordinates from ORCA-job job E -836.409254755527
  C      44.841090     22.053545     40.229354
  H      45.236282     21.471786     39.394132
  H      45.358918     22.957561     40.553417
  C      43.690763     21.753774     40.840592
  C      43.121838     22.609425     42.002746
  O      43.683369     23.695274     42.211847
  O      42.156931     22.099320     42.647853
  O      42.977382     20.607926     40.472859
  C      42.103900     20.687214     39.295132
  H      41.666569     19.672868     39.241906
  C      42.894891     20.999863     38.070920
  H      43.563203     20.245421     37.646306
  C      42.966004     22.255680     37.589555
  C      42.124665     23.303365     38.175528
  H      42.315714     24.310771     37.796481
  C      41.189219     23.043525     39.107350
  H      40.565216     23.837641     39.529988
  C      40.924563     21.643328     39.571801
  H      40.778666     21.623210     40.664448
  O      39.725090     21.140813     38.927755
  H      39.201387     20.722523     39.622057
  C      43.974901     22.636359     36.457215
  O      44.768106     21.728234     36.116727
  O      43.867507     23.806259     36.023576
  C      39.388000     20.557000     43.513000
  H      39.587925     20.549885     44.584485
  H      38.459026     20.014258     43.304218
  H      39.250856     21.604631     43.211883
  N      40.525241     19.992748     42.770270
  H      41.202650     20.718534     42.478170
  C      40.859737     18.729186     42.540155
  N      40.110632     17.729305     42.989349
  H      39.266974     17.912717     43.505688
  H      40.348964     16.763569     42.830378
  N      41.962646     18.472193     41.856347
  H      42.498687     19.243783     41.441173
  H      42.280834     17.553886     41.602275
37
Coordinates from ORCA-job job E -836.410383737390
  C      44.854604     22.072336     40.264025
  H      45.244051     21.502793     39.417999
  H      45.372372     22.970963     40.603413
  C      43.707829     21.763812     40.878381
  C      43.155608     22.596019     42.066716
  O      43.752150     23.657443     42.318086
  O      42.158841     22.103770     42.677016
  O      42.989890     20.627588     40.495409
  C      42.119833     20.711268     39.318025
  H      41.670899     19.701382     39.269614
  C      42.903945     21.006084     38.084468
  H      43.562847     20.247568     37.651934
  C      42.943752     22.246904     37.557559
  C      42.112003     23.306944     38.133370
  H      42.295165     24.306001     37.726620
  C      41.198775     23.066517     39.093719
  H      40.576899     23.865020     39.509887
  C      40.943355     21.674545     39.587547
  H      40.798423     21.661258     40.680691
  O      39.737848     21.161576     38.958875
  H      39.248252     20.708411     39.658534
  C      43.923331     22.597452     36.391198
  O      44.702626     21.680729     36.053095
  O      43.816916     23.762973     35.949019
  C      39.388000     20.557000     43.513000
  H      39.587925     20.549885     44.584485
  H      38.459609     20.014323     43.302468
  H      39.252118     21.605740     43.215600
  N      40.527425     19.994791     42.771986
  H      41.205740     20.727904     42.497505
  C      40.872554     18.732504     42.544921
  N      40.126042     17.727231     42.986990
  H      39.281319     17.901235     43.504608
  H      40.369279     16.762281     42.831227
  N      41.990124     18.486661     41.880552
  H      42.518898     19.263760     41.466529
  H      42.329413     17.577488     41.625059
37
Coordinates from ORCA-job job E -836.411476467701
  C      44.865072     22.099414     40.283616
  H      45.245998     21.539517     39.428092
  H      45.386103     22.989967     40.637843
  C      43.725851     21.778647     40.907880
  C      43.190984     22.588659     42.117694
  O      43.827834     23.616960     42.412560
  O      42.164290     22.121501     42.696083
  O      43.002075     20.651614     40.518890
  C      42.135958     20.736096     39.344464
  H      41.675787     19.729807     39.304112
  C      42.914915     21.008164     38.101804
  H      43.579715     20.248754     37.680216
  C      42.939980     22.234831     37.541173
  C      42.115059     23.309237     38.098553
  H      42.287983     24.296552     37.658935
  C      41.215572     23.092198     39.078535
  H      40.597493     23.898943     39.484648
  C      40.964195     21.711619     39.604212
  H      40.823108     21.713512     40.698385
  O      39.750194     21.197320     38.990308
  H      39.297630     20.694071     39.684447
  C      43.864903     22.541466     36.314533
  O      44.594573     21.595672     35.929558
  O      43.774460     23.709520     35.881198
  C      39.388000     20.557000     43.513000
  H      39.587925     20.549885     44.584485
  H      38.464329     20.006881     43.300495
  H      39.245317     21.605569     43.217527
  N      40.532094     20.004679     42.773149
  H      41.210200     20.745786     42.515691
  C      40.891732     18.745079     42.555061
  N      40.150700     17.734132     42.989639
  H      39.303054     17.898663     43.506342
  H      40.405984     16.772746     42.834996
  N      42.025309     18.507863     41.917577
  H      42.544720     19.290198     41.502064
  H      42.380783     17.604427     41.669570
37
Coordinates from ORCA-job job E -836.412521090232
  C      44.877306     22.120286     40.304642
  H      45.248567     21.568864     39.440979
  H      45.403847     22.999710     40.676563
  C      43.744679     21.786970     40.936837
  C      43.223821     22.575261     42.162394
  O      43.903942     23.558190     42.502156
  O      42.159362     22.145530     42.700830
  O      43.008944     20.673441     40.541516
  C      42.153566     20.762418     39.367085
  H      41.685413     19.758326     39.327719
  C      42.931304     21.017463     38.119180
  H      43.601913     20.258329     37.705540
  C      42.926009     22.225005     37.516320
  C      42.097645     23.307324     38.049401
  H      42.264489     24.282916     37.588746
  C      41.214397     23.111522     39.047715
  H      40.603870     23.926061     39.450158
  C      40.980365     21.745420     39.615012
  H      40.847715     21.774879     40.711157
  O      39.758064     21.225628     39.018921
  H      39.355643     20.654641     39.693839
  C      43.820762     22.502004     36.273996
  O      44.564364     21.567436     35.940671
  O      43.692662     23.650946     35.785162
  C      39.388000     20.557000     43.513000
  H      39.587925     20.549885     44.584485
  H      38.470751     19.995001     43.299493
  H      39.232828     21.604926     43.218421
  N      40.536662     20.019370     42.771275
  H      41.210367     20.770021     42.529424
  C      40.913615     18.763239     42.566754
  N      40.179134     17.745794     42.992361
  H      39.328698     17.900609     43.509452
  H      40.449838     16.789682     42.835809
  N      42.063575     18.533253     41.960919
  H      42.570818     19.320647     41.540544
  H      42.430363     17.633227     41.723797
37
Coordinates from ORCA-job job E -836.413437309236
  C      44.885686     22.137951     40.310801
  H      45.241190     21.599254     39.429574
  H      45.419018     23.008957     40.691295
  C      43.760018     21.794973     40.950661
  C      43.252918     22.565703     42.192890
  O      43.959842     23.514112     42.566820
  O      42.168330     22.160592     42.708037
  O      43.013783     20.689310     40.553169
  C      42.153266     20.784396     39.384761
  H      41.669381     19.785468     39.354108
  C      42.917047     21.013159     38.120468
  H      43.558327     20.233942     37.696724
  C      42.913191     22.205313     37.491791
  C      42.112909     23.307256     38.027801
  H      42.275539     24.270596     37.539284
  C      41.243319     23.138971     39.043078
  H      40.649557     23.968045     39.441377
  C      40.995418     21.786584     39.631892
  H      40.877028     21.838651     40.729122
  O      39.762640     21.284661     39.048769
  H      39.381289     20.689875     39.700190
  C      43.792942     22.444188     36.238996
  O      44.485126     21.469561     35.871512
  O      43.704980     23.600372     35.767954
  C      39.388000     20.557000     43.513000
  H      39.587925     20.549885     44.584485
  H      38.477981     19.982301     43.298824
  H      39.217765     21.602937     43.217253
  N      40.543058     20.034947     42.769421
  H      41.217090     20.788655     42.539977
  C      40.932722     18.781706     42.574561
  N      40.199832     17.759204     42.989437
  H      39.345210     17.910049     43.501207
  H      40.483383     16.806999     42.830223
  N      42.094310     18.556223     41.991609
  H      42.593900     19.346058     41.566986
  H      42.462513     17.652717     41.765883
37
Coordinates from ORCA-job job E -836.413713575013
  C      44.896658     22.161079     40.312991
  H      45.229854     21.638904     39.409771
  H      45.440845     23.022311     40.700232
  C      43.780498     21.811107     40.963747
  C      43.293320     22.562017     42.231199
  O      44.041678     23.462676     42.656553
  O      42.187770     22.182081     42.718812
  O      43.023631     20.710777     40.565689
  C      42.159736     20.811228     39.401627
  H      41.669680     19.815468     39.373787
  C      42.912208     21.025468     38.129037
  H      43.538592     20.233367     37.705341
  C      42.905316     22.204623     37.482763
  C      42.114904     23.315855     38.015694
  H      42.259316     24.268990     37.497072
  C      41.255864     23.163774     39.039293
  H      40.661766     23.999800     39.423544
  C      41.011002     21.820955     39.650972
  H      40.913670     21.899630     40.748869
  O      39.768553     21.317806     39.093936
  H      39.458852     20.612753     39.719307
  C      43.740763     22.407255     36.181357
  O      44.397100     21.409009     35.788191
  O      43.644536     23.550419     35.674584
  C      39.388000     20.557000     43.513000
  H      39.587925     20.549885     44.584485
  H      38.485720     19.969851     43.298499
  H      39.202225     21.600033     43.215648
  N      40.550931     20.049888     42.770029
  H      41.226270     20.804891     42.553299
  C      40.956754     18.799609     42.588857
  N      40.223011     17.770798     42.989695
  H      39.361929     17.917514     43.490837
  H      40.518264     16.821170     42.831939
  N      42.134130     18.581219     42.033602
  H      42.626292     19.373701     41.603962
  H      42.505911     17.673638     41.818129
37
Coordinates from ORCA-job job E -836.414117556132
  C      44.897913     22.173109     40.309555
  H      45.227026     21.652327     39.407346
  H      45.444745     23.035705     40.688849
  C      43.785520     21.824789     40.965190
  C      43.300201     22.577642     42.234440
  O      44.047188     23.470189     42.658389
  O      42.200110     22.197253     42.725077
  O      43.030478     20.718551     40.574665
  C      42.163672     20.810551     39.410738
  H      41.676811     19.814283     39.392363
  C      42.918193     21.013471     38.138608
  H      43.550183     20.215472     37.736423
  C      42.915247     22.189023     37.482594
  C      42.120214     23.305344     38.001036
  H      42.268270     24.255861     37.478853
  C      41.262836     23.162721     39.026024
  H      40.670861     24.004827     39.401136
  C      41.017699     21.823494     39.653215
  H      40.926944     21.915722     40.750334
  O      39.774840     21.311350     39.107169
  H      39.443089     20.671335     39.736331
  C      43.730302     22.382781     36.151248
  O      44.408391     21.400380     35.787895
  O      43.594695     23.505088     35.590681
  C      39.388000     20.557000     43.513000
  H      39.587925     20.549885     44.584485
  H      38.490359     19.963995     43.297504
  H      39.195352     21.597936     43.214316
  N      40.557586     20.056651     42.775694
  H      41.234313     20.811237     42.559930
  C      40.971017     18.807720     42.599650
  N      40.235599     17.775518     42.992935
  H      39.367711     17.920517     43.482460
  H      40.533476     16.826465     42.837986
  N      42.153709     18.592844     42.051760
  H      42.646451     19.385109     41.622058
  H      42.525512     17.682806     41.838636
37
Coordinates from ORCA-job job E -836.414369479868
  C      44.890237     22.172535     40.303261
  H      45.211690     21.660431     39.396422
  H      45.446575     23.026599     40.693038
  C      43.784868     21.817911     40.968314
  C      43.312484     22.556164     42.251912
  O      44.070660     23.430676     42.684915
  O      42.189760     22.196910     42.720865
  O      43.025268     20.718900     40.572897
  C      42.154602     20.815540     39.411913
  H      41.663169     19.821975     39.398416
  C      42.904905     21.007700     38.133542
  H      43.543710     20.209241     37.744620
  C      42.886819     22.176108     37.458086
  C      42.092371     23.297494     37.965368
  H      42.271064     24.246975     37.469075
  C      41.245220     23.166870     39.002571
  H      40.671246     24.014992     39.388819
  C      41.014420     21.835066     39.659227
  H      40.939631     21.943204     40.757599
  O      39.761619     21.314746     39.144010
  H      39.461197     20.665967     39.778170
  C      43.733876     22.377986     36.183700
  O      44.396843     21.387775     35.817793
  O      43.654558     23.524716     35.708153
  C      39.388000     20.557000     43.513000
  H      39.587925     20.549885     44.584485
  H      38.492284     19.962460     43.297237
  H      39.192373     21.597517     43.217346
  N      40.560307     20.061565     42.774241
  H      41.233600     20.819070     42.562211
  C      40.984306     18.814006     42.602740
  N      40.250950     17.777626     42.991148
  H      39.380425     17.917510     43.477411
  H      40.549806     16.828453     42.838040
  N      42.173053     18.607841     42.062778
  H      42.660208     19.400198     41.628235
  H      42.553222     17.703083     41.848275
37
Coordinates from ORCA-job job E -836.415210927060
  C      44.890979     22.181850     40.305674
  H      45.208783     21.677528     39.391835
  H      45.445282     23.036664     40.694045
  C      43.789901     21.819847     40.974423
  C      43.321122     22.549608     42.263880
  O      44.094889     23.406006     42.715532
  O      42.193506     22.198798     42.724898
  O      43.028843     20.722557     40.576953
  C      42.152713     20.824184     39.420234
  H      41.652455     19.833416     39.411412
  C      42.899009     21.004176     38.137724
  H      43.521379     20.194172     37.743997
  C      42.886043     22.165972     37.454173
  C      42.104864     23.296676     37.963929
  H      42.260261     24.239227     37.428550
  C      41.263458     23.179299     39.009471
  H      40.685444     24.032414     39.380662
  C      41.022422     21.854817     39.670577
  H      40.959137     21.972310     40.768379
  O      39.759541     21.346690     39.170028
  H      39.491879     20.650091     39.796138
  C      43.719383     22.343376     36.155921
  O      44.375234     21.341552     35.799769
  O      43.631943     23.478619     35.638933
  C      39.388000     20.557000     43.513000
  H      39.587925     20.549885     44.584485
  H      38.494568     19.958891     43.296649
  H      39.188482     21.596832     43.217012
  N      40.562640     20.065591     42.775654
  H      41.236744     20.823411     42.567597
  C      40.991311     18.819110     42.610253
  N      40.256742     17.782061     42.993339
  H      39.382147     17.921142     43.472455
  H      40.558046     16.833355     42.841994
  N      42.184023     18.613824     42.080140
  H      42.670989     19.405410     41.644091
  H      42.563196     17.709237     41.867490
37
Coordinates from ORCA-job job E -836.415448495423
  C      44.891294     22.187092     40.303263
  H      45.200490     21.691534     39.380101
  H      45.455030     23.034329     40.697984
  C      43.793904     21.823080     40.975511
  C      43.336401     22.542915     42.276156
  O      44.128425     23.377727     42.748107
  O      42.207121     22.200777     42.732181
  O      43.029120     20.727995     40.577019
  C      42.148157     20.834422     39.423353
  H      41.644583     19.845931     39.417152
  C      42.892219     21.008351     38.140951
  H      43.507942     20.191797     37.750496
  C      42.889760     22.167967     37.462821
  C      42.110769     23.301123     37.968699
  H      42.274488     24.240868     37.440650
  C      41.263927     23.188619     39.005307
  H      40.690220     24.044701     39.374457
  C      41.024731     21.870177     39.676378
  H      40.975935     21.999149     40.773160
  O      39.756035     21.362694     39.193701
  H      39.501916     20.661060     39.812265
  C      43.712509     22.331995     36.149089
  O      44.355983     21.321639     35.786981
  O      43.622664     23.460530     35.611458
  C      39.388000     20.557000     43.513000
  H      39.587925     20.549885     44.584485
  H      38.495240     19.958378     43.296292
  H      39.187944     21.596211     43.216183
  N      40.563766     20.065567     42.778326
  H      41.240285     20.821191     42.573383
  C      40.996193     18.820238     42.618344
  N      40.259383     17.781894     42.993649
  H      39.379095     17.919853     43.462325
  H      40.561660     16.833366     42.843553
  N      42.192658     18.617560     42.096879
  H      42.680233     19.408559     41.659583
  H      42.571198     17.712926     41.883306
37
Coordinates from ORCA-job job E -836.415209219294
  C      44.893488     22.195946     40.309415
  H      45.200336     21.708167     39.383533
  H      45.448381     23.053354     40.685743
  C      43.802008     21.825081     40.986423
  C      43.339388     22.545460     42.277763
  O      44.116803     23.370183     42.734291
  O      42.205656     22.220381     42.729052
  O      43.034909     20.731919     40.587515
  C      42.145833     20.840313     39.437493
  H      41.639438     19.854119     39.440898
  C      42.885960     21.000990     38.152287
  H      43.494518     20.174978     37.771560
  C      42.880714     22.154064     37.461141
  C      42.101287     23.291344     37.955217
  H      42.254290     24.224673     37.408270
  C      41.260663     23.190363     38.996813
  H      40.686006     24.051345     39.353033
  C      41.029300     21.881661     39.691159
  H      41.001664     22.030615     40.786216
  O      39.753741     21.366690     39.239339
  H      39.524386     20.651179     39.849685
  C      43.690548     22.305093     36.129816
  O      44.325824     21.290588     35.763813
  O      43.597846     23.427284     35.575821
  C      39.388000     20.557000     43.513000
  H      39.587925     20.549885     44.584485
  H      38.499130     19.953435     43.294662
  H      39.183521     21.595002     43.215689
  N      40.569729     20.070567     42.784386
  H      41.242636     20.827936     42.577148
  C      41.013969     18.827898     42.634843
  N      40.278131     17.785890     43.000914
  H      39.386094     17.919699     43.449504
  H      40.584952     16.838224     42.854674
  N      42.216037     18.631395     42.124855
  H      42.704199     19.420947     41.685809
  H      42.596537     17.727394     41.910383
37
Coordinates from ORCA-job job E -836.415910567219
  C      44.892901     22.194973     40.313901
  H      45.191485     21.715779     39.379609
  H      45.460973     23.038666     40.707046
  C      43.806049     21.819381     40.997857
  C      43.360834     22.522790     42.308177
  O      44.170505     23.323585     42.796792
  O      42.208809     22.211431     42.741362
  O      43.034374     20.732347     40.594758
  C      42.143692     20.848083     39.447988
  H      41.627069     19.865775     39.456388
  C      42.882889     20.995775     38.158235
  H      43.487141     20.165215     37.780862
  C      42.864119     22.141012     37.441206
  C      42.092107     23.286805     37.928511
  H      42.235188     24.214301     37.355801
  C      41.266788     23.201426     38.990899
  H      40.695090     24.068232     39.340472
  C      41.035895     21.900986     39.703572
  H      41.019625     22.059250     40.798563
  O      39.751609     21.389171     39.269761
  H      39.534669     20.675964     39.878209
  C      43.675712     22.283437     36.115334
  O      44.315893     21.271553     35.767595
  O      43.584933     23.404709     35.561585
  C      39.388000     20.557000     43.513000
  H      39.587925     20.549885     44.584485
  H      38.499482     19.952982     43.294070
  H      39.183139     21.595569     43.217385
  N      40.569868     20.072185     42.783440
  H      41.244907     20.830143     42.582656
  C      41.016541     18.830691     42.634015
  N      40.279654     17.787126     42.992953
  H      39.383786     17.917715     43.435375
  H      40.587016     16.839811     42.846617
  N      42.223719     18.638388     42.132824
  H      42.711685     19.428234     41.694838
  H      42.608988     17.737917     41.915071
37
Coordinates from ORCA-job job E -836.415994296397
  C      44.878892     22.208410     40.302912
  H      45.175766     21.735927     39.365944
  H      45.459598     23.037850     40.715907
  C      43.793942     21.826710     40.986288
  C      43.358722     22.513486     42.312582
  O      44.178957     23.296587     42.822402
  O      42.212825     22.204578     42.745454
  O      43.026006     20.738007     40.583051
  C      42.129200     20.855398     39.441475
  H      41.607843     19.875192     39.455366
  C      42.859520     20.996551     38.145027
  H      43.462177     20.163825     37.770366
  C      42.850500     22.139874     37.435822
  C      42.086306     23.289332     37.926193
  H      42.251061     24.215083     37.375798
  C      41.257978     23.209545     38.983857
  H      40.699973     24.080154     39.342994
  C      41.030393     21.915966     39.706808
  H      41.032909     22.084304     40.801549
  O      39.734099     21.411118     39.297748
  H      39.548190     20.668389     39.902070
  C      43.665930     22.275011     36.119136
  O      44.302017     21.257376     35.779415
  O      43.584707     23.397696     35.572102
  C      39.388000     20.557000     43.513000
  H      39.587925     20.549885     44.584485
  H      38.500291     19.951695     43.293690
  H      39.182119     21.595402     43.216836
  N      40.571522     20.072913     42.784280
  H      41.248050     20.829696     42.585639
  C      41.020914     18.832255     42.638737
  N      40.283284     17.787479     42.992074
  H      39.383183     17.916643     43.425719
  H      40.593700     16.840870     42.847190
  N      42.229452     18.641804     42.142300
  H      42.714986     19.431858     41.700350
  H      42.615390     17.741372     41.925393
37
Coordinates from ORCA-job job E -836.416309497365
  C      44.884586     22.199555     40.311724
  H      45.171454     21.735239     39.365027
  H      45.459382     23.035316     40.710235
  C      43.805219     21.814960     41.002825
  C      43.376767     22.499090     42.330335
  O      44.201466     23.271336     42.839032
  O      42.218012     22.206147     42.753463
  O      43.026446     20.735128     40.593563
  C      42.126760     20.863812     39.453902
  H      41.597194     19.887980     39.468558
  C      42.856318     20.997512     38.157352
  H      43.453858     20.160103     37.784706
  C      42.848278     22.137001     37.442300
  C      42.085647     23.290696     37.924677
  H      42.243102     24.211593     37.359305
  C      41.260692     23.219415     38.985041
  H      40.700921     24.093057     39.334900
  C      41.035872     21.932764     39.720780
  H      41.050651     22.109336     40.813326
  O      39.733581     21.429393     39.330485
  H      39.554515     20.692167     39.932281
  C      43.657873     22.260070     36.116204
  O      44.283064     21.234099     35.772332
  O      43.581933     23.380688     35.562049
  C      39.388000     20.557000     43.513000
  H      39.587925     20.549885     44.584485
  H      38.500478     19.951813     43.293276
  H      39.182632     21.595456     43.217128
  N      40.571692     20.072755     42.785420
  H      41.248860     20.829553     42.588969
  C      41.022324     18.832981     42.640684
  N      40.282443     17.787220     42.986033
  H      39.376687     17.914557     43.408441
  H      40.593458     16.840834     42.841598
  N      42.233621     18.644762     42.150473
  H      42.721065     19.434329     41.710946
  H      42.620033     17.745927     41.929514
37
Coordinates from ORCA-job job E -836.416369778466
  C      44.881499     22.203341     40.317162
  H      45.169008     21.741192     39.372831
  H      45.465955     23.030235     40.726794
  C      43.801863     21.817713     41.005400
  C      43.375182     22.496410     42.333554
  O      44.201142     23.261841     42.844190
  O      42.223271     22.204623     42.762274
  O      43.025008     20.737604     40.597075
  C      42.124256     20.867597     39.458712
  H      41.592089     19.894200     39.476994
  C      42.854071     20.996935     38.163311
  H      43.450071     20.157587     37.793562
  C      42.840846     22.134050     37.439508
  C      42.076437     23.288646     37.915114
  H      42.220216     24.206202     37.331345
  C      41.257147     23.221865     38.980278
  H      40.692394     24.096283     39.320745
  C      41.038508     21.940515     39.726079
  H      41.064820     22.123549     40.815793
  O      39.734087     21.434329     39.353037
  H      39.557350     20.704196     39.952474
  C      43.651475     22.255799     36.113419
  O      44.278558     21.231511     35.771439
  O      43.574850     23.374731     35.555556
  C      39.388000     20.557000     43.513000
  H      39.587925     20.549885     44.584485
  H      38.500601     19.952003     43.292512
  H      39.184161     21.595581     43.216659
  N      40.573191     20.071258     42.788616
  H      41.251409     20.826565     42.590739
  C      41.024338     18.831865     42.644642
  N      40.283847     17.785504     42.985084
  H      39.371643     17.911602     43.393806
  H      40.596968     16.839402     42.843099
  N      42.236777     18.645382     42.156954
  H      42.725469     19.435486     41.719214
  H      42.624910     17.747252     41.933722
37
Coordinates from ORCA-job job E -836.416574550604
  C      44.882981     22.200706     40.321499
  H      45.161987     21.745786     39.370047
  H      45.468651     23.026053     40.729227
  C      43.808053     21.811184     41.015694
  C      43.389980     22.482441     42.349893
  O      44.228151     23.230742     42.870053
  O      42.226692     22.206034     42.768645
  O      43.023625     20.737637     40.604043
  C      42.121522     20.875921     39.468100
  H      41.582095     19.906331     39.487640
  C      42.848653     20.998467     38.170544
  H      43.442630     20.156796     37.802979
  C      42.832413     22.130657     37.438159
  C      42.069275     23.288519     37.907392
  H      42.214970     24.201383     37.321498
  C      41.254388     23.229819     38.976441
  H      40.693096     24.107085     39.314782
  C      41.043044     21.956311     39.738806
  H      41.084272     22.150295     40.827230
  O      39.730675     21.451614     39.388990
  H      39.575174     20.705805     39.983462
  C      43.637497     22.242184     36.106881
  O      44.260963     21.214862     35.768567
  O      43.559663     23.357382     35.540866
  C      39.388000     20.557000     43.513000
  H      39.587925     20.549885     44.584485
  H      38.501314     19.950834     43.292398
  H      39.183094     21.595550     43.216841
  N      40.573819     20.072590     42.788742
  H      41.252064     20.828418     42.592974
  C      41.027166     18.833594     42.647258
  N      40.284998     17.786227     42.980654
  H      39.367304     17.910610     43.377590
  H      40.601096     16.840586     42.841007
  N      42.243612     18.648609     42.168053
  H      42.732030     19.439240     41.731214
  H      42.633338     17.751512     41.943721
37
Coordinates from ORCA-job job E -836.416691000613
  C      44.878555     22.201532     40.321297
  H      45.151602     21.753234     39.363248
  H      45.463208     23.025914     40.728121
  C      43.807121     21.807129     41.019499
  C      43.395669     22.470275     42.361000
  O      44.239192     23.209107     42.887259
  O      42.229285     22.199749     42.777340
  O      43.019568     20.736836     40.605235
  C      42.117148     20.880862     39.470772
  H      41.571459     19.914408     39.490789
  C      42.840860     21.000019     38.170470
  H      43.436810     20.159387     37.803800
  C      42.826514     22.129906     37.438686
  C      42.063349     23.288895     37.904605
  H      42.210558     24.198392     37.319133
  C      41.249721     23.234503     38.974160
  H      40.689583     24.112585     39.311673
  C      41.045093     21.967324     39.746124
  H      41.099194     22.167663     40.832510
  O      39.726177     21.466346     39.416567
  H      39.581057     20.717106     40.010309
  C      43.632264     22.236471     36.108898
  O      44.255264     21.207125     35.775430
  O      43.556748     23.350952     35.543039
  C      39.388000     20.557000     43.513000
  H      39.587925     20.549885     44.584485
  H      38.501182     19.950830     43.292509
  H      39.183511     21.595761     43.216745
  N      40.574005     20.072089     42.788614
  H      41.253060     20.827177     42.592621
  C      41.026049     18.832506     42.646861
  N      40.282769     17.785333     42.976962
  H      39.361285     17.909362     43.363064
  H      40.601559     16.840015     42.841077
  N      42.243067     18.646572     42.170242
  H      42.731587     19.438095     41.734948
  H      42.633225     17.750028     41.945285
37
Coordinates from ORCA-job job E -836.416846359298
  C      44.876261     22.201603     40.325363
  H      45.143509     21.758100     39.364562
  H      45.466836     23.019945     40.737923
  C      43.807686     21.804494     41.026255
  C      43.405184     22.459386     42.374796
  O      44.256920     23.184907     42.906273
  O      42.236581     22.197202     42.790647
  O      43.015480     20.738003     40.611151
  C      42.112913     20.887889     39.478389
  H      41.559343     19.925564     39.500013
  C      42.833695     21.000403     38.175482
  H      43.431004     20.159293     37.810938
  C      42.816635     22.125251     37.435562
  C      42.051880     23.286766     37.893231
  H      42.194984     24.190579     37.298823
  C      41.243203     23.240567     38.967470
  H      40.682473     24.120464     39.299796
  C      41.048981     21.982474     39.757393
  H      41.121002     22.193764     40.841174
  O      39.721851     21.482485     39.457723
  H      39.591960     20.728868     40.051212
  C      43.621168     22.222529     36.103243
  O      44.243345     21.189470     35.776018
  O      43.545543     23.333566     35.530552
  C      39.388000     20.557000     43.513000
  H      39.587925     20.549885     44.584485
  H      38.501664     19.949979     43.292462
  H      39.183097     21.595786     43.216622
  N      40.575091     20.072661     42.789422
  H      41.255189     20.827446     42.593299
  C      41.026540     18.832531     42.647342
  N      40.281570     17.784929     42.971957
  H      39.353046     17.907925     43.340982
  H      40.604546     16.840268     42.841832
  N      42.245652     18.646344     42.175503
  H      42.734262     19.439577     41.743411
  H      42.637439     17.750505     41.950140
37
Coordinates from ORCA-job job E -836.417072422891
  C      44.868225     22.202980     40.329279
  H      45.124548     21.769741     39.360270
  H      45.463668     23.015835     40.746456
  C      43.806645     21.798752     41.037203
  C      43.417898     22.440141     42.396843
  O      44.279335     23.149479     42.932854
  O      42.251033     22.184366     42.817621
  O      43.007854     20.737768     40.620422
  C      42.107880     20.898736     39.488410
  H      41.544096     19.942842     39.506231
  C      42.828719     21.008301     38.186660
  H      43.431695     20.170203     37.823654
  C      42.803729     22.126923     37.436726
  C      42.031109     23.287273     37.883069
  H      42.159085     24.183332     37.271037
  C      41.229828     23.248289     38.962408
  H      40.661342     24.126963     39.284801
  C      41.055012     22.003048     39.774248
  H      41.154905     22.228456     40.852435
  O      39.718042     21.505394     39.521204
  H      39.605405     20.751406     40.117057
  C      43.609903     22.219222     36.105758
  O      44.242843     21.190463     35.791433
  O      43.523203     23.322790     35.520205
  C      39.388000     20.557000     43.513000
  H      39.587925     20.549885     44.584485
  H      38.500848     19.951216     43.293056
  H      39.184894     21.595855     43.216039
  N      40.574951     20.070458     42.790152
  H      41.257526     20.822644     42.591562
  C      41.020670     18.828332     42.643788
  N      40.271722     17.781764     42.962211
  H      39.332575     17.905356     43.302617
  H      40.599607     16.837501     42.843219
  N      42.240082     18.639080     42.174265
  H      42.731158     19.435350     41.750861
  H      42.631463     17.743563     41.947193
37
Coordinates from ORCA-job job E -836.417326039824
  C      44.860979     22.195618     40.338156
  H      45.105998     21.775011     39.362258
  H      45.464182     23.000091     40.763137
  C      43.807708     21.783231     41.053140
  C      43.437542     22.406205     42.427016
  O      44.314812     23.091559     42.971032
  O      42.268695     22.161640     42.849263
  O      42.998090     20.731427     40.632650
  C      42.093362     20.909994     39.506397
  H      41.513284     19.962736     39.523412
  C      42.809136     21.008756     38.200193
  H      43.412784     20.168750     37.841220
  C      42.778079     22.117472     37.434668
  C      42.003554     23.281700     37.868725
  H      42.120487     24.166825     37.237587
  C      41.215820     23.258878     38.960954
  H      40.647145     24.140763     39.274740
  C      41.059236     22.031560     39.805657
  H      41.197977     22.277752     40.877695
  O      39.705303     21.539883     39.616311
  H      39.616842     20.792662     40.220743
  C      43.581416     22.194118     36.097905
  O      44.219814     21.163784     35.796469
  O      43.488147     23.288615     35.495995
  C      39.388000     20.557000     43.513000
  H      39.587925     20.549885     44.584485
  H      38.499650     19.952982     43.293873
  H      39.186627     21.595860     43.215514
  N      40.573860     20.067942     42.790462
  H      41.260036     20.816895     42.591575
  C      41.012281     18.823689     42.640030
  N      40.255443     17.779702     42.949009
  H      39.304366     17.905667     43.256313
  H      40.585239     16.834858     42.842262
  N      42.232190     18.629940     42.175175
  H      42.728463     19.428087     41.762327
  H      42.619851     17.734340     41.944939
37
Coordinates from ORCA-job job E -836.417634704688
  C      44.864487     22.200576     40.378564
  H      45.095740     21.802528     39.391864
  H      45.476170     22.992975     40.819113
  C      43.821809     21.773526     41.098026
  C      43.472955     22.366143     42.490181
  O      44.367409     23.020891     43.044080
  O      42.299071     22.132088     42.911189
  O      42.998055     20.736437     40.666243
  C      42.095830     20.942088     39.541735
  H      41.501884     20.004695     39.547132
  C      42.811297     21.039666     38.237513
  H      43.431622     20.207153     37.890649
  C      42.759878     22.135614     37.454516
  C      41.961537     23.292562     37.864100
  H      42.047192     24.163971     37.205484
  C      41.188662     23.279296     38.964456
  H      40.600191     24.155975     39.258093
  C      41.078228     22.075242     39.853890
  H      41.266498     22.350175     40.911718
  O      39.714709     21.579264     39.751916
  H      39.662210     20.839184     40.370733
  C      43.561175     22.202430     36.116991
  O      44.215663     21.176072     35.831952
  O      43.447885     23.283338     35.494981
  C      39.388000     20.557000     43.513000
  H      39.587925     20.549885     44.584485
  H      38.496936     19.956867     43.294974
  H      39.190859     21.596206     43.214682
  N      40.572276     20.062303     42.792403
  H      41.263257     20.807699     42.594096
  C      41.000217     18.814532     42.633764
  N      40.230490     17.773992     42.927525
  H      39.262474     17.903219     43.183641
  H      40.562956     16.827626     42.841847
  N      42.224352     18.616140     42.177607
  H      42.730728     19.420253     41.788064
  H      42.609486     17.720539     41.940149
37
Coordinates from ORCA-job job E -836.417975996602
  C      44.846974     22.201597     40.380629
  H      45.057652     21.829956     39.373459
  H      45.460851     22.988792     40.825190
  C      43.823343     21.753959     41.119219
  C      43.500507     22.317142     42.531969
  O      44.401335     22.956701     43.083279
  O      42.333098     22.081280     42.963330
  O      42.988309     20.729028     40.682837
  C      42.079867     20.960354     39.568037
  H      41.468637     20.032556     39.566997
  C      42.789015     21.051805     38.257662
  H      43.409784     20.218306     37.912710
  C      42.719677     22.135178     37.453864
  C      41.917934     23.291623     37.859134
  H      41.990384     24.151380     37.188942
  C      41.166862     23.292791     38.979025
  H      40.580472     24.168743     39.273886
  C      41.085549     22.110780     39.898878
  H      41.315784     22.407180     40.940551
  O      39.716896     21.625475     39.868577
  H      39.687156     20.906500     40.513264
  C      43.515038     22.189036     36.108746
  O      44.190936     21.169368     35.842144
  O      43.379645     23.255942     35.465297
  C      39.388000     20.557000     43.513000
  H      39.587925     20.549885     44.584485
  H      38.490138     19.966310     43.297421
  H      39.200177     21.597506     43.213723
  N      40.564941     20.049866     42.790606
  H      41.262753     20.789006     42.593121
  C      40.975919     18.797340     42.621419
  N      40.194109     17.764843     42.911127
  H      39.224526     17.902492     43.138210
  H      40.520000     16.814973     42.842876
  N      42.196900     18.588979     42.162702
  H      42.716008     19.396525     41.795393
  H      42.572831     17.691652     41.917032
37
Coordinates from ORCA-job job E -836.418456768014
  C      44.853917     22.189811     40.414113
  H      45.060251     21.835176     39.404512
  H      45.468075     22.971210     40.862663
  C      43.836330     21.730590     41.150760
  C      43.523062     22.270209     42.570458
  O      44.432827     22.893939     43.130114
  O      42.356009     22.031067     43.000830
  O      42.993852     20.716514     40.706455
  C      42.082999     20.970490     39.598141
  H      41.465318     20.047365     39.587207
  C      42.790876     21.066882     38.286710
  H      43.413010     20.232629     37.947159
  C      42.710864     22.143382     37.483811
  C      41.897918     23.291144     37.888233
  H      41.947840     24.144403     37.207912
  C      41.156421     23.294809     39.010843
  H      40.561842     24.166260     39.302322
  C      41.102013     22.127535     39.943569
  H      41.360008     22.445405     40.969993
  O      39.738405     21.645730     39.963110
  H      39.729804     20.949553     40.635732
  C      43.490763     22.198073     36.130200
  O      44.185682     21.193360     35.865737
  O      43.326994     23.254495     35.477413
  C      39.388000     20.557000     43.513000
  H      39.587925     20.549885     44.584485
  H      38.485937     19.971641     43.298845
  H      39.205169     21.598432     43.212886
  N      40.560869     20.041691     42.789718
  H      41.263466     20.775766     42.596370
  C      40.963982     18.787297     42.617308
  N      40.173673     17.760595     42.903016
  H      39.208106     17.904286     43.117929
  H      40.491720     16.807849     42.844433
  N      42.182996     18.572910     42.158298
  H      42.715096     19.379522     41.808823
  H      42.547920     17.673236     41.903739
37
Coordinates from ORCA-job job E -836.418766860038
  C      44.842658     22.209942     40.417355
  H      45.023592     21.897332     39.376340
  H      45.458432     22.982286     40.866080
  C      43.845029     21.722626     41.168979
  C      43.557158     22.216274     42.614888
  O      44.483979     22.806132     43.202273
  O      42.388205     21.978240     43.036263
  O      42.997603     20.719037     40.719868
  C      42.084475     20.984913     39.620453
  H      41.466925     20.064536     39.610425
  C      42.790210     21.077221     38.305088
  H      43.420849     20.238499     37.992702
  C      42.685578     22.136960     37.487171
  C      41.841251     23.273173     37.865564
  H      41.851750     24.114110     37.157785
  C      41.111471     23.286600     38.989752
  H      40.497697     24.155612     39.260334
  C      41.113408     22.143845     39.972272
  H      41.415543     22.514036     40.979249
  O      39.754462     21.632362     40.082715
  H      39.797490     20.975663     40.794485
  C      43.444049     22.186046     36.126954
  O      44.159212     21.196465     35.873702
  O      43.245633     23.227054     35.457762
  C      39.388000     20.557000     43.513000
  H      39.587925     20.549885     44.584485
  H      38.485142     19.971726     43.298769
  H      39.205373     21.599242     43.212969
  N      40.562364     20.038694     42.791312
  H      41.269887     20.770153     42.608554
  C      40.972263     18.785489     42.628938
  N      40.175613     17.760250     42.902127
  H      39.203961     17.904260     43.096159
  H      40.491936     16.805646     42.855890
  N      42.194247     18.572776     42.177756
  H      42.734594     19.377521     41.839799
  H      42.554140     17.672616     41.913125
37
Coordinates from ORCA-job job E -836.419588397988
  C      44.872063     22.199400     40.447802
  H      45.055862     21.890948     39.416617
  H      45.504473     22.954120     40.917956
  C      43.869079     21.713166     41.184216
  C      43.583368     22.193932     42.628428
  O      44.504157     22.788567     43.205879
  O      42.416900     21.944319     43.056712
  O      43.016959     20.716455     40.729540
  C      42.105982     20.991813     39.633540
  H      41.486292     20.073718     39.616589
  C      42.807699     21.093008     38.315263
  H      43.442733     20.257658     38.006337
  C      42.678949     22.146044     37.490492
  C      41.820672     23.270590     37.872403
  H      41.823264     24.108961     37.175919
  C      41.102284     23.280348     39.003836
  H      40.488645     24.143111     39.286802
  C      41.136902     22.147403     39.993830
  H      41.451958     22.532567     40.983762
  O      39.786239     21.624925     40.148274
  H      39.837475     21.028289     40.906063
  C      43.432555     22.202737     36.133549
  O      44.170711     21.225662     35.890847
  O      43.208437     23.235697     35.461361
  C      39.388000     20.557000     43.513000
  H      39.587925     20.549885     44.584485
  H      38.483504     19.973650     43.298894
  H      39.208391     21.600594     43.214188
  N      40.561392     20.034921     42.790974
  H      41.273808     20.766801     42.613583
  C      40.970700     18.780643     42.632999
  N      40.168360     17.758215     42.901044
  H      39.182485     17.903466     43.075608
  H      40.486479     16.802567     42.867170
  N      42.191979     18.562995     42.179851
  H      42.741046     19.365451     41.852114
  H      42.550121     17.663856     41.910203
37
Coordinates from ORCA-job job E -836.420045614733
  C      44.882544     22.202880     40.453119
  H      45.062068     21.903479     39.426317
  H      45.522329     22.949546     40.934833
  C      43.888291     21.702549     41.195767
  C      43.614575     22.166795     42.647904
  O      44.534840     22.759427     43.219555
  O      42.449906     21.913954     43.083525
  O      43.027548     20.714882     40.732618
  C      42.117558     21.008601     39.640087
  H      41.483361     20.097773     39.610202
  C      42.812321     21.115440     38.318897
  H      43.449797     20.285861     38.004023
  C      42.654076     22.157678     37.478118
  C      41.790594     23.274876     37.865902
  H      41.762531     24.103641     37.146061
  C      41.099339     23.288533     39.024538
  H      40.477138     24.144681     39.307267
  C      41.157859     22.170177     40.016147
  H      41.491540     22.565260     40.989409
  O      39.811064     21.661599     40.210782
  H      39.878754     21.107098     41.017611
  C      43.388848     22.207721     36.105248
  O      44.134898     21.235196     35.859302
  O      43.141027     23.229062     35.422569
  C      39.388000     20.557000     43.513000
  H      39.587925     20.549885     44.584485
  H      38.481766     19.976757     43.299938
  H      39.211930     21.600829     43.215093
  N      40.557715     20.031091     42.789201
  H      41.274052     20.761457     42.620388
  C      40.964330     18.775517     42.632283
  N      40.163324     17.754013     42.902131
  H      39.185429     17.898957     43.082518
  H      40.482825     16.799457     42.874997
  N      42.184352     18.554211     42.176042
  H      42.738564     19.357191     41.855174
  H      42.541553     17.657114     41.902248
37
Coordinates from ORCA-job job E -836.420807199074
  C      44.904527     22.202255     40.484803
  H      45.066002     21.932279     39.436821
  H      45.552818     22.936156     40.978240
  C      43.916076     21.686495     41.225419
  C      43.652741     22.123520     42.687704
  O      44.582466     22.696418     43.275639
  O      42.484509     21.874458     43.118927
  O      43.045106     20.713190     40.746191
  C      42.141719     21.030828     39.654227
  H      41.494718     20.128441     39.612527
  C      42.836442     21.142494     38.334706
  H      43.473117     20.312789     38.019560
  C      42.656663     22.174731     37.484628
  C      41.782423     23.284027     37.870526
  H      41.741597     24.105468     37.150878
  C      41.099714     23.299679     39.031381
  H      40.473001     24.152339     39.314171
  C      41.191517     22.197901     40.040998
  H      41.552131     22.617755     40.998687
  O      39.853213     21.689079     40.283978
  H      39.933650     21.174656     41.106885
  C      43.370209     22.218825     36.098654
  O      44.120357     21.252226     35.846709
  O      43.102007     23.229781     35.407796
  C      39.388000     20.557000     43.513000
  H      39.587925     20.549885     44.584485
  H      38.483421     19.974686     43.299273
  H      39.210704     21.600545     43.215495
  N      40.559110     20.032407     42.790242
  H      41.281696     20.759888     42.635500
  C      40.966854     18.778169     42.635988
  N      40.161185     17.754931     42.889117
  H      39.177539     17.897252     43.059377
  H      40.484008     16.802904     42.861462
  N      42.188489     18.557372     42.184231
  H      42.749960     19.358056     41.870496
  H      42.540195     17.661522     41.900317
37
Coordinates from ORCA-job job E -836.420888988426
  C      44.901473     22.228031     40.497599
  H      45.055899     21.983765     39.445345
  H      45.524440     22.972746     40.965358
  C      43.923841     21.681132     41.236972
  C      43.658159     22.089145     42.699821
  O      44.582952     22.657656     43.295602
  O      42.502740     21.825556     43.143342
  O      43.058776     20.714152     40.748831
  C      42.177045     21.037411     39.650412
  H      41.523057     20.144725     39.598828
  C      42.875698     21.157130     38.333573
  H      43.536022     20.338933     38.026250
  C      42.664625     22.173146     37.474247
  C      41.744489     23.263399     37.832531
  H      41.673352     24.072055     37.104728
  C      41.059272     23.275065     38.981844
  H      40.401371     24.116533     39.245973
  C      41.224848     22.197299     40.036721
  H      41.618811     22.659446     40.968703
  O      39.915547     21.660418     40.352519
  H      40.000195     21.240931     41.225578
  C      43.360323     22.207711     36.080963
  O      44.117831     21.244009     35.824758
  O      43.068832     23.203181     35.378155
  C      39.388000     20.557000     43.513000
  H      39.587925     20.549885     44.584485
  H      38.490519     19.965062     43.298399
  H      39.201458     21.598611     43.217383
  N      40.564184     20.043812     42.792134
  H      41.283150     20.771626     42.648983
  C      40.983187     18.791129     42.650318
  N      40.187941     17.762484     42.901168
  H      39.210595     17.899312     43.081827
  H      40.524159     16.814750     42.876877
  N      42.204087     18.573424     42.195103
  H      42.761895     19.373722     41.878941
  H      42.558896     17.680072     41.906596
37
Coordinates from ORCA-job job E -836.421352752685
  C      44.930658     22.203165     40.502587
  H      45.070263     21.969430     39.440968
  H      45.577687     22.927170     40.987349
  C      43.948351     21.659940     41.233903
  C      43.694812     22.056141     42.710002
  O      44.618823     22.616090     43.313810
  O      42.530867     21.803308     43.143265
  O      43.070213     20.708133     40.725681
  C      42.190936     21.058267     39.627965
  H      41.516840     20.177376     39.570183
  C      42.887249     21.180200     38.310616
  H      43.539052     20.359534     37.992104
  C      42.686003     22.195364     37.469067
  C      41.778766     23.286472     37.841094
  H      41.691762     24.089139     37.093703
  C      41.104252     23.302185     39.003557
  H      40.453966     24.145113     39.273031
  C      41.253510     22.230418     40.036200
  H      41.660687     22.687387     40.960741
  O      39.940888     21.724215     40.355776
  H      40.031699     21.329354     41.220619
  C      43.374504     22.223296     36.078338
  O      44.119144     21.253657     35.826303
  O      43.086785     23.216466     35.376375
  C      39.388000     20.557000     43.513000
  H      39.587925     20.549885     44.584485
  H      38.493216     19.962138     43.297274
  H      39.198344     21.597798     43.218083
  N      40.563307     20.048320     42.792712
  H      41.289963     20.773573     42.672388
  C      40.983297     18.799450     42.655673
  N      40.182166     17.765926     42.881153
  H      39.205525     17.900125     43.086338
  H      40.512443     16.821440     42.824405
  N      42.203968     18.585995     42.204430
  H      42.760275     19.378859     41.871930
  H      42.550006     17.695690     41.902372
37
Coordinates from ORCA-job job E -836.420737882242
  C      44.937547     22.206168     40.511809
  H      45.071303     21.985679     39.444974
  H      45.623221     22.897001     41.052386
  C      43.958784     21.663117     41.238399
  C      43.725169     22.040971     42.728036
  O      44.671507     22.575352     43.332144
  O      42.550060     21.798510     43.153677
  O      43.073443     20.717923     40.728320
  C      42.192543     21.076631     39.631657
  H      41.517186     20.197232     39.573391
  C      42.890796     21.191882     38.313520
  H      43.545974     20.372729     38.005684
  C      42.660952     22.192872     37.441682
  C      41.757888     23.279721     37.817989
  H      41.664028     24.072981     37.065961
  C      41.103134     23.307271     38.998430
  H      40.461660     24.145291     39.277289
  C      41.266872     22.256939     40.042158
  H      41.702110     22.734049     40.950850
  O      39.941053     21.750724     40.425511
  H      40.087180     21.369067     41.331206
  C      43.338543     22.216183     36.040548
  O      44.108947     21.261756     35.815080
  O      43.016596     23.196153     35.318713
  C      39.388000     20.557000     43.513000
  H      39.587925     20.549885     44.584485
  H      38.489056     19.965918     43.299132
  H      39.199734     21.599393     43.218329
  N      40.561070     20.042396     42.791296
  H      41.287844     20.768647     42.667068
  C      40.984659     18.792661     42.656064
  N      40.181234     17.761413     42.883611
  H      39.197055     17.897618     43.065707
  H      40.505832     16.811453     42.841217
  N      42.209851     18.581717     42.211518
  H      42.768153     19.378883     41.885221
  H      42.559167     17.691965     41.907079
37
Coordinates from ORCA-job job E -836.422152177912
  C      44.943453     22.215799     40.521632
  H      45.086664     21.987400     39.469476
  H      45.596406     22.931066     41.023515
  C      43.967883     21.663245     41.253920
  C      43.721410     22.045800     42.731058
  O      44.667426     22.581245     43.337555
  O      42.552693     21.804405     43.162851
  O      43.083821     20.721616     40.743260
  C      42.214008     21.085665     39.640317
  H      41.533429     20.210927     39.575894
  C      42.917184     21.200262     38.325759
  H      43.573686     20.385223     38.008708
  C      42.673746     22.197977     37.436014
  C      41.767434     23.287512     37.803873
  H      41.681635     24.078138     37.058790
  C      41.112304     23.315782     38.982942
  H      40.464622     24.154176     39.256488
  C      41.286847     22.265837     40.039206
  H      41.715382     22.738554     40.944370
  O      39.981509     21.762575     40.399980
  H      40.103380     21.370012     41.277527
  C      43.344021     22.213811     36.024433
  O      44.095002     21.250162     35.770503
  O      43.041315     23.199528     35.318703
  C      39.388000     20.557000     43.513000
  H      39.587925     20.549885     44.584485
  H      38.491282     19.963373     43.298329
  H      39.197779     21.598080     43.217188
  N      40.563590     20.045410     42.794129
  H      41.288809     20.770707     42.671348
  C      40.984875     18.795002     42.654460
  N      40.182044     17.763000     42.878060
  H      39.200780     17.900045     43.062083
  H      40.511504     16.813964     42.829305
  N      42.214332     18.584213     42.216388
  H      42.769619     19.385367     41.890586
  H      42.565024     17.694279     41.914793
37
Coordinates from ORCA-job job E -836.421984641933
  C      44.949901     22.208219     40.530228
  H      45.081975     21.998577     39.458179
  H      45.597193     22.922143     41.025521
  C      43.969884     21.651732     41.252949
  C      43.717170     22.028203     42.728015
  O      44.646261     22.570727     43.327270
  O      42.555704     21.779160     43.165926
  O      43.082818     20.716211     40.734887
  C      42.213876     21.088226     39.632991
  H      41.527553     20.218609     39.568950
  C      42.909777     21.203330     38.311326
  H      43.573004     20.389672     37.996337
  C      42.696499     22.203531     37.458415
  C      41.773470     23.289899     37.812260
  H      41.671709     24.076202     37.054158
  C      41.103976     23.317457     38.971653
  H      40.442384     24.157007     39.231966
  C      41.294305     22.271670     40.041741
  H      41.740190     22.752104     40.939835
  O      39.994234     21.768013     40.427825
  H      40.114247     21.397990     41.305574
  C      43.358257     22.213823     36.044025
  O      44.115412     21.251591     35.797899
  O      43.035316     23.189716     35.316092
  C      39.388000     20.557000     43.513000
  H      39.587925     20.549885     44.584485
  H      38.494484     19.959340     43.297216
  H      39.193513     21.596884     43.216710
  N      40.567540     20.051355     42.795843
  H      41.293703     20.775878     42.677904
  C      40.987839     18.801228     42.655554
  N      40.183860     17.768307     42.872001
  H      39.205901     17.907086     43.063706
  H      40.513268     16.820383     42.813474
  N      42.213397     18.589761     42.213349
  H      42.765032     19.389013     41.882391
  H      42.558377     17.698137     41.909329
37
Coordinates from ORCA-job job E -836.422881141217
  C      44.948285     22.218039     40.525237
  H      45.081808     22.011161     39.457861
  H      45.605853     22.922503     41.035056
  C      43.972004     21.656532     41.250310
  C      43.728057     22.020881     42.735148
  O      44.665893     22.553424     43.343525
  O      42.562905     21.773542     43.167718
  O      43.084582     20.724366     40.729191
  C      42.222711     21.098977     39.624775
  H      41.534929     20.231359     39.557976
  C      42.929032     21.212554     38.310762
  H      43.592710     20.398402     38.001008
  C      42.696810     22.206260     37.437574
  C      41.774862     23.291597     37.792439
  H      41.673572     24.074243     37.035860
  C      41.114403     23.323943     38.961335
  H      40.453205     24.160869     39.222554
  C      41.307748     22.286282     40.028738
  H      41.758043     22.773295     40.917642
  O      40.009096     21.785248     40.430977
  H      40.149674     21.430846     41.326206
  C      43.367568     22.215973     36.035735
  O      44.117187     21.249166     35.785537
  O      43.064370     23.197583     35.330262
  C      39.388000     20.557000     43.513000
  H      39.587925     20.549885     44.584485
  H      38.494103     19.959757     43.297441
  H      39.193236     21.597150     43.217481
  N      40.566617     20.050400     42.795631
  H      41.292803     20.776277     42.682250
  C      40.990501     18.801666     42.655121
  N      40.186489     17.767507     42.867359
  H      39.208374     17.904884     43.062746
  H      40.510421     16.818956     42.800749
  N      42.217773     18.595118     42.214608
  H      42.766989     19.395265     41.881812
  H      42.565298     17.706018     41.905405
37
Coordinates from ORCA-job job E -836.422865100907
  C      44.944166     22.221275     40.522530
  H      45.086577     22.007000     39.469926
  H      45.606870     22.921559     41.041348
  C      43.969524     21.659760     41.249483
  C      43.728355     22.023489     42.735655
  O      44.679019     22.542933     43.348968
  O      42.557899     21.784468     43.164437
  O      43.082075     20.727969     40.732245
  C      42.223232     21.103653     39.626383
  H      41.535253     20.237550     39.557566
  C      42.935644     21.215916     38.318254
  H      43.599731     20.405055     38.006186
  C      42.692155     22.206765     37.429256
  C      41.772963     23.290730     37.783925
  H      41.671624     24.069441     37.026171
  C      41.121729     23.326310     38.963325
  H      40.461254     24.158524     39.225318
  C      41.313891     22.294576     40.029019
  H      41.773074     22.779597     40.913051
  O      40.012802     21.805611     40.438276
  H      40.164643     21.430056     41.316158
  C      43.367209     22.213916     36.028108
  O      44.130111     21.250656     35.800744
  O      43.043281     23.186835     35.292266
  C      39.388000     20.557000     43.513000
  H      39.587925     20.549885     44.584485
  H      38.493486     19.960227     43.297921
  H      39.193089     21.597010     43.216407
  N      40.566186     20.048696     42.797235
  H      41.289624     20.774519     42.677942
  C      40.989875     18.799557     42.652988
  N      40.187448     17.766313     42.867049
  H      39.207811     17.905238     43.056561
  H      40.509924     16.815643     42.797805
  N      42.220089     18.594754     42.217901
  H      42.765367     19.399086     41.883887
  H      42.569721     17.706421     41.908872
37
Coordinates from ORCA-job job E -836.423531727399
  C      44.954910     22.220983     40.533571
  H      45.089009     22.021345     39.468260
  H      45.617151     22.917576     41.053542
  C      43.979059     21.656709     41.253946
  C      43.738300     22.014105     42.738882
  O      44.686729     22.529696     43.349516
  O      42.568827     21.776607     43.169183
  O      43.086462     20.732060     40.730456
  C      42.231977     21.115059     39.622464
  H      41.537055     20.253361     39.552429
  C      42.943233     21.222951     38.310850
  H      43.609721     20.411851     38.002523
  C      42.702005     22.208790     37.422684
  C      41.777135     23.291785     37.769871
  H      41.667151     24.064137     37.002534
  C      41.126453     23.333487     38.947797
  H      40.463595     24.165832     39.206162
  C      41.330634     22.311206     40.026145
  H      41.802432     22.806053     40.900343
  O      40.035698     21.824909     40.458605
  H      40.199244     21.462212     41.341780
  C      43.368750     22.209992     36.014774
  O      44.124326     21.245479     35.775505
  O      43.053372     23.184087     35.292020
  C      39.388000     20.557000     43.513000
  H      39.587925     20.549885     44.584485
  H      38.494887     19.958258     43.297408
  H      39.190879     21.596519     43.216138
  N      40.568137     20.051258     42.798439
  H      41.292128     20.777779     42.682587
  C      40.992842     18.802678     42.652660
  N      40.189219     17.768254     42.859692
  H      39.209185     17.907151     43.049289
  H      40.511968     16.817967     42.784153
  N      42.223765     18.599767     42.219244
  H      42.766317     19.404932     41.883950
  H      42.572580     17.711823     41.907974
37
Coordinates from ORCA-job job E -836.423848117650
  C      44.955931     22.224169     40.532426
  H      45.088760     22.032200     39.464007
  H      45.617256     22.917522     41.052774
  C      43.980207     21.656105     41.252157
  C      43.741065     22.007974     42.739803
  O      44.685380     22.522312     43.349963
  O      42.573462     21.768236     43.170678
  O      43.085145     20.735921     40.726399
  C      42.233818     21.121078     39.617156
  H      41.536873     20.261997     39.546652
  C      42.945541     21.226930     38.304409
  H      43.615138     20.416774     37.999567
  C      42.709266     22.210761     37.421337
  C      41.779678     23.291207     37.765341
  H      41.669231     24.059424     37.000108
  C      41.125041     23.335300     38.936436
  H      40.457749     24.166029     39.193354
  C      41.339279     22.319802     40.018632
  H      41.820365     22.818057     40.880255
  O      40.053965     21.837713     40.468009
  H      40.232151     21.487011     41.357720
  C      43.374636     22.209347     36.013071
  O      44.130425     21.245023     35.774296
  O      43.058640     23.181555     35.290237
  C      39.388000     20.557000     43.513000
  H      39.587925     20.549885     44.584485
  H      38.495185     19.958236     43.296689
  H      39.191266     21.596177     43.215115
  N      40.569289     20.050537     42.802040
  H      41.293449     20.778036     42.689817
  C      40.994431     18.802696     42.652739
  N      40.189671     17.767752     42.854393
  H      39.212078     17.907639     43.051861
  H      40.510023     16.817273     42.767958
  N      42.226194     18.603146     42.220426
  H      42.762066     19.410258     41.880966
  H      42.576031     17.716340     41.906414
37
Coordinates from ORCA-job job E -836.424203191642
  C      44.956910     22.223559     40.533139
  H      45.091798     22.035724     39.466661
  H      45.619112     22.912305     41.056874
  C      43.979851     21.654862     41.250131
  C      43.742662     22.003637     42.739397
  O      44.689487     22.508264     43.351222
  O      42.573211     21.769420     43.168944
  O      43.081634     20.738426     40.724340
  C      42.231738     21.125809     39.614123
  H      41.533088     20.268988     39.543404
  C      42.944457     21.228637     38.301233
  H      43.618082     20.420174     38.000242
  C      42.708897     22.209755     37.417027
  C      41.775020     23.287856     37.755971
  H      41.657233     24.050193     36.983356
  C      41.123421     23.336931     38.927723
  H      40.452492     24.165649     39.182262
  C      41.346903     22.330267     40.017499
  H      41.846505     22.833330     40.867884
  O      40.062873     21.858473     40.495147
  H      40.261492     21.498109     41.372495
  C      43.376296     22.207688     36.010959
  O      44.132282     21.244111     35.772473
  O      43.062818     23.179938     35.290918
  C      39.388000     20.557000     43.513000
  H      39.587925     20.549885     44.584485
  H      38.495758     19.957583     43.295958
  H      39.191145     21.595750     43.213429
  N      40.571952     20.050002     42.806696
  H      41.295042     20.778083     42.691711
  C      40.995684     18.802059     42.651708
  N      40.190355     17.768037     42.851255
  H      39.213892     17.910269     43.048830
  H      40.508631     16.816907     42.757012
  N      42.227931     18.604247     42.222186
  H      42.756977     19.414425     41.879492
  H      42.577662     17.718105     41.906821
37
Coordinates from ORCA-job job E -836.424737592283
  C      44.959437     22.223257     40.536794
  H      45.093093     22.046209     39.465666
  H      45.624681     22.905221     41.068041
  C      43.980908     21.654637     41.249658
  C      43.744265     22.001493     42.737322
  O      44.696209     22.493680     43.351452
  O      42.572559     21.773018     43.165558
  O      43.078837     20.742837     40.724670
  C      42.232366     21.132267     39.612033
  H      41.531312     20.277031     39.539346
  C      42.950785     21.231534     38.301833
  H      43.627720     20.423856     38.006842
  C      42.709123     22.207833     37.408289
  C      41.766641     23.282457     37.738319
  H      41.636372     24.036837     36.952753
  C      41.123300     23.339145     38.916966
  H      40.445244     24.164116     39.166868
  C      41.359393     22.344209     40.013148
  H      41.877847     22.853554     40.844574
  O      40.086635     21.886860     40.522440
  H      40.313345     21.515987     41.386523
  C      43.380205     22.205205     36.004491
  O      44.142838     21.244365     35.773639
  O      43.062364     23.174314     35.279040
  C      39.388000     20.557000     43.513000
  H      39.587925     20.549885     44.584485
  H      38.496669     19.956481     43.294617
  H      39.191299     21.595424     43.211427
  N      40.575782     20.049109     42.814170
  H      41.297173     20.778915     42.697127
  C      40.997615     18.801321     42.649375
  N      40.191817     17.768078     42.846751
  H      39.217230     17.912302     43.048779
  H      40.506485     16.816835     42.739670
  N      42.230829     18.606754     42.222735
  H      42.750263     19.421561     41.876574
  H      42.581792     17.722346     41.904198
37
Coordinates from ORCA-job job E -836.425523004255
  C      44.960791     22.219817     40.533938
  H      45.093720     22.052764     39.464947
  H      45.627279     22.895985     41.066043
  C      43.983291     21.648566     41.246784
  C      43.753848     21.989034     42.737257
  O      44.716331     22.460408     43.359074
  O      42.580333     21.771759     43.166132
  O      43.073515     20.745018     40.719413
  C      42.230199     21.143364     39.605291
  H      41.518422     20.293446     39.529721
  C      42.953835     21.237946     38.298035
  H      43.629491     20.429192     38.005698
  C      42.707581     22.207680     37.396230
  C      41.756504     23.278178     37.717439
  H      41.622320     24.023292     36.927980
  C      41.118497     23.344733     38.899726
  H      40.436502     24.165703     39.147683
  C      41.375823     22.368875     40.008450
  H      41.926115     22.893021     40.814125
  O      40.117407     21.930084     40.572067
  H      40.382993     21.559401     41.428074
  C      43.384533     22.201206     35.995276
  O      44.154306     21.243095     35.774108
  O      43.061126     23.163535     35.258966
  C      39.388000     20.557000     43.513000
  H      39.587925     20.549885     44.584485
  H      38.498260     19.955065     43.292819
  H      39.192286     21.595032     43.209828
  N      40.579687     20.048248     42.823071
  H      41.300320     20.779242     42.707577
  C      40.997989     18.801190     42.646378
  N      40.191047     17.767255     42.836844
  H      39.216917     17.911275     43.043761
  H      40.502172     16.817722     42.712939
  N      42.231659     18.610731     42.221686
  H      42.741461     19.429515     41.871116
  H      42.584379     17.729949     41.895368
37
Coordinates from ORCA-job job E -836.426740116221
  C      44.963324     22.223595     40.529851
  H      45.094178     22.072658     39.461863
  H      45.642074     22.881941     41.079012
  C      43.986758     21.645270     41.242238
  C      43.766680     21.970353     42.740657
  O      44.735479     22.419425     43.371249
  O      42.588418     21.765031     43.167962
  O      43.070097     20.752916     40.709034
  C      42.235189     21.160565     39.592168
  H      41.512009     20.319025     39.515617
  C      42.963940     21.249808     38.287459
  H      43.645806     20.442825     38.003572
  C      42.707525     22.209198     37.375834
  C      41.739152     23.270011     37.683740
  H      41.592741     24.001135     36.886324
  C      41.105079     23.346650     38.866089
  H      40.410934     24.159670     39.107404
  C      41.402535     22.399250     39.994454
  H      41.993728     22.948325     40.759896
  O      40.175838     21.981383     40.632488
  H      40.488833     21.629187     41.483625
  C      43.389374     22.197460     35.976321
  O      44.168498     21.244269     35.763787
  O      43.057873     23.149922     35.227867
  C      39.388000     20.557000     43.513000
  H      39.587925     20.549885     44.584485
  H      38.501263     19.952011     43.290193
  H      39.193060     21.594426     43.208149
  N      40.585046     20.048379     42.834905
  H      41.302945     20.781120     42.724986
  C      40.999773     18.802870     42.643151
  N      40.193571     17.766931     42.824886
  H      39.223407     17.909062     43.047327
  H      40.501532     16.820207     42.676948
  N      42.234118     18.618725     42.219274
  H      42.731305     19.442716     41.862866
  H      42.590081     17.744170     41.880290
37
Coordinates from ORCA-job job E -836.428786580086
  C      44.970624     22.219221     40.518634
  H      45.095398     22.087311     39.453006
  H      45.664801     22.856108     41.081183
  C      43.992427     21.637519     41.230708
  C      43.784873     21.947593     42.735371
  O      44.759803     22.371520     43.372678
  O      42.601146     21.761542     43.165094
  O      43.066587     20.761362     40.690013
  C      42.241032     21.183307     39.573105
  H      41.498899     20.357673     39.502243
  C      42.971046     21.265101     38.269275
  H      43.662074     20.461155     37.996686
  C      42.702569     22.212116     37.349260
  C      41.715048     23.257282     37.646833
  H      41.556345     23.968952     36.844530
  C      41.086176     23.345575     38.830041
  H      40.378825     24.146395     39.066849
  C      41.443032     22.441783     39.977755
  H      42.092079     23.024154     40.675777
  O      40.274410     22.064194     40.727246
  H      40.647586     21.762460     41.578421
  C      43.399914     22.196453     35.955939
  O      44.197625     21.252757     35.760731
  O      43.059408     23.134415     35.189856
  C      39.388000     20.557000     43.513000
  H      39.587925     20.549885     44.584485
  H      38.505541     19.948112     43.285811
  H      39.197114     21.594047     43.205988
  N      40.591888     20.047047     42.853581
  H      41.305641     20.781737     42.756690
  C      40.997907     18.804074     42.636923
  N      40.192223     17.764362     42.804567
  H      39.226733     17.901107     43.058922
  H      40.496425     16.823084     42.618524
  N      42.233433     18.628235     42.210510
  H      42.715703     19.458300     41.847070
  H      42.595491     17.765083     41.848149
37
Coordinates from ORCA-job job E -836.431242741570
  C      44.986603     22.215475     40.516890
  H      45.104187     22.100581     39.449947
  H      45.690928     22.837253     41.086532
  C      44.001746     21.634771     41.223764
  C      43.800525     21.931363     42.732775
  O      44.774529     22.336927     43.378469
  O      42.607414     21.766599     43.157613
  O      43.070565     20.773122     40.671992
  C      42.252368     21.209240     39.557233
  H      41.491717     20.401147     39.500513
  C      42.977324     21.280213     38.249891
  H      43.678911     20.478742     37.993393
  C      42.699516     22.216070     37.325827
  C      41.691278     23.245183     37.610583
  H      41.512868     23.936384     36.796236
  C      41.067028     23.342974     38.794357
  H      40.343446     24.133166     39.020376
  C      41.485939     22.483212     39.958751
  H      42.179910     23.098085     40.583334
  O      40.389370     22.146018     40.805238
  H      40.806339     21.906529     41.657217
  C      43.409322     22.199002     35.934835
  O      44.224419     21.267180     35.753157
  O      43.063578     23.125242     35.158770
  C      39.388000     20.557000     43.513000
  H      39.587925     20.549885     44.584485
  H      38.508541     19.945572     43.281998
  H      39.203323     21.594222     43.203481
  N      40.596659     20.043115     42.870322
  H      41.306713     20.778592     42.790543
  C      40.993638     18.803467     42.630743
  N      40.187262     17.760535     42.784687
  H      39.225981     17.890058     43.076512
  H      40.487901     16.825307     42.564681
  N      42.230589     18.633720     42.200387
  H      42.706593     19.466932     41.836411
  H      42.595079     17.782660     41.811786
37
Coordinates from ORCA-job job E -836.434146105631
  C      45.005362     22.201815     40.519390
  H      45.111483     22.107298     39.440323
  H      45.712535     22.816091     41.089249
  C      44.011453     21.626763     41.217193
  C      43.804268     21.921850     42.716482
  O      44.779469     22.304836     43.366508
  O      42.599223     21.788379     43.131651
  O      43.075015     20.778909     40.657674
  C      42.260121     21.232727     39.547010
  H      41.478972     20.445092     39.504814
  C      42.977101     21.290745     38.235286
  H      43.687350     20.494053     37.990552
  C      42.689408     22.216155     37.305670
  C      41.667423     23.229955     37.582470
  H      41.466209     23.898205     36.753148
  C      41.057414     23.338570     38.774543
  H      40.322844     24.119005     38.993551
  C      41.534039     22.525867     39.950200
  H      42.278681     23.165724     40.493423
  O      40.503076     22.245694     40.898741
  H      40.965092     22.044311     41.735497
  C      43.408445     22.201951     35.914477
  O      44.237387     21.283099     35.741093
  O      43.061736     23.121060     35.138052
  C      39.388000     20.557000     43.513000
  H      39.587925     20.549885     44.584485
  H      38.510216     19.943868     43.279601
  H      39.208048     21.594038     43.199014
  N      40.601414     20.037908     42.884580
  H      41.306696     20.773225     42.812674
  C      40.990315     18.801366     42.619969
  N      40.183820     17.758011     42.765773
  H      39.229562     17.883366     43.092425
  H      40.479407     16.826590     42.516435
  N      42.228696     18.636168     42.187141
  H      42.700348     19.472765     41.825162
  H      42.589838     17.794997     41.775046
37
Coordinates from ORCA-job job E -836.430502215749
  C      45.053269     22.173808     40.548662
  H      45.149540     22.069529     39.446333
  H      45.733229     22.819912     41.081416
  C      44.031489     21.637827     41.219873
  C      43.778633     21.968893     42.684988
  O      44.739382     22.344323     43.341907
  O      42.555621     21.882977     43.060331
  O      43.103540     20.785822     40.658134
  C      42.275019     21.251715     39.558907
  H      41.480747     20.485886     39.549536
  C      42.969033     21.287006     38.234350
  H      43.687831     20.498196     38.003674
  C      42.681260     22.212226     37.307766
  C      41.655978     23.214468     37.582235
  H      41.417572     23.862834     36.725536
  C      41.072368     23.323807     38.794594
  H      40.336382     24.103351     39.002963
  C      41.583767     22.549692     39.950555
  H      42.326587     23.181422     40.396265
  O      40.635468     22.340871     40.916139
  H      41.096235     22.123214     41.697894
  C      43.405263     22.221647     35.912533
  O      44.244170     21.323420     35.742946
  O      43.069757     23.150578     35.165607
  C      39.388000     20.557000     43.513000
  H      39.587925     20.549885     44.584485
  H      38.504517     19.948430     43.282601
  H      39.212403     21.594399     43.189766
  N      40.600213     20.025663     42.881162
  H      41.311572     20.751907     42.808592
  C      40.984505     18.795001     42.590979
  N      40.173592     17.757825     42.743642
  H      39.231327     17.878730     43.106529
  H      40.462125     16.827373     42.499977
  N      42.222746     18.624904     42.150741
  H      42.725835     19.455915     41.820512
  H      42.553753     17.785757     41.721302
37
Coordinates from ORCA-job job E -836.438255759674
  C      45.051454     22.177769     40.541835
  H      45.153474     22.079004     39.453183
  H      45.741875     22.806926     41.082779
  C      44.032704     21.636289     41.211244
  C      43.793409     21.952072     42.688371
  O      44.765227     22.302198     43.358764
  O      42.576275     21.861329     43.068999
  O      43.093052     20.793054     40.650168
  C      42.271950     21.263003     39.547290
  H      41.471377     20.497261     39.527080
  C      42.981601     21.298722     38.229756
  H      43.702113     20.507621     38.004553
  C      42.685848     22.214457     37.294432
  C      41.636155     23.210951     37.549982
  H      41.378780     23.850890     36.679250
  C      41.055712     23.331070     38.760249
  H      40.307925     24.105650     38.967635
  C      41.597312     22.573543     39.940672
  H      42.385679     23.229194     40.368051
  O      40.644090     22.366150     40.976666
  H      41.184565     22.163270     41.774609
  C      43.409415     22.219962     35.907623
  O      44.258159     21.323549     35.749514
  O      43.053008     23.138247     35.144433
  C      39.388000     20.557000     43.513000
  H      39.587925     20.549885     44.584485
  H      38.506125     19.947052     43.280970
  H      39.210162     21.593649     43.189703
  N      40.604423     20.028407     42.888150
  H      41.316800     20.760541     42.814298
  C      40.990213     18.797443     42.594339
  N      40.177048     17.759554     42.738370
  H      39.233729     17.884237     43.098273
  H      40.460879     16.827613     42.479769
  N      42.225111     18.632444     42.154731
  H      42.713014     19.468134     41.815181
  H      42.553467     17.793380     41.715451
37
Coordinates from ORCA-job job E -836.439696267762
  C      45.054912     22.174961     40.526785
  H      45.165539     22.071830     39.449466
  H      45.770886     22.780644     41.107280
  C      44.036775     21.628352     41.205653
  C      43.790058     21.948178     42.682586
  O      44.763414     22.285211     43.359532
  O      42.563771     21.875296     43.058910
  O      43.091719     20.791897     40.639630
  C      42.269656     21.279289     39.539843
  H      41.443542     20.526640     39.512749
  C      42.980720     21.313586     38.224976
  H      43.702683     20.530594     37.984113
  C      42.676756     22.226032     37.279460
  C      41.630037     23.218579     37.540264
  H      41.404500     23.855614     36.704369
  C      41.055660     23.346762     38.754595
  H      40.313405     24.115912     38.975660
  C      41.624315     22.613705     39.941671
  H      42.449252     23.269073     40.328045
  O      40.703719     22.448546     41.022696
  H      41.277487     22.253981     41.801091
  C      43.414113     22.232856     35.896941
  O      44.271722     21.342450     35.736460
  O      43.050987     23.144765     35.120251
  C      39.388000     20.557000     43.513000
  H      39.587925     20.549885     44.584485
  H      38.509323     19.943989     43.280165
  H      39.207779     21.592302     43.190380
  N      40.608046     20.035273     42.889192
  H      41.318071     20.766277     42.811186
  C      40.979404     18.802746     42.566455
  N      40.172433     17.765500     42.719791
  H      39.247577     17.890058     43.106110
  H      40.451742     16.835585     42.445770
  N      42.207619     18.634275     42.113690
  H      42.693477     19.474348     41.779192
  H      42.530143     17.798566     41.660648
37
Coordinates from ORCA-job job E -836.441057836501
  C      45.084787     22.171912     40.537528
  H      45.185351     22.077579     39.448498
  H      45.787848     22.784774     41.100691
  C      44.064551     21.626912     41.212778
  C      43.818553     21.930836     42.702889
  O      44.786163     22.247038     43.401028
  O      42.589512     21.872762     43.059682
  O      43.110351     20.803148     40.637289
  C      42.288779     21.314529     39.545149
  H      41.446569     20.580039     39.517083
  C      42.992270     21.339315     38.223034
  H      43.731563     20.565063     37.994756
  C      42.667028     22.236563     37.265860
  C      41.594733     23.213936     37.513550
  H      41.307838     23.825783     36.633961
  C      41.046890     23.351976     38.743795
  H      40.281872     24.114302     38.947507
  C      41.674112     22.658713     39.946203
  H      42.530715     23.332555     40.257852
  O      40.815895     22.523396     41.075823
  H      41.413990     22.356543     41.842164
  C      43.397050     22.242798     35.883554
  O      44.274325     21.365170     35.739174
  O      43.015642     23.144250     35.102667
  C      39.388000     20.557000     43.513000
  H      39.587925     20.549885     44.584485
  H      38.507587     19.945027     43.282047
  H      39.205334     21.591703     43.187636
  N      40.606945     20.035248     42.881737
  H      41.331972     20.756448     42.812819
  C      40.972543     18.806535     42.539120
  N      40.158757     17.771018     42.683652
  H      39.237953     17.893850     43.076946
  H      40.432677     16.842795     42.409305
  N      42.197349     18.634996     42.078152
  H      42.700097     19.473893     41.766906
  H      42.498652     17.799002     41.611392
37
Coordinates from ORCA-job job E -836.439718153992
  C      45.104055     22.172874     40.531485
  H      45.222504     22.036873     39.456402
  H      45.792594     22.802160     41.075269
  C      44.081770     21.641256     41.210052
  C      43.831411     21.959062     42.712610
  O      44.787874     22.292161     43.419343
  O      42.616166     21.879388     43.060374
  O      43.124427     20.813936     40.639366
  C      42.301202     21.315425     39.554218
  H      41.480277     20.575483     39.513884
  C      43.007421     21.347454     38.229703
  H      43.749946     20.578510     37.984630
  C      42.681741     22.246261     37.276269
  C      41.620320     23.229766     37.546965
  H      41.306688     23.848233     36.653699
  C      41.066946     23.362140     38.763532
  H      40.301376     24.128205     38.974825
  C      41.666120     22.645311     39.945414
  H      42.484056     23.287812     40.283101
  O      40.770594     22.463851     40.984247
  H      41.355684     22.295193     41.781082
  C      43.385837     22.247211     35.890289
  O      44.249860     21.359677     35.732547
  O      42.988346     23.147879     35.103808
  C      39.388000     20.557000     43.513000
  H      39.587925     20.549885     44.584485
  H      38.507882     19.943372     43.286086
  H      39.188366     21.590833     43.196713
  N      40.601424     20.060003     42.844606
  H      41.347002     20.774110     42.769348
  C      40.974898     18.833083     42.517172
  N      40.163283     17.793699     42.672440
  H      39.238935     17.913370     43.040788
  H      40.432387     16.859805     42.422823
  N      42.191537     18.653182     42.041077
  H      42.715970     19.485004     41.746219
  H      42.482166     17.804851     41.593819
37
Coordinates from ORCA-job job E -836.442797186958
  C      45.113383     22.161868     40.538432
  H      45.234758     22.030784     39.465110
  H      45.815267     22.779117     41.099197
  C      44.081266     21.638043     41.208123
  C      43.819600     21.968698     42.689600
  O      44.784211     22.288235     43.388835
  O      42.587330     21.918155     43.032127
  O      43.123435     20.818021     40.634166
  C      42.300356     21.320734     39.549044
  H      41.474428     20.586349     39.522404
  C      42.999617     21.348817     38.222855
  H      43.748301     20.586536     37.981565
  C      42.674831     22.248012     37.275041
  C      41.604180     23.223159     37.536969
  H      41.322266     23.839848     36.680178
  C      41.061587     23.358633     38.764210
  H      40.304916     24.117381     38.988449
  C      41.680269     22.657914     39.941943
  H      42.522720     23.303428     40.250661
  O      40.802568     22.510534     41.036039
  H      41.417205     22.327255     41.806087
  C      43.382440     22.255181     35.882359
  O      44.242945     21.373241     35.711409
  O      42.995745     23.159088     35.106139
  C      39.388000     20.557000     43.513000
  H      39.587925     20.549885     44.584485
  H      38.509429     19.942039     43.284562
  H      39.191885     21.591143     43.195353
  N      40.603699     20.056946     42.854886
  H      41.334762     20.774924     42.773273
  C      40.967045     18.829851     42.508751
  N      40.155029     17.792164     42.661512
  H      39.232027     17.912560     43.044279
  H      40.423171     16.859038     42.393716
  N      42.186533     18.652245     42.036583
  H      42.703644     19.488068     41.739246
  H      42.481767     17.811210     41.575278
37
Coordinates from ORCA-job job E -836.442916467921
  C      45.114288     22.161256     40.536895
  H      45.234457     22.033220     39.461642
  H      45.822186     22.772133     41.107392
  C      44.085600     21.630347     41.210633
  C      43.825028     21.956479     42.692593
  O      44.789914     22.278958     43.387376
  O      42.601178     21.898154     43.050989
  O      43.127572     20.812314     40.635602
  C      42.303777     21.321888     39.550889
  H      41.459222     20.588826     39.513371
  C      43.004360     21.355812     38.225748
  H      43.752889     20.597888     37.974666
  C      42.664691     22.249432     37.268724
  C      41.592921     23.224143     37.532202
  H      41.304726     23.836910     36.674228
  C      41.058934     23.364439     38.763890
  H      40.299416     24.123450     38.989351
  C      41.685952     22.667709     39.953288
  H      42.539797     23.322453     40.265293
  O      40.805371     22.524990     41.053553
  H      41.385267     22.352152     41.823796
  C      43.373578     22.251870     35.880537
  O      44.249659     21.370401     35.721287
  O      42.979088     23.151452     35.100850
  C      39.388000     20.557000     43.513000
  H      39.587925     20.549885     44.584485
  H      38.511021     19.939344     43.286291
  H      39.185582     21.590938     43.199204
  N      40.602418     20.064376     42.844967
  H      41.333804     20.781578     42.758081
  C      40.957309     18.834564     42.490132
  N      40.146308     17.799595     42.649635
  H      39.224512     17.923631     43.017404
  H      40.419968     16.867716     42.397824
  N      42.170583     18.649139     42.006781
  H      42.695770     19.484278     41.721842
  H      42.463621     17.806001     41.547617
37
Coordinates from ORCA-job job E -836.443673597214
  C      45.136307     22.147102     40.547576
  H      45.264642     22.011336     39.474377
  H      45.844536     22.753861     41.118769
  C      44.094300     21.630286     41.209248
  C      43.822478     21.963090     42.687409
  O      44.784808     22.275323     43.392880
  O      42.591196     21.920499     43.028486
  O      43.136059     20.819450     40.627542
  C      42.309387     21.335944     39.551052
  H      41.460813     20.610891     39.521316
  C      43.003499     21.365705     38.221101
  H      43.749305     20.610135     37.965706
  C      42.658741     22.254942     37.265757
  C      41.591297     23.223499     37.541258
  H      41.282410     23.825526     36.674629
  C      41.065437     23.369374     38.772386
  H      40.304184     24.123861     39.001666
  C      41.707256     22.687915     39.952516
  H      42.569777     23.339921     40.229851
  O      40.848414     22.564367     41.065805
  H      41.458912     22.399171     41.832154
  C      43.356301     22.257374     35.871091
  O      44.226658     21.378205     35.701937
  O      42.955845     23.154248     35.091944
  C      39.388000     20.557000     43.513000
  H      39.587925     20.549885     44.584485
  H      38.510312     19.940630     43.286616
  H      39.185051     21.591237     43.200717
  N      40.599394     20.067486     42.838458
  H      41.332946     20.784235     42.755533
  C      40.951414     18.840750     42.476214
  N      40.138310     17.804996     42.631893
  H      39.214554     17.926735     43.011095
  H      40.406130     16.871576     42.368787
  N      42.163706     18.655798     41.988840
  H      42.694855     19.488591     41.710019
  H      42.453230     17.815782     41.521025
37
Coordinates from ORCA-job job E -836.443781162313
  C      45.151143     22.140015     40.561974
  H      45.283289     22.001773     39.483943
  H      45.855323     22.746824     41.128962
  C      44.101760     21.632732     41.216159
  C      43.829897     21.963339     42.700996
  O      44.790110     22.270720     43.414046
  O      42.592610     21.926366     43.027745
  O      43.139735     20.829891     40.625253
  C      42.313112     21.349074     39.551312
  H      41.478133     20.623450     39.523474
  C      43.005072     21.377312     38.219068
  H      43.770918     20.626780     37.981362
  C      42.654359     22.261256     37.264859
  C      41.566381     23.224337     37.524036
  H      41.253927     23.823794     36.666728
  C      41.059955     23.375495     38.769973
  H      40.297506     24.128170     39.001804
  C      41.707501     22.693996     39.949711
  H      42.564931     23.341901     40.223829
  O      40.844796     22.561105     41.049792
  H      41.465005     22.382894     41.813415
  C      43.340192     22.261508     35.869206
  O      44.204500     21.382090     35.691651
  O      42.935207     23.157351     35.091514
  C      39.388000     20.557000     43.513000
  H      39.587925     20.549885     44.584485
  H      38.508194     19.943039     43.288564
  H      39.182707     21.591594     43.203283
  N      40.593849     20.069662     42.826424
  H      41.329644     20.785010     42.742887
  C      40.943203     18.844146     42.462169
  N      40.126807     17.809591     42.616532
  H      39.200895     17.934251     42.989499
  H      40.392246     16.872707     42.357114
  N      42.151733     18.658369     41.968794
  H      42.690456     19.489178     41.698910
  H      42.436282     17.817436     41.497602
37
Coordinates from ORCA-job job E -836.444322786849
  C      45.166426     22.133055     40.568978
  H      45.305467     21.987952     39.496900
  H      45.875828     22.733161     41.141991
  C      44.109827     21.633575     41.218681
  C      43.832126     21.968581     42.698960
  O      44.790342     22.275920     43.410228
  O      42.598313     21.931929     43.030875
  O      43.147552     20.834723     40.624740
  C      42.322288     21.358723     39.550905
  H      41.479773     20.635771     39.521100
  C      43.012114     21.389621     38.218261
  H      43.771915     20.641597     37.969029
  C      42.649984     22.269397     37.259865
  C      41.564582     23.227972     37.528564
  H      41.239539     23.820780     36.667738
  C      41.060184     23.380836     38.769627
  H      40.292894     24.128694     39.003844
  C      41.720440     22.706350     39.949217
  H      42.584631     23.355786     40.211907
  O      40.865285     22.581710     41.062968
  H      41.480169     22.410566     41.824952
  C      43.327110     22.268701     35.855477
  O      44.197242     21.391766     35.675896
  O      42.913455     23.161835     35.078730
  C      39.388000     20.557000     43.513000
  H      39.587925     20.549885     44.584485
  H      38.509064     19.941408     43.288730
  H      39.179899     21.591748     43.205127
  N      40.594063     20.073888     42.822651
  H      41.329585     20.790041     42.738311
  C      40.935789     18.848130     42.445077
  N      40.118015     17.814547     42.599443
  H      39.192909     17.940411     42.972105
  H      40.382043     16.879096     42.337115
  N      42.141378     18.660058     41.943831
  H      42.684784     19.491485     41.682929
  H      42.424576     17.821010     41.468957
37
Coordinates from ORCA-job job E -836.444586230312
  C      45.173166     22.130267     40.571042
  H      45.320638     21.982542     39.500191
  H      45.884548     22.724213     41.147937
  C      44.112487     21.633890     41.220819
  C      43.830172     21.966779     42.700900
  O      44.789733     22.269817     43.416416
  O      42.595599     21.931050     43.031530
  O      43.155149     20.838206     40.622996
  C      42.327307     21.363542     39.552418
  H      41.479333     20.640317     39.523886
  C      43.012797     21.394125     38.216206
  H      43.766693     20.644563     37.963083
  C      42.644138     22.267487     37.256232
  C      41.566583     23.225816     37.534416
  H      41.230275     23.810718     36.668615
  C      41.070846     23.387937     38.776738
  H      40.304337     24.134327     39.014408
  C      41.727495     22.715327     39.953586
  H      42.592440     23.367645     40.218851
  O      40.866418     22.592882     41.065209
  H      41.474132     22.418794     41.826899
  C      43.312074     22.259278     35.848664
  O      44.180459     21.379311     35.667015
  O      42.894311     23.149788     35.072219
  C      39.388000     20.557000     43.513000
  H      39.587925     20.549885     44.584485
  H      38.508984     19.941195     43.289884
  H      39.176851     21.591992     43.208574
  N      40.591316     20.077799     42.815123
  H      41.323201     20.796422     42.729584
  C      40.931439     18.852725     42.434971
  N      40.113904     17.820430     42.591366
  H      39.184298     17.949152     42.955520
  H      40.380871     16.884933     42.334309
  N      42.135737     18.664122     41.928585
  H      42.682536     19.493688     41.673198
  H      42.421274     17.827059     41.454173
37
Coordinates from ORCA-job job E -836.444917049074
  C      45.192395     22.117491     40.585859
  H      45.349209     21.963993     39.516519
  H      45.907133     22.703580     41.165493
  C      44.119947     21.635030     41.227027
  C      43.829918     21.969164     42.703911
  O      44.785553     22.271354     43.420910
  O      42.595831     21.932455     43.032144
  O      43.163413     20.846335     40.620612
  C      42.338160     21.375433     39.550378
  H      41.489377     20.652390     39.520507
  C      43.023886     21.408197     38.215343
  H      43.779660     20.659969     37.964022
  C      42.640368     22.272170     37.251916
  C      41.556255     23.223953     37.531597
  H      41.207186     23.799134     36.667775
  C      41.072252     23.394235     38.775395
  H      40.300349     24.135094     39.014867
  C      41.737244     22.725553     39.951506
  H      42.601086     23.379763     40.214852
  O      40.876740     22.599863     41.063178
  H      41.482034     22.429360     41.829667
  C      43.297874     22.259495     35.841801
  O      44.167015     21.380042     35.656044
  O      42.869199     23.145034     35.064066
  C      39.388000     20.557000     43.513000
  H      39.587925     20.549885     44.584485
  H      38.508757     19.941185     43.290984
  H      39.173991     21.592151     43.211661
  N      40.588320     20.081491     42.807733
  H      41.316908     20.803395     42.722657
  C      40.924743     18.857901     42.420098
  N      40.106671     17.826617     42.577389
  H      39.176432     17.958450     42.940479
  H      40.372981     16.891075     42.319158
  N      42.123940     18.669564     41.901417
  H      42.675298     19.497602     41.653928
  H      42.408627     17.835186     41.421936
37
Coordinates from ORCA-job job E -836.445323667223
  C      45.219252     22.102990     40.610047
  H      45.388196     21.942176     39.542605
  H      45.939912     22.676530     41.196664
  C      44.131159     21.640665     41.238278
  C      43.834821     21.970029     42.717154
  O      44.787678     22.264680     43.441193
  O      42.599421     21.932321     43.038182
  O      43.173795     20.861153     40.620928
  C      42.350074     21.394780     39.552778
  H      41.503186     20.672077     39.522923
  C      43.031180     21.424077     38.214848
  H      43.786602     20.674587     37.966031
  C      42.630871     22.272381     37.245411
  C      41.541019     23.218145     37.526064
  H      41.173913     23.776788     36.660487
  C      41.077158     23.405529     38.776330
  H      40.300460     24.140289     39.016850
  C      41.749050     22.742740     39.955528
  H      42.612260     23.398842     40.221263
  O      40.884533     22.613146     41.062779
  H      41.489119     22.430987     41.829428
  C      43.264171     22.246332     35.820171
  O      44.128604     21.365399     35.626027
  O      42.823263     23.124714     35.041958
  C      39.388000     20.557000     43.513000
  H      39.587925     20.549885     44.584485
  H      38.508121     19.941334     43.292507
  H      39.170580     21.592083     43.213775
  N      40.584966     20.084758     42.800600
  H      41.309368     20.810992     42.714897
  C      40.917860     18.863084     42.402596
  N      40.097388     17.832343     42.557134
  H      39.165068     17.968277     42.912135
  H      40.363151     16.896600     42.296335
  N      42.111620     18.676703     41.870774
  H      42.667624     19.504726     41.632660
  H      42.393120     17.844358     41.385470
37
Coordinates from ORCA-job job E -836.445645556558
  C      45.267211     22.068002     40.644548
  H      45.451416     21.894367     39.580773
  H      45.992453     22.627253     41.235749
  C      44.154791     21.637759     41.254478
  C      43.843849     21.966682     42.728997
  O      44.794249     22.248264     43.465456
  O      42.602166     21.935976     43.036238
  O      43.191352     20.875127     40.618852
  C      42.373993     21.424412     39.551565
  H      41.521740     20.707539     39.516652
  C      43.055315     21.450628     38.215060
  H      43.824254     20.704638     37.978178
  C      42.632106     22.279222     37.240217
  C      41.531656     23.215680     37.522237
  H      41.137702     23.750234     36.653911
  C      41.091486     23.424398     38.776806
  H      40.304862     24.149478     39.016768
  C      41.777543     22.774105     39.955185
  H      42.640236     23.430588     40.214566
  O      40.916257     22.646215     41.066120
  H      41.521742     22.453029     41.830159
  C      43.248985     22.239385     35.812080
  O      44.115109     21.358620     35.620418
  O      42.792543     23.106699     35.029405
  C      39.388000     20.557000     43.513000
  H      39.587925     20.549885     44.584485
  H      38.507920     19.941116     43.294330
  H      39.166897     21.591987     43.216156
  N      40.581221     20.089858     42.791482
  H      41.300722     20.820520     42.704456
  C      40.904745     18.871472     42.371396
  N      40.080190     17.841726     42.519994
  H      39.149321     17.980479     42.874304
  H      40.338451     16.907261     42.244331
  N      42.088040     18.686161     41.816860
  H      42.653491     19.512594     41.592607
  H      42.358328     17.857571     41.316340
37
Coordinates from ORCA-job job E -836.445615350865
  C      45.302802     22.052313     40.657945
  H      45.504867     21.865121     39.599035
  H      46.028541     22.598827     41.254539
  C      44.172310     21.647359     41.254934
  C      43.845664     21.969194     42.729701
  O      44.783780     22.245901     43.477945
  O      42.603223     21.933205     43.025640
  O      43.217131     20.890062     40.613317
  C      42.393126     21.438319     39.558763
  H      41.543750     20.724425     39.526779
  C      43.051210     21.462553     38.208026
  H      43.820272     20.722285     37.965149
  C      42.585934     22.266703     37.225620
  C      41.483351     23.189937     37.527952
  H      41.053269     23.699415     36.658478
  C      41.084260     23.416873     38.799904
  H      40.295397     24.129673     39.053691
  C      41.793179     22.777951     39.973622
  H      42.657344     23.435688     40.233076
  O      40.934928     22.643457     41.083557
  H      41.535027     22.448559     41.855490
  C      43.155115     22.215623     35.772904
  O      44.017908     21.340757     35.560601
  O      42.664294     23.069532     34.990680
  C      39.388000     20.557000     43.513000
  H      39.587925     20.549885     44.584485
  H      38.510410     19.936832     43.295629
  H      39.159994     21.591114     43.217537
  N      40.581023     20.098014     42.785478
  H      41.293201     20.834276     42.694926
  C      40.905649     18.885693     42.353176
  N      40.082277     17.855070     42.497570
  H      39.147580     17.992648     42.847998
  H      40.337437     16.925305     42.206252
  N      42.082125     18.704460     41.780062
  H      42.652915     19.527394     41.562099
  H      42.343433     17.879137     41.273573
37
Coordinates from ORCA-job job E -836.445799874334
  C      45.320703     22.015775     40.678686
  H      45.518790     21.826912     39.619407
  H      46.056473     22.549123     41.287319
  C      44.183578     21.625904     41.267260
  C      43.865267     21.943594     42.746928
  O      44.804353     22.214988     43.493068
  O      42.628047     21.909062     43.046792
  O      43.215394     20.881869     40.617809
  C      42.398905     21.448274     39.560679
  H      41.534193     20.744197     39.524245
  C      43.066971     21.460566     38.214048
  H      43.822133     20.714702     37.966580
  C      42.614489     22.260777     37.229649
  C      41.519077     23.194020     37.525550
  H      41.096929     23.696357     36.655103
  C      41.112355     23.434339     38.787585
  H      40.325184     24.153205     39.033154
  C      41.811669     22.804680     39.965485
  H      42.676234     23.463795     40.221408
  O      40.954117     22.683743     41.077761
  H      41.557626     22.474306     41.841555
  C      43.184966     22.196334     35.777107
  O      44.043122     21.316063     35.568678
  O      42.704505     23.048724     34.995471
  C      39.388000     20.557000     43.513000
  H      39.587925     20.549885     44.584485
  H      38.508298     19.940241     43.295691
  H      39.164590     21.591182     43.214987
  N      40.579724     20.092874     42.788253
  H      41.300602     20.823322     42.701929
  C      40.886468     18.880658     42.335808
  N      40.049555     17.855583     42.464102
  H      39.117993     17.997100     42.814829
  H      40.288067     16.926160     42.151407
  N      42.056359     18.694381     41.755745
  H      42.633931     19.516113     41.545324
  H      42.299998     17.868978     41.236763
37
Coordinates from ORCA-job job E -836.445780214187
  C      45.313672     22.025735     40.658131
  H      45.506861     21.839793     39.598336
  H      46.046913     22.562805     41.266577
  C      44.183262     21.629774     41.252900
  C      43.865231     21.954554     42.726209
  O      44.816007     22.220789     43.472078
  O      42.622054     21.929984     43.026085
  O      43.215129     20.882655     40.608284
  C      42.402053     21.439926     39.547582
  H      41.544103     20.732005     39.510616
  C      43.070762     21.461964     38.203699
  H      43.838094     20.724765     37.956100
  C      42.616935     22.269535     37.226591
  C      41.512338     23.196378     37.521472
  H      41.087766     23.706788     36.653693
  C      41.089502     23.418130     38.770095
  H      40.290165     24.131715     39.011172
  C      41.803178     22.786049     39.948059
  H      42.665851     23.449330     40.203467
  O      40.951126     22.654146     41.063511
  H      41.558397     22.441183     41.820312
  C      43.197280     22.215882     35.782951
  O      44.060906     21.337798     35.580860
  O      42.716924     23.070446     35.003091
  C      39.388000     20.557000     43.513000
  H      39.587925     20.549885     44.584485
  H      38.510029     19.937902     43.295095
  H      39.164092     21.591328     43.215362
  N      40.583024     20.093757     42.792136
  H      41.300535     20.825297     42.700021
  C      40.895470     18.882249     42.346227
  N      40.065570     17.857070     42.481481
  H      39.137230     17.994483     42.841407
  H      40.307878     16.930079     42.172489
  N      42.068121     18.698176     41.771297
  H      42.638848     19.520392     41.550776
  H      42.319102     17.875402     41.254608
37
Coordinates from ORCA-job job E -836.445996525909
  C      45.324602     22.018485     40.661156
  H      45.519510     21.830634     39.603922
  H      46.052988     22.559241     41.264398
  C      44.195390     21.620934     41.258912
  C      43.876056     21.944517     42.733106
  O      44.821393     22.213721     43.477766
  O      42.633609     21.919043     43.032914
  O      43.227858     20.874999     40.613611
  C      42.412804     21.435065     39.557273
  H      41.549666     20.731846     39.524039
  C      43.078558     21.452130     38.210574
  H      43.858293     20.716754     37.974037
  C      42.622113     22.256440     37.230912
  C      41.517214     23.184455     37.523380
  H      41.090939     23.691011     36.654190
  C      41.109946     23.414357     38.787389
  H      40.321042     24.131470     39.035719
  C      41.822943     22.788313     39.962222
  H      42.686243     23.450312     40.208709
  O      40.976070     22.667741     41.085132
  H      41.581696     22.465120     41.846423
  C      43.201680     22.200576     35.788108
  O      44.072230     21.327176     35.589924
  O      42.713095     23.049864     35.001490
  C      39.388000     20.557000     43.513000
  H      39.587925     20.549885     44.584485
  H      38.509996     19.938304     43.294419
  H      39.165614     21.591390     43.214984
  N      40.584699     20.092629     42.793869
  H      41.307051     20.821597     42.705821
  C      40.890453     18.881617     42.340204
  N      40.053165     17.858692     42.466720
  H      39.124451     17.996825     42.828440
  H      40.291133     16.933142     42.150911
  N      42.063157     18.693952     41.764517
  H      42.640634     19.514007     41.549000
  H      42.308726     17.871546     41.243425
37
Coordinates from ORCA-job job E -836.446076092632
  C      45.330066     22.002390     40.668221
  H      45.526766     21.816141     39.609311
  H      46.058539     22.539327     41.274914
  C      44.197037     21.608882     41.261508
  C      43.877795     21.925976     42.738498
  O      44.820241     22.194585     43.484515
  O      42.636431     21.896086     43.036836
  O      43.228041     20.866609     40.612165
  C      42.412689     21.431884     39.557449
  H      41.548813     20.730233     39.520315
  C      43.074503     21.448850     38.209615
  H      43.841897     20.711607     37.962582
  C      42.608226     22.246978     37.226530
  C      41.508754     23.174956     37.527199
  H      41.076174     23.676522     36.657945
  C      41.107441     23.408729     38.791580
  H      40.317046     24.124977     39.039760
  C      41.819766     22.782216     39.964507
  H      42.679873     23.443331     40.220203
  O      40.965726     22.656545     41.080692
  H      41.568397     22.445237     41.844162
  C      43.174134     22.184373     35.775711
  O      44.037560     21.308535     35.568532
  O      42.682852     23.030989     34.991338
  C      39.388000     20.557000     43.513000
  H      39.587925     20.549885     44.584485
  H      38.507928     19.941331     43.295296
  H      39.168894     21.591597     43.214005
  N      40.582172     20.087804     42.794721
  H      41.304256     20.815337     42.706188
  C      40.883664     18.877989     42.337407
  N      40.041848     17.857934     42.457476
  H      39.112590     17.998751     42.817600
  H      40.273778     16.933057     42.131461
  N      42.053123     18.689518     41.757201
  H      42.631428     19.507599     41.539918
  H      42.292585     17.867779     41.231727
37
Coordinates from ORCA-job job E -836.446133867180
  C      45.346843     21.996644     40.677804
  H      45.546001     21.812160     39.618342
  H      46.077398     22.527481     41.292885
  C      44.209945     21.605646     41.266085
  C      43.888697     21.919337     42.743629
  O      44.832483     22.182562     43.493006
  O      42.648898     21.889723     43.041825
  O      43.242495     20.865097     40.616256
  C      42.429693     21.428893     39.562423
  H      41.563144     20.730580     39.529125
  C      43.089743     21.439545     38.212072
  H      43.857777     20.702959     37.966429
  C      42.622243     22.232458     37.227297
  C      41.520795     23.160259     37.525441
  H      41.085218     23.656741     36.656091
  C      41.120706     23.399582     38.787832
  H      40.331037     24.116589     39.035408
  C      41.839663     22.781698     39.964201
  H      42.700193     23.449295     40.212799
  O      40.993377     22.657247     41.084751
  H      41.599503     22.440810     41.843752
  C      43.184570     22.163836     35.775417
  O      44.050514     21.288744     35.570871
  O      42.689663     23.005840     34.989115
  C      39.388000     20.557000     43.513000
  H      39.587925     20.549885     44.584485
  H      38.508442     19.940542     43.294737
  H      39.169029     21.591559     43.213093
  N      40.585221     20.087666     42.798138
  H      41.310277     20.813288     42.710451
  C      40.881632     18.879594     42.331412
  N      40.034940     17.862692     42.443733
  H      39.107513     18.004296     42.806530
  H      40.260312     16.940022     42.106805
  N      42.051520     18.689703     41.750945
  H      42.633448     19.506836     41.536604
  H      42.285949     17.869861     41.220903
37
Coordinates from ORCA-job job E -836.446205840062
  C      45.345914     21.983112     40.665092
  H      45.538374     21.802270     39.605359
  H      46.076569     22.514476     41.279873
  C      44.214544     21.588087     41.259694
  C      43.901199     21.901321     42.738303
  O      44.850089     22.162619     43.483066
  O      42.661503     21.875090     43.040847
  O      43.240506     20.851344     40.612102
  C      42.423765     21.420732     39.563311
  H      41.554085     20.726106     39.528890
  C      43.077302     21.436306     38.210786
  H      43.853322     20.706274     37.962094
  C      42.609036     22.233472     37.234727
  C      41.505353     23.157771     37.537576
  H      41.065914     23.657965     36.671512
  C      41.105592     23.387960     38.800180
  H      40.315323     24.104702     39.050753
  C      41.835664     22.772724     39.971406
  H      42.699074     23.438487     40.213361
  O      40.995704     22.652842     41.099039
  H      41.603614     22.434467     41.854679
  C      43.169856     22.170988     35.783915
  O      44.043192     21.302200     35.579614
  O      42.666060     23.009733     34.998117
  C      39.388000     20.557000     43.513000
  H      39.587925     20.549885     44.584485
  H      38.505930     19.944110     43.294778
  H      39.175131     21.592594     43.211550
  N      40.584826     20.080473     42.802741
  H      41.314969     20.801550     42.715934
  C      40.871091     18.873448     42.324841
  N      40.017198     17.862822     42.427522
  H      39.094080     18.005615     42.801351
  H      40.234443     16.943773     42.077849
  N      42.040091     18.679299     41.744266
  H      42.622626     19.495629     41.527859
  H      42.269062     17.862469     41.205769
37
Coordinates from ORCA-job job E -836.446286871422
  C      45.360268     21.968304     40.667140
  H      45.551708     21.793696     39.606674
  H      46.085327     22.501771     41.280490
  C      44.231975     21.567349     41.263244
  C      43.920151     21.873836     42.743281
  O      44.869600     22.131218     43.486732
  O      42.677033     21.850613     43.043738
  O      43.257022     20.834039     40.613494
  C      42.444126     21.404020     39.564807
  H      41.568848     20.714106     39.533696
  C      43.097651     21.413034     38.212433
  H      43.881264     20.685131     37.970103
  C      42.619669     22.202505     37.229808
  C      41.517217     23.128726     37.532165
  H      41.073460     23.624490     36.665621
  C      41.121950     23.365356     38.795489
  H      40.335634     24.086941     39.045404
  C      41.856862     22.759821     39.966443
  H      42.713320     23.434672     40.204323
  O      41.020127     22.639327     41.097011
  H      41.628188     22.411749     41.849579
  C      43.170398     22.129754     35.775314
  O      44.046838     21.263556     35.573190
  O      42.656793     22.958670     34.984858
  C      39.388000     20.557000     43.513000
  H      39.587925     20.549885     44.584485
  H      38.504263     19.946393     43.294538
  H      39.180183     21.593277     43.209822
  N      40.586962     20.073721     42.809427
  H      41.321737     20.790429     42.724658
  C      40.864411     18.870437     42.321307
  N      39.999947     17.868821     42.408543
  H      39.080846     18.014233     42.792095
  H      40.207163     16.955417     42.042453
  N      42.033147     18.671170     41.741853
  H      42.618612     19.483822     41.522786
  H      42.254846     17.859387     41.195528
37
Coordinates from ORCA-job job E -836.446377972596
  C      45.359312     21.979894     40.665880
  H      45.550236     21.816675     39.603009
  H      46.081392     22.512692     41.283447
  C      44.235512     21.566199     41.263534
  C      43.926122     21.858388     42.749458
  O      44.874529     22.113751     43.495070
  O      42.686890     21.826627     43.052823
  O      43.263041     20.834158     40.611424
  C      42.445536     21.408328     39.569319
  H      41.570136     20.722030     39.539782
  C      43.088875     21.420427     38.212753
  H      43.869773     20.696473     37.961666
  C      42.597640     22.206607     37.231782
  C      41.493970     23.127759     37.543363
  H      41.041178     23.623402     36.681061
  C      41.110711     23.361379     38.814172
  H      40.327545     24.084033     39.069800
  C      41.858554     22.760826     39.977600
  H      42.713324     23.435492     40.208804
  O      41.028370     22.639687     41.113750
  H      41.636931     22.404690     41.863974
  C      43.139399     22.135007     35.775967
  O      44.021724     21.275568     35.568540
  O      42.613348     22.956020     34.987947
  C      39.388000     20.557000     43.513000
  H      39.587925     20.549885     44.584485
  H      38.502735     19.948339     43.294504
  H      39.183881     21.594023     43.208910
  N      40.587953     20.069214     42.813584
  H      41.326388     20.782850     42.734227
  C      40.853178     18.871152     42.301615
  N      39.974995     17.876423     42.362979
  H      39.059545     18.021550     42.759372
  H      40.166561     16.969749     41.965124
  N      42.021346     18.670394     41.719503
  H      42.609518     19.482829     41.503401
  H      42.234794     17.865016     41.155879
37
Coordinates from ORCA-job job E -836.446446579616
  C      45.367305     21.952404     40.660148
  H      45.553067     21.790903     39.595942
  H      46.097827     22.479966     41.276771
  C      44.242912     21.540194     41.258365
  C      43.937833     21.830604     42.742675
  O      44.889531     22.083308     43.484202
  O      42.700909     21.798227     43.050970
  O      43.265410     20.811239     40.609913
  C      42.442318     21.389200     39.573436
  H      41.564910     20.704831     39.547068
  C      43.077690     21.398616     38.211499
  H      43.849992     20.671810     37.954030
  C      42.584313     22.181079     37.232532
  C      41.482298     23.101444     37.549263
  H      41.024529     23.594754     36.687088
  C      41.106158     23.339149     38.823588
  H      40.325835     24.064448     39.080183
  C      41.859026     22.742380     39.986608
  H      42.714571     23.420615     40.212691
  O      41.032631     22.620675     41.122139
  H      41.640338     22.383491     41.874153
  C      43.113823     22.105005     35.770513
  O      43.997713     21.249156     35.557595
  O      42.575994     22.918701     34.981695
  C      39.388000     20.557000     43.513000
  H      39.587925     20.549885     44.584485
  H      38.498061     19.955269     43.296171
  H      39.190940     21.594399     43.207358
  N      40.582908     20.059880     42.812947
  H      41.326328     20.766881     42.734152
  C      40.837961     18.863416     42.297083
  N      39.950234     17.879367     42.353060
  H      39.039219     18.031766     42.753583
  H      40.131779     16.974627     41.950019
  N      42.003908     18.653123     41.714788
  H      42.597480     19.461399     41.499751
  H      42.207850     17.849192     41.150368
37
Coordinates from ORCA-job job E -836.446526366273
  C      45.360839     21.973452     40.665099
  H      45.541404     21.824703     39.596323
  H      46.092383     22.500614     41.281716
  C      44.242767     21.547382     41.265884
  C      43.944170     21.823013     42.757430
  O      44.896260     22.071543     43.499708
  O      42.707950     21.785320     43.067162
  O      43.266243     20.818926     40.616141
  C      42.439689     21.400390     39.583496
  H      41.562112     20.716199     39.559186
  C      43.069942     21.413385     38.219761
  H      43.846427     20.689126     37.961018
  C      42.568969     22.195381     37.244151
  C      41.467934     23.111668     37.570602
  H      41.006033     23.606995     36.713235
  C      41.093804     23.345607     38.842457
  H      40.316997     24.071422     39.104600
  C      41.858166     22.752886     40.001003
  H      42.716609     23.434389     40.217087
  O      41.039496     22.632191     41.142204
  H      41.650938     22.382998     41.887639
  C      43.084522     22.120893     35.774174
  O      43.976468     21.274685     35.555537
  O      42.527742     22.925415     34.985712
  C      39.388000     20.557000     43.513000
  H      39.587925     20.549885     44.584485
  H      38.496811     19.956792     43.296766
  H      39.192173     21.594585     43.207161
  N      40.581856     20.058450     42.812278
  H      41.328996     20.762781     42.740142
  C      40.826170     18.867169     42.275786
  N      39.926845     17.890990     42.310672
  H      39.017957     18.043315     42.714835
  H      40.097768     16.993240     41.889541
  N      41.993211     18.654274     41.695466
  H      42.591011     19.463434     41.490221
  H      42.190007     17.855838     41.119141
37
Coordinates from ORCA-job job E -836.446613720608
  C      45.352165     21.965431     40.650257
  H      45.523789     21.821601     39.581246
  H      46.089123     22.492612     41.257819
  C      44.241183     21.532553     41.258619
  C      43.951569     21.802602     42.751562
  O      44.908332     22.047114     43.488578
  O      42.715194     21.766132     43.066984
  O      43.262193     20.804981     40.613467
  C      42.433632     21.387035     39.583715
  H      41.555213     20.702337     39.564238
  C      43.060921     21.401888     38.219649
  H      43.843690     20.680170     37.963023
  C      42.553338     22.183236     37.246363
  C      41.449716     23.096099     37.576698
  H      40.983451     23.592218     36.721607
  C      41.079741     23.328681     38.848452
  H      40.302600     24.055255     39.111281
  C      41.855508     22.740187     40.003251
  H      42.714655     23.425477     40.206452
  O      41.046508     22.620406     41.151855
  H      41.662968     22.360883     41.890301
  C      43.066904     22.109036     35.778748
  O      43.965296     21.268700     35.561185
  O      42.504632     22.906428     34.994599
  C      39.388000     20.557000     43.513000
  H      39.587925     20.549885     44.584485
  H      38.492416     19.962963     43.298349
  H      39.198604     21.595420     43.206364
  N      40.577356     20.050254     42.810417
  H      41.329374     20.748783     42.742223
  C      40.806004     18.863789     42.253811
  N      39.893563     17.899712     42.271201
  H      38.989432     18.055475     42.684760
  H      40.046944     17.007990     41.824941
  N      41.971739     18.643893     41.673751
  H      42.575459     19.449847     41.475223
  H      42.158609     17.851126     41.085473
37
Coordinates from ORCA-job job E -836.446688397034
  C      45.345121     22.014426     40.662093
  H      45.512289     21.887672     39.590271
  H      46.084274     22.541084     41.269475
  C      44.244160     21.555856     41.272460
  C      43.956252     21.803852     42.770520
  O      44.913581     22.044581     43.512045
  O      42.719358     21.757756     43.088031
  O      43.270723     20.826420     40.619613
  C      42.440393     21.411748     39.591588
  H      41.561326     20.724456     39.573713
  C      43.062810     21.434994     38.226584
  H      43.844268     20.715748     37.962760
  C      42.541055     22.215377     37.257931
  C      41.430844     23.121319     37.594874
  H      40.957886     23.620322     36.745282
  C      41.071828     23.350056     38.871954
  H      40.292997     24.076125     39.138319
  C      41.861432     22.762315     40.016949
  H      42.717590     23.448757     40.206092
  O      41.062497     22.639738     41.172904
  H      41.677437     22.377688     41.908674
  C      43.039466     22.142464     35.784601
  O      43.947481     21.314541     35.560610
  O      42.453895     22.926106     35.002440
  C      39.388000     20.557000     43.513000
  H      39.587925     20.549885     44.584485
  H      38.493109     19.961481     43.298910
  H      39.195997     21.595604     43.208495
  N      40.577267     20.053790     42.805773
  H      41.333662     20.750741     42.753428
  C      40.800819     18.878175     42.230682
  N      39.882258     17.923806     42.226829
  H      38.981935     18.074950     42.651157
  H      40.032191     17.044887     41.765865
  N      41.968420     18.658280     41.652729
  H      42.576031     19.463173     41.466609
  H      42.154316     17.876213     41.051535
37
Coordinates from ORCA-job job E -836.446773457647
  C      45.348745     21.995318     40.652695
  H      45.507288     21.874746     39.578846
  H      46.093552     22.518334     41.253018
  C      44.253202     21.533235     41.268095
  C      43.972937     21.771778     42.766581
  O      44.934658     22.007095     43.502443
  O      42.737569     21.723359     43.091482
  O      43.275391     20.807634     40.616263
  C      42.438646     21.396211     39.595386
  H      41.560808     20.709146     39.582863
  C      43.049524     21.418561     38.223113
  H      43.826480     20.699028     37.953446
  C      42.515473     22.193325     37.256541
  C      41.406534     23.095608     37.604129
  H      40.924110     23.589790     36.756210
  C      41.063585     23.330256     38.887592
  H      40.289691     24.055670     39.163064
  C      41.863360     22.745929     40.026652
  H      42.719938     23.433701     40.205222
  O      41.074087     22.623188     41.188330
  H      41.691900     22.349679     41.919637
  C      42.998623     22.116859     35.778808
  O      43.919131     21.302031     35.555369
  O      42.384808     22.883861     34.992376
  C      39.388000     20.557000     43.513000
  H      39.587925     20.549885     44.584485
  H      38.487634     19.968977     43.301120
  H      39.203939     21.596800     43.207313
  N      40.571585     20.043159     42.803728
  H      41.335798     20.731708     42.758332
  C      40.773178     18.874004     42.204389
  N      39.833210     17.935708     42.174093
  H      38.936299     18.093572     42.603320
  H      39.959105     17.064151     41.679014
  N      41.936601     18.643571     41.623652
  H      42.557351     19.440813     41.448841
  H      42.106098     17.867930     41.007653
37
Coordinates from ORCA-job job E -836.446810344390
  C      45.322401     22.037394     40.653445
  H      45.475184     21.922639     39.576555
  H      46.065627     22.563761     41.249905
  C      44.234677     21.565699     41.271120
  C      43.958772     21.797042     42.770037
  O      44.920358     22.035632     43.498711
  O      42.728661     21.738793     43.102656
  O      43.260312     20.832916     40.624690
  C      42.413091     21.412829     39.607728
  H      41.543776     20.720024     39.600179
  C      43.017164     21.431445     38.229776
  H      43.792002     20.707850     37.960864
  C      42.492015     22.209691     37.267001
  C      41.393211     23.116969     37.619993
  H      40.917369     23.612234     36.770285
  C      41.049957     23.354433     38.902500
  H      40.283255     24.079416     39.185379
  C      41.839047     22.762116     40.041452
  H      42.700593     23.444725     40.224234
  O      41.048925     22.641169     41.199272
  H      41.667348     22.358087     41.929226
  C      42.978061     22.129044     35.790056
  O      43.895028     21.313141     35.565744
  O      42.369609     22.893574     35.003787
  C      39.388000     20.557000     43.513000
  H      39.587925     20.549885     44.584485
  H      38.490158     19.964946     43.301899
  H      39.197208     21.596022     43.208311
  N      40.571769     20.050700     42.799445
  H      41.334758     20.740126     42.760296
  C      40.778581     18.886427     42.196606
  N      39.839715     17.948090     42.159328
  H      38.936271     18.101505     42.571825
  H      39.972645     17.081828     41.668036
  N      41.945381     18.662096     41.621383
  H      42.566329     19.461368     41.456918
  H      42.120896     17.888681     41.008396
37
Coordinates from ORCA-job job E -836.446947063917
  C      45.329344     22.021515     40.651842
  H      45.475608     21.914097     39.574073
  H      46.078184     22.540153     41.255947
  C      44.243720     21.543538     41.268567
  C      43.975698     21.762937     42.771968
  O      44.941446     21.994242     43.501164
  O      42.745803     21.706846     43.107592
  O      43.264567     20.816266     40.620352
  C      42.415550     21.404490     39.607852
  H      41.538586     20.715982     39.596114
  C      43.014152     21.429475     38.229602
  H      43.796741     20.714355     37.954395
  C      42.473242     22.205934     37.268379
  C      41.370502     23.107050     37.627140
  H      40.882106     23.598790     36.778811
  C      41.037507     23.340771     38.912396
  H      40.263379     24.060459     39.198068
  C      41.846908     22.755599     40.046231
  H      42.717946     23.440209     40.211107
  O      41.073987     22.644551     41.217934
  H      41.697583     22.364150     41.942040
  C      42.942988     22.124785     35.783014
  O      43.859402     21.313749     35.546404
  O      42.324795     22.881748     35.001827
  C      39.388000     20.557000     43.513000
  H      39.587925     20.549885     44.584485
  H      38.487181     19.969515     43.303265
  H      39.202848     21.596502     43.207178
  N      40.568930     20.044004     42.799318
  H      41.341070     20.723298     42.768152
  C      40.759346     18.883951     42.179089
  N      39.810222     17.957214     42.126981
  H      38.911041     18.114933     42.548293
  H      39.930444     17.097638     41.613878
  N      41.923608     18.651534     41.603423
  H      42.554383     19.444983     41.446587
  H      42.086991     17.883104     40.978642
37
Coordinates from ORCA-job job E -836.447071687316
  C      45.322714     22.045448     40.649358
  H      45.466667     21.950655     39.570960
  H      46.066729     22.565821     41.254197
  C      44.245582     21.549368     41.270394
  C      43.984237     21.750455     42.779889
  O      44.953392     21.978090     43.508141
  O      42.753976     21.686171     43.119050
  O      43.271688     20.818670     40.622675
  C      42.420799     21.402975     39.613731
  H      41.544269     20.712481     39.605676
  C      43.016177     21.431263     38.236026
  H      43.796342     20.718947     37.953636
  C      42.467098     22.206395     37.280070
  C      41.358242     23.104102     37.640412
  H      40.864583     23.595166     36.797685
  C      41.031328     23.337045     38.925032
  H      40.250225     24.054211     39.210459
  C      41.850618     22.752689     40.051296
  H      42.715902     23.437151     40.210303
  O      41.085379     22.638655     41.229925
  H      41.709730     22.349196     41.949808
  C      42.926329     22.124365     35.791823
  O      43.858507     21.326592     35.559934
  O      42.285921     22.867363     35.010355
  C      39.388000     20.557000     43.513000
  H      39.587925     20.549885     44.584485
  H      38.484990     19.972377     43.304327
  H      39.207135     21.597273     43.206958
  N      40.567951     20.038809     42.801035
  H      41.345507     20.712544     42.778723
  C      40.746935     18.887010     42.160385
  N      39.788574     17.972917     42.089210
  H      38.890631     18.132000     42.515459
  H      39.899054     17.124281     41.555342
  N      41.911373     18.651003     41.585036
  H      42.549873     19.440797     41.438427
  H      42.069434     17.891737     40.945865
37
Coordinates from ORCA-job job E -836.447198677100
  C      45.318523     22.046426     40.644932
  H      45.454390     21.960819     39.564382
  H      46.063361     22.565219     41.248828
  C      44.248289     21.540380     41.269152
  C      43.994983     21.729126     42.779463
  O      44.968804     21.952572     43.503119
  O      42.765928     21.660700     43.124600
  O      43.271241     20.810275     40.622180
  C      42.412085     21.395178     39.619835
  H      41.536556     20.703645     39.616260
  C      42.996347     21.423870     38.235947
  H      43.775942     20.713332     37.948599
  C      42.437737     22.197268     37.282387
  C      41.332730     23.093991     37.652072
  H      40.832708     23.582414     36.811439
  C      41.017717     23.329292     38.940289
  H      40.242461     24.043442     39.238553
  C      41.844778     22.743992     40.061632
  H      42.713004     23.426419     40.213775
  O      41.090137     22.630959     41.245942
  H      41.717340     22.335434     41.961081
  C      42.887713     22.113152     35.794367
  O      43.827502     21.324674     35.561918
  O      42.230979     22.843852     35.013233
  C      39.388000     20.557000     43.513000
  H      39.587925     20.549885     44.584485
  H      38.482148     19.976226     43.305905
  H      39.211644     21.597873     43.206289
  N      40.565170     20.032684     42.800735
  H      41.350969     20.697606     42.789184
  C      40.733053     18.888696     42.146518
  N      39.761408     17.987756     42.054727
  H      38.863139     18.151580     42.478443
  H      39.864404     17.148507     41.509137
  N      41.896123     18.647030     41.571791
  H      42.545249     19.429546     41.436148
  H      42.047074     17.894517     40.923020
37
Coordinates from ORCA-job job E -836.447307170541
  C      45.311392     22.062601     40.643719
  H      45.442485     21.985376     39.563029
  H      46.053317     22.579528     41.251732
  C      44.247200     21.547135     41.267594
  C      44.001554     21.720403     42.778030
  O      44.979162     21.939718     43.495219
  O      42.776466     21.643301     43.130980
  O      43.269949     20.814501     40.622567
  C      42.401659     21.394228     39.626078
  H      41.528901     20.700661     39.629471
  C      42.975807     21.418621     38.236610
  H      43.756254     20.709270     37.946704
  C      42.412859     22.189288     37.286237
  C      41.313068     23.088575     37.661460
  H      40.802887     23.567598     36.819697
  C      41.012306     23.333396     38.951936
  H      40.236138     24.041155     39.258646
  C      41.839154     22.744849     40.067455
  H      42.710997     23.421110     40.217067
  O      41.094160     22.637849     41.257011
  H      41.723713     22.332076     41.964822
  C      42.848011     22.095334     35.793712
  O      43.788140     21.313384     35.554412
  O      42.175879     22.810063     35.011146
  C      39.388000     20.557000     43.513000
  H      39.587925     20.549885     44.584485
  H      38.482327     19.975668     43.307173
  H      39.211300     21.597593     43.205722
  N      40.565851     20.032011     42.801807
  H      41.360476     20.686936     42.805399
  C      40.727725     18.899605     42.132354
  N      39.749770     18.012399     42.023059
  H      38.846113     18.181473     42.432649
  H      39.840758     17.185361     41.449862
  N      41.891083     18.656291     41.559112
  H      42.551596     19.430213     41.439215
  H      42.040479     17.912921     40.904570
37
Coordinates from ORCA-job job E -836.447418204417
  C      45.305455     22.068266     40.639646
  H      45.430347     22.001297     39.556599
  H      46.045875     22.585522     41.249073
  C      44.248948     21.540836     41.268441
  C      44.012681     21.700537     42.783009
  O      44.994028     21.914875     43.496034
  O      42.789521     21.619028     43.141110
  O      43.271161     20.807803     40.626490
  C      42.396049     21.388843     39.636365
  H      41.522190     20.696742     39.645186
  C      42.961125     21.412864     38.243103
  H      43.741928     20.706310     37.948038
  C      42.391871     22.182325     37.295451
  C      41.293253     23.080249     37.677218
  H      40.774621     23.555490     36.838857
  C      41.002467     23.326943     38.969890
  H      40.222018     24.031962     39.278474
  C      41.839414     22.741128     40.080114
  H      42.715779     23.416324     40.220007
  O      41.106146     22.640296     41.278622
  H      41.740080     22.325635     41.979017
  C      42.816406     22.086249     35.799335
  O      43.762776     21.312305     35.554972
  O      42.132390     22.790594     35.020347
  C      39.388000     20.557000     43.513000
  H      39.587925     20.549885     44.584485
  H      38.479630     19.979446     43.308271
  H      39.216278     21.597982     43.204204
  N      40.564739     20.025365     42.804272
  H      41.367787     20.670406     42.817523
  C      40.712626     18.899260     42.114142
  N      39.718714     18.025770     41.980922
  H      38.813795     18.202434     42.383493
  H      39.805708     17.208245     41.404649
  N      41.876090     18.648577     41.542615
  H      42.549907     19.416822     41.438445
  H      42.015763     17.911376     40.875526
37
Coordinates from ORCA-job job E -836.447508874839
  C      45.291001     22.082801     40.622367
  H      45.406614     22.029852     39.535622
  H      46.031818     22.601345     41.231615
  C      44.242830     21.540550     41.255490
  C      44.019462     21.685471     42.776612
  O      45.005195     21.895151     43.487564
  O      42.797820     21.599217     43.140102
  O      43.263485     20.806725     40.616651
  C      42.381697     21.388793     39.632468
  H      41.505562     20.697901     39.647909
  C      42.937249     21.415150     38.236099
  H      43.718498     20.711629     37.935669
  C      42.358723     22.184954     37.291501
  C      41.260783     23.080152     37.682414
  H      40.736690     23.556558     36.852222
  C      40.976835     23.323490     38.975998
  H      40.200734     24.028212     39.292857
  C      41.828211     22.740291     40.080724
  H      42.707431     23.416689     40.210424
  O      41.108292     22.640188     41.288742
  H      41.746030     22.323319     41.982951
  C      42.772531     22.091269     35.793516
  O      43.730729     21.328890     35.547679
  O      42.072579     22.785563     35.019959
  C      39.388000     20.557000     43.513000
  H      39.587925     20.549885     44.584485
  H      38.478181     19.981394     43.308807
  H      39.219804     21.598308     43.202991
  N      40.564427     20.020538     42.807513
  H      41.373570     20.657486     42.832423
  C      40.704908     18.902824     42.100085
  N      39.706902     18.041421     41.952377
  H      38.807318     18.223232     42.366023
  H      39.785138     17.234941     41.355200
  N      41.868149     18.648487     41.528923
  H      42.545498     19.412106     41.430692
  H      42.002410     17.919302     40.848428
37
Coordinates from ORCA-job job E -836.447632522157
  C      45.286209     22.073597     40.617089
  H      45.393202     22.028812     39.530690
  H      46.031905     22.589632     41.223605
  C      44.246342     21.521275     41.255474
  C      44.033702     21.649879     42.778573
  O      45.024327     21.853225     43.485886
  O      42.814390     21.555829     43.149238
  O      43.265898     20.787481     40.620466
  C      42.377548     21.372070     39.643881
  H      41.500978     20.681398     39.665432
  C      42.922332     21.401232     38.244871
  H      43.705549     20.700399     37.939417
  C      42.329234     22.167298     37.305464
  C      41.230128     23.059023     37.707468
  H      40.688292     23.529543     36.882441
  C      40.962837     23.305707     39.003397
  H      40.187277     24.006633     39.328888
  C      41.827285     22.722471     40.098903
  H      42.705224     23.396892     40.223059
  O      41.116379     22.620489     41.311154
  H      41.753805     22.295742     42.000814
  C      42.719356     22.068272     35.799703
  O      43.683636     21.317360     35.542517
  O      41.993598     22.744306     35.030220
  C      39.388000     20.557000     43.513000
  H      39.587925     20.549885     44.584485
  H      38.472937     19.988971     43.310801
  H      39.229177     21.599080     43.200970
  N      40.559618     20.008030     42.809486
  H      41.379332     20.630990     42.850022
  C      40.683457     18.901159     42.083759
  N      39.666382     18.062164     41.908916
  H      38.764136     18.257489     42.310600
  H      39.726334     17.268599     41.287473
  N      41.847093     18.634505     41.517049
  H      42.540565     19.387274     41.435329
  H      41.970998     17.915005     40.826970
37
Coordinates from ORCA-job job E -836.447593263023
  C      45.265194     22.061549     40.589461
  H      45.366414     22.009744     39.508576
  H      46.016881     22.579808     41.187570
  C      44.228723     21.517137     41.233253
  C      44.026512     21.646757     42.752535
  O      45.021877     21.844543     43.453935
  O      42.808116     21.552381     43.127323
  O      43.243868     20.783230     40.606505
  C      42.348902     21.369762     39.636534
  H      41.470990     20.680409     39.668350
  C      42.884349     21.397986     38.236624
  H      43.663894     20.696415     37.926449
  C      42.284696     22.162369     37.301195
  C      41.185266     23.053582     37.710584
  H      40.620265     23.513792     36.890721
  C      40.934336     23.307477     39.007695
  H      40.153358     24.003908     39.333801
  C      41.804773     22.721099     40.095928
  H      42.682273     23.389544     40.223303
  O      41.096318     22.615590     41.307631
  H      41.736707     22.284600     41.990033
  C      42.655694     22.059515     35.791005
  O      43.619143     21.314628     35.519755
  O      41.914129     22.724746     35.030651
  C      39.388000     20.557000     43.513000
  H      39.587925     20.549885     44.584485
  H      38.470931     19.992120     43.312024
  H      39.233030     21.598947     43.199639
  N      40.555959     20.002018     42.810359
  H      41.377719     20.613934     42.863303
  C      40.679779     18.904539     42.081812
  N      39.660172     18.082134     41.900959
  H      38.746979     18.296887     42.269676
  H      39.721186     17.298610     41.284959
  N      41.843118     18.629075     41.517424
  H      42.545720     19.371710     41.449097
  H      41.967942     17.916019     40.828515
37
Coordinates from ORCA-job job E -836.447891971942
  C      45.251760     22.077377     40.575433
  H      45.340297     22.041940     39.488286
  H      46.003730     22.597848     41.169479
  C      44.226979     21.515323     41.226245
  C      44.035934     21.632098     42.749191
  O      45.034997     21.825430     43.443380
  O      42.820588     21.535592     43.132805
  O      43.237766     20.782753     40.601689
  C      42.333369     21.371197     39.640439
  H      41.452997     20.685414     39.681824
  C      42.853867     21.393830     38.231079
  H      43.629482     20.691999     37.914974
  C      42.252304     22.158150     37.300014
  C      41.160958     23.050784     37.719296
  H      40.594979     23.510630     36.903571
  C      40.919977     23.306757     39.021091
  H      40.144381     24.008410     39.350923
  C      41.798040     22.726019     40.102751
  H      42.679241     23.397236     40.214884
  O      41.103299     22.625823     41.324569
  H      41.751933     22.280007     41.996399
  C      42.614592     22.050606     35.788742
  O      43.582600     21.313495     35.514250
  O      41.860981     22.702933     35.028676
  C      39.388000     20.557000     43.513000
  H      39.587925     20.549885     44.584485
  H      38.469781     19.993640     43.312324
  H      39.235939     21.599383     43.198107
  N      40.557113     19.997857     42.813482
  H      41.387390     20.602405     42.879234
  C      40.666532     18.910262     42.057255
  N      39.632478     18.102988     41.847292
  H      38.723744     18.320855     42.223596
  H      39.677147     17.332683     41.197424
  N      41.830726     18.630160     41.497611
  H      42.538282     19.369384     41.437600
  H      41.946423     17.926462     40.792507
37
Coordinates from ORCA-job job E -836.448028921268
  C      45.239064     22.071469     40.550615
  H      45.312972     22.048377     39.460049
  H      45.995517     22.591809     41.140386
  C      44.224823     21.496633     41.208514
  C      44.050401     21.598811     42.737288
  O      45.056022     21.787118     43.424964
  O      42.839973     21.496983     43.133102
  O      43.231666     20.764957     40.590460
  C      42.320787     21.355385     39.638989
  H      41.440100     20.673520     39.687571
  C      42.826731     21.380047     38.224662
  H      43.606024     20.682574     37.901841
  C      42.210059     22.143331     37.299303
  C      41.121769     23.032397     37.733741
  H      40.543750     23.490703     36.927254
  C      40.894686     23.285749     39.037562
  H      40.127399     23.988171     39.380715
  C      41.789859     22.708886     40.108379
  H      42.671722     23.382914     40.208842
  O      41.109678     22.607194     41.339893
  H      41.757862     22.262347     42.008438
  C      42.551981     22.034805     35.783067
  O      43.529353     21.310425     35.499516
  O      41.775577     22.671748     35.030879
  C      39.388000     20.557000     43.513000
  H      39.587925     20.549885     44.584485
  H      38.465222     20.000416     43.313982
  H      39.245170     21.600048     43.195451
  N      40.553746     19.985384     42.816895
  H      41.395263     20.575044     42.897191
  C      40.645450     18.908479     42.038508
  N      39.597237     18.124292     41.805250
  H      38.692762     18.355630     42.182207
  H      39.632089     17.368602     41.138353
  N      41.808122     18.614844     41.482077
  H      42.528028     19.345309     41.432597
  H      41.910010     17.920326     40.761729
37
Coordinates from ORCA-job job E -836.448193097229
  C      45.208329     22.091467     40.517068
  H      45.268143     22.078994     39.424695
  H      45.968981     22.614624     41.100773
  C      44.207848     21.501185     41.185494
  C      44.048747     21.592280     42.717507
  O      45.060406     21.775119     43.397484
  O      42.841050     21.488691     43.122777
  O      43.211128     20.769493     40.574310
  C      42.290415     21.363949     39.634454
  H      41.406218     20.686417     39.691714
  C      42.778332     21.389173     38.213976
  H      43.554755     20.693605     37.880693
  C      42.149968     22.153437     37.296590
  C      41.066199     23.040975     37.744916
  H      40.475436     23.497587     36.948465
  C      40.854074     23.292304     39.051007
  H      40.093709     23.997281     39.403440
  C      41.764938     22.717155     40.112079
  H      42.646381     23.392634     40.205382
  O      41.096241     22.609623     41.348528
  H      41.749316     22.258885     42.009265
  C      42.470093     22.042476     35.775657
  O      43.452227     21.328648     35.481573
  O      41.674634     22.665571     35.034079
  C      39.388000     20.557000     43.513000
  H      39.587925     20.549885     44.584485
  H      38.464978     20.001137     43.314600
  H      39.247255     21.599738     43.194242
  N      40.553386     19.981976     42.819866
  H      41.399942     20.560856     42.918472
  C      40.639675     18.920014     42.022964
  N      39.581955     18.155525     41.760952
  H      38.673864     18.399016     42.121937
  H      39.611819     17.417575     41.073218
  N      41.805934     18.619751     41.477582
  H      42.529401     19.344581     41.436062
  H      41.906945     17.936984     40.749260
37
Coordinates from ORCA-job job E -836.448352697683
  C      45.198836     22.053682     40.484027
  H      45.248391     22.034305     39.394535
  H      45.970227     22.573300     41.057818
  C      44.198546     21.477030     41.154374
  C      44.050283     21.572896     42.685676
  O      45.067104     21.747398     43.359339
  O      42.844853     21.480326     43.098322
  O      43.192236     20.755038     40.547920
  C      42.271634     21.360637     39.620356
  H      41.378711     20.696256     39.683468
  C      42.741617     21.378683     38.195203
  H      43.513578     20.683441     37.853397
  C      42.096523     22.136690     37.283714
  C      41.018330     23.022664     37.744803
  H      40.409110     23.467508     36.958046
  C      40.828297     23.281534     39.052596
  H      40.078053     23.992524     39.411808
  C      41.755951     22.716331     40.104729
  H      42.632120     23.399102     40.191801
  O      41.094695     22.600496     41.343548
  H      41.753818     22.246173     41.998953
  C      42.392400     22.014133     35.761371
  O      43.372212     21.304175     35.457694
  O      41.582236     22.623687     35.030512
  C      39.388000     20.557000     43.513000
  H      39.587925     20.549885     44.584485
  H      38.462642     20.005516     43.315522
  H      39.254013     21.599371     43.191759
  N      40.550993     19.972657     42.823491
  H      41.401672     20.537251     42.934184
  C      40.627696     18.925250     42.010815
  N      39.566127     18.186321     41.733219
  H      38.654549     18.453171     42.066138
  H      39.595144     17.465560     41.030627
  N      41.792426     18.610073     41.473329
  H      42.520806     19.328547     41.433462
  H      41.885290     17.936038     40.736052
37
Coordinates from ORCA-job job E -836.448508338433
  C      45.173381     22.068767     40.453408
  H      45.209552     22.061637     39.363329
  H      45.949529     22.586226     41.022671
  C      44.185560     21.477330     41.131598
  C      44.054156     21.555862     42.664887
  O      45.079416     21.720308     43.327222
  O      42.852871     21.460063     43.090881
  O      43.174306     20.757492     40.529745
  C      42.241307     21.366333     39.616169
  H      41.346374     20.704702     39.691470
  C      42.689189     21.383087     38.182007
  H      43.458895     20.690962     37.829281
  C      42.025298     22.136980     37.280781
  C      40.950034     23.018692     37.759158
  H      40.315219     23.452434     36.978356
  C      40.788492     23.284256     39.072505
  H      40.036831     23.992345     39.440101
  C      41.734971     22.722702     40.108485
  H      42.613602     23.406470     40.180341
  O      41.092258     22.608124     41.358997
  H      41.760201     22.235100     41.999914
  C      42.287533     22.007716     35.750354
  O      43.276938     21.316832     35.429994
  O      41.437787     22.590952     35.027970
  C      39.388000     20.557000     43.513000
  H      39.587925     20.549885     44.584485
  H      38.460199     20.008492     43.318035
  H      39.257507     21.599550     43.190662
  N      40.548535     19.966594     42.823402
  H      41.409278     20.514464     42.955931
  C      40.610270     18.940858     41.975252
  N      39.532700     18.232492     41.657774
  H      38.616224     18.516283     41.969678
  H      39.554957     17.536562     40.929530
  N      41.774132     18.615137     41.442291
  H      42.514186     19.324313     41.421088
  H      41.859912     17.957955     40.687024
37
Coordinates from ORCA-job job E -836.448634114993
  C      45.150420     22.081767     40.427828
  H      45.175354     22.085806     39.335122
  H      45.925553     22.602766     40.992684
  C      44.174396     21.471593     41.114847
  C      44.053649     21.544419     42.648928
  O      45.084632     21.710772     43.303081
  O      42.855496     21.446727     43.085233
  O      43.161258     20.748698     40.519362
  C      42.221889     21.355541     39.611927
  H      41.329934     20.692535     39.692957
  C      42.661617     21.373916     38.175526
  H      43.426994     20.680326     37.816458
  C      41.998855     22.134404     37.283297
  C      40.930812     23.018878     37.769699
  H      40.300651     23.458856     36.994206
  C      40.770563     23.277754     39.081621
  H      40.022665     23.989101     39.453174
  C      41.715797     22.709801     40.108612
  H      42.591557     23.394377     40.179359
  O      41.078139     22.592543     41.361802
  H      41.742061     22.228577     42.003879
  C      42.254176     22.005485     35.753318
  O      43.240703     21.317230     35.423322
  O      41.401584     22.584405     35.037783
  C      39.388000     20.557000     43.513000
  H      39.587925     20.549885     44.584485
  H      38.458649     20.010005     43.319094
  H      39.260169     21.599874     43.189601
  N      40.547250     19.961732     42.824754
  H      41.415326     20.499720     42.967315
  C      40.602720     18.944978     41.968441
  N      39.514251     18.252057     41.627566
  H      38.601524     18.548880     41.935637
  H      39.536541     17.565687     40.891832
  N      41.769464     18.610458     41.448012
  H      42.513649     19.316746     41.427988
  H      41.852712     17.957823     40.688506
37
Coordinates from ORCA-job job E -836.448813920464
  C      45.128805     22.084168     40.393698
  H      45.147963     22.088675     39.300283
  H      45.907766     22.602075     40.956293
  C      44.155419     21.475561     41.083866
  C      44.043542     21.545941     42.621860
  O      45.077583     21.710317     43.271430
  O      42.847782     21.450625     43.063759
  O      43.139683     20.755111     40.493059
  C      42.191566     21.366009     39.596035
  H      41.299970     20.704196     39.679688
  C      42.615979     21.388100     38.154025
  H      43.382051     20.698211     37.786726
  C      41.938061     22.147449     37.267460
  C      40.873317     23.027679     37.767284
  H      40.236003     23.466287     36.998846
  C      40.726571     23.284363     39.081479
  H      39.984206     23.993383     39.465059
  C      41.687136     22.716960     40.102029
  H      42.564314     23.400249     40.167323
  O      41.056986     22.595855     41.358673
  H      41.724144     22.231304     41.998704
  C      42.178347     22.019589     35.734678
  O      43.166398     21.335757     35.396658
  O      41.319186     22.595600     35.031635
  C      39.388000     20.557000     43.513000
  H      39.587925     20.549885     44.584485
  H      38.456553     20.012496     43.321332
  H      39.261394     21.600058     43.189892
  N      40.541904     19.959378     42.819461
  H      41.410230     20.490924     42.962772
  C      40.592681     18.951439     41.950739
  N      39.507040     18.271048     41.606310
  H      38.596842     18.579116     41.905182
  H      39.527333     17.594123     40.858267
  N      41.758392     18.611218     41.432361
  H      42.500277     19.319322     41.412348
  H      41.842818     17.963494     40.673471
37
Coordinates from ORCA-job job E -836.449019948590
  C      45.112387     22.074292     40.365721
  H      45.122751     22.081540     39.273628
  H      45.899343     22.584460     40.925989
  C      44.141891     21.468099     41.056817
  C      44.042260     21.531001     42.596351
  O      45.080616     21.688700     43.239963
  O      42.849400     21.437398     43.045031
  O      43.121357     20.751523     40.470164
  C      42.166874     21.365842     39.583549
  H      41.273518     20.705517     39.675362
  C      42.576948     21.387559     38.139022
  H      43.338518     20.697802     37.765367
  C      41.882720     22.141830     37.260229
  C      40.820016     23.019215     37.770996
  H      40.168350     23.450640     37.009741
  C      40.693405     23.281424     39.085889
  H      39.955197     23.988840     39.478358
  C      41.667820     22.716208     40.096273
  H      42.544276     23.403544     40.154449
  O      41.050095     22.591785     41.358092
  H      41.724694     22.219547     41.989714
  C      42.095120     22.008379     35.722409
  O      43.085714     21.334892     35.371694
  O      41.213030     22.569642     35.031429
  C      39.388000     20.557000     43.513000
  H      39.587925     20.549885     44.584485
  H      38.455181     20.014560     43.322945
  H      39.264264     21.599906     43.188588
  N      40.539545     19.953839     42.820696
  H      41.414981     20.471105     42.976494
  C      40.582453     18.964116     41.934659
  N      39.487181     18.310748     41.564014
  H      38.577835     18.642444     41.845474
  H      39.503704     17.651198     40.800447
  N      41.746610     18.612834     41.421346
  H      42.491825     19.315324     41.404828
  H      41.824167     17.974539     40.648935
37
Coordinates from ORCA-job job E -836.449223074966
  C      45.093772     22.083170     40.341434
  H      45.101704     22.098469     39.250542
  H      45.882860     22.583792     40.905764
  C      44.128606     21.468068     41.035239
  C      44.036926     21.521914     42.574224
  O      45.079059     21.676084     43.210267
  O      42.847071     21.428950     43.029967
  O      43.106735     20.752556     40.449320
  C      42.143100     21.366369     39.572158
  H      41.253858     20.699388     39.673072
  C      42.539774     21.391149     38.125249
  H      43.295267     20.700668     37.744189
  C      41.831808     22.141347     37.257130
  C      40.771931     23.016198     37.778051
  H      40.109538     23.443686     37.019939
  C      40.665894     23.284146     39.092848
  H      39.926925     23.985783     39.493913
  C      41.647673     22.715207     40.090655
  H      42.524066     23.404648     40.140556
  O      41.044534     22.591296     41.358828
  H      41.727014     22.210188     41.980787
  C      42.018546     22.005771     35.718411
  O      43.010785     21.344437     35.348626
  O      41.111285     22.553730     35.041842
  C      39.388000     20.557000     43.513000
  H      39.587925     20.549885     44.584485
  H      38.453487     20.016557     43.325478
  H      39.265540     21.600015     43.188662
  N      40.536426     19.949615     42.818082
  H      41.422229     20.449407     42.981867
  C      40.569179     18.981583     41.909956
  N      39.465173     18.362809     41.512003
  H      38.559730     18.727216     41.767484
  H      39.481967     17.720634     40.741656
  N      41.735678     18.616506     41.409430
  H      42.482912     19.318735     41.397917
  H      41.813875     17.986938     40.632055
37
Coordinates from ORCA-job job E -836.449419263168
  C      45.078314     22.080594     40.311949
  H      45.079277     22.102773     39.223176
  H      45.871194     22.573272     40.874731
  C      44.116850     21.463433     41.005685
  C      44.037661     21.505747     42.544095
  O      45.086903     21.653431     43.173009
  O      42.851153     21.412478     43.009012
  O      43.091079     20.751305     40.422008
  C      42.116298     21.366719     39.558468
  H      41.228329     20.696952     39.672275
  C      42.492381     21.391568     38.105094
  H      43.241940     20.700544     37.713485
  C      41.766973     22.134507     37.245948
  C      40.714158     23.008924     37.782990
  H      40.039096     23.431166     37.032396
  C      40.632108     23.284864     39.098978
  H      39.896296     23.983073     39.512092
  C      41.625846     22.714707     40.084075
  H      42.498838     23.404560     40.125558
  O      41.039367     22.588414     41.358788
  H      41.723509     22.202110     41.973126
  C      41.922913     21.987145     35.702531
  O      42.911731     21.332351     35.316413
  O      40.997629     22.517614     35.039698
  C      39.388000     20.557000     43.513000
  H      39.587925     20.549885     44.584485
  H      38.451536     20.019009     43.328104
  H      39.268380     21.600345     43.188380
  N      40.532896     19.943928     42.816529
  H      41.428907     20.424990     42.993337
  C      40.549743     19.000535     41.875107
  N      39.432027     18.419682     41.437940
  H      38.533561     18.814870     41.675571
  H      39.437020     17.801845     40.637417
  N      41.715302     18.620150     41.381810
  H      42.468675     19.318082     41.378614
  H      41.786720     18.003066     40.589522
37
Coordinates from ORCA-job job E -836.449438457974
  C      45.069528     22.082420     40.287686
  H      45.071507     22.107103     39.196572
  H      45.863739     22.568426     40.851739
  C      44.103412     21.470433     40.978519
  C      44.023105     21.516974     42.515405
  O      45.072813     21.668717     43.145009
  O      42.837318     21.426633     42.980321
  O      43.078351     20.757866     40.394516
  C      42.095596     21.369698     39.536525
  H      41.215829     20.690240     39.651333
  C      42.465510     21.402857     38.080823
  H      43.214992     20.710711     37.686506
  C      41.733890     22.143785     37.226042
  C      40.685878     23.018246     37.771684
  H      40.020415     23.451960     37.023813
  C      40.605658     23.288736     39.088186
  H      39.868242     23.985341     39.505228
  C      41.597492     22.711872     40.068533
  H      42.469617     23.403412     40.111854
  O      41.012271     22.581820     41.341024
  H      41.692003     22.206362     41.959973
  C      41.881478     21.997246     35.680669
  O      42.859987     21.336153     35.287913
  O      40.962456     22.533809     35.025153
  C      39.388000     20.557000     43.513000
  H      39.587925     20.549885     44.584485
  H      38.452107     20.017481     43.329026
  H      39.265333     21.600756     43.190298
  N      40.530492     19.947009     42.810843
  H      41.423252     20.428035     42.976049
  C      40.552619     19.012420     41.869707
  N      39.439083     18.440130     41.423487
  H      38.556923     18.845178     41.671951
  H      39.448863     17.825405     40.622580
  N      41.714380     18.631420     41.373732
  H      42.451744     19.338940     41.350946
  H      41.788830     18.011356     40.581235
37
Coordinates from ORCA-job job E -836.449694999404
  C      45.048920     22.081699     40.256715
  H      45.036085     22.117579     39.160525
  H      45.849245     22.569517     40.814249
  C      44.094621     21.457380     40.958197
  C      44.029858     21.494402     42.501268
  O      45.082700     21.642705     43.124717
  O      42.846640     21.404025     42.974467
  O      43.065819     20.744947     40.381447
  C      42.072604     21.362698     39.536059
  H      41.193534     20.687157     39.654492
  C      42.427165     21.399958     38.076121
  H      43.175219     20.710606     37.671766
  C      41.682559     22.142654     37.229407
  C      40.639025     23.013801     37.790858
  H      39.963961     23.450199     37.055184
  C      40.572549     23.279113     39.109153
  H      39.842053     23.977745     39.536709
  C      41.580330     22.703800     40.079144
  H      42.456374     23.397303     40.112191
  O      41.007067     22.571290     41.359887
  H      41.695707     22.193030     41.971099
  C      41.815110     22.001337     35.686126
  O      42.802507     21.353430     35.282689
  O      40.876893     22.528784     35.043906
  C      39.388000     20.557000     43.513000
  H      39.587925     20.549885     44.584485
  H      38.447509     20.024653     43.330192
  H      39.274843     21.601050     43.187400
  N      40.526056     19.934402     42.813124
  H      41.428503     20.399458     42.990959
  C      40.536921     19.011853     41.862020
  N      39.415014     18.467886     41.401948
  H      38.525913     18.896522     41.616921
  H      39.418857     17.864539     40.595885
  N      41.702052     18.615093     41.381663
  H      42.448539     19.317523     41.366591
  H      41.769864     18.000616     40.589528
37
Coordinates from ORCA-job job E -836.449811621145
  C      45.026846     22.102049     40.225516
  H      45.014696     22.135239     39.135781
  H      45.830529     22.591071     40.780865
  C      44.075635     21.475548     40.930481
  C      44.016115     21.510986     42.473030
  O      45.070167     21.657551     43.090810
  O      42.834877     21.419606     42.952417
  O      43.044963     20.763691     40.355205
  C      42.049649     21.380612     39.515418
  H      41.168304     20.707353     39.639507
  C      42.396356     21.416457     38.054882
  H      43.143112     20.729679     37.645521
  C      41.646065     22.157035     37.213838
  C      40.600944     23.025717     37.777647
  H      39.910635     23.458711     37.045714
  C      40.542995     23.292755     39.094003
  H      39.822383     23.992359     39.528887
  C      41.559450     22.721823     40.058615
  H      42.430556     23.417080     40.087299
  O      40.993637     22.583036     41.341831
  H      41.687694     22.195547     41.945296
  C      41.763666     22.012473     35.668740
  O      42.752757     21.370985     35.257080
  O      40.810898     22.530154     35.034193
  C      39.388000     20.557000     43.513000
  H      39.587925     20.549885     44.584485
  H      38.449568     20.021833     43.330426
  H      39.271804     21.600353     43.187886
  N      40.526416     19.938068     42.812245
  H      41.426650     20.401010     42.999341
  C      40.532129     19.029337     41.832883
  N      39.411488     18.499484     41.352963
  H      38.525740     18.935184     41.564342
  H      39.422714     17.912096     40.535299
  N      41.695488     18.631789     41.351597
  H      42.440968     19.334549     41.341730
  H      41.763260     18.026806     40.552457
37
Coordinates from ORCA-job job E -836.450032220374
  C      45.016850     22.091787     40.200413
  H      45.000610     22.126635     39.111418
  H      45.822079     22.577939     40.751198
  C      44.066842     21.468491     40.906600
  C      44.014021     21.500773     42.447566
  O      45.071737     21.644457     43.062359
  O      42.834605     21.410093     42.930597
  O      43.034580     20.756661     40.334868
  C      42.027927     21.372845     39.507164
  H      41.149052     20.695511     39.639476
  C      42.358906     21.410293     38.041918
  H      43.100348     20.722572     37.625470
  C      41.598044     22.146065     37.207085
  C      40.560796     23.016064     37.782590
  H      39.866226     23.449977     37.057961
  C      40.519322     23.286868     39.101484
  H      39.798005     23.984120     39.541301
  C      41.539746     22.712334     40.057520
  H      42.410474     23.407227     40.084244
  O      40.981820     22.571776     41.342080
  H      41.678829     22.186343     41.942032
  C      41.694843     21.993642     35.658914
  O      42.677544     21.352366     35.237984
  O      40.734637     22.503381     35.033586
  C      39.388000     20.557000     43.513000
  H      39.587925     20.549885     44.584485
  H      38.447630     20.024529     43.331508
  H      39.275401     21.600652     43.187175
  N      40.523086     19.932437     42.812221
  H      41.430011     20.383841     43.006238
  C      40.523988     19.040532     41.824074
  N      39.398596     18.538457     41.323653
  H      38.520759     18.998562     41.520387
  H      39.405766     17.964515     40.493131
  N      41.685413     18.631995     41.347301
  H      42.435068     19.332957     41.336916
  H      41.748301     18.030497     40.544047
37
Coordinates from ORCA-job job E -836.450200978931
  C      45.003544     22.092879     40.169564
  H      44.979715     22.132782     39.077126
  H      45.810566     22.580603     40.716628
  C      44.056483     21.470021     40.878725
  C      44.010689     21.500242     42.420614
  O      45.071133     21.644257     43.032175
  O      42.833398     21.407492     42.908203
  O      43.024207     20.754917     40.310880
  C      42.009853     21.367704     39.490816
  H      41.136000     20.686014     39.626339
  C      42.332900     21.410196     38.025198
  H      43.073238     20.724733     37.603743
  C      41.566616     22.145559     37.195106
  C      40.534485     23.015818     37.777436
  H      39.840685     23.457773     37.059929
  C      40.497333     23.281844     39.096621
  H      39.776009     23.978869     39.538188
  C      41.519882     22.704210     40.046393
  H      42.391257     23.399251     40.071973
  O      40.967644     22.561509     41.333803
  H      41.669382     22.179393     41.929980
  C      41.658607     21.994479     35.651726
  O      42.638340     21.353393     35.225750
  O      40.696376     22.502443     35.033207
  C      39.388000     20.557000     43.513000
  H      39.587925     20.549885     44.584485
  H      38.446686     20.025989     43.331069
  H      39.278528     21.600778     43.186070
  N      40.522301     19.928007     42.815076
  H      41.431559     20.373550     43.012907
  C      40.521808     19.048427     41.821745
  N      39.395523     18.568067     41.307110
  H      38.529038     19.042247     41.500020
  H      39.402322     18.003170     40.469716
  N      41.680719     18.634432     41.345438
  H      42.430250     19.336003     41.329654
  H      41.740001     18.033566     40.542327
37
Coordinates from ORCA-job job E -836.450396110054
  C      44.997252     22.096813     40.146607
  H      44.972033     22.138744     39.054529
  H      45.803084     22.588816     40.691442
  C      44.052932     21.471746     40.858492
  C      44.009132     21.497628     42.399981
  O      45.069728     21.641449     43.010453
  O      42.833441     21.398777     42.890044
  O      43.023111     20.753735     40.290976
  C      42.002444     21.365666     39.479671
  H      41.130079     20.683385     39.618487
  C      42.313622     21.409514     38.010811
  H      43.054069     20.727368     37.583504
  C      41.537862     22.140837     37.184749
  C      40.511820     23.011237     37.775598
  H      39.813186     23.456659     37.066682
  C      40.482791     23.276130     39.095748
  H      39.765184     23.975051     39.540632
  C      41.510408     22.699393     40.040322
  H      42.379017     23.396063     40.067766
  O      40.961378     22.549814     41.327962
  H      41.664243     22.171075     41.922358
  C      41.611770     21.985609     35.637050
  O      42.588399     21.345989     35.200424
  O      40.639815     22.488276     35.027676
  C      39.388000     20.557000     43.513000
  H      39.587925     20.549885     44.584485
  H      38.446381     20.026562     43.330329
  H      39.281030     21.600548     43.184695
  N      40.523187     19.924133     42.819816
  H      41.432237     20.364698     43.025095
  C      40.521687     19.058113     41.816979
  N      39.394379     18.603420     41.285780
  H      38.534984     19.094528     41.465674
  H      39.404852     18.049020     40.446752
  N      41.679053     18.639300     41.340787
  H      42.431542     19.338505     41.324396
  H      41.733800     18.040224     40.536441
37
Coordinates from ORCA-job job E -836.450721298828
  C      44.993529     22.099153     40.112390
  H      44.967297     22.142653     39.023241
  H      45.798231     22.597974     40.655598
  C      44.052851     21.470817     40.827565
  C      44.013986     21.487604     42.368826
  O      45.074978     21.630540     42.976424
  O      42.840775     21.376252     42.863211
  O      43.026180     20.747881     40.259286
  C      41.996925     21.358384     39.459904
  H      41.127571     20.674286     39.603566
  C      42.294088     21.404142     37.989358
  H      43.035243     20.728008     37.554719
  C      41.506959     22.129620     37.170292
  C      40.486565     22.999620     37.769567
  H      39.776924     23.450013     37.071650
  C      40.467906     23.262710     39.089844
  H      39.757041     23.964620     39.539114
  C      41.502171     22.688384     40.026776
  H      42.367934     23.387600     40.055628
  O      40.960131     22.530301     41.317686
  H      41.670207     22.151088     41.903853
  C      41.561146     21.968691     35.622913
  O      42.537181     21.333223     35.175358
  O      40.576264     22.461902     35.026564
  C      39.388000     20.557000     43.513000
  H      39.587925     20.549885     44.584485
  H      38.445345     20.028297     43.328927
  H      39.286922     21.600115     43.181343
  N      40.525818     19.915254     42.830982
  H      41.436091     20.346239     43.051283
  C      40.519593     19.073212     41.805391
  N      39.388773     18.666212     41.241230
  H      38.541840     19.187211     41.400770
  H      39.400498     18.132559     40.389232
  N      41.675130     18.647989     41.328638
  H      42.433732     19.340949     41.314385
  H      41.722680     18.052677     40.523392
37
Coordinates from ORCA-job job E -836.451049239198
  C      44.990631     22.110946     40.076197
  H      44.959705     22.158011     38.986335
  H      45.793287     22.618206     40.617601
  C      44.055052     21.475248     40.794595
  C      44.021742     21.478763     42.336464
  O      45.084654     21.621023     42.940876
  O      42.850231     21.349598     42.833726
  O      43.032582     20.745943     40.224306
  C      41.992282     21.354543     39.436489
  H      41.126333     20.665162     39.583876
  C      42.277094     21.404104     37.962884
  H      43.019308     20.734048     37.520343
  C      41.479145     22.125659     37.151943
  C      40.462668     22.994397     37.759626
  H      39.747154     23.451697     37.069483
  C      40.450237     23.252333     39.081294
  H      39.745217     23.958004     39.534782
  C      41.491389     22.678968     40.012176
  H      42.356294     23.381414     40.042426
  O      40.954291     22.510163     41.305245
  H      41.672112     22.129375     41.883182
  C      41.516766     21.961452     35.604317
  O      42.492658     21.330700     35.146748
  O      40.517586     22.445949     35.017885
  C      39.388000     20.557000     43.513000
  H      39.587925     20.549885     44.584485
  H      38.443351     20.030873     43.329255
  H      39.291649     21.599701     43.178901
  N      40.525404     19.907200     42.837769
  H      41.433367     20.333192     43.071637
  C      40.518756     19.088196     41.788862
  N      39.389142     18.727306     41.191247
  H      38.559665     19.270244     41.345646
  H      39.404187     18.214640     40.323905
  N      41.672399     18.664865     41.305874
  H      42.435765     19.350569     41.294245
  H      41.714533     18.071845     40.497289
37
Coordinates from ORCA-job job E -836.451447091551
  C      44.995006     22.110973     40.029723
  H      44.965867     22.155383     38.940986
  H      45.792707     22.625094     40.573130
  C      44.057101     21.475396     40.742804
  C      44.025446     21.464511     42.283741
  O      45.087404     21.610000     42.887084
  O      42.855747     21.309666     42.780157
  O      43.042314     20.737495     40.166357
  C      41.988747     21.341298     39.391876
  H      41.132236     20.638154     39.541205
  C      42.260628     21.399638     37.916980
  H      43.001211     20.735354     37.464065
  C      41.447597     22.114932     37.117313
  C      40.436341     22.982362     37.734350
  H      39.718535     23.449874     37.050235
  C      40.430356     23.233507     39.055507
  H      39.732993     23.941121     39.516593
  C      41.475164     22.655568     39.979487
  H      42.336953     23.362220     40.017737
  O      40.940987     22.468401     41.271904
  H      41.668990     22.089117     41.840030
  C      41.465846     21.945921     35.572055
  O      42.436399     21.315745     35.103652
  O      40.459632     22.425574     35.001360
  C      39.388000     20.557000     43.513000
  H      39.587925     20.549885     44.584485
  H      38.439572     20.036341     43.331368
  H      39.298548     21.599223     43.176127
  N      40.519779     19.894970     42.841742
  H      41.424121     20.312196     43.083260
  C      40.510062     19.107594     41.765647
  N      39.378458     18.822081     41.121589
  H      38.570317     19.416389     41.249315
  H      39.395605     18.334184     40.242851
  N      41.660047     18.681389     41.275694
  H      42.429891     19.358352     41.264878
  H      41.695863     18.085089     40.470002
37
Coordinates from ORCA-job job E -836.451895449666
  C      45.006225     22.128025     39.995885
  H      44.979314     22.168725     38.908559
  H      45.797943     22.647079     40.541845
  C      44.069917     21.483930     40.704626
  C      44.038726     21.459302     42.245620
  O      45.098009     21.611458     42.849346
  O      42.870964     21.280557     42.739618
  O      43.062687     20.738236     40.122418
  C      41.998610     21.334106     39.356517
  H      41.153842     20.616770     39.504607
  C      42.260443     21.404100     37.879573
  H      42.996031     20.742356     37.415105
  C      41.433996     22.117865     37.090776
  C      40.425766     22.982330     37.717628
  H      39.712717     23.459794     37.034573
  C      40.423869     23.222182     39.040955
  H      39.731611     23.931661     39.508790
  C      41.471504     22.637013     39.956662
  H      42.329874     23.350132     39.999463
  O      40.940072     22.430875     41.247031
  H      41.674744     22.061794     41.810792
  C      41.433867     21.950060     35.544458
  O      42.400483     21.322639     35.064416
  O      40.418999     22.428241     34.986566
  C      39.388000     20.557000     43.513000
  H      39.587925     20.549885     44.584485
  H      38.439353     20.037561     43.332739
  H      39.299597     21.598449     43.174999
  N      40.515656     19.891692     42.841090
  H      41.422317     20.304493     43.089036
  C      40.509164     19.128729     41.751027
  N      39.388371     18.898357     41.075950
  H      38.603621     19.525308     41.198649
  H      39.409056     18.433804     40.174985
  N      41.661405     18.703900     41.262847
  H      42.435458     19.374730     41.250307
  H      41.697667     18.102102     40.463106
37
Coordinates from ORCA-job job E -836.452413759108
  C      45.006628     22.136162     39.952231
  H      44.974355     22.178428     38.860000
  H      45.793442     22.653101     40.502206
  C      44.077532     21.478692     40.657398
  C      44.053217     21.439634     42.201063
  O      45.115736     21.597684     42.803198
  O      42.891101     21.242654     42.697477
  O      43.074825     20.729803     40.073509
  C      41.999592     21.320906     39.316025
  H      41.165188     20.590922     39.459375
  C      42.247836     21.405881     37.835717
  H      42.977243     20.744264     37.358017
  C      41.406813     22.122186     37.060605
  C      40.402523     22.982632     37.702156
  H      39.702432     23.468204     37.016931
  C      40.410066     23.208799     39.032248
  H      39.721732     23.918464     39.509256
  C      41.464172     22.613419     39.934796
  H      42.317888     23.332790     39.977037
  O      40.938299     22.390088     41.224311
  H      41.680827     22.026596     41.783780
  C      41.387504     21.957427     35.512149
  O      42.348174     21.333102     35.019015
  O      40.365318     22.434057     34.965303
  C      39.388000     20.557000     43.513000
  H      39.587925     20.549885     44.584485
  H      38.437501     20.041161     43.334744
  H      39.303331     21.599025     43.174322
  N      40.508683     19.886955     42.835564
  H      41.426381     20.289371     43.080979
  C      40.497190     19.145648     41.733468
  N      39.383355     18.969785     41.025029
  H      38.628019     19.627978     41.154203
  H      39.415457     18.525755     40.117857
  N      41.650464     18.713024     41.252335
  H      42.427122     19.379674     41.234004
  H      41.686830     18.105927     40.453841
37
Coordinates from ORCA-job job E -836.452737116073
  C      44.995283     22.169660     39.919244
  H      44.966087     22.208656     38.822521
  H      45.772529     22.691635     40.475396
  C      44.074557     21.494941     40.619682
  C      44.046658     21.446336     42.159913
  O      45.107651     21.617490     42.763755
  O      42.887575     21.223971     42.652906
  O      43.081179     20.739526     40.030127
  C      42.001095     21.322873     39.272863
  H      41.176802     20.578878     39.407968
  C      42.247095     21.420400     37.794857
  H      42.966969     20.754180     37.310912
  C      41.409274     22.144291     37.031677
  C      40.406738     23.002669     37.678136
  H      39.724178     23.496429     36.985070
  C      40.406917     23.213658     39.008593
  H      39.723617     23.924996     39.487259
  C      41.454746     22.604907     39.905544
  H      42.299557     23.331291     39.960400
  O      40.925591     22.355165     41.185806
  H      41.669366     21.998139     41.744751
  C      41.385138     21.986804     35.485436
  O      42.339589     21.363431     34.982503
  O      40.363943     22.468991     34.945501
  C      39.388000     20.557000     43.513000
  H      39.587925     20.549885     44.584485
  H      38.438243     20.040451     43.335494
  H      39.301294     21.599176     43.175926
  N      40.502791     19.891287     42.824587
  H      41.420112     20.292085     43.057660
  C      40.493801     19.168005     41.713815
  N      39.403882     19.042142     40.985157
  H      38.669198     19.724650     41.095941
  H      39.450093     18.619478     40.069735
  N      41.644136     18.732134     41.232000
  H      42.428470     19.397066     41.218641
  H      41.681429     18.112765     40.432244
37
Coordinates from ORCA-job job E -836.453126089257
  C      44.984869     22.179251     39.879242
  H      44.955506     22.223801     38.782238
  H      45.759876     22.702775     40.437175
  C      44.071598     21.492352     40.574803
  C      44.049230     21.432959     42.113054
  O      45.108726     21.610746     42.714412
  O      42.894729     21.196898     42.611850
  O      43.082581     20.735523     39.983123
  C      41.999543     21.316746     39.234182
  H      41.180155     20.570090     39.371352
  C      42.229100     21.423007     37.755980
  H      42.943443     20.758231     37.261641
  C      41.375240     22.144539     37.005815
  C      40.378899     22.997186     37.670875
  H      39.687995     23.493561     36.988232
  C      40.391085     23.200310     38.999944
  H      39.713138     23.913530     39.483822
  C      41.449360     22.589407     39.880885
  H      42.282678     23.325995     39.939995
  O      40.930999     22.318813     41.162937
  H      41.676600     21.966148     41.716651
  C      41.319130     21.987112     35.458826
  O      42.270824     21.374157     34.930728
  O      40.274674     22.458273     34.939019
  C      39.388000     20.557000     43.513000
  H      39.587925     20.549885     44.584485
  H      38.439429     20.038960     43.332292
  H      39.305399     21.598909     43.173518
  N      40.507626     19.886969     42.833001
  H      41.432187     20.269482     43.073807
  C      40.492906     19.197042     41.698339
  N      39.408054     19.138618     40.920645
  H      38.698069     19.863540     41.002050
  H      39.462715     18.752982     39.979651
  N      41.640502     18.741694     41.227144
  H      42.428090     19.404012     41.213490
  H      41.678716     18.125554     40.430816
37
Coordinates from ORCA-job job E -836.453357263708
  C      44.990358     22.165142     39.858642
  H      44.972678     22.191469     38.774136
  H      45.765434     22.698458     40.411531
  C      44.074758     21.487430     40.549512
  C      44.058671     21.438436     42.089747
  O      45.112960     21.625566     42.691498
  O      42.905068     21.200828     42.589838
  O      43.082068     20.732076     39.962571
  C      42.003811     21.316725     39.210245
  H      41.180178     20.577332     39.343142
  C      42.236431     21.429103     37.733625
  H      42.955076     20.770676     37.238536
  C      41.385348     22.157722     36.981798
  C      40.383120     23.001273     37.649773
  H      39.676390     23.497858     36.969966
  C      40.387920     23.190741     38.981683
  H      39.709047     23.902890     39.466168
  C      41.453677     22.585441     39.861562
  H      42.289193     23.321150     39.925488
  O      40.934821     22.314836     41.148479
  H      41.688201     21.962700     41.697684
  C      41.337963     22.011567     35.435543
  O      42.293090     21.398945     34.915387
  O      40.302981     22.490083     34.915379
  C      39.388000     20.557000     43.513000
  H      39.587925     20.549885     44.584485
  H      38.441722     20.034370     43.324980
  H      39.305506     21.599194     43.172596
  N      40.518453     19.890674     42.844110
  H      41.440122     20.279824     43.085717
  C      40.504941     19.198419     41.710392
  N      39.425124     19.150734     40.926710
  H      38.733642     19.873110     41.031146
  H      39.494555     18.769272     39.996504
  N      41.652984     18.743344     41.240093
  H      42.431459     19.405228     41.220356
  H      41.705474     18.125003     40.470321
37
Coordinates from ORCA-job job E -836.453992410135
  C      44.964881     22.191241     39.807615
  H      44.939560     22.224607     38.718484
  H      45.739979     22.728109     40.362323
  C      44.068011     21.489388     40.515461
  C      44.062737     21.427496     42.057467
  O      45.120548     21.619143     42.654097
  O      42.911019     21.173745     42.559186
  O      43.076204     20.728974     39.931861
  C      41.984159     21.314409     39.189435
  H      41.166190     20.565846     39.323026
  C      42.208445     21.435026     37.710997
  H      42.922188     20.776162     37.208478
  C      41.353503     22.167439     36.966304
  C      40.353389     23.009273     37.639864
  H      39.647206     23.511785     36.961664
  C      40.362938     23.190537     38.976671
  H      39.691309     23.901138     39.472744
  C      41.428981     22.577266     39.851932
  H      42.264013     23.313096     39.923706
  O      40.911892     22.294160     41.134815
  H      41.675975     21.938434     41.676995
  C      41.297075     22.020424     35.418306
  O      42.246362     21.406778     34.897211
  O      40.265950     22.497196     34.903489
  C      39.388000     20.557000     43.513000
  H      39.587925     20.549885     44.584485
  H      38.438545     20.038824     43.327016
  H      39.307861     21.599535     43.173351
  N      40.510560     19.886007     42.837218
  H      41.435404     20.270561     43.085977
  C      40.494125     19.209851     41.690737
  N      39.428780     19.206185     40.899700
  H      38.756350     19.956673     41.001057
  H      39.501000     18.841396     39.964878
  N      41.642454     18.749938     41.224309
  H      42.433570     19.403694     41.214302
  H      41.679932     18.126709     40.433416
37
Coordinates from ORCA-job job E -836.454467757919
  C      44.945002     22.196341     39.784838
  H      44.911138     22.236118     38.688438
  H      45.720133     22.732197     40.335874
  C      44.052692     21.490944     40.488237
  C      44.051960     21.428186     42.027864
  O      45.113210     21.626235     42.621532
  O      42.905413     21.167954     42.536237
  O      43.060648     20.729822     39.909262
  C      41.972489     21.313374     39.164388
  H      41.156199     20.561685     39.297152
  C      42.199485     21.437984     37.688694
  H      42.910730     20.775964     37.186465
  C      41.347657     22.174792     36.948224
  C      40.347174     23.012566     37.624137
  H      39.650027     23.511561     36.949700
  C      40.354162     23.192390     38.959168
  H      39.677399     23.898574     39.454323
  C      41.416596     22.573974     39.830893
  H      42.247440     23.313034     39.910965
  O      40.900476     22.284593     41.111026
  H      41.658513     21.931332     41.655202
  C      41.284706     22.037373     35.399409
  O      42.235364     21.433576     34.864200
  O      40.237148     22.512971     34.891743
  C      39.388000     20.557000     43.513000
  H      39.587925     20.549885     44.584485
  H      38.439261     20.037859     43.327964
  H      39.304360     21.599380     43.175237
  N      40.508411     19.889611     42.830248
  H      41.433192     20.269452     43.075392
  C      40.493423     19.220389     41.682456
  N      39.440538     19.237363     40.886324
  H      38.781569     19.999466     40.982325
  H      39.517636     18.888286     39.941068
  N      41.639840     18.752637     41.220472
  H      42.431442     19.405582     41.214394
  H      41.680246     18.128141     40.430055
37
Coordinates from ORCA-job job E -836.454925368064
  C      44.933364     22.203582     39.764466
  H      44.900381     22.245351     38.669447
  H      45.705989     22.744332     40.312930
  C      44.047053     21.489843     40.466269
  C      44.049705     21.422700     42.005299
  O      45.107364     21.631182     42.597651
  O      42.906115     21.150322     42.515836
  O      43.056990     20.726446     39.887449
  C      41.969668     21.311844     39.145113
  H      41.154783     20.559045     39.276620
  C      42.194169     21.442966     37.669616
  H      42.905073     20.783712     37.163737
  C      41.342022     22.182570     36.932873
  C      40.339966     23.013542     37.613955
  H      39.634226     23.511938     36.944621
  C      40.345335     23.186185     38.948741
  H      39.666292     23.887139     39.447462
  C      41.411818     22.567686     39.816894
  H      42.240400     23.307436     39.903010
  O      40.900287     22.270174     41.099197
  H      41.659535     21.918742     41.640366
  C      41.276229     22.049408     35.385419
  O      42.227088     21.449790     34.846075
  O      40.226833     22.523111     34.882560
  C      39.388000     20.557000     43.513000
  H      39.587925     20.549885     44.584485
  H      38.438945     20.038658     43.326376
  H      39.306432     21.599407     43.174808
  N      40.509716     19.887077     42.834025
  H      41.434346     20.262380     43.084141
  C      40.494576     19.230514     41.680241
  N      39.447846     19.288200     40.861410
  H      38.813516     20.069076     40.957097
  H      39.532546     18.959771     39.907670
  N      41.636757     18.754108     41.218533
  H      42.431961     19.404138     41.219034
  H      41.676981     18.129686     40.430548
37
Coordinates from ORCA-job job E -836.455595623951
  C      44.901928     22.195877     39.722530
  H      44.865939     22.243358     38.631104
  H      45.680181     22.736749     40.265075
  C      44.029024     21.472188     40.430080
  C      44.045142     21.410576     41.968625
  O      45.101210     21.636679     42.553354
  O      42.908438     21.134293     42.488698
  O      43.031426     20.712792     39.859676
  C      41.953394     21.310905     39.118781
  H      41.134310     20.566045     39.246515
  C      42.179764     21.451411     37.644089
  H      42.896262     20.799371     37.135778
  C      41.329331     22.198040     36.906623
  C      40.320755     23.012589     37.596867
  H      39.587668     23.498580     36.940656
  C      40.325609     23.177631     38.932059
  H      39.632445     23.859540     39.438649
  C      41.400779     22.564461     39.794232
  H      42.230007     23.300017     39.889533
  O      40.896763     22.266483     41.082815
  H      41.656892     21.908337     41.617701
  C      41.265181     22.075248     35.358070
  O      42.218101     21.483305     34.815612
  O      40.216691     22.546216     34.859273
  C      39.388000     20.557000     43.513000
  H      39.587925     20.549885     44.584485
  H      38.437935     20.040527     43.323925
  H      39.308313     21.600073     43.175797
  N      40.512245     19.884563     42.837523
  H      41.438503     20.251893     43.094766
  C      40.491639     19.237679     41.677906
  N      39.457943     19.349148     40.845935
  H      38.865477     20.161156     40.947500
  H      39.550970     19.052478     39.884597
  N      41.628576     18.740318     41.224913
  H      42.426177     19.385632     41.240224
  H      41.669458     18.121796     40.437820
37
Coordinates from ORCA-job job E -836.456293690427
  C      44.881084     22.203374     39.665006
  H      44.839706     22.253610     38.575581
  H      45.660451     22.745095     40.205563
  C      44.019543     21.466306     40.371248
  C      44.046350     21.398610     41.910743
  O      45.102759     21.647516     42.488831
  O      42.916994     21.096362     42.436825
  O      43.022154     20.702155     39.805184
  C      41.940964     21.305060     39.070868
  H      41.123684     20.553017     39.189173
  C      42.168881     21.462075     37.596118
  H      42.888071     20.817062     37.082516
  C      41.322797     22.218628     36.866414
  C      40.307449     23.017581     37.563039
  H      39.571066     23.498992     36.914584
  C      40.307494     23.168626     38.901769
  H      39.601474     23.831475     39.417332
  C      41.383307     22.551616     39.758861
  H      42.213472     23.285590     39.868127
  O      40.881394     22.240046     41.046827
  H      41.645740     21.877044     41.573534
  C      41.262580     22.112373     35.317927
  O      42.220169     21.531698     34.772829
  O      40.213064     22.584481     34.826477
  C      39.388000     20.557000     43.513000
  H      39.587925     20.549885     44.584485
  H      38.436252     20.043676     43.325887
  H      39.307870     21.600249     43.177566
  N      40.505434     19.883183     42.831099
  H      41.430397     20.245389     43.091568
  C      40.485877     19.256574     41.657904
  N      39.479441     19.450791     40.796794
  H      38.941571     20.304586     40.902716
  H      39.591929     19.196540     39.825732
  N      41.619735     18.751221     41.208959
  H      42.425315     19.385972     41.242319
  H      41.662164     18.132553     40.420613
37
Coordinates from ORCA-job job E -836.456588342899
  C      44.854265     22.198827     39.645270
  H      44.796426     22.274063     38.555989
  H      45.644812     22.724985     40.182814
  C      44.005910     21.443197     40.354993
  C      44.039850     21.378258     41.899486
  O      45.093741     21.656898     42.468423
  O      42.917065     21.069152     42.432419
  O      42.999022     20.683566     39.796443
  C      41.929518     21.306941     39.061860
  H      41.096406     20.565034     39.163428
  C      42.177011     21.472376     37.586371
  H      42.910859     20.839284     37.081041
  C      41.349748     22.241939     36.850084
  C      40.310563     23.014218     37.539354
  H      39.551996     23.462917     36.899552
  C      40.301710     23.164517     38.881113
  H      39.560599     23.783011     39.406633
  C      41.381225     22.560459     39.744707
  H      42.220717     23.285141     39.855894
  O      40.880024     22.258920     41.037023
  H      41.636540     21.871878     41.558979
  C      41.321961     22.159440     35.296209
  O      42.297184     21.596187     34.766870
  O      40.280622     22.630812     34.794128
  C      39.388000     20.557000     43.513000
  H      39.587925     20.549885     44.584485
  H      38.433160     20.049010     43.332629
  H      39.303803     21.600989     43.181845
  N      40.493653     19.884252     42.816496
  H      41.414944     20.245928     43.079619
  C      40.478561     19.249500     41.652550
  N      39.505577     19.484306     40.792186
  H      39.022802     20.343910     40.928027
  H      39.642129     19.272720     39.816500
  N      41.608353     18.740606     41.208568
  H      42.425131     19.361307     41.278023
  H      41.647907     18.140939     40.392604
37
Coordinates from ORCA-job job E -836.457398797183
  C      44.868147     22.171435     39.615977
  H      44.805492     22.249906     38.522453
  H      45.657152     22.693247     40.155769
  C      44.018858     21.417510     40.321027
  C      44.051321     21.356801     41.862237
  O      45.104536     21.645007     42.431703
  O      42.932818     21.040000     42.393433
  O      43.009094     20.664905     39.755332
  C      41.945512     21.294775     39.022342
  H      41.114754     20.552133     39.109803
  C      42.193040     21.476426     37.551814
  H      42.926130     20.848670     37.037635
  C      41.354294     22.246943     36.825581
  C      40.307458     23.005467     37.525349
  H      39.540214     23.450258     36.885223
  C      40.302261     23.143323     38.867115
  H      39.560303     23.753180     39.397563
  C      41.392912     22.541193     39.719783
  H      42.225323     23.273732     39.827426
  O      40.892368     22.226910     41.009433
  H      41.650995     21.840330     41.528181
  C      41.315159     22.176137     35.268840
  O      42.284579     21.617719     34.720483
  O      40.264015     22.647168     34.776021
  C      39.388000     20.557000     43.513000
  H      39.587925     20.549885     44.584485
  H      38.430916     20.052296     43.331992
  H      39.310778     21.601735     43.179158
  N      40.490041     19.877374     42.818155
  H      41.418168     20.230988     43.074873
  C      40.465575     19.255548     41.646675
  N      39.508685     19.545523     40.776408
  H      39.059415     20.451841     40.908747
  H      39.651585     19.356352     39.795253
  N      41.597925     18.735579     41.212811
  H      42.413445     19.352470     41.277818
  H      41.639635     18.137958     40.396909
37
Coordinates from ORCA-job job E -836.457774692539
  C      44.879152     22.182699     39.585807
  H      44.817760     22.257101     38.496680
  H      45.664856     22.707319     40.129062
  C      44.028009     21.430066     40.288425
  C      44.056611     21.366644     41.828932
  O      45.107955     21.660245     42.401235
  O      42.940301     21.036655     42.360411
  O      43.022184     20.675305     39.718133
  C      41.956981     21.295267     38.985184
  H      41.132568     20.547461     39.067864
  C      42.202134     21.484032     37.516079
  H      42.937487     20.861811     36.997085
  C      41.356603     22.253246     36.792895
  C      40.312567     23.008885     37.497743
  H      39.556138     23.457671     36.855613
  C      40.306208     23.139031     38.839690
  H      39.565409     23.748791     39.367694
  C      41.397869     22.537301     39.685906
  H      42.224783     23.276153     39.785499
  O      40.898186     22.219070     40.973093
  H      41.658809     21.834979     41.489512
  C      41.319754     22.187426     35.237692
  O      42.291087     21.631674     34.691794
  O      40.267197     22.655664     34.743185
  C      39.388000     20.557000     43.513000
  H      39.587925     20.549885     44.584485
  H      38.432304     20.049866     43.330080
  H      39.312353     21.601368     43.177418
  N      40.491557     19.878460     42.818362
  H      41.422127     20.233171     43.071031
  C      40.463353     19.267748     41.631836
  N      39.523424     19.578011     40.744429
  H      39.082647     20.481526     40.868544
  H      39.688123     19.405861     39.757670
  N      41.596785     18.755214     41.193909
  H      42.413423     19.370488     41.257427
  H      41.644362     18.163404     40.382489
37
Coordinates from ORCA-job job E -836.458179228318
  C      44.890020     22.154340     39.555844
  H      44.827000     22.228159     38.472513
  H      45.677155     22.678542     40.098445
  C      44.033169     21.409501     40.258311
  C      44.057014     21.351728     41.799375
  O      45.101827     21.659230     42.374182
  O      42.940310     21.012514     42.328029
  O      43.027837     20.654308     39.687394
  C      41.960560     21.274131     38.953616
  H      41.136711     20.522075     39.028611
  C      42.210683     21.474966     37.484630
  H      42.952259     20.861331     36.965189
  C      41.370536     22.247832     36.763864
  C      40.318369     22.991817     37.467751
  H      39.565033     23.440613     36.823157
  C      40.304400     23.111734     38.809383
  H      39.556488     23.709432     39.340178
  C      41.400294     22.514650     39.654996
  H      42.229239     23.254073     39.736474
  O      40.905198     22.202831     40.944388
  H      41.664724     21.823275     41.461406
  C      41.353612     22.205513     35.210705
  O      42.336690     21.660559     34.669103
  O      40.302869     22.677688     34.712977
  C      39.388000     20.557000     43.513000
  H      39.587925     20.549885     44.584485
  H      38.427577     20.056329     43.330884
  H      39.320554     21.601708     43.175334
  N      40.485540     19.869339     42.813869
  H      41.418557     20.223584     43.054910
  C      40.445896     19.254174     41.632620
  N      39.514186     19.590061     40.749529
  H      39.096792     20.504977     40.884367
  H      39.686703     19.423137     39.775900
  N      41.572990     18.740488     41.179950
  H      42.397855     19.348778     41.247695
  H      41.613024     18.156915     40.363878
37
Coordinates from ORCA-job job E -836.458650686923
  C      44.884907     22.158482     39.533192
  H      44.812097     22.256106     38.446377
  H      45.670266     22.680327     40.078892
  C      44.028501     21.405993     40.233667
  C      44.046016     21.343529     41.776819
  O      45.076179     21.673368     42.359679
  O      42.929527     20.987157     42.295870
  O      43.025187     20.653370     39.659702
  C      41.960295     21.276981     38.926645
  H      41.136063     20.522955     38.992425
  C      42.217000     21.494324     37.460515
  H      42.967776     20.893020     36.942539
  C      41.378914     22.269006     36.742789
  C      40.308974     22.989964     37.445824
  H      39.540042     23.426749     36.800184
  C      40.292020     23.098476     38.788319
  H      39.533747     23.674118     39.329947
  C      41.400002     22.514108     39.630335
  H      42.227231     23.258601     39.691896
  O      40.914349     22.206710     40.924313
  H      41.673079     21.817046     41.437932
  C      41.378115     22.249345     35.185383
  O      42.371680     21.718677     34.647939
  O      40.332176     22.718366     34.679725
  C      39.388000     20.557000     43.513000
  H      39.587925     20.549885     44.584485
  H      38.426684     20.058739     43.330603
  H      39.323464     21.600588     43.173875
  N      40.482398     19.865732     42.811206
  H      41.415749     20.218490     43.048631
  C      40.437803     19.254361     41.634399
  N      39.535138     19.637950     40.740602
  H      39.161424     20.569032     40.885704
  H      39.736682     19.505882     39.761638
  N      41.565321     18.742649     41.180519
  H      42.393773     19.344813     41.263059
  H      41.600165     18.181550     40.343800
37
Coordinates from ORCA-job job E -836.458845102860
  C      44.887044     22.133106     39.524135
  H      44.808278     22.242381     38.439712
  H      45.673836     22.650911     40.071856
  C      44.021597     21.394884     40.226590
  C      44.035281     21.341353     41.767135
  O      45.059680     21.679978     42.355295
  O      42.918099     20.984874     42.280902
  O      43.012013     20.649757     39.653406
  C      41.950615     21.274896     38.920095
  H      41.127646     20.519475     38.981548
  C      42.216567     21.501969     37.460230
  H      42.978878     20.912784     36.943741
  C      41.375311     22.271933     36.739923
  C      40.294037     22.979287     37.438066
  H      39.525558     23.409176     36.792043
  C      40.276190     23.087075     38.779255
  H      39.509221     23.648936     39.323252
  C      41.392796     22.515550     39.620400
  H      42.218742     23.261917     39.657834
  O      40.917139     22.225642     40.918596
  H      41.674184     21.822949     41.430275
  C      41.396164     22.267973     35.181958
  O      42.398999     21.747066     34.654637
  O      40.356888     22.732886     34.662883
  C      39.388000     20.557000     43.513000
  H      39.587925     20.549885     44.584485
  H      38.425167     20.062491     43.330069
  H      39.328168     21.600273     43.173040
  N      40.479358     19.861057     42.810880
  H      41.415740     20.214447     43.042417
  C      40.418968     19.245145     41.632287
  N      39.530491     19.644254     40.745653
  H      39.179043     20.581581     40.898366
  H      39.747247     19.526969     39.767545
  N      41.548827     18.737487     41.174372
  H      42.374260     19.339553     41.264632
  H      41.579008     18.203177     40.319402
37
Coordinates from ORCA-job job E -836.458949486631
  C      44.879412     22.134240     39.494101
  H      44.801842     22.249362     38.414019
  H      45.663670     22.653770     40.046388
  C      44.014934     21.392909     40.197408
  C      44.030989     21.339730     41.737286
  O      45.053880     21.695710     42.324832
  O      42.918567     20.964437     42.253352
  O      43.004771     20.646858     39.624819
  C      41.945550     21.272307     38.891577
  H      41.128774     20.508765     38.943464
  C      42.219279     21.516935     37.434906
  H      42.992256     20.940551     36.916041
  C      41.374233     22.289308     36.716036
  C      40.282797     22.979722     37.416512
  H      39.515137     23.408378     36.772993
  C      40.259325     23.076198     38.759783
  H      39.480437     23.623180     39.306688
  C      41.378699     22.506662     39.596682
  H      42.201022     23.254145     39.634868
  O      40.906549     22.213264     40.894192
  H      41.658864     21.802338     41.404567
  C      41.413858     22.309780     35.160004
  O      42.427341     21.803689     34.635671
  O      40.375491     22.776319     34.638742
  C      39.388000     20.557000     43.513000
  H      39.587925     20.549885     44.584485
  H      38.423315     20.066216     43.330341
  H      39.329558     21.600969     43.174993
  N      40.475440     19.859284     42.807773
  H      41.411884     20.213758     43.035610
  C      40.409399     19.247891     41.626768
  N      39.540082     19.695380     40.730730
  H      39.227581     20.653028     40.891107
  H      39.772512     19.602643     39.751624
  N      41.535360     18.741520     41.159362
  H      42.362895     19.339133     41.262564
  H      41.565291     18.222716     40.295037
37
Coordinates from ORCA-job job E -836.459102274054
  C      44.872649     22.161635     39.491048
  H      44.798693     22.272974     38.408675
  H      45.651735     22.689178     40.043280
  C      44.005532     21.422765     40.195411
  C      44.022880     21.367612     41.737233
  O      45.048589     21.713877     42.325047
  O      42.909998     20.994912     42.254006
  O      42.998977     20.672674     39.624536
  C      41.933530     21.290974     38.891857
  H      41.121112     20.524063     38.950804
  C      42.201269     21.530117     37.431938
  H      42.970682     20.951318     36.913169
  C      41.354013     22.299196     36.713000
  C      40.267698     22.996383     37.412716
  H      39.504699     23.434610     36.763638
  C      40.245309     23.094465     38.756911
  H      39.477325     23.656473     39.297180
  C      41.362470     22.523690     39.594734
  H      42.182725     23.276537     39.631598
  O      40.892187     22.227452     40.893433
  H      41.642295     21.821091     41.406214
  C      41.391193     22.318381     35.157384
  O      42.403949     21.812277     34.633728
  O      40.351558     22.787203     34.637045
  C      39.388000     20.557000     43.513000
  H      39.587925     20.549885     44.584485
  H      38.425652     20.062252     43.330430
  H      39.322123     21.601128     43.178000
  N      40.477318     19.868032     42.803187
  H      41.411268     20.228107     43.030591
  C      40.417876     19.254325     41.625853
  N      39.539331     19.678132     40.732237
  H      39.206711     20.620623     40.884352
  H      39.766219     19.569441     39.757937
  N      41.545521     18.758193     41.153074
  H      42.367510     19.361541     41.249452
  H      41.580367     18.241275     40.293835
37
Coordinates from ORCA-job job E -836.459182342942
  C      44.881808     22.144366     39.500734
  H      44.811287     22.252833     38.417093
  H      45.658969     22.673921     40.053511
  C      44.010515     21.412224     40.202223
  C      44.027382     21.357833     41.743826
  O      45.052094     21.699422     42.331364
  O      42.914107     20.990691     42.259354
  O      43.004616     20.662220     39.633085
  C      41.942062     21.283964     38.898607
  H      41.123015     20.521857     38.959788
  C      42.210240     21.512365     37.438150
  H      42.978533     20.933547     36.923390
  C      41.368103     22.275958     36.714979
  C      40.281902     22.975541     37.407533
  H      39.521073     23.411431     36.756555
  C      40.256559     23.083709     38.748923
  H      39.492536     23.652902     39.283035
  C      41.375323     22.521539     39.593921
  H      42.193320     23.277990     39.627297
  O      40.913124     22.232133     40.898416
  H      41.664881     21.820692     41.408157
  C      41.407588     22.292117     35.158399
  O      42.422301     21.790479     34.640334
  O      40.368885     22.759373     34.634592
  C      39.388000     20.557000     43.513000
  H      39.587925     20.549885     44.584485
  H      38.423050     20.065972     43.331724
  H      39.323275     21.602396     43.179513
  N      40.476161     19.865613     42.800517
  H      41.414665     20.221029     43.030520
  C      40.409739     19.250452     41.621959
  N      39.525138     19.677241     40.732742
  H      39.197659     20.621273     40.889691
  H      39.741859     19.565779     39.756285
  N      41.537925     18.750364     41.150162
  H      42.370232     19.350335     41.255315
  H      41.563770     18.240982     40.284164
37
Coordinates from ORCA-job job E -836.459358239877
  C      44.864915     22.157707     39.483445
  H      44.797929     22.262496     38.401099
  H      45.640698     22.688250     40.039172
  C      43.991627     21.428641     40.186127
  C      44.009385     21.379284     41.727318
  O      45.034104     21.722399     42.312585
  O      42.898717     21.013416     42.246296
  O      42.984696     20.677981     39.619435
  C      41.919439     21.299329     38.886133
  H      41.102556     20.535465     38.945290
  C      42.185066     21.534679     37.425131
  H      42.960731     20.963251     36.907807
  C      41.338143     22.300238     36.706559
  C      40.249392     22.994203     37.404905
  H      39.490940     23.435767     36.755310
  C      40.224830     23.095965     38.748294
  H      39.460575     23.667785     39.286125
  C      41.349293     22.533820     39.587779
  H      42.166687     23.289788     39.621688
  O      40.891680     22.247181     40.894234
  H      41.643694     21.829095     41.401879
  C      41.381847     22.332977     35.149197
  O      42.400420     21.841149     34.625040
  O      40.344806     22.805846     34.628341
  C      39.388000     20.557000     43.513000
  H      39.587925     20.549885     44.584485
  H      38.424970     20.062852     43.332205
  H      39.317439     21.602882     43.182157
  N      40.476689     19.873015     42.795377
  H      41.413536     20.230121     43.020954
  C      40.408577     19.257166     41.617697
  N      39.525041     19.686236     40.732587
  H      39.204941     20.635149     40.893335
  H      39.737967     19.575701     39.752810
  N      41.537456     18.761181     41.144104
  H      42.362589     19.364022     41.247874
  H      41.563845     18.264840     40.266835
37
Coordinates from ORCA-job job E -836.459446852364
  C      44.863972     22.151015     39.472509
  H      44.802252     22.250008     38.387601
  H      45.635932     22.685428     40.033865
  C      43.988875     21.425160     40.180081
  C      44.006389     21.377378     41.721676
  O      45.033493     21.721092     42.304960
  O      42.898546     21.002902     42.244598
  O      42.982070     20.671543     39.612264
  C      41.927174     21.287359     38.870767
  H      41.113900     20.518876     38.921211
  C      42.205365     21.527103     37.416954
  H      42.992421     20.966092     36.902392
  C      41.354341     22.287423     36.695340
  C      40.258222     22.976524     37.388354
  H      39.506656     23.424153     36.734128
  C      40.227408     23.077775     38.732772
  H      39.463846     23.657547     39.266602
  C      41.346529     22.518194     39.572251
  H      42.156886     23.279627     39.619405
  O      40.884013     22.230367     40.874235
  H      41.629409     21.804001     41.384132
  C      41.413183     22.333476     35.139101
  O      42.435880     21.850495     34.619542
  O      40.384403     22.811773     34.610427
  C      39.388000     20.557000     43.513000
  H      39.587925     20.549885     44.584485
  H      38.424173     20.063529     43.333751
  H      39.315411     21.603660     43.184148
  N      40.475789     19.874624     42.791589
  H      41.411579     20.233389     43.011152
  C      40.403400     19.253556     41.619041
  N      39.520220     19.695315     40.738881
  H      39.214410     20.651808     40.900685
  H      39.723920     19.582561     39.757744
  N      41.531442     18.766033     41.135040
  H      42.353769     19.365548     41.242202
  H      41.559468     18.287921     40.250571
37
Coordinates from ORCA-job job E -836.459581872311
  C      44.850483     22.172895     39.456272
  H      44.787601     22.263117     38.370768
  H      45.622586     22.711843     40.010206
  C      43.974496     21.454206     40.167805
  C      43.996424     21.409582     41.708874
  O      45.025722     21.752249     42.289848
  O      42.889811     21.034784     42.233929
  O      42.965680     20.700600     39.601595
  C      41.903763     21.317894     38.864828
  H      41.092804     20.546723     38.914914
  C      42.177469     21.566038     37.409176
  H      42.964343     21.011979     36.887824
  C      41.320933     22.326815     36.693493
  C      40.221722     23.008027     37.393617
  H      39.468487     23.461665     36.740649
  C      40.193753     23.103676     38.738768
  H      39.431564     23.686142     39.274930
  C      41.322254     22.545335     39.572196
  H      42.133483     23.308661     39.611733
  O      40.871777     22.255471     40.878623
  H      41.617050     21.834052     41.387131
  C      41.383764     22.393844     35.137723
  O      42.414752     21.927484     34.613356
  O      40.353160     22.875917     34.613225
  C      39.388000     20.557000     43.513000
  H      39.587925     20.549885     44.584485
  H      38.428684     20.056197     43.333870
  H      39.304701     21.602994     43.187718
  N      40.475850     19.888912     42.780676
  H      41.414302     20.248017     43.006048
  C      40.402136     19.273266     41.602882
  N      39.525183     19.725071     40.719930
  H      39.230076     20.686173     40.873283
  H      39.729583     19.615747     39.738195
  N      41.531804     18.792387     41.116600
  H      42.358008     19.391306     41.240358
  H      41.563111     18.334687     40.221290
37
Coordinates from ORCA-job job E -836.459679140988
  C      44.845506     22.158204     39.431871
  H      44.783133     22.236997     38.347115
  H      45.620714     22.699035     39.976727
  C      43.970147     21.444583     40.149235
  C      43.994634     21.405378     41.689774
  O      45.027353     21.742037     42.267722
  O      42.887906     21.038888     42.218242
  O      42.960450     20.689458     39.589240
  C      41.894158     21.307043     38.853710
  H      41.078877     20.540201     38.908942
  C      42.162933     21.547875     37.393868
  H      42.949314     20.993885     36.876041
  C      41.310075     22.307033     36.676942
  C      40.215322     22.991309     37.375542
  H      39.465822     23.446411     36.722710
  C      40.186600     23.091486     38.719138
  H      39.429381     23.680897     39.249759
  C      41.316662     22.537708     39.554746
  H      42.126991     23.303061     39.589415
  O      40.869804     22.247916     40.865829
  H      41.622724     21.828617     41.371410
  C      41.374281     22.375805     35.121697
  O      42.408108     21.913877     34.601452
  O      40.343754     22.858657     34.595749
  C      39.388000     20.557000     43.513000
  H      39.587925     20.549885     44.584485
  H      38.427277     20.056969     43.334324
  H      39.307318     21.603370     43.186123
  N      40.474609     19.885635     42.779656
  H      41.414451     20.240143     43.003536
  C      40.396478     19.269076     41.603051
  N      39.513720     19.716994     40.723663
  H      39.218946     20.675243     40.880576
  H      39.708191     19.602029     39.739235
  N      41.524545     18.785587     41.115640
  H      42.353407     19.379582     41.238227
  H      41.551322     18.335043     40.216107
37
Coordinates from ORCA-job job E -836.459774771018
  C      44.841749     22.184030     39.435467
  H      44.782619     22.255376     38.347799
  H      45.620927     22.721576     39.979257
  C      43.963074     21.474075     40.151418
  C      43.984826     21.431976     41.694320
  O      45.015790     21.766051     42.272972
  O      42.876151     21.065151     42.220556
  O      42.956360     20.717883     39.588239
  C      41.892018     21.336908     38.851094
  H      41.076532     20.570486     38.904707
  C      42.164500     21.579953     37.392810
  H      42.954781     21.029812     36.877884
  C      41.310495     22.336535     36.675147
  C      40.214504     23.018318     37.372396
  H      39.465773     23.473023     36.719404
  C      40.187539     23.121979     38.715694
  H      39.432036     23.713044     39.245139
  C      41.315375     22.569003     39.551671
  H      42.124506     23.331761     39.587955
  O      40.865194     22.281755     40.860591
  H      41.620132     21.864884     41.366112
  C      41.380924     22.412725     35.121535
  O      42.417296     21.956286     34.604907
  O      40.353276     22.898096     34.592185
  C      39.388000     20.557000     43.513000
  H      39.587925     20.549885     44.584485
  H      38.432126     20.048641     43.334125
  H      39.298296     21.602210     43.187037
  N      40.476981     19.897154     42.775878
  H      41.412265     20.255358     43.003360
  C      40.400620     19.281520     41.598223
  N      39.515680     19.728518     40.719470
  H      39.227245     20.690451     40.875472
  H      39.701557     19.606966     39.736449
  N      41.529511     18.804665     41.108703
  H      42.357233     19.397228     41.242184
  H      41.559949     18.369077     40.201360
37
Coordinates from ORCA-job job E -836.459912521729
  C      44.839708     22.130996     39.399168
  H      44.779740     22.176687     38.307481
  H      45.635680     22.657808     39.930155
  C      43.957239     21.438685     40.125820
  C      43.985119     21.408593     41.668696
  O      45.022954     21.737639     42.237741
  O      42.875354     21.054201     42.204450
  O      42.942929     20.683272     39.573113
  C      41.882392     21.300146     38.836413
  H      41.063747     20.538229     38.889320
  C      42.157885     21.548254     37.379512
  H      42.958785     21.009974     36.864991
  C      41.298814     22.301167     36.661818
  C      40.196603     22.975057     37.358659
  H      39.440478     23.426291     36.709413
  C      40.178351     23.083364     38.702638
  H      39.421840     23.670609     39.235671
  C      41.309433     22.533735     39.535943
  H      42.119744     23.294120     39.574599
  O      40.855118     22.247578     40.841964
  H      41.612865     21.846596     41.352201
  C      41.380413     22.395630     35.110806
  O      42.423199     21.951322     34.598906
  O      40.358958     22.886230     34.576162
  C      39.388000     20.557000     43.513000
  H      39.587925     20.549885     44.584485
  H      38.429766     20.049643     43.336141
  H      39.302125     21.602697     43.184532
  N      40.473341     19.892327     42.771684
  H      41.412044     20.240070     42.995289
  C      40.384094     19.273016     41.596745
  N      39.493256     19.721436     40.728506
  H      39.221915     20.686923     40.883737
  H      39.658977     19.588046     39.744483
  N      41.507102     18.789614     41.099091
  H      42.344244     19.365508     41.248819
  H      41.532243     18.383199     40.177810
37
Coordinates from ORCA-job job E -836.460031436419
  C      44.837228     22.166336     39.391719
  H      44.788055     22.199268     38.299150
  H      45.634207     22.688984     39.919862
  C      43.951797     21.474662     40.120557
  C      43.979700     21.445524     41.664065
  O      45.020794     21.774271     42.232029
  O      42.870216     21.089922     42.202627
  O      42.935199     20.719849     39.566212
  C      41.872396     21.336281     38.832078
  H      41.058790     20.569782     38.880844
  C      42.152223     21.597314     37.378206
  H      42.957888     21.068639     36.861197
  C      41.292049     22.351319     36.665305
  C      40.183557     23.013973     37.364408
  H      39.429774     23.467054     36.716476
  C      40.163975     23.117500     38.705803
  H      39.406301     23.697928     39.244689
  C      41.295591     22.565988     39.536508
  H      42.107914     23.325704     39.576369
  O      40.839304     22.273554     40.841208
  H      41.602292     21.882398     41.351862
  C      41.387914     22.475215     35.114369
  O      42.438154     22.047327     34.599204
  O      40.372932     22.976337     34.578717
  C      39.388000     20.557000     43.513000
  H      39.587925     20.549885     44.584485
  H      38.437548     20.037154     43.334350
  H      39.289152     21.601730     43.186049
  N      40.481122     19.908877     42.771979
  H      41.418994     20.259576     42.998740
  C      40.396892     19.294601     41.596547
  N      39.512920     19.753476     40.724747
  H      39.264250     20.729584     40.867634
  H      39.675136     19.614966     39.742036
  N      41.524751     18.821052     41.101884
  H      42.354548     19.393128     41.272043
  H      41.564780     18.448955     40.168406
37
Coordinates from ORCA-job job E -836.460144890155
  C      44.848398     22.143640     39.387309
  H      44.808500     22.174046     38.295303
  H      45.645045     22.661353     39.919013
  C      43.956400     21.458533     40.112462
  C      43.981313     21.430059     41.654047
  O      45.022021     21.756537     42.224059
  O      42.871580     21.077438     42.192011
  O      42.938103     20.708347     39.555601
  C      41.870976     21.330255     38.827690
  H      41.056632     20.564772     38.877221
  C      42.145790     21.591646     37.372357
  H      42.952345     21.065822     36.856113
  C      41.281578     22.342029     36.659572
  C      40.172786     23.001002     37.361781
  H      39.410254     23.445912     36.715722
  C      40.160647     23.108984     38.703669
  H      39.397620     23.680933     39.244257
  C      41.294582     22.559606     39.534284
  H      42.107945     23.319792     39.573530
  O      40.837933     22.264316     40.839970
  H      41.604302     21.875448     41.349799
  C      41.379953     22.470516     35.110485
  O      42.433068     22.046009     34.597258
  O      40.363676     22.972395     34.575870
  C      39.388000     20.557000     43.513000
  H      39.587925     20.549885     44.584485
  H      38.433710     20.043928     43.335406
  H      39.294664     21.602538     43.186368
  N      40.478582     19.900026     42.773828
  H      41.417791     20.248872     42.999664
  C      40.393869     19.289716     41.594565
  N      39.511503     19.752191     40.721918
  H      39.271853     20.731286     40.860680
  H      39.673500     19.611640     39.737880
  N      41.518432     18.814425     41.093776
  H      42.352221     19.380088     41.272847
  H      41.557412     18.455148     40.155153
37
Coordinates from ORCA-job job E -836.460290900671
  C      44.854534     22.172363     39.400540
  H      44.828102     22.205744     38.307937
  H      45.648572     22.687068     39.943445
  C      43.953993     21.488616     40.115885
  C      43.973175     21.456349     41.656300
  O      45.010196     21.781186     42.231687
  O      42.861228     21.104006     42.189472
  O      42.939392     20.740562     39.553702
  C      41.868228     21.363650     38.831570
  H      41.055859     20.594662     38.883044
  C      42.135096     21.629797     37.374454
  H      42.943592     21.108216     36.856454
  C      41.267261     22.379748     36.664623
  C      40.158767     23.033676     37.371904
  H      39.392310     23.475339     36.728603
  C      40.150633     23.139701     38.714237
  H      39.383686     23.704873     39.257211
  C      41.284883     22.587260     39.544184
  H      42.094184     23.350742     39.588329
  O      40.825034     22.280277     40.847019
  H      41.591765     21.896312     41.357683
  C      41.371164     22.520763     35.117414
  O      42.426326     22.100301     34.606342
  O      40.354926     23.027818     34.585597
  C      39.388000     20.557000     43.513000
  H      39.587925     20.549885     44.584485
  H      38.434743     20.043773     43.334613
  H      39.289828     21.602964     43.190249
  N      40.481797     19.903828     42.775414
  H      41.416990     20.260862     43.005258
  C      40.405398     19.300613     41.589973
  N      39.523573     19.759299     40.714823
  H      39.295092     20.740337     40.848738
  H      39.684057     19.608625     39.730904
  N      41.537209     18.830629     41.096889
  H      42.369891     19.395461     41.292913
  H      41.582932     18.495379     40.147870
37
Coordinates from ORCA-job job E -836.460427308736
  C      44.859411     22.162339     39.397430
  H      44.843294     22.198171     38.304147
  H      45.649376     22.675602     39.947431
  C      43.951329     21.483341     40.107646
  C      43.969841     21.449004     41.649208
  O      45.006363     21.770123     42.227829
  O      42.856958     21.100496     42.181368
  O      42.935241     20.740549     39.542813
  C      41.863712     21.367153     38.826901
  H      41.051276     20.597289     38.876923
  C      42.126686     21.637526     37.371479
  H      42.937265     21.121925     36.848877
  C      41.259712     22.388334     36.664339
  C      40.148820     23.036845     37.372911
  H      39.376693     23.472127     36.733841
  C      40.143427     23.141035     38.715320
  H      39.371227     23.693785     39.263740
  C      41.277427     22.586920     39.547175
  H      42.086330     23.353237     39.598031
  O      40.812332     22.272971     40.847616
  H      41.582609     21.892640     41.357401
  C      41.368498     22.541611     35.116047
  O      42.422788     22.121081     34.605427
  O      40.355632     23.055978     34.586197
  C      39.388000     20.557000     43.513000
  H      39.587925     20.549885     44.584485
  H      38.428915     20.054124     43.334779
  H      39.298254     21.604032     43.190228
  N      40.479848     19.890689     42.781087
  H      41.414614     20.251628     43.009053
  C      40.407968     19.292610     41.591707
  N      39.523089     19.748344     40.718947
  H      39.310921     20.734829     40.845307
  H      39.675403     19.580613     39.735938
  N      41.539727     18.821376     41.098222
  H      42.372960     19.379980     41.312908
  H      41.589433     18.513475     40.142322
37
Coordinates from ORCA-job job E -836.460596883364
  C      44.862704     22.195291     39.412080
  H      44.854606     22.230587     38.317724
  H      45.647524     22.710455     39.969492
  C      43.948025     21.520175     40.117789
  C      43.960839     21.482271     41.659075
  O      44.995798     21.799972     42.242330
  O      42.846549     21.130931     42.187697
  O      42.934649     20.779454     39.545450
  C      41.865454     21.406028     38.830376
  H      41.056576     20.631910     38.873086
  C      42.131142     21.687277     37.379756
  H      42.947792     21.182415     36.854575
  C      41.262521     22.440042     36.676348
  C      40.146690     23.079874     37.385419
  H      39.374301     23.516327     36.749050
  C      40.138816     23.175072     38.728052
  H      39.363542     23.720708     39.278449
  C      41.270114     22.616389     39.558731
  H      42.073979     23.387247     39.623203
  O      40.799258     22.287056     40.852898
  H      41.571271     21.908082     41.362381
  C      41.381821     22.615106     35.130138
  O      42.438690     22.199534     34.619659
  O      40.374937     23.140397     34.600168
  C      39.388000     20.557000     43.513000
  H      39.587925     20.549885     44.584485
  H      38.431727     20.050434     43.331705
  H      39.295724     21.603362     43.189449
  N      40.486575     19.894312     42.788488
  H      41.417076     20.266335     43.018326
  C      40.426513     19.303291     41.596305
  N      39.540251     19.755249     40.722824
  H      39.345400     20.748190     40.833468
  H      39.681462     19.565916     39.742488
  N      41.563186     18.843004     41.104368
  H      42.391661     19.398840     41.344301
  H      41.625072     18.572765     40.133240
37
Coordinates from ORCA-job job E -836.460801710941
  C      44.849943     22.190607     39.415356
  H      44.831793     22.229969     38.320976
  H      45.630221     22.714380     39.973498
  C      43.935238     21.517563     40.122146
  C      43.945835     21.476832     41.663685
  O      44.981607     21.790192     42.248624
  O      42.830075     21.124582     42.192586
  O      42.923904     20.777455     39.545635
  C      41.856013     21.404129     38.831464
  H      41.049732     20.625207     38.862341
  C      42.127295     21.699563     37.387685
  H      42.945084     21.204694     36.855764
  C      41.266605     22.465733     36.690930
  C      40.152245     23.103071     37.401807
  H      39.385336     23.549305     36.769198
  C      40.132305     23.175042     38.745531
  H      39.355338     23.712218     39.299000
  C      41.253071     22.601611     39.574810
  H      42.049954     23.378250     39.666958
  O      40.772226     22.248077     40.856416
  H      41.547215     21.875316     41.366262
  C      41.391035     22.658145     35.148006
  O      42.442999     22.233032     34.635561
  O      40.394280     23.200344     34.619026
  C      39.388000     20.557000     43.513000
  H      39.587925     20.549885     44.584485
  H      38.426381     20.059868     43.327843
  H      39.316003     21.602111     43.178999
  N      40.485468     19.872040     42.804264
  H      41.414669     20.252303     43.027706
  C      40.436590     19.290402     41.608959
  N      39.538757     19.726102     40.738265
  H      39.359510     20.726699     40.817289
  H      39.651588     19.489945     39.764886
  N      41.578978     18.833482     41.128035
  H      42.399521     19.381693     41.393848
  H      41.659172     18.602091     40.155665
37
Coordinates from ORCA-job job E -836.461044040715
  C      44.837684     22.215040     39.412198
  H      44.809897     22.252597     38.318346
  H      45.619438     22.742457     39.962429
  C      43.923897     21.543940     40.124099
  C      43.936466     21.502938     41.666973
  O      44.975054     21.814270     42.249213
  O      42.821722     21.149500     42.199057
  O      42.911821     20.803812     39.545607
  C      41.845286     21.435184     38.830519
  H      41.040395     20.654849     38.850814
  C      42.125803     21.746561     37.390162
  H      42.949258     21.263881     36.854730
  C      41.267477     22.519723     36.697507
  C      40.145576     23.145838     37.409569
  H      39.378631     23.598091     36.778632
  C      40.118003     23.203144     38.753937
  H      39.337390     23.733693     39.311269
  C      41.241642     22.627022     39.579962
  H      42.037839     23.402478     39.676516
  O      40.765098     22.266555     40.861378
  H      41.541870     21.895818     41.369770
  C      41.403965     22.732666     35.156771
  O      42.459785     22.312829     34.646262
  O      40.413892     23.283490     34.623980
  C      39.388000     20.557000     43.513000
  H      39.587925     20.549885     44.584485
  H      38.429154     20.054764     43.326914
  H      39.314506     21.600780     43.176331
  N      40.486107     19.875909     42.802971
  H      41.414189     20.259728     43.027949
  C      40.439471     19.298533     41.604575
  N      39.539016     19.731111     40.735636
  H      39.377044     20.737856     40.799843
  H      39.631145     19.473593     39.765891
  N      41.582849     18.851369     41.120164
  H      42.401947     19.392894     41.416201
  H      41.674526     18.658097     40.132584
37
Coordinates from ORCA-job job E -836.461252104204
  C      44.829522     22.240566     39.418435
  H      44.785438     22.283216     38.326764
  H      45.614844     22.770346     39.960719
  C      43.920708     21.564908     40.132839
  C      43.936033     21.524244     41.675191
  O      44.975326     21.837737     42.253946
  O      42.823497     21.168449     42.208815
  O      42.908225     20.823475     39.552784
  C      41.842126     21.460119     38.834627
  H      41.039244     20.679688     38.846449
  C      42.132929     21.783402     37.395959
  H      42.954997     21.301608     36.860877
  C      41.278266     22.565467     36.705303
  C      40.151681     23.186481     37.416677
  H      39.389144     23.647487     36.783660
  C      40.113354     23.228461     38.762369
  H      39.331082     23.758480     39.319101
  C      41.239543     22.648906     39.585941
  H      42.037200     23.421078     39.681948
  O      40.768583     22.284243     40.868555
  H      41.545756     21.913275     41.375822
  C      41.416210     22.779188     35.166651
  O      42.471658     22.354776     34.657969
  O      40.428017     23.333918     34.633391
  C      39.388000     20.557000     43.513000
  H      39.587925     20.549885     44.584485
  H      38.434308     20.047008     43.326855
  H      39.308303     21.599117     43.175650
  N      40.486704     19.885200     42.800195
  H      41.412886     20.270624     43.027502
  C      40.443502     19.309801     41.600829
  N      39.542989     19.733010     40.727060
  H      39.378117     20.736705     40.778058
  H      39.624583     19.463380     39.762496
  N      41.589288     18.873495     41.115738
  H      42.403823     19.413534     41.422562
  H      41.690772     18.687344     40.129027
37
Coordinates from ORCA-job job E -836.461411603446
  C      44.819388     22.248348     39.407899
  H      44.767102     22.295267     38.318449
  H      45.609106     22.775808     39.946004
  C      43.909851     21.572017     40.121464
  C      43.929206     21.530940     41.664766
  O      44.967565     21.849183     42.240223
  O      42.820250     21.171907     42.202958
  O      42.896855     20.830763     39.542199
  C      41.827253     21.473740     38.826950
  H      41.026454     20.691568     38.826858
  C      42.128276     21.818498     37.391553
  H      42.953704     21.345486     36.857484
  C      41.280874     22.612255     36.705611
  C      40.148014     23.218659     37.418998
  H      39.389552     23.686695     36.784500
  C      40.096306     23.238779     38.766382
  H      39.308215     23.758697     39.322991
  C      41.221204     22.654811     39.587689
  H      42.016318     23.428205     39.692215
  O      40.750638     22.275849     40.866524
  H      41.529630     21.910804     41.374353
  C      41.434551     22.849607     35.171765
  O      42.495130     22.429200     34.668340
  O      40.453770     23.419298     34.636935
  C      39.388000     20.557000     43.513000
  H      39.587925     20.549885     44.584485
  H      38.434745     20.046778     43.327522
  H      39.308429     21.598957     43.175275
  N      40.485180     19.884522     42.799994
  H      41.410778     20.269363     43.026525
  C      40.441708     19.316479     41.596763
  N      39.542668     19.739958     40.721427
  H      39.407576     20.755071     40.749938
  H      39.597067     19.440500     39.761871
  N      41.594060     18.891991     41.115424
  H      42.405560     19.416637     41.459349
  H      41.711000     18.756324     40.116016
37
Coordinates from ORCA-job job E -836.461584276722
  C      44.820597     22.290019     39.421338
  H      44.772777     22.346271     38.332775
  H      45.605603     22.816818     39.966728
  C      43.913562     21.603913     40.129090
  C      43.933054     21.557687     41.671864
  O      44.971207     21.876507     42.247544
  O      42.826348     21.195857     42.210735
  O      42.903792     20.862259     39.546238
  C      41.835380     21.504709     38.829897
  H      41.035797     20.721140     38.825624
  C      42.139996     21.855138     37.397123
  H      42.964175     21.378081     36.863402
  C      41.297252     22.654460     36.711684
  C      40.163910     23.259553     37.422519
  H      39.411602     23.731853     36.785055
  C      40.103543     23.271005     38.769713
  H      39.313407     23.789678     39.324425
  C      41.224231     22.681936     39.593506
  H      42.018681     23.454432     39.705734
  O      40.749354     22.296305     40.869231
  H      41.528152     21.933141     41.377939
  C      41.451068     22.890436     35.180006
  O      42.506715     22.462278     34.675453
  O      40.472053     23.467190     34.648321
  C      39.388000     20.557000     43.513000
  H      39.587925     20.549885     44.584485
  H      38.439185     20.039492     43.326671
  H      39.296725     21.599529     43.179846
  N      40.492722     19.897665     42.801006
  H      41.413975     20.288711     43.032193
  C      40.457573     19.332496     41.596752
  N      39.556711     19.745135     40.718273
  H      39.420843     20.758562     40.735217
  H      39.601545     19.429231     39.760742
  N      41.615616     18.917450     41.119725
  H      42.421693     19.441391     41.474245
  H      41.741831     18.789908     40.125898
37
Coordinates from ORCA-job job E -836.461755384189
  C      44.820697     22.309189     39.415574
  H      44.774526     22.385648     38.327771
  H      45.604525     22.828140     39.970312
  C      43.918146     21.613065     40.118534
  C      43.942025     21.564328     41.660206
  O      44.979126     21.890871     42.233740
  O      42.839202     21.199821     42.202120
  O      42.906859     20.875290     39.535030
  C      41.844409     21.518015     38.817314
  H      41.043835     20.735280     38.805026
  C      42.158023     21.877770     37.390926
  H      42.981950     21.395264     36.859381
  C      41.323355     22.683924     36.704189
  C      40.183314     23.280256     37.409002
  H      39.437634     23.753672     36.765992
  C      40.108644     23.278791     38.754925
  H      39.310877     23.787931     39.307210
  C      41.228156     22.691459     39.582714
  H      42.021986     23.464951     39.695093
  O      40.749904     22.302746     40.856552
  H      41.528134     21.938424     41.366805
  C      41.483407     22.922724     35.172879
  O      42.535392     22.486793     34.669149
  O      40.509384     23.508812     34.642792
  C      39.388000     20.557000     43.513000
  H      39.587925     20.549885     44.584485
  H      38.440652     20.035425     43.327084
  H      39.286242     21.601626     43.186230
  N      40.499399     19.907563     42.799750
  H      41.417582     20.301731     43.033724
  C      40.464209     19.341992     41.596704
  N      39.566581     19.755693     40.715537
  H      39.444258     20.768790     40.716995
  H      39.604108     19.421724     39.767576
  N      41.626855     18.937915     41.119709
  H      42.426323     19.453063     41.491850
  H      41.759895     18.834848     40.127022
37
Coordinates from ORCA-job job E -836.461868663378
  C      44.826421     22.354120     39.426127
  H      44.791513     22.434909     38.337433
  H      45.608911     22.865976     39.989126
  C      43.923043     21.654255     40.123192
  C      43.946407     21.600009     41.664665
  O      44.985210     21.922537     42.237970
  O      42.843108     21.237448     42.207765
  O      42.913571     20.919349     39.533371
  C      41.855401     21.564195     38.815151
  H      41.055403     20.781176     38.792950
  C      42.175276     21.935139     37.395080
  H      42.999902     21.453195     36.863951
  C      41.344089     22.746024     36.709957
  C      40.197327     23.333112     37.412210
  H      39.455974     23.810573     36.767889
  C      40.115080     23.319984     38.757717
  H      39.312279     23.821874     39.309217
  C      41.231153     22.729492     39.587498
  H      42.021946     23.504608     39.712857
  O      40.745749     22.327297     40.855326
  H      41.525954     21.969313     41.367887
  C      41.512944     23.000495     35.182079
  O      42.563169     22.562397     34.677275
  O      40.547916     23.602767     34.653654
  C      39.388000     20.557000     43.513000
  H      39.587925     20.549885     44.584485
  H      38.447949     20.022045     43.325280
  H      39.269637     21.601559     43.190166
  N      40.511580     19.926452     42.799740
  H      41.424689     20.329186     43.041219
  C      40.485692     19.363875     41.595670
  N      39.581823     19.766366     40.716563
  H      39.476639     20.782611     40.691030
  H      39.591706     19.393268     39.775569
  N      41.654188     18.976300     41.118491
  H      42.447912     19.480070     41.527216
  H      41.803830     18.922676     40.119159
37
Coordinates from ORCA-job job E -836.461966642978
  C      44.833151     22.404568     39.431280
  H      44.804990     22.487501     38.341927
  H      45.613130     22.914777     39.998174
  C      43.930365     21.700402     40.123253
  C      43.950668     21.642264     41.666169
  O      44.987468     21.966344     42.242489
  O      42.845569     21.276838     42.205414
  O      42.924893     20.963574     39.529736
  C      41.865899     21.607071     38.810885
  H      41.067428     20.822781     38.786919
  C      42.183173     21.977674     37.390207
  H      43.006003     21.491534     36.859678
  C      41.350255     22.786801     36.705798
  C      40.202390     23.373303     37.409220
  H      39.461264     23.852744     36.764719
  C      40.122233     23.359770     38.755027
  H      39.320407     23.863518     39.305889
  C      41.237681     22.770271     39.584107
  H      42.026583     23.546358     39.709548
  O      40.750673     22.365367     40.849694
  H      41.527936     22.005018     41.363142
  C      41.516923     23.041682     35.177290
  O      42.565492     22.603417     34.669505
  O      40.552646     23.644420     34.650441
  C      39.388000     20.557000     43.513000
  H      39.587925     20.549885     44.584485
  H      38.458877     20.003535     43.323145
  H      39.248561     21.599990     43.193599
  N      40.522160     19.952937     42.794040
  H      41.430476     20.363914     43.041550
  C      40.503743     19.389323     41.589259
  N      39.604577     19.795898     40.708374
  H      39.499160     20.813786     40.682332
  H      39.621255     19.426955     39.771091
  N      41.676148     19.010554     41.114635
  H      42.465176     19.519291     41.522512
  H      41.829410     18.957345     40.118395
37
Coordinates from ORCA-job job E -836.462007851574
  C      44.839621     22.407046     39.421776
  H      44.812041     22.490983     38.333848
  H      45.623799     22.911433     39.984870
  C      43.941179     21.697958     40.115232
  C      43.963409     21.640034     41.658490
  O      45.002833     21.961661     42.232746
  O      42.855468     21.282343     42.200315
  O      42.934756     20.959716     39.523048
  C      41.876678     21.605470     38.802556
  H      41.075954     20.825036     38.777361
  C      42.194744     21.973570     37.381505
  H      43.016149     21.481811     36.853431
  C      41.362373     22.782758     36.695972
  C      40.215621     23.370411     37.400555
  H      39.476333     23.855508     36.756323
  C      40.133466     23.354740     38.744815
  H      39.331354     23.859846     39.293491
  C      41.249450     22.769492     39.574460
  H      42.036594     23.545829     39.699706
  O      40.763589     22.365427     40.838924
  H      41.539376     22.006722     41.355314
  C      41.528520     23.038367     35.169119
  O      42.578185     22.599076     34.658577
  O      40.565778     23.644893     34.644389
  C      39.388000     20.557000     43.513000
  H      39.587925     20.549885     44.584485
  H      38.467038     19.989774     43.322696
  H      39.236190     21.597657     43.193184
  N      40.527946     19.968487     42.788039
  H      41.436913     20.376457     43.040628
  C      40.505958     19.396784     41.586950
  N      39.600693     19.800562     40.710858
  H      39.497840     20.814747     40.677713
  H      39.601695     19.416264     39.781354
  N      41.676550     19.022368     41.108171
  H      42.465494     19.521237     41.522488
  H      41.825930     18.990224     40.110170
37
Coordinates from ORCA-job job E -836.462090620335
  C      44.842854     22.470923     39.426802
  H      44.813936     22.557184     38.338655
  H      45.624935     22.976612     39.992954
  C      43.943290     21.759190     40.115736
  C      43.959949     21.698979     41.657163
  O      44.997143     22.018863     42.236178
  O      42.849716     21.339564     42.193277
  O      42.940096     21.019204     39.516933
  C      41.878957     21.662900     38.798144
  H      41.083467     20.876365     38.769231
  C      42.195713     22.039190     37.377164
  H      43.018003     21.551212     36.844902
  C      41.361148     22.852191     36.696645
  C      40.215047     23.436791     37.405354
  H      39.478595     23.928342     36.763445
  C      40.129194     23.409353     38.749763
  H      39.325111     23.909829     39.302978
  C      41.244844     22.818412     39.577550
  H      42.029530     23.597394     39.711659
  O      40.757205     22.399043     40.837818
  H      41.535691     22.041539     41.353272
  C      41.526263     23.116428     35.169941
  O      42.571485     22.672396     34.657758
  O      40.566370     23.731126     34.649041
  C      39.388000     20.557000     43.513000
  H      39.587925     20.549885     44.584485
  H      38.478722     19.972229     43.319820
  H      39.217685     21.594955     43.194474
  N      40.537062     19.992743     42.785252
  H      41.437967     20.414224     43.042437
  C      40.531470     19.426280     41.580450
  N      39.628545     19.825714     40.698375
  H      39.533320     20.843090     40.650735
  H      39.623202     19.425562     39.775679
  N      41.709275     19.067936     41.106987
  H      42.490074     19.568253     41.536707
  H      41.872012     19.060057     40.106725
37
Coordinates from ORCA-job job E -836.462134929576
  C      44.846045     22.493079     39.433913
  H      44.814342     22.580175     38.345931
  H      45.628220     22.999747     40.001238
  C      43.946777     21.780291     40.121990
  C      43.961946     21.718141     41.663855
  O      44.997703     22.035627     42.245950
  O      42.850565     21.359223     42.197432
  O      42.945555     21.039191     39.522167
  C      41.882144     21.681440     38.804339
  H      41.088672     20.892485     38.778103
  C      42.197091     22.056026     37.382817
  H      43.016842     21.567277     36.849242
  C      41.362771     22.869143     36.703774
  C      40.219049     23.457011     37.413270
  H      39.481819     23.948712     36.773789
  C      40.134791     23.429870     38.757807
  H      39.331008     23.928342     39.312672
  C      41.248088     22.835220     39.585296
  H      42.032865     23.613738     39.724999
  O      40.758427     22.412883     40.843864
  H      41.537292     22.055741     41.359677
  C      41.523611     23.131118     35.176570
  O      42.565623     22.682717     34.661245
  O      40.562683     23.746998     34.658838
  C      39.388000     20.557000     43.513000
  H      39.587925     20.549885     44.584485
  H      38.483311     19.966705     43.318479
  H      39.211114     21.593823     43.194914
  N      40.540772     20.001289     42.786460
  H      41.439107     20.426648     43.046147
  C      40.542281     19.435449     41.581729
  N      39.640076     19.829165     40.696891
  H      39.542988     20.846721     40.643483
  H      39.633664     19.425142     39.775013
  N      41.722226     19.080356     41.111327
  H      42.502237     19.582103     41.545396
  H      41.886848     19.076870     40.114101
37
Coordinates from ORCA-job job E -836.462177319789
  C      44.845371     22.540439     39.433293
  H      44.812164     22.629282     38.345452
  H      45.624729     23.050179     40.000676
  C      43.947714     21.824134     40.120317
  C      43.962935     21.760114     41.663228
  O      44.999089     22.074250     42.246737
  O      42.851695     21.402356     42.197542
  O      42.949852     21.080612     39.519868
  C      41.882530     21.720468     38.803448
  H      41.092231     20.928126     38.778661
  C      42.194400     22.096223     37.382259
  H      43.011523     21.607258     36.845010
  C      41.359400     22.909970     36.706836
  C      40.217962     23.500641     37.417720
  H      39.481710     23.996922     36.780422
  C      40.134509     23.470126     38.762427
  H      39.333247     23.968238     39.318747
  C      41.245881     22.870663     39.588220
  H      42.029264     23.648820     39.735693
  O      40.753412     22.442793     40.843434
  H      41.531241     22.088738     41.361938
  C      41.516995     23.172871     35.179663
  O      42.554236     22.719319     34.659343
  O      40.556275     23.792938     34.666325
  C      39.388000     20.557000     43.513000
  H      39.587925     20.549885     44.584485
  H      38.493057     19.952149     43.316206
  H      39.193216     21.592631     43.198471
  N      40.551112     20.023303     42.786157
  H      41.444215     20.456655     43.051047
  C      40.561315     19.456751     41.581772
  N      39.659637     19.842662     40.693538
  H      39.562823     20.858816     40.633229
  H      39.648074     19.429285     39.774155
  N      41.745979     19.111514     41.114490
  H      42.518921     19.615313     41.553296
  H      41.915401     19.125863     40.117678
37
Coordinates from ORCA-job job E -836.462168375469
  C      44.854071     22.519471     39.421616
  H      44.809277     22.609195     38.334542
  H      45.633077     23.031521     39.984048
  C      43.956511     21.802784     40.109479
  C      43.969275     21.742616     41.651334
  O      45.006604     22.051411     42.236302
  O      42.857178     21.392923     42.187881
  O      42.960358     21.057917     39.510343
  C      41.890845     21.696967     38.794561
  H      41.101701     20.901044     38.775336
  C      42.198610     22.069163     37.371543
  H      43.015026     21.585539     36.827342
  C      41.359458     22.879683     36.699385
  C      40.222691     23.477269     37.411434
  H      39.482462     23.969397     36.777820
  C      40.145528     23.450771     38.755616
  H      39.340942     23.936345     39.317638
  C      41.258896     22.847914     39.578940
  H      42.044466     23.623174     39.732029
  O      40.764700     22.420419     40.834332
  H      41.544079     22.074033     41.358332
  C      41.512842     23.135528     35.170730
  O      42.540685     22.668358     34.645763
  O      40.552755     23.757461     34.659641
  C      39.388000     20.557000     43.513000
  H      39.587925     20.549885     44.584485
  H      38.496737     19.951888     43.317187
  H      39.188876     21.590383     43.200286
  N      40.549406     20.028494     42.785309
  H      41.441616     20.458213     43.048215
  C      40.555081     19.451421     41.587253
  N      39.656995     19.836998     40.696450
  H      39.571634     20.854495     40.625565
  H      39.634894     19.413757     39.782362
  N      41.738250     19.109302     41.115681
  H      42.514000     19.600366     41.565469
  H      41.902929     19.162407     40.120441
37
Coordinates from ORCA-job job E -836.462236888522
  C      44.851691     22.562398     39.434047
  H      44.812879     22.652687     38.346467
  H      45.630520     23.074669     39.999773
  C      43.957211     21.839463     40.120329
  C      43.970914     21.777484     41.662051
  O      45.008296     22.089301     42.244901
  O      42.859125     21.423658     42.198172
  O      42.961428     21.094621     39.518354
  C      41.893992     21.733818     38.800034
  H      41.107138     20.937755     38.775638
  C      42.204490     22.110978     37.378878
  H      43.020562     21.625184     36.836802
  C      41.366192     22.924101     36.705986
  C      40.228245     23.517939     37.419400
  H      39.490182     24.012749     36.783810
  C      40.147517     23.487365     38.763362
  H      39.343716     23.977476     39.323013
  C      41.257915     22.882493     39.585826
  H      42.043002     23.657276     39.739107
  O      40.761333     22.451058     40.838849
  H      41.540159     22.103487     41.362798
  C      41.521191     23.185950     35.176410
  O      42.554269     22.724805     34.652323
  O      40.562123     23.810951     34.666904
  C      39.388000     20.557000     43.513000
  H      39.587925     20.549885     44.584485
  H      38.501716     19.940262     43.315591
  H      39.175014     21.590644     43.204009
  N      40.558277     20.044935     42.781880
  H      41.447591     20.481963     43.051133
  C      40.569577     19.468902     41.582921
  N      39.673149     19.856219     40.689999
  H      39.587641     20.872487     40.621602
  H      39.656432     19.434798     39.776916
  N      41.757295     19.132994     41.116150
  H      42.529126     19.628574     41.571376
  H      41.928261     19.184417     40.122095
37
Coordinates from ORCA-job job E -836.462242348071
  C      44.837902     22.534006     39.420458
  H      44.798355     22.619757     38.332660
  H      45.618818     23.047831     39.983880
  C      43.945227     21.816292     40.112146
  C      43.965463     21.757418     41.655138
  O      45.005715     22.069110     42.231970
  O      42.854825     21.405851     42.194031
  O      42.944167     21.074715     39.513503
  C      41.879297     21.715428     38.795061
  H      41.089107     20.924463     38.770092
  C      42.189613     22.089461     37.373353
  H      43.005100     21.602551     36.833866
  C      41.352506     22.902117     36.697770
  C      40.214872     23.496167     37.410491
  H      39.476391     23.989492     36.772538
  C      40.134563     23.468720     38.755143
  H      39.334364     23.967306     39.312357
  C      41.245917     22.867125     39.578702
  H      42.031319     23.644075     39.726951
  O      40.752101     22.437934     40.833811
  H      41.531048     22.090449     41.355578
  C      41.506865     23.160224     35.168729
  O      42.542281     22.702032     34.648423
  O      40.547752     23.782382     34.656377
  C      39.388000     20.557000     43.513000
  H      39.587925     20.549885     44.584485
  H      38.493982     19.950450     43.316765
  H      39.188019     21.591874     43.201990
  N      40.551568     20.029346     42.781801
  H      41.443981     20.463996     43.046502
  C      40.558900     19.454793     41.580914
  N      39.659674     19.843996     40.691397
  H      39.569894     20.860955     40.628644
  H      39.644816     19.427649     39.774686
  N      41.743958     19.114089     41.112235
  H      42.513924     19.612404     41.558592
  H      41.915547     19.153954     40.115997
37
Coordinates from ORCA-job job E -836.462278440102
  C      44.843650     22.596872     39.440959
  H      44.805582     22.685604     38.353759
  H      45.617151     23.117128     40.006383
  C      43.952388     21.871523     40.126779
  C      43.967786     21.808119     41.670281
  O      45.006244     22.119037     42.250571
  O      42.856715     21.452803     42.206324
  O      42.957903     21.126891     39.522383
  C      41.892429     21.767079     38.802395
  H      41.105460     20.972193     38.771481
  C      42.204481     22.148061     37.382586
  H      43.020310     21.664132     36.839715
  C      41.367289     22.963045     36.710234
  C      40.228240     23.555824     37.423272
  H      39.491159     24.051831     36.786534
  C      40.145199     23.521768     38.767819
  H      39.344043     24.016994     39.327183
  C      41.254071     22.912812     39.591211
  H      42.039366     23.687921     39.749681
  O      40.755142     22.472039     40.841077
  H      41.533915     22.129528     41.366254
  C      41.523723     23.224414     35.183115
  O      42.555032     22.759970     34.660025
  O      40.568175     23.853488     34.671752
  C      39.388000     20.557000     43.513000
  H      39.587925     20.549885     44.584485
  H      38.506536     19.932597     43.313579
  H      39.166659     21.589144     43.206131
  N      40.564408     20.056613     42.782368
  H      41.448687     20.504338     43.052290
  C      40.584717     19.480472     41.582125
  N      39.690648     19.866689     40.686017
  H      39.607234     20.884310     40.611960
  H      39.674062     19.440125     39.773925
  N      41.778331     19.156294     41.120252
  H      42.540478     19.654273     41.583342
  H      41.960786     19.223232     40.125565
37
Coordinates from ORCA-job job E -836.462195027794
  C      44.834929     22.566778     39.431350
  H      44.787948     22.656205     38.343836
  H      45.600184     23.103254     39.990322
  C      43.947058     21.835774     40.118599
  C      43.960698     21.776333     41.659496
  O      45.000829     22.085633     42.238637
  O      42.851562     21.421755     42.200805
  O      42.956305     21.083456     39.520938
  C      41.885850     21.721578     38.799172
  H      41.099445     20.922707     38.773994
  C      42.196145     22.100554     37.377663
  H      43.014548     21.622079     36.829188
  C      41.358881     22.916582     36.707508
  C      40.222791     23.516746     37.421213
  H      39.483636     24.009758     36.787378
  C      40.145091     23.488441     38.765977
  H      39.344537     23.980310     39.329336
  C      41.252262     22.870749     39.587500
  H      42.044040     23.634919     39.744772
  O      40.751971     22.440004     40.838777
  H      41.534095     22.100791     41.365358
  C      41.514242     23.172871     35.176655
  O      42.541490     22.701025     34.650050
  O      40.557969     23.801376     34.664488
  C      39.388000     20.557000     43.513000
  H      39.587925     20.549885     44.584485
  H      38.502198     19.943568     43.315328
  H      39.175342     21.589282     43.205702
  N      40.555731     20.045651     42.782294
  H      41.441552     20.490228     43.041892
  C      40.566400     19.454424     41.591188
  N      39.678267     19.847702     40.693325
  H      39.601302     20.862370     40.625350
  H      39.665809     19.427626     39.780514
  N      41.758244     19.128548     41.126711
  H      42.529555     19.614726     41.599262
  H      41.933029     19.219930     40.138594
37
Coordinates from ORCA-job job E -836.462321605903
  C      44.834031     22.572155     39.429991
  H      44.790890     22.660083     38.342661
  H      45.606417     23.098506     39.991983
  C      43.946611     21.845003     40.119691
  C      43.964740     21.785555     41.661928
  O      45.005785     22.094614     42.238798
  O      42.854634     21.434588     42.202592
  O      42.951121     21.097848     39.520682
  C      41.884822     21.737149     38.799368
  H      41.096814     20.942706     38.772965
  C      42.196011     22.113783     37.378429
  H      43.011404     21.629443     36.835217
  C      41.359639     22.928634     36.705215
  C      40.223374     23.526382     37.418502
  H      39.484702     24.019507     36.782393
  C      40.143759     23.498402     38.762648
  H      39.343328     23.994963     39.321945
  C      41.250646     22.886139     39.585870
  H      42.039399     23.656697     39.742163
  O      40.751637     22.451387     40.837185
  H      41.532282     22.111948     41.362876
  C      41.513743     23.184124     35.175868
  O      42.543522     22.715467     34.652708
  O      40.558118     23.812680     34.664003
  C      39.388000     20.557000     43.513000
  H      39.587925     20.549885     44.584485
  H      38.503001     19.939327     43.314676
  H      39.173301     21.589643     43.205123
  N      40.559188     20.047966     42.782235
  H      41.445462     20.493700     43.045548
  C      40.573559     19.463035     41.587028
  N      39.681384     19.852126     40.691287
  H      39.600462     20.868907     40.619694
  H      39.665766     19.428031     39.778737
  N      41.765066     19.137248     41.123233
  H      42.530525     19.628075     41.591280
  H      41.944302     19.219505     40.131263
37
Coordinates from ORCA-job job E -836.462344897118
  C      44.828206     22.605670     39.433672
  H      44.784761     22.692543     38.346153
  H      45.599112     23.135703     39.995591
  C      43.943901     21.875778     40.123693
  C      43.962725     21.816154     41.665788
  O      45.004365     22.124381     42.242052
  O      42.852704     21.465176     42.206498
  O      42.949645     21.126551     39.523883
  C      41.882986     21.764945     38.801645
  H      41.096528     20.969687     38.773558
  C      42.194366     22.143009     37.381159
  H      43.007983     21.656536     36.837383
  C      41.358456     22.959465     36.708618
  C      40.223185     23.558186     37.422797
  H      39.486144     24.054224     36.786941
  C      40.142555     23.528307     38.766898
  H      39.344583     24.029609     39.325455
  C      41.246701     22.911727     39.590222
  H      42.035719     23.681814     39.749873
  O      40.745903     22.471482     40.839285
  H      41.527134     22.134899     41.365467
  C      41.510511     23.214300     35.178961
  O      42.538597     22.742922     34.654940
  O      40.556424     23.845879     34.668337
  C      39.388000     20.557000     43.513000
  H      39.587925     20.549885     44.584485
  H      38.509140     19.930068     43.312931
  H      39.163281     21.588377     43.206484
  N      40.565130     20.061077     42.781817
  H      41.446978     20.515966     43.045732
  C      40.587005     19.475302     41.586708
  N      39.696906     19.862617     40.687816
  H      39.614688     20.879123     40.615410
  H      39.683956     19.437130     39.775845
  N      41.782100     19.157338     41.126818
  H      42.541818     19.650307     41.599121
  H      41.966467     19.247279     40.136641
37
Coordinates from ORCA-job job E -836.462331260385
  C      44.802272     22.570619     39.422173
  H      44.756493     22.657883     38.335559
  H      45.574111     23.104618     39.982253
  C      43.927737     21.838872     40.119615
  C      43.959415     21.779184     41.663975
  O      45.005811     22.084768     42.232262
  O      42.849801     21.437050     42.211613
  O      42.928813     21.086981     39.526621
  C      41.867462     21.729199     38.801872
  H      41.072806     20.943935     38.773116
  C      42.183323     22.101613     37.381398
  H      42.992067     21.601316     36.843935
  C      41.355137     22.922064     36.702642
  C      40.219792     23.523836     37.413562
  H      39.485205     24.021456     36.774741
  C      40.136981     23.499017     38.758456
  H      39.345536     24.019522     39.309468
  C      41.235851     22.881626     39.588243
  H      42.027196     23.651856     39.742281
  O      40.737040     22.444072     40.839177
  H      41.520924     22.113930     41.361483
  C      41.507848     23.166618     35.174909
  O      42.535439     22.688538     34.654604
  O      40.558275     23.801983     34.659851
  C      39.388000     20.557000     43.513000
  H      39.587925     20.549885     44.584485
  H      38.500837     19.940959     43.313427
  H      39.182783     21.589927     43.199497
  N      40.559559     20.036797     42.788282
  H      41.443865     20.499414     43.037870
  C      40.578707     19.442987     41.595225
  N      39.689157     19.832050     40.696301
  H      39.605639     20.849278     40.619313
  H      39.677863     19.402205     39.784212
  N      41.775996     19.132292     41.136908
  H      42.531587     19.610885     41.625973
  H      41.970399     19.252202     40.146217
37
Coordinates from ORCA-job job E -836.462400594210
  C      44.804375     22.593396     39.418780
  H      44.756221     22.679479     38.331654
  H      45.576011     23.127575     39.977120
  C      43.928867     21.860799     40.115744
  C      43.957374     21.803942     41.658098
  O      45.003667     22.108250     42.227918
  O      42.847633     21.463118     42.205840
  O      42.931951     21.106976     39.523302
  C      41.866474     21.745139     38.799684
  H      41.076008     20.954715     38.775854
  C      42.177929     22.115869     37.377829
  H      42.985859     21.617377     36.837029
  C      41.346663     22.934606     36.701697
  C      40.214909     23.540152     37.415181
  H      39.479180     24.037747     36.778868
  C      40.135419     23.516921     38.759145
  H      39.342289     24.031533     39.313418
  C      41.234420     22.896170     39.585682
  H      42.026297     23.664198     39.743276
  O      40.734237     22.458682     40.835960
  H      41.518329     22.128800     41.360518
  C      41.495319     23.178569     35.171238
  O      42.519325     22.697988     34.647860
  O      40.543852     23.813227     34.659520
  C      39.388000     20.557000     43.513000
  H      39.587925     20.549885     44.584485
  H      38.507012     19.932884     43.312997
  H      39.170012     21.588955     43.203092
  N      40.563763     20.052444     42.785121
  H      41.444776     20.516551     43.037771
  C      40.585330     19.457209     41.594281
  N      39.697411     19.843892     40.693719
  H      39.613586     20.860561     40.618978
  H      39.686936     19.416213     39.782062
  N      41.782119     19.146269     41.135946
  H      42.538449     19.627545     41.622762
  H      41.972579     19.266791     40.148053
37
Coordinates from ORCA-job job E -836.462425197955
  C      44.796953     22.617119     39.415096
  H      44.745489     22.703350     38.327879
  H      45.567692     23.153695     39.971893
  C      43.923726     21.882024     40.112817
  C      43.953057     21.826223     41.654557
  O      45.000235     22.128973     42.223710
  O      42.843303     21.487602     42.203974
  O      42.928536     21.124974     39.521593
  C      41.860467     21.761094     38.798471
  H      41.071974     20.968345     38.776171
  C      42.169844     22.131389     37.375993
  H      42.975499     21.630406     36.833040
  C      41.338927     22.951794     36.701617
  C      40.209895     23.560994     37.416677
  H      39.475506     24.062135     36.781813
  C      40.130763     23.536474     38.760778
  H      39.339408     24.052410     39.316257
  C      41.227933     22.910925     39.585997
  H      42.020353     23.677092     39.747218
  O      40.726506     22.471056     40.835102
  H      41.511726     22.144207     41.360706
  C      41.485133     23.194589     35.169741
  O      42.505504     22.709123     34.643613
  O      40.534234     23.832153     34.660258
  C      39.388000     20.557000     43.513000
  H      39.587925     20.549885     44.584485
  H      38.512046     19.926368     43.311978
  H      39.161716     21.587764     43.204659
  N      40.568183     20.063204     42.785250
  H      41.444872     20.535321     43.036917
  C      40.594189     19.465368     41.596278
  N      39.708287     19.849260     40.692703
  H      39.623959     20.865561     40.616427
  H      39.699167     19.419181     39.782269
  N      41.793573     19.160356     41.140044
  H      42.547541     19.639160     41.633982
  H      41.986523     19.294746     40.154764
37
Coordinates from ORCA-job job E -836.462455299286
  C      44.783681     22.601660     39.401002
  H      44.726257     22.685428     38.313495
  H      45.556346     23.136850     39.953038
  C      43.911291     21.868092     40.102113
  C      43.943407     21.816338     41.642626
  O      44.993567     22.114407     42.209229
  O      42.832678     21.486906     42.196541
  O      42.916221     21.106905     39.515687
  C      41.843980     21.740319     38.794804
  H      41.055313     20.946307     38.781389
  C      42.145940     22.100051     37.368035
  H      42.945434     21.588826     36.822421
  C      41.314371     22.920330     36.694377
  C      40.192855     23.542191     37.411627
  H      39.460802     24.048574     36.778731
  C      40.118365     23.523517     38.756478
  H      39.332910     24.046104     39.314266
  C      41.215895     22.894859     39.579899
  H      42.009965     23.658709     39.740198
  O      40.716327     22.460198     40.832435
  H      41.503656     22.136763     41.357841
  C      41.453277     23.152310     35.158672
  O      42.466733     22.657859     34.627922
  O      40.500518     23.788671     34.651337
  C      39.388000     20.557000     43.513000
  H      39.587925     20.549885     44.584485
  H      38.509956     19.930435     43.312654
  H      39.165736     21.587985     43.203980
  N      40.567556     20.058242     42.789025
  H      41.441180     20.538978     43.031824
  C      40.592106     19.455043     41.603586
  N      39.706148     19.833956     40.697626
  H      39.610171     20.848255     40.626833
  H      39.705025     19.409413     39.785537
  N      41.791625     19.149079     41.146679
  H      42.549150     19.618823     41.643074
  H      41.982251     19.290863     40.167191
37
Coordinates from ORCA-job job E -836.462503038122
  C      44.770457     22.610006     39.387261
  H      44.707949     22.693355     38.300052
  H      45.546906     23.142855     39.936223
  C      43.901560     21.876335     40.092455
  C      43.938962     21.829102     41.632477
  O      44.993340     22.122912     42.194216
  O      42.827974     21.510556     42.192234
  O      42.904396     21.113988     39.510059
  C      41.831368     21.747350     38.789681
  H      41.042231     20.954031     38.778581
  C      42.132154     22.103038     37.361839
  H      42.927569     21.584781     36.816470
  C      41.303167     22.925342     36.687988
  C      40.185808     23.553253     37.406352
  H      39.455334     24.063260     36.774180
  C      40.111485     23.535593     38.750846
  H      39.327641     24.061194     39.308330
  C      41.205704     22.902966     39.574170
  H      42.000488     23.664707     39.737877
  O      40.704397     22.467441     40.825385
  H      41.493449     22.149981     41.352263
  C      41.440095     23.153069     35.150618
  O      42.449138     22.649904     34.619304
  O      40.490775     23.795118     34.644117
  C      39.388000     20.557000     43.513000
  H      39.587925     20.549885     44.584485
  H      38.514254     19.924640     43.311784
  H      39.158850     21.586897     43.204871
  N      40.572321     20.066825     42.790212
  H      41.441235     20.559757     43.027607
  C      40.600413     19.457349     41.608592
  N      39.715508     19.830733     40.700071
  H      39.620357     20.845538     40.621229
  H      39.713250     19.397395     39.791462
  N      41.802877     19.160404     41.152930
  H      42.557427     19.617233     41.669442
  H      42.000230     19.338430     40.174849
37
Coordinates from ORCA-job job E -836.462552884918
  C      44.751887     22.608318     39.367371
  H      44.686350     22.688996     38.280550
  H      45.532479     23.140510     39.911685
  C      43.886153     21.876600     40.078610
  C      43.931119     21.834064     41.620079
  O      44.989430     22.125182     42.175452
  O      42.820766     21.524226     42.185808
  O      42.885136     21.114636     39.502006
  C      41.812430     21.747127     38.781604
  H      41.022255     20.955860     38.772817
  C      42.111961     22.098484     37.352556
  H      42.903496     21.574131     36.808409
  C      41.284953     22.922441     36.677444
  C      40.170826     23.555207     37.396408
  H      39.442420     24.068574     36.763895
  C      40.097006     23.538931     38.741421
  H      39.316464     24.071599     39.297391
  C      41.189688     22.904698     39.564870
  H      41.985555     23.665923     39.727596
  O      40.689372     22.469506     40.816713
  H      41.479839     22.155790     41.343101
  C      41.420021     23.145551     35.139924
  O      42.427108     22.638355     34.609004
  O      40.472084     23.789363     34.632504
  C      39.388000     20.557000     43.513000
  H      39.587925     20.549885     44.584485
  H      38.514813     19.923153     43.311173
  H      39.157835     21.586786     43.204730
  N      40.573965     20.068138     42.790985
  H      41.439974     20.570524     43.021868
  C      40.603889     19.456135     41.610523
  N      39.717918     19.825203     40.701721
  H      39.616754     20.840364     40.622127
  H      39.719830     19.391547     39.792847
  N      41.807533     19.161788     41.156636
  H      42.559620     19.611304     41.681053
  H      42.009742     19.353412     40.179992
37
Coordinates from ORCA-job job E -836.462635231829
  C      44.731144     22.593051     39.338999
  H      44.662472     22.666350     38.252103
  H      45.520873     23.120633     39.875862
  C      43.865158     21.871019     40.058651
  C      43.919237     21.839480     41.601395
  O      44.984044     22.125009     42.146649
  O      42.809285     21.545865     42.175870
  O      42.856243     21.113406     39.490167
  C      41.784950     21.746777     38.769494
  H      40.992581     20.958922     38.763602
  C      42.082636     22.089982     37.338575
  H      42.868427     21.557502     36.795504
  C      41.258133     22.914998     36.661772
  C      40.149572     23.557128     37.381085
  H      39.424848     24.075564     36.747361
  C      40.076608     23.543953     38.726512
  H      39.301867     24.086655     39.280804
  C      41.167895     22.908596     39.550622
  H      41.966289     23.668104     39.711169
  O      40.669263     22.474826     40.804180
  H      41.461412     22.168597     41.330908
  C      41.390544     23.129872     35.123950
  O      42.395506     22.617029     34.594432
  O      40.445165     23.775845     34.614107
  C      39.388000     20.557000     43.513000
  H      39.587925     20.549885     44.584485
  H      38.516822     19.919612     43.309746
  H      39.154136     21.586173     43.205329
  N      40.578166     20.072919     42.793250
  H      41.437874     20.592805     43.013727
  C      40.612435     19.458018     41.613892
  N      39.722707     19.817047     40.704274
  H      39.605187     20.831252     40.625692
  H      39.736243     19.386221     39.793619
  N      41.818121     19.165901     41.162934
  H      42.568368     19.601259     41.698383
  H      42.027660     19.371724     40.189281
37
Coordinates from ORCA-job job E -836.462704165593
  C      44.721566     22.580002     39.317842
  H      44.651058     22.648389     38.230887
  H      45.517678     23.104188     39.848413
  C      43.853123     21.866347     40.043573
  C      43.911593     21.844944     41.587204
  O      44.980766     22.125985     42.126158
  O      42.801934     21.564024     42.167914
  O      42.838110     21.113380     39.480886
  C      41.768569     21.748210     38.759111
  H      40.975397     20.961350     38.754486
  C      42.065675     22.088068     37.327601
  H      42.848736     21.553951     36.783324
  C      41.241416     22.913602     36.650796
  C      40.135997     23.561314     37.370571
  H      39.413402     24.082630     36.736668
  C      40.064203     23.548715     38.716339
  H      39.291705     24.093569     39.271142
  C      41.155384     22.911994     39.539675
  H      41.956286     23.669498     39.698741
  O      40.658098     22.479077     40.794684
  H      41.451287     22.177548     41.322546
  C      41.372833     23.124660     35.113010
  O      42.376734     22.608303     34.584160
  O      40.429100     23.771971     34.601669
  C      39.388000     20.557000     43.513000
  H      39.587925     20.549885     44.584485
  H      38.520679     19.914665     43.308381
  H      39.147834     21.584971     43.206740
  N      40.581963     20.081252     42.793795
  H      41.436094     20.613259     43.007826
  C      40.619609     19.464246     41.615491
  N      39.725945     19.814048     40.705580
  H      39.594572     20.826696     40.628456
  H      39.749172     19.386648     39.793485
  N      41.825965     19.170800     41.167370
  H      42.576413     19.594846     41.709740
  H      42.039262     19.383623     40.196319
37
Coordinates from ORCA-job job E -836.462790842915
  C      44.719883     22.560090     39.297685
  H      44.648693     22.622229     38.210357
  H      45.521477     23.081581     39.822497
  C      43.845120     21.860016     40.029060
  C      43.905516     21.852818     41.572960
  O      44.978867     22.128141     42.106552
  O      42.795801     21.586734     42.159521
  O      42.822787     21.112667     39.472977
  C      41.755254     21.750517     38.749158
  H      40.961296     20.963753     38.744783
  C      42.053347     22.089763     37.317898
  H      42.835966     21.558475     36.770425
  C      41.229043     22.915273     36.642081
  C      40.126138     23.567543     37.362151
  H      39.404775     24.090193     36.727913
  C      40.055348     23.555438     38.707444
  H      39.283388     24.098833     39.263864
  C      41.145554     22.915621     39.530217
  H      41.950240     23.668863     39.688027
  O      40.648598     22.484679     40.785806
  H      41.442767     22.188019     41.315679
  C      41.361638     23.124158     35.104284
  O      42.364438     22.603940     34.576619
  O      40.420573     23.773798     34.590858
  C      39.388000     20.557000     43.513000
  H      39.587925     20.549885     44.584485
  H      38.527783     19.906250     43.306652
  H      39.137146     21.582925     43.208905
  N      40.586801     20.095465     42.793532
  H      41.433356     20.642075     43.000851
  C      40.629376     19.473974     41.618032
  N      39.732178     19.812455     40.706670
  H      39.584415     20.822056     40.632571
  H      39.769290     19.391589     39.792269
  N      41.836512     19.178910     41.173383
  H      42.588075     19.587946     41.724722
  H      42.054515     19.401106     40.205772
37
Coordinates from ORCA-job job E -836.462872795051
  C      44.717693     22.542692     39.274839
  H      44.645925     22.599122     38.187019
  H      45.522616     23.063841     39.794443
  C      43.837902     21.854908     40.012768
  C      43.899851     21.862656     41.556250
  O      44.977347     22.131105     42.085817
  O      42.789502     21.613169     42.148531
  O      42.809404     21.110667     39.464580
  C      41.743842     21.750841     38.738590
  H      40.948969     20.964652     38.734946
  C      42.042901     22.091576     37.308200
  H      42.825733     21.563761     36.757363
  C      41.218316     22.917704     36.633843
  C      40.116751     23.572497     37.353936
  H      39.395709     24.095661     36.720637
  C      40.048155     23.560787     38.699073
  H      39.276398     24.102172     39.257274
  C      41.136938     22.916599     39.520609
  H      41.945282     23.666522     39.676488
  O      40.640241     22.488000     40.776639
  H      41.436601     22.196509     41.308001
  C      41.351498     23.126503     35.095564
  O      42.352218     22.601714     34.567354
  O      40.413161     23.780057     34.582426
  C      39.388000     20.557000     43.513000
  H      39.587925     20.549885     44.584485
  H      38.536072     19.896469     43.305235
  H      39.125474     21.580564     43.210665
  N      40.591170     20.111011     42.792105
  H      41.429637     20.671425     42.992756
  C      40.638317     19.482714     41.620799
  N      39.738739     19.809919     40.707251
  H      39.576763     20.816947     40.635633
  H      39.788176     19.394823     39.790842
  N      41.845974     19.185150     41.180817
  H      42.598378     19.578372     41.742661
  H      42.068868     19.422053     40.217533
37
Coordinates from ORCA-job job E -836.462952561224
  C      44.716719     22.525396     39.251573
  H      44.645540     22.574841     38.163365
  H      45.523091     23.047487     39.768226
  C      43.831502     21.851831     39.995823
  C      43.894893     21.873986     41.538994
  O      44.975252     22.136131     42.066019
  O      42.783481     21.640003     42.135403
  O      42.797410     21.108569     39.456117
  C      41.732481     21.750683     38.728905
  H      40.936046     20.965922     38.725654
  C      42.032783     22.094311     37.299289
  H      42.816481     21.569544     36.746303
  C      41.209004     22.921404     36.625994
  C      40.108203     23.576613     37.346092
  H      39.386902     24.099489     36.713216
  C      40.040893     23.565876     38.690742
  H      39.269685     24.107126     39.250055
  C      41.127410     22.917227     39.511933
  H      41.938430     23.664373     39.665301
  O      40.630611     22.491960     40.767712
  H      41.429173     22.204748     41.299491
  C      41.343792     23.132020     35.087571
  O      42.342014     22.603503     34.558557
  O      40.408330     23.790275     34.575398
  C      39.388000     20.557000     43.513000
  H      39.587925     20.549885     44.584485
  H      38.544521     19.886357     43.304303
  H      39.113802     21.578158     43.212196
  N      40.595059     20.126602     42.789903
  H      41.425337     20.700617     42.984283
  C      40.647214     19.490261     41.623947
  N      39.748012     19.807566     40.706737
  H      39.572405     20.812156     40.639183
  H      39.811751     19.401172     39.787391
  N      41.855521     19.190445     41.188495
  H      42.607956     19.568433     41.759801
  H      42.084402     19.441460     40.230011
37
Coordinates from ORCA-job job E -836.463024128613
  C      44.712539     22.511912     39.228698
  H      44.641170     22.554168     38.140075
  H      45.520200     23.034845     39.742465
  C      43.824032     21.850216     39.979414
  C      43.889669     21.884501     41.522048
  O      44.973414     22.139550     42.046289
  O      42.776752     21.666466     42.122663
  O      42.785422     21.106271     39.447013
  C      41.721171     21.750075     38.719130
  H      40.922978     20.967646     38.716034
  C      42.022765     22.095398     37.290228
  H      42.805628     21.569808     36.736915
  C      41.200895     22.924700     36.617353
  C      40.100438     23.580266     37.337017
  H      39.379757     24.104084     36.704740
  C      40.033673     23.570078     38.681646
  H      39.264021     24.113546     39.240971
  C      41.117836     22.917508     39.502600
  H      41.930489     23.663717     39.654429
  O      40.620816     22.494161     40.758359
  H      41.422054     22.212694     41.290160
  C      41.336818     23.137627     35.078961
  O      42.331600     22.604197     34.548211
  O      40.404805     23.802570     34.569250
  C      39.388000     20.557000     43.513000
  H      39.587925     20.549885     44.584485
  H      38.552177     19.877032     43.303711
  H      39.102844     21.575634     43.213560
  N      40.599155     20.140949     42.788267
  H      41.421049     20.728887     42.976373
  C      40.656417     19.495509     41.627547
  N      39.758288     19.802982     40.705743
  H      39.571164     20.805724     40.639263
  H      39.832970     19.400815     39.785199
  N      41.866298     19.195023     41.197053
  H      42.617275     19.556277     41.781654
  H      42.102838     19.467147     40.243895
37
Coordinates from ORCA-job job E -836.463080640828
  C      44.711635     22.494994     39.204455
  H      44.643442     22.526333     38.115440
  H      45.518424     23.019822     39.717582
  C      43.817224     21.849682     39.961828
  C      43.883275     21.895277     41.503964
  O      44.968291     22.144164     42.028326
  O      42.768663     21.690507     42.105297
  O      42.774922     21.103637     39.436316
  C      41.710204     21.748116     38.709581
  H      40.909994     20.968884     38.705338
  C      42.013644     22.098195     37.281655
  H      42.797988     21.573306     36.730030
  C      41.194580     22.930542     36.608796
  C      40.091604     23.580510     37.327557
  H      39.370580     24.103472     36.695293
  C      40.023972     23.569570     38.672318
  H      39.255038     24.115122     39.230754
  C      41.107065     22.916149     39.493156
  H      41.919167     23.664308     39.640853
  O      40.610729     22.496603     40.749013
  H      41.414465     22.217771     41.278654
  C      41.334085     23.152833     35.071978
  O      42.327410     22.620272     34.539556
  O      40.404959     23.824439     34.566456
  C      39.388000     20.557000     43.513000
  H      39.587925     20.549885     44.584485
  H      38.558953     19.869013     43.303943
  H      39.092858     21.572866     43.214910
  N      40.601259     20.154148     42.784762
  H      41.415476     20.751075     42.969134
  C      40.663503     19.500918     41.629211
  N      39.768387     19.799507     40.702080
  H      39.567476     20.800566     40.639740
  H      39.857332     19.407294     39.778513
  N      41.873724     19.192897     41.205012
  H      42.622588     19.541635     41.794671
  H      42.117255     19.470601     40.257443
37
Coordinates from ORCA-job job E -836.463153916992
  C      44.698104     22.484408     39.173599
  H      44.626684     22.505007     38.084488
  H      45.511567     23.006494     39.679660
  C      43.801320     21.852208     39.939488
  C      43.873844     21.910732     41.481919
  O      44.965031     22.152081     41.998126
  O      42.758766     21.724927     42.091247
  O      42.753100     21.107236     39.422007
  C      41.688726     21.752719     38.695320
  H      40.887187     20.974898     38.691695
  C      41.992049     22.099518     37.266318
  H      42.772342     21.568215     36.714686
  C      41.176967     22.935859     36.593459
  C      40.077131     23.591272     37.312674
  H      39.359513     24.119019     36.679903
  C      40.008009     23.579955     38.657278
  H      39.241830     24.130092     39.215524
  C      41.089251     22.923210     39.478257
  H      41.903095     23.668892     39.626793
  O      40.592634     22.504155     40.734525
  H      41.399154     22.234454     41.265093
  C      41.317473     23.158343     35.057026
  O      42.306611     22.618968     34.523408
  O      40.393474     23.838009     34.552394
  C      39.388000     20.557000     43.513000
  H      39.587925     20.549885     44.584485
  H      38.566655     19.859016     43.302423
  H      39.079552     21.570251     43.217456
  N      40.608269     20.170734     42.784938
  H      41.413178     20.787309     42.960669
  C      40.678159     19.508614     41.634561
  N      39.783467     19.794405     40.702575
  H      39.567675     20.793214     40.638056
  H      39.884947     19.402649     39.779474
  N      41.891392     19.203053     41.215740
  H      42.637005     19.530782     41.824171
  H      42.145166     19.508219     40.274654
37
Coordinates from ORCA-job job E -836.463216465699
  C      44.681602     22.469614     39.138947
  H      44.606764     22.479774     38.049900
  H      45.501625     22.990285     39.636050
  C      43.781778     21.850768     39.912637
  C      43.859375     21.920236     41.454772
  O      44.954238     22.157750     41.964814
  O      42.745601     21.745847     42.069755
  O      42.728194     21.107997     39.402325
  C      41.663159     21.753451     38.676409
  H      40.862002     20.975754     38.673303
  C      41.966704     22.098936     37.247259
  H      42.745023     21.565449     36.695943
  C      41.154759     22.939043     36.574817
  C      40.055288     23.595733     37.293731
  H      39.340257     24.126722     36.660619
  C      39.984297     23.581482     38.638679
  H      39.218933     24.132063     39.196985
  C      41.066514     22.925568     39.458534
  H      41.881795     23.670771     39.605039
  O      40.572371     22.508263     40.716717
  H      41.380818     22.243833     41.247103
  C      41.298069     23.166806     35.039480
  O      42.286848     22.627545     34.505505
  O      40.377326     23.851299     34.535485
  C      39.388000     20.557000     43.513000
  H      39.587925     20.549885     44.584485
  H      38.570128     19.855166     43.301790
  H      39.072159     21.568594     43.219847
  N      40.609678     20.180274     42.782112
  H      41.408662     20.805444     42.952136
  C      40.682934     19.514761     41.633613
  N      39.787910     19.792301     40.699451
  H      39.561391     20.788622     40.635040
  H      39.898514     19.402584     39.776517
  N      41.896626     19.205984     41.218103
  H      42.640580     19.521405     41.833842
  H      42.154621     19.519388     40.280203
37
Coordinates from ORCA-job job E -836.463287830908
  C      44.655002     22.466178     39.102836
  H      44.577728     22.458090     38.014301
  H      45.481023     22.987212     39.587829
  C      43.751005     21.866414     39.885532
  C      43.832783     21.949830     41.425286
  O      44.931917     22.181978     41.928332
  O      42.721912     21.788463     42.045532
  O      42.694235     21.124216     39.382631
  C      41.627926     21.767212     38.656940
  H      40.828926     20.987197     38.654376
  C      41.931259     22.109746     37.227068
  H      42.706904     21.571133     36.676558
  C      41.125048     22.956231     36.555158
  C      40.025714     23.615152     37.273328
  H      39.314567     24.150299     36.638998
  C      39.950392     23.596390     38.617750
  H      39.184041     24.146481     39.175546
  C      41.033377     22.940964     39.437021
  H      41.850350     23.684405     39.583260
  O      40.542002     22.524151     40.697256
  H      41.352863     22.268294     41.227870
  C      41.273793     23.192773     35.022802
  O      42.262949     22.654556     34.488601
  O      40.358543     23.885334     34.520464
  C      39.388000     20.557000     43.513000
  H      39.587925     20.549885     44.584485
  H      38.578163     19.845957     43.299520
  H      39.056840     21.565085     43.224466
  N      40.614407     20.200267     42.779178
  H      41.403727     20.838926     42.943127
  C      40.697045     19.529291     41.633610
  N      39.805020     19.794214     40.693788
  H      39.561552     20.785277     40.626847
  H      39.931185     19.406933     39.772756
  N      41.913715     19.218980     41.226161
  H      42.651677     19.520191     41.851955
  H      42.179445     19.541424     40.294428
37
Coordinates from ORCA-job job E -836.463317676828
  C      44.626840     22.425906     39.058815
  H      44.543695     22.403514     37.970336
  H      45.460834     22.947335     39.531801
  C      43.721139     21.843589     39.854709
  C      43.811515     21.943005     41.393253
  O      44.917409     22.167927     41.887202
  O      42.702194     21.798889     42.022481
  O      42.656683     21.102238     39.364305
  C      41.588651     21.744948     38.639499
  H      40.788822     20.965828     38.642125
  C      41.888800     22.082975     37.207636
  H      42.662286     21.541761     36.655727
  C      41.085786     22.933052     36.536236
  C      39.990012     23.597033     37.255433
  H      39.279180     24.133712     36.621624
  C      39.916535     23.579553     38.599959
  H      39.151676     24.130737     39.158468
  C      40.999665     22.923234     39.417872
  H      41.819718     23.663581     39.559944
  O      40.511363     22.512603     40.681109
  H      41.325408     22.263127     41.210774
  C      41.235882     23.170951     35.004194
  O      42.224691     22.631948     34.470772
  O      40.322791     23.866185     34.502251
  C      39.388000     20.557000     43.513000
  H      39.587925     20.549885     44.584485
  H      38.578420     19.848031     43.299170
  H      39.058412     21.563734     43.224352
  N      40.610801     20.199695     42.778473
  H      41.396194     20.843744     42.934141
  C      40.692729     19.522083     41.637467
  N      39.798979     19.777080     40.697211
  H      39.540798     20.765058     40.630867
  H      39.934254     19.393565     39.775402
  N      41.907082     19.203969     41.232024
  H      42.646202     19.489512     41.863519
  H      42.174142     19.534240     40.304290
37
Coordinates from ORCA-job job E -836.463328954570
  C      44.599807     22.462529     39.038168
  H      44.516369     22.428736     37.950208
  H      45.433059     22.990460     39.503954
  C      43.694330     21.890198     39.841478
  C      43.787546     22.003504     41.378671
  O      44.894910     22.222555     41.869652
  O      42.679076     21.871958     42.011404
  O      42.629281     21.143826     39.359932
  C      41.558297     21.782878     38.632649
  H      40.762266     21.000508     38.636325
  C      41.857195     22.123014     37.201434
  H      42.627030     21.579733     36.645938
  C      41.056521     22.977571     36.532667
  C      39.963920     23.646153     37.252803
  H      39.256055     24.187547     36.620032
  C      39.890450     23.625354     38.596979
  H      39.127761     24.178032     39.156460
  C      40.967809     22.958985     39.413887
  H      41.791313     23.694905     39.559058
  O      40.477595     22.545367     40.674084
  H      41.293871     22.306086     41.206112
  C      41.207064     23.216423     35.000973
  O      42.191832     22.671635     34.465893
  O      40.297753     23.918438     34.500731
  C      39.388000     20.557000     43.513000
  H      39.587925     20.549885     44.584485
  H      38.595932     19.826146     43.295496
  H      39.033242     21.558940     43.227979
  N      40.621017     20.232984     42.776238
  H      41.392338     20.897083     42.928276
  C      40.716440     19.548231     41.641182
  N      39.826006     19.789707     40.694149
  H      39.551538     20.773497     40.627511
  H      39.975309     19.409141     39.772631
  N      41.935428     19.237291     41.245575
  H      42.668397     19.513013     41.888351
  H      42.208753     19.580905     40.325715
37
Coordinates from ORCA-job job E -836.463038900186
  C      44.565784     22.406757     39.027432
  H      44.487246     22.357700     37.942718
  H      45.395409     22.939217     39.488653
  C      43.659398     21.849232     39.831101
  C      43.752474     21.975055     41.363222
  O      44.853427     22.191510     41.853956
  O      42.646997     21.853349     41.992447
  O      42.599488     21.095081     39.356919
  C      41.529031     21.728124     38.619926
  H      40.734558     20.942758     38.628331
  C      41.830456     22.058479     37.188781
  H      42.594871     21.507243     36.637933
  C      41.035676     22.914694     36.515765
  C      39.941115     23.589359     37.228117
  H      39.237659     24.125392     36.588290
  C      39.864207     23.572335     38.570766
  H      39.097024     24.117236     39.127937
  C      40.937681     22.908386     39.393447
  H      41.763706     23.642295     39.533658
  O      40.447004     22.502689     40.655389
  H      41.261645     22.275832     41.191890
  C      41.195084     23.149357     34.984687
  O      42.179709     22.599414     34.452309
  O      40.293150     23.857439     34.478537
  C      39.388000     20.557000     43.513000
  H      39.587925     20.549885     44.584485
  H      38.596958     19.828063     43.296674
  H      39.034950     21.558308     43.226350
  N      40.613956     20.226102     42.773878
  H      41.386220     20.879007     42.915295
  C      40.701945     19.521927     41.651355
  N      39.816947     19.760296     40.703294
  H      39.547812     20.735418     40.624371
  H      39.950017     19.359225     39.793970
  N      41.920000     19.220797     41.249685
  H      42.653339     19.474815     41.904706
  H      42.189257     19.590362     40.334505
37
Coordinates from ORCA-job job E -836.463381721778
  C      44.573402     22.408959     39.014949
  H      44.489367     22.367219     37.927918
  H      45.407935     22.937651     39.476339
  C      43.667458     21.846794     39.822737
  C      43.765072     21.970632     41.357573
  O      44.875027     22.185018     41.843429
  O      42.658215     21.851061     41.993920
  O      42.600622     21.098449     39.349884
  C      41.529999     21.733059     38.619233
  H      40.731994     20.951616     38.630872
  C      41.826325     22.061069     37.185516
  H      42.592689     21.511896     36.631872
  C      41.027938     22.914383     36.513142
  C      39.938234     23.591594     37.229847
  H      39.231761     24.130849     36.594096
  C      39.866214     23.578399     38.573523
  H      39.103956     24.133121     39.131686
  C      40.943243     22.915119     39.393047
  H      41.768372     23.650763     39.531226
  O      40.455798     22.510762     40.657546
  H      41.272966     22.277131     41.189516
  C      41.179309     23.144322     34.979974
  O      42.163827     22.596197     34.447296
  O      40.271499     23.845205     34.475746
  C      39.388000     20.557000     43.513000
  H      39.587925     20.549885     44.584485
  H      38.588775     19.836841     43.297580
  H      39.046230     21.560580     43.224687
  N      40.613714     20.213350     42.778139
  H      41.388005     20.873816     42.918948
  C      40.702115     19.520340     41.647914
  N      39.809761     19.758482     40.703471
  H      39.531110     20.738941     40.634759
  H      39.954474     19.372486     39.784885
  N      41.919342     19.209256     41.247711
  H      42.654479     19.474114     41.890257
  H      42.190622     19.561148     40.328470
37
Coordinates from ORCA-job job E -836.463397340336
  C      44.575402     22.434407     39.023073
  H      44.491134     22.398589     37.935743
  H      45.410079     22.961872     39.487136
  C      43.673112     21.862721     39.827593
  C      43.769488     21.979999     41.363671
  O      44.878394     22.197049     41.852185
  O      42.662634     21.852964     41.997432
  O      42.608585     21.114261     39.351268
  C      41.536997     21.749004     38.621668
  H      40.739758     20.967726     38.631788
  C      41.832126     22.078674     37.187911
  H      42.599302     21.531517     36.633238
  C      41.030923     22.929786     36.515909
  C      39.941816     23.606280     37.233970
  H      39.233761     24.145732     36.599794
  C      39.870300     23.592107     38.578027
  H      39.108798     24.146560     39.137055
  C      40.948380     22.929424     39.397407
  H      41.771818     23.666235     39.537657
  O      40.459296     22.520651     40.660317
  H      41.275535     22.285702     41.192895
  C      41.178749     23.155814     34.981735
  O      42.163197     22.607934     34.449150
  O      40.268196     23.852337     34.476475
  C      39.388000     20.557000     43.513000
  H      39.587925     20.549885     44.584485
  H      38.587495     19.837225     43.298131
  H      39.047394     21.561460     43.224510
  N      40.614647     20.212085     42.777560
  H      41.390790     20.867875     42.924174
  C      40.702703     19.526339     41.643157
  N      39.808909     19.769691     40.700757
  H      39.537096     20.752066     40.629609
  H      39.944981     19.380208     39.782606
  N      41.919841     19.218748     41.239877
  H      42.656975     19.492905     41.876608
  H      42.185846     19.558573     40.317265
37
Coordinates from ORCA-job job E -836.463424285042
  C      44.556359     22.397961     38.986035
  H      44.469873     22.356236     37.898288
  H      45.396623     22.921868     39.445431
  C      43.654716     21.834155     39.798913
  C      43.756128     21.963054     41.335156
  O      44.868739     22.173619     41.819227
  O      42.648803     21.853226     41.973528
  O      42.584418     21.086684     39.332081
  C      41.512263     21.720753     38.602949
  H      40.711713     20.944108     38.619396
  C      41.803657     22.041665     37.166251
  H      42.568743     21.490429     36.612919
  C      41.000972     22.888929     36.491021
  C      39.916227     23.572147     37.208948
  H      39.207146     24.110315     36.574915
  C      39.849335     23.566687     38.553654
  H      39.091436     24.127047     39.111701
  C      40.929108     22.907165     39.374131
  H      41.753008     23.644856     39.507365
  O      40.442298     22.505739     40.640193
  H      41.260419     22.277003     41.173046
  C      41.143873     23.103229     34.954578
  O      42.125750     22.549933     34.423275
  O      40.232839     23.797066     34.446640
  C      39.388000     20.557000     43.513000
  H      39.587925     20.549885     44.584485
  H      38.583656     19.839846     43.300519
  H      39.050760     21.562940     43.223439
  N      40.614089     20.205183     42.776346
  H      41.389363     20.864387     42.914271
  C      40.696953     19.514550     41.644071
  N      39.798670     19.753541     40.703952
  H      39.519153     20.735435     40.632137
  H      39.933023     19.363910     39.785245
  N      41.911876     19.204657     41.235598
  H      42.654420     19.465077     41.875428
  H      42.174454     19.551422     40.313599
37
Coordinates from ORCA-job job E -836.463387518659
  C      44.540258     22.447353     39.005075
  H      44.454966     22.415225     37.917177
  H      45.371309     22.976044     39.475475
  C      43.640660     21.873263     39.812450
  C      43.732522     22.002255     41.348875
  O      44.841246     22.208760     41.842864
  O      42.620880     21.897918     41.977774
  O      42.576690     21.120837     39.340081
  C      41.503807     21.752163     38.609348
  H      40.705445     20.972860     38.624206
  C      41.794836     22.074545     37.172697
  H      42.559685     21.526324     36.617866
  C      40.985828     22.914514     36.495633
  C      39.902764     23.600143     37.213615
  H      39.190155     24.135909     36.582210
  C      39.837023     23.598475     38.559389
  H      39.080380     24.160632     39.118416
  C      40.913253     22.933996     39.382690
  H      41.731265     23.677245     39.521572
  O      40.420447     22.522307     40.644765
  H      41.237969     22.302264     41.182004
  C      41.122650     23.113075     34.953948
  O      42.101110     22.548260     34.425090
  O      40.210020     23.803167     34.441651
  C      39.388000     20.557000     43.513000
  H      39.587925     20.549885     44.584485
  H      38.583443     19.842675     43.300107
  H      39.055976     21.561900     43.222653
  N      40.620447     20.203836     42.785688
  H      41.389365     20.877116     42.921674
  C      40.711566     19.515048     41.650971
  N      39.813959     19.753500     40.707177
  H      39.541392     20.736807     40.627113
  H      39.938126     19.351815     39.791548
  N      41.934886     19.225860     41.242007
  H      42.673355     19.492137     41.881612
  H      42.197799     19.579456     40.315991
37
Coordinates from ORCA-job job E -836.463490365296
  C      44.525924     22.412975     38.982174
  H      44.441653     22.369610     37.894711
  H      45.360577     22.941238     39.444238
  C      43.624072     21.849880     39.793848
  C      43.721764     21.985105     41.329341
  O      44.833448     22.190900     41.816628
  O      42.612676     21.884881     41.964188
  O      42.556852     21.097313     39.328654
  C      41.483489     21.725407     38.596580
  H      40.685426     20.944932     38.615339
  C      41.774157     22.043853     37.159270
  H      42.538433     21.493116     36.605625
  C      40.968118     22.885854     36.481414
  C      39.883512     23.571416     37.197368
  H      39.172560     24.106235     36.563030
  C      39.818065     23.571504     38.542405
  H      39.059319     24.132224     39.099751
  C      40.895125     22.910198     39.365588
  H      41.716567     23.650948     39.500272
  O      40.406558     22.507179     40.630875
  H      41.225188     22.286555     41.166503
  C      41.109474     23.090113     34.942059
  O      42.091014     22.531957     34.414016
  O      40.197902     23.780604     34.429356
  C      39.388000     20.557000     43.513000
  H      39.587925     20.549885     44.584485
  H      38.582425     19.842492     43.300606
  H      39.054693     21.562864     43.222732
  N      40.615029     20.202369     42.780618
  H      41.387286     20.867304     42.914471
  C      40.698881     19.509506     41.649281
  N      39.799565     19.746866     40.709843
  H      39.522224     20.727998     40.634274
  H      39.925186     19.348481     39.793638
  N      41.916627     19.209931     41.238336
  H      42.658033     19.470984     41.873786
  H      42.175803     19.556260     40.313661
37
Coordinates from ORCA-job job E -836.463532625832
  C      44.499832     22.373114     38.951198
  H      44.414180     22.317989     37.864324
  H      45.338853     22.901049     39.405987
  C      43.595118     21.823890     39.769517
  C      43.696291     21.971915     41.303442
  O      44.810982     22.171914     41.786619
  O      42.587772     21.887133     41.941631
  O      42.524237     21.071230     39.312322
  C      41.450248     21.697261     38.579201
  H      40.651980     20.917108     38.601657
  C      41.741259     22.010159     37.140725
  H      42.505075     21.455911     36.589402
  C      40.937196     22.851895     36.459995
  C      39.852167     23.539351     37.173562
  H      39.141140     24.071693     36.536882
  C      39.786307     23.543949     38.518394
  H      39.027083     24.105670     39.073325
  C      40.863706     22.885964     39.343689
  H      41.685879     23.626662     39.474352
  O      40.376846     22.489670     40.611272
  H      41.197622     22.275513     41.146970
  C      41.080604     23.053313     34.921156
  O      42.062339     22.493608     34.395000
  O      40.170770     23.744383     34.406113
  C      39.388000     20.557000     43.513000
  H      39.587925     20.549885     44.584485
  H      38.578740     19.846660     43.301452
  H      39.058755     21.563789     43.222153
  N      40.611378     20.196009     42.779622
  H      41.383354     20.862321     42.905467
  C      40.690847     19.496675     41.652392
  N      39.789047     19.728729     40.714157
  H      39.505103     20.707850     40.636331
  H      39.914133     19.327647     39.799052
  N      41.906502     19.192493     41.239349
  H      42.651282     19.440056     41.877299
  H      42.164436     19.541299     40.315991
37
Coordinates from ORCA-job job E -836.463576771006
  C      44.476341     22.349782     38.934143
  H      44.393485     22.278404     37.847899
  H      45.319022     22.877061     39.383500
  C      43.564336     21.816767     39.755558
  C      43.661943     21.978561     41.287523
  O      44.778389     22.170799     41.771461
  O      42.551143     21.912525     41.923555
  O      42.492937     21.063306     39.301037
  C      41.419705     21.687099     38.564672
  H      40.624344     20.904193     38.583595
  C      41.718418     22.000227     37.127657
  H      42.487465     21.446492     36.581935
  C      40.916502     22.839621     36.442240
  C      39.822855     23.519567     37.149588
  H      39.111571     24.045890     36.507894
  C      39.750670     23.526817     38.493425
  H      38.985505     24.084991     39.043025
  C      40.827803     22.875760     39.324314
  H      41.648169     23.618246     39.456946
  O      40.339383     22.482061     40.591565
  H      41.161558     22.277628     41.130173
  C      41.068475     23.043710     34.906450
  O      42.052944     22.484504     34.384648
  O      40.163192     23.737661     34.387536
  C      39.388000     20.557000     43.513000
  H      39.587925     20.549885     44.584485
  H      38.579410     19.844381     43.300838
  H      39.054044     21.563913     43.223886
  N      40.610955     20.202543     42.776063
  H      41.381066     20.870295     42.897439
  C      40.688479     19.495710     41.653217
  N      39.784822     19.722124     40.715585
  H      39.499619     20.700469     40.628856
  H      39.903363     19.311271     39.804147
  N      41.902868     19.189116     41.238977
  H      42.650542     19.423074     41.879884
  H      42.160395     19.535665     40.315359
37
Coordinates from ORCA-job job E -836.463626569028
  C      44.439809     22.303670     38.896589
  H      44.355967     22.224931     37.811207
  H      45.283472     22.832319     39.342124
  C      43.525064     21.782203     39.723297
  C      43.623568     21.958905     41.254362
  O      44.740816     22.143921     41.738281
  O      42.511257     21.913454     41.890515
  O      42.450387     21.027946     39.277319
  C      41.375389     21.645943     38.539277
  H      40.580113     20.862659     38.565500
  C      41.672068     21.949362     37.099608
  H      42.441544     21.393763     36.556644
  C      40.867857     22.782029     36.408628
  C      39.774114     23.465414     37.112634
  H      39.060908     23.985077     36.468398
  C      39.704411     23.483272     38.457006
  H      38.938849     24.043744     39.004356
  C      40.783362     22.839090     39.291773
  H      41.602316     23.584553     39.417412
  O      40.297245     22.454982     40.562692
  H      41.121344     22.259719     41.102675
  C      41.018357     22.973555     34.870136
  O      42.002474     22.409355     34.352111
  O      40.112152     23.662234     34.346141
  C      39.388000     20.557000     43.513000
  H      39.587925     20.549885     44.584485
  H      38.570003     19.855587     43.302782
  H      39.067632     21.567024     43.221403
  N      40.605234     20.183876     42.776532
  H      41.378550     20.852303     42.884996
  C      40.673383     19.470541     41.657050
  N      39.765157     19.694899     40.723327
  H      39.478640     20.672815     40.635776
  H      39.877776     19.279552     39.812789
  N      41.884464     19.160717     41.235435
  H      42.638683     19.384337     41.869560
  H      42.135351     19.505362     40.308496
37
Coordinates from ORCA-job job E -836.463636997061
  C      44.432568     22.328009     38.914944
  H      44.353180     22.250716     37.830276
  H      45.269282     22.862775     39.364822
  C      43.512483     21.806224     39.734208
  C      43.599690     21.984674     41.265068
  O      44.712069     22.166208     41.760896
  O      42.483027     21.944340     41.890603
  O      42.443156     21.049857     39.280950
  C      41.368746     21.663541     38.538222
  H      40.578802     20.874561     38.557810
  C      41.673545     21.971550     37.100978
  H      42.449576     21.420773     36.562423
  C      40.868410     22.799696     36.405487
  C      39.765201     23.474057     37.103762
  H      39.051421     23.987132     36.455414
  C      39.686317     23.489890     38.447654
  H      38.913792     24.045433     38.990722
  C      40.763736     22.851386     39.288809
  H      41.577915     23.601030     39.421894
  O      40.270601     22.462338     40.555779
  H      41.093783     22.275362     41.100357
  C      41.024926     22.990171     34.866962
  O      42.009354     22.421327     34.352860
  O      40.120867     23.679127     34.340293
  C      39.388000     20.557000     43.513000
  H      39.587925     20.549885     44.584485
  H      38.571254     19.856036     43.300652
  H      39.067889     21.566766     43.222336
  N      40.606355     20.187357     42.776953
  H      41.378123     20.862347     42.882888
  C      40.678291     19.472993     41.658071
  N      39.771709     19.696428     40.721352
  H      39.493683     20.676793     40.627593
  H      39.881829     19.272398     39.813664
  N      41.891524     19.167238     41.237970
  H      42.647783     19.391532     41.870067
  H      42.142762     19.503944     40.307401
37
Coordinates from ORCA-job job E -836.463671662791
  C      44.406368     22.277848     38.880588
  H      44.324117     22.189193     37.795568
  H      45.248169     22.812477     39.322831
  C      43.486959     21.767646     39.708666
  C      43.579583     21.960283     41.237661
  O      44.697341     22.131765     41.728256
  O      42.462584     21.939904     41.867088
  O      42.413581     21.010108     39.266405
  C      41.339109     21.619323     38.519922
  H      40.547154     20.832769     38.548387
  C      41.640983     21.913747     37.079102
  H      42.415107     21.357728     36.543429
  C      40.835270     22.736407     36.378123
  C      39.734604     23.418718     37.072601
  H      39.020596     23.928081     36.421043
  C      39.658852     23.446232     38.416391
  H      38.887932     24.007639     38.956105
  C      40.737835     22.814831     39.260882
  H      41.553574     23.564408     39.386874
  O      40.247239     22.436932     40.532919
  H      41.072730     22.258854     41.078609
  C      40.988451     22.913631     34.837543
  O      41.970345     22.339384     34.324851
  O      40.083928     23.599851     34.308389
  C      39.388000     20.557000     43.513000
  H      39.587925     20.549885     44.584485
  H      38.566401     19.860177     43.303050
  H      39.073290     21.568838     43.221219
  N      40.602776     20.177591     42.773761
  H      41.376086     20.850838     42.869076
  C      40.666569     19.453211     41.659963
  N      39.755717     19.670947     40.725827
  H      39.470316     20.649134     40.629398
  H      39.862314     19.244464     39.819271
  N      41.877329     19.143612     41.235208
  H      42.638233     19.354928     41.865381
  H      42.127089     19.486970     40.304845
37
Coordinates from ORCA-job job E -836.463689278602
  C      44.416714     22.277041     38.884241
  H      44.334359     22.189355     37.798895
  H      45.260447     22.810814     39.325641
  C      43.499805     21.764858     39.714735
  C      43.593757     21.955551     41.243317
  O      44.711463     22.127758     41.732318
  O      42.477576     21.930706     41.873611
  O      42.426435     21.006860     39.273764
  C      41.353325     21.614951     38.524479
  H      40.560678     20.829351     38.554324
  C      41.654399     21.906435     37.083044
  H      42.427794     21.349185     36.547804
  C      40.849143     22.728503     36.381383
  C      39.749543     23.413519     37.074575
  H      39.037617     23.924385     36.422023
  C      39.673648     23.441383     38.418340
  H      38.903200     24.003863     38.957054
  C      40.753396     22.812612     39.263238
  H      41.569760     23.561239     39.387179
  O      40.263804     22.436934     40.536648
  H      41.087831     22.256907     41.082404
  C      41.002353     22.905495     34.841120
  O      41.983932     22.332344     34.328395
  O      40.097412     23.591232     34.312011
  C      39.388000     20.557000     43.513000
  H      39.587925     20.549885     44.584485
  H      38.568867     19.856239     43.303384
  H      39.069244     21.568128     43.221597
  N      40.603469     20.181635     42.771711
  H      41.376354     20.852729     42.868136
  C      40.667030     19.456159     41.659148
  N      39.757063     19.673533     40.724934
  H      39.469169     20.651227     40.630105
  H      39.869437     19.252283     39.817388
  N      41.876688     19.143225     41.234625
  H      42.637451     19.354986     41.865056
  H      42.127400     19.487971     40.305777
37
Coordinates from ORCA-job job E -836.463717865714
  C      44.397769     22.248062     38.868679
  H      44.315981     22.158192     37.784017
  H      45.241010     22.783934     39.307174
  C      43.481970     21.739281     39.701740
  C      43.577448     21.936229     41.229197
  O      44.695578     22.103170     41.718060
  O      42.461429     21.920526     41.859076
  O      42.408359     20.978544     39.267119
  C      41.335542     21.579396     38.511969
  H      40.543598     20.793547     38.547359
  C      41.636884     21.860306     37.068508
  H      42.409517     21.297577     36.537746
  C      40.832346     22.678018     36.360194
  C      39.732207     23.367808     37.047955
  H      39.020899     23.873892     36.390798
  C      39.653764     23.402786     38.391493
  H      38.881427     23.967129     38.925641
  C      40.733680     22.781867     39.241821
  H      41.549228     23.532029     39.361533
  O      40.243867     22.414318     40.517720
  H      41.067882     22.240517     41.064671
  C      40.984796     22.843195     34.818325
  O      41.964928     22.264482     34.309560
  O      40.079532     23.525235     34.284985
  C      39.388000     20.557000     43.513000
  H      39.587925     20.549885     44.584485
  H      38.563148     19.862602     43.305077
  H      39.077329     21.569954     43.219963
  N      40.599433     20.169831     42.771512
  H      41.373764     20.841089     42.858926
  C      40.657420     19.438146     41.663134
  N      39.745363     19.652278     40.730419
  H      39.455533     20.629480     40.634472
  H      39.859427     19.229968     39.823215
  N      41.864118     19.118827     41.235091
  H      42.630287     19.321168     41.864385
  H      42.112708     19.463176     40.306524
37
Coordinates from ORCA-job job E -836.463722316318
  C      44.400971     22.308726     38.901560
  H      44.323801     22.224535     37.816749
  H      45.237082     22.852752     39.342366
  C      43.490292     21.787956     39.728817
  C      43.578365     21.981014     41.256386
  O      44.693816     22.137587     41.754482
  O      42.456971     21.969347     41.874970
  O      42.425896     21.015739     39.294045
  C      41.355166     21.599500     38.521048
  H      40.572004     20.805608     38.553264
  C      41.665109     21.874278     37.078582
  H      42.438434     21.306983     36.554120
  C      40.862105     22.686265     36.360561
  C      39.754473     23.377174     37.036364
  H      39.047589     23.878216     36.370919
  C      39.658971     23.409806     38.378495
  H      38.876192     23.967665     38.904231
  C      40.734345     22.799592     39.241327
  H      41.544848     23.553632     39.369982
  O      40.233133     22.428835     40.512545
  H      41.056239     22.272657     41.067787
  C      41.018746     22.840731     34.818194
  O      41.994862     22.250140     34.315386
  O      40.116564     23.523155     34.279334
  C      39.388000     20.557000     43.513000
  H      39.587925     20.549885     44.584485
  H      38.576370     19.847965     43.302668
  H      39.061142     21.565008     43.222165
  N      40.606863     20.194555     42.772736
  H      41.369112     20.879146     42.858989
  C      40.679256     19.455564     41.671434
  N      39.772207     19.656501     40.729771
  H      39.484854     20.632851     40.623296
  H      39.902804     19.230448     39.825548
  N      41.889143     19.132278     41.255358
  H      42.652690     19.328936     41.889136
  H      42.145743     19.482006     40.330703
37
Coordinates from ORCA-job job E -836.463767710379
  C      44.391560     22.267466     38.887314
  H      44.312160     22.180192     37.802540
  H      45.229517     22.809871     39.327136
  C      43.478892     21.751855     39.717825
  C      43.566348     21.950348     41.244667
  O      44.682122     22.105369     41.742541
  O      42.444752     21.946107     41.863176
  O      42.412092     20.981043     39.285487
  C      41.342142     21.565053     38.512692
  H      40.556886     20.772448     38.547672
  C      41.653610     21.835038     37.069211
  H      42.429957     21.268520     36.548394
  C      40.849418     22.642193     36.347750
  C      39.740411     23.332828     37.021011
  H      39.032394     23.830135     36.353216
  C      39.646477     23.373518     38.363833
  H      38.863933     23.934570     38.886649
  C      40.723981     22.768428     39.228274
  H      41.533264     23.525617     39.349152
  O      40.227654     22.405868     40.503293
  H      41.050777     22.248455     41.057021
  C      41.006979     22.790189     34.804529
  O      41.986636     22.201382     34.305662
  O      40.104601     23.467986     34.260221
  C      39.388000     20.557000     43.513000
  H      39.587925     20.549885     44.584485
  H      38.566305     19.859606     43.304958
  H      39.074211     21.568406     43.220029
  N      40.601462     20.176298     42.772834
  H      41.369501     20.856174     42.853414
  C      40.664497     19.435748     41.670733
  N      39.754014     19.640505     40.733884
  H      39.469028     20.618283     40.628721
  H      39.876130     19.213279     39.829053
  N      41.872014     19.110779     41.247155
  H      42.639418     19.303620     41.876093
  H      42.125422     19.456572     40.319572
37
Coordinates from ORCA-job job E -836.463788267968
  C      44.377727     22.238659     38.867231
  H      44.296868     22.145316     37.782655
  H      45.218221     22.780055     39.303465
  C      43.464814     21.728609     39.702205
  C      43.553764     21.934162     41.228394
  O      44.671165     22.083899     41.724853
  O      42.431754     21.942286     41.847858
  O      42.395884     20.957009     39.275303
  C      41.326031     21.538340     38.500855
  H      40.540036     20.746397     38.539870
  C      41.638074     21.800926     37.056083
  H      42.415126     21.231840     36.538564
  C      40.834475     22.604637     36.330622
  C      39.725065     23.297467     37.000509
  H      39.016562     23.790805     36.330388
  C      39.630987     23.345691     38.343332
  H      38.847640     23.907811     38.863437
  C      40.709204     22.745245     39.210545
  H      41.517509     23.504271     39.325028
  O      40.215842     22.390053     40.488673
  H      41.040579     22.237216     41.042018
  C      40.993762     22.745030     34.787299
  O      41.975397     22.155421     34.292870
  O      40.092734     23.420180     34.237524
  C      39.388000     20.557000     43.513000
  H      39.587925     20.549885     44.584485
  H      38.562136     19.864237     43.305897
  H      39.078857     21.569769     43.219320
  N      40.599590     20.169271     42.773132
  H      41.368041     20.849166     42.848894
  C      40.658470     19.424513     41.673048
  N      39.745611     19.626868     40.738128
  H      39.459072     20.604066     40.629999
  H      39.864744     19.197817     39.834009
  N      41.864177     19.095730     41.247119
  H      42.633651     19.277805     41.877184
  H      42.117130     19.445277     40.320247
37
Coordinates from ORCA-job job E -836.463799402735
  C      44.394352     22.263096     38.885461
  H      44.315245     22.173581     37.800172
  H      45.232445     22.803221     39.326265
  C      43.483189     21.742268     39.716415
  C      43.567561     21.939043     41.243963
  O      44.683748     22.087982     41.744340
  O      42.444121     21.944454     41.860027
  O      42.417667     20.968530     39.284080
  C      41.349327     21.548933     38.507993
  H      40.564434     20.755122     38.543376
  C      41.666357     21.812125     37.064944
  H      42.447004     21.244960     36.550443
  C      40.862549     22.612734     36.337394
  C      39.749397     23.301792     37.003865
  H      39.041565     23.793686     36.331837
  C      39.650953     23.352042     38.346576
  H      38.864622     23.912294     38.863996
  C      40.728371     22.753121     39.216090
  H      41.532698     23.516439     39.328741
  O      40.236989     22.397806     40.494123
  H      41.061349     22.242981     41.046369
  C      41.028100     22.751489     34.795275
  O      42.016211     22.167118     34.307157
  O      40.129976     23.424634     34.238123
  C      39.388000     20.557000     43.513000
  H      39.587925     20.549885     44.584485
  H      38.564225     19.861915     43.304930
  H      39.074098     21.569161     43.220579
  N      40.602816     20.175419     42.774699
  H      41.368957     20.856440     42.857097
  C      40.665489     19.435211     41.671067
  N      39.753341     19.639692     40.736506
  H      39.474288     20.618624     40.624640
  H      39.868054     19.208975     39.832875
  N      41.872428     19.108303     41.247233
  H      42.638284     19.288709     41.880939
  H      42.128956     19.459750     40.321865
37
Coordinates from ORCA-job job E -836.463824972721
  C      44.367900     22.233118     38.866991
  H      44.287218     22.138115     37.782184
  H      45.206284     22.777639     39.302811
  C      43.461081     21.712232     39.702140
  C      43.545236     21.916192     41.228339
  O      44.661792     22.050845     41.732147
  O      42.419329     21.941364     41.839288
  O      42.397378     20.931533     39.278466
  C      41.328350     21.496781     38.490720
  H      40.547620     20.699339     38.534421
  C      41.647820     21.741443     37.045105
  H      42.429667     21.167997     36.539038
  C      40.843017     22.530683     36.305134
  C      39.726029     23.225771     36.959938
  H      39.019253     23.707801     36.279051
  C      39.620927     23.289874     38.302191
  H      38.829325     23.850983     38.810437
  C      40.699758     22.707461     39.182664
  H      41.500010     23.476336     39.286482
  O      40.209218     22.366799     40.464744
  H      41.035596     22.227217     41.020083
  C      41.011351     22.647465     34.760987
  O      42.000796     22.056241     34.283007
  O      40.114156     23.312701     34.191911
  C      39.388000     20.557000     43.513000
  H      39.587925     20.549885     44.584485
  H      38.558042     19.869126     43.306033
  H      39.083096     21.571119     43.218851
  N      40.598410     20.163127     42.774909
  H      41.364520     20.844924     42.846621
  C      40.655014     19.414260     41.677419
  N      39.738967     19.611196     40.744533
  H      39.463131     20.589799     40.624079
  H      39.851825     19.173774     39.843818
  N      41.858264     19.076680     41.251642
  H      42.628685     19.239345     41.882895
  H      42.115603     19.432048     40.327736
37
Coordinates from ORCA-job job E -836.438444234509
  C      44.374072     22.253093     38.892140
  H      44.272814     22.152140     37.817010
  H      45.252941     22.876043     39.279107
  C      43.506652     21.721582     39.713914
  C      43.632606     21.930805     41.236406
  O      44.711319     22.002136     41.761982
  O      42.497445     21.965081     41.815292
  O      42.459875     20.962468     39.287477
  C      41.361691     21.498948     38.463464
  H      40.616616     20.687038     38.533512
  C      41.641282     21.733591     37.038495
  H      42.414864     21.198812     36.500693
  C      40.803012     22.516573     36.297582
  C      39.682030     23.242464     36.953342
  H      38.983795     23.719861     36.280541
  C      39.576409     23.252798     38.287947
  H      38.816066     23.820278     38.816817
  C      40.688576     22.754182     39.180172
  H      41.504100     23.460811     39.296147
  O      40.145306     22.418779     40.443598
  H      41.015262     22.320685     41.015811
  C      41.033822     22.672753     34.744029
  O      41.997656     22.066522     34.251318
  O      40.094159     23.331459     34.223996
  C      39.388000     20.557000     43.513000
  H      39.587925     20.549885     44.584485
  H      38.599205     19.836768     43.263013
  H      39.109832     21.554599     43.214982
  N      40.568691     20.162852     42.767905
  H      41.328916     20.877127     42.819145
  C      40.647837     19.483016     41.684275
  N      39.692484     19.600157     40.730377
  H      39.475326     20.566403     40.612956
  H      39.883408     19.131052     39.863234
  N      41.813422     19.033284     41.312030
  H      42.588273     19.155247     41.913105
  H      42.127389     19.390595     40.431957
37
Coordinates from ORCA-job job E -836.462317149993
  C      44.382988     22.258232     38.874402
  H      44.287438     22.157967     37.792551
  H      45.221033     22.832185     39.291620
  C      43.490335     21.726626     39.710807
  C      43.584694     21.919561     41.236002
  O      44.698877     22.017256     41.752584
  O      42.453113     21.958219     41.834869
  O      42.428678     20.948178     39.284252
  C      41.345197     21.499694     38.488830
  H      40.585431     20.689049     38.540787
  C      41.643451     21.744283     37.039254
  H      42.422836     21.183312     36.518392
  C      40.829157     22.530607     36.300701
  C      39.706811     23.227821     36.953597
  H      38.995712     23.706152     36.275966
  C      39.603369     23.275311     38.295684
  H      38.813067     23.828332     38.814072
  C      40.694423     22.718577     39.176678
  H      41.499775     23.477848     39.283287
  O      40.193186     22.393605     40.457831
  H      41.022210     22.275214     41.018280
  C      41.012718     22.662692     34.753619
  O      41.995885     22.067749     34.268611
  O      40.107132     23.329457     34.201793
  C      39.388000     20.557000     43.513000
  H      39.587925     20.549885     44.584485
  H      38.576324     19.854289     43.289618
  H      39.084316     21.565322     43.218274
  N      40.591646     20.177661     42.772480
  H      41.348579     20.870237     42.835960
  C      40.650229     19.439967     41.678265
  N      39.725347     19.602909     40.741939
  H      39.462419     20.580064     40.603453
  H      39.864475     19.154589     39.854048
  N      41.842338     19.051138     41.280178
  H      42.610060     19.183652     41.919401
  H      42.126620     19.420847     40.379014
37
Coordinates from ORCA-job job E -836.463717010129
  C      44.379023     22.271535     38.874714
  H      44.293034     22.166906     37.788948
  H      45.213754     22.826675     39.300435
  C      43.477714     21.740111     39.711529
  C      43.560636     21.927761     41.241321
  O      44.675135     22.044105     41.751372
  O      42.430798     21.960982     41.845864
  O      42.419030     20.952726     39.285496
  C      41.345229     21.503392     38.494187
  H      40.578720     20.690935     38.539228
  C      41.656772     21.751837     37.044717
  H      42.438041     21.180331     36.533856
  C      40.844584     22.536019     36.305547
  C      39.721518     23.223630     36.958115
  H      39.014510     23.704008     36.275355
  C      39.616952     23.286122     38.299651
  H      38.822586     23.842136     38.809778
  C      40.701642     22.707289     39.179143
  H      41.498177     23.480231     39.279575
  O      40.209754     22.368997     40.463865
  H      41.033942     22.251465     41.025710
  C      41.013220     22.658372     34.761447
  O      42.001843     22.067863     34.278919
  O      40.117821     23.327904     34.194692
  C      39.388000     20.557000     43.513000
  H      39.587925     20.549885     44.584485
  H      38.568293     19.858401     43.299951
  H      39.071835     21.569147     43.220896
  N      40.601396     20.182386     42.771895
  H      41.358624     20.876898     42.838422
  C      40.659776     19.428926     41.676987
  N      39.743300     19.608787     40.742915
  H      39.467061     20.585261     40.608270
  H      39.861897     19.160800     39.847505
  N      41.861310     19.075322     41.262288
  H      42.621710     19.212257     41.913487
  H      42.140589     19.451632     40.353387
37
Coordinates from ORCA-job job E -836.463837501008
  C      44.384736     22.297914     38.893016
  H      44.303282     22.209152     37.808855
  H      45.214596     22.854303     39.329211
  C      43.486741     21.753528     39.722575
  C      43.565011     21.937402     41.251161
  O      44.679397     22.057327     41.763891
  O      42.435586     21.962868     41.854561
  O      42.433056     20.964035     39.291459
  C      41.360534     21.518060     38.501010
  H      40.590239     20.710784     38.544009
  C      41.674723     21.766872     37.054611
  H      42.459662     21.199517     36.545805
  C      40.862014     22.548827     36.314229
  C      39.739726     23.235390     36.967503
  H      39.028820     23.713936     36.288041
  C      39.636211     23.298563     38.309708
  H      38.841972     23.856172     38.818250
  C      40.718323     22.722777     39.190257
  H      41.513056     23.497888     39.296275
  O      40.225584     22.381330     40.471710
  H      41.047487     22.249945     41.030529
  C      41.027861     22.666341     34.768880
  O      42.016212     22.075067     34.287992
  O      40.127922     23.330554     34.203244
  C      39.388000     20.557000     43.513000
  H      39.587925     20.549885     44.584485
  H      38.568175     19.857503     43.302100
  H      39.070841     21.568877     43.221080
  N      40.603438     20.181913     42.772243
  H      41.362663     20.871588     42.847245
  C      40.664984     19.434821     41.673980
  N      39.749168     19.623691     40.739661
  H      39.481185     20.602505     40.606843
  H      39.859039     19.174910     39.845152
  N      41.868739     19.090101     41.257027
  H      42.631130     19.238482     41.900673
  H      42.142229     19.456217     40.342533
37
Coordinates from ORCA-job job E -836.463869208786
  C      44.384650     22.302592     38.897623
  H      44.305912     22.214981     37.812344
  H      45.213915     22.858928     39.337779
  C      43.485482     21.759416     39.725647
  C      43.561995     21.946395     41.253669
  O      44.676098     22.065430     41.766555
  O      42.432677     21.972855     41.856455
  O      42.433632     20.969411     39.292727
  C      41.361788     21.525128     38.501744
  H      40.589059     20.720313     38.544111
  C      41.679028     21.772280     37.056508
  H      42.466793     21.207312     36.550688
  C      40.867403     22.552788     36.314859
  C      39.744248     23.239352     36.967375
  H      39.033257     23.715487     36.287255
  C      39.640166     23.304960     38.308960
  H      38.846452     23.864534     38.815815
  C      40.720614     22.731542     39.191228
  H      41.515622     23.504757     39.298182
  O      40.227160     22.388161     40.471795
  H      41.051632     22.253783     41.029826
  C      41.037148     22.670296     34.770319
  O      42.026979     22.080239     34.292585
  O      40.137574     23.333796     34.202940
  C      39.388000     20.557000     43.513000
  H      39.587925     20.549885     44.584485
  H      38.570061     19.855347     43.302507
  H      39.067949     21.567481     43.221759
  N      40.605411     20.185561     42.773535
  H      41.363566     20.877802     42.849011
  C      40.671554     19.440157     41.674763
  N      39.757162     19.630099     40.738560
  H      39.488794     20.608974     40.608046
  H      39.868218     19.181986     39.844003
  N      41.877500     19.101638     41.257816
  H      42.640693     19.247686     41.902728
  H      42.151044     19.465725     40.342975
37
Coordinates from ORCA-job job E -836.463880243242
  C      44.383348     22.298376     38.896946
  H      44.304668     22.214718     37.811384
  H      45.211881     22.854034     39.339011
  C      43.484864     21.753094     39.724016
  C      43.562435     21.939500     41.252474
  O      44.676068     22.058179     41.765443
  O      42.433253     21.966838     41.855655
  O      42.433002     20.963518     39.290322
  C      41.361643     21.519457     38.499356
  H      40.587188     20.716434     38.543959
  C      41.678856     21.763489     37.053467
  H      42.467458     21.198733     36.548948
  C      40.866534     22.542046     36.310630
  C      39.743183     23.229032     36.962700
  H      39.031492     23.702594     36.281977
  C      39.640347     23.297796     38.303942
  H      38.846650     23.857986     38.809967
  C      40.722346     22.727940     39.186652
  H      41.517562     23.501199     39.290886
  O      40.230654     22.387146     40.468696
  H      41.055626     22.250437     41.026363
  C      41.036865     22.658206     34.766314
  O      42.027711     22.069259     34.289597
  O      40.136393     23.319362     34.198226
  C      39.388000     20.557000     43.513000
  H      39.587925     20.549885     44.584485
  H      38.568659     19.856837     43.303421
  H      39.069382     21.567660     43.221518
  N      40.604449     20.182762     42.773703
  H      41.364186     20.872449     42.848693
  C      40.669030     19.438078     41.674739
  N      39.754603     19.629865     40.739288
  H      39.487437     20.609274     40.609090
  H      39.864979     19.182225     39.844620
  N      41.874721     19.100068     41.256644
  H      42.638684     19.244926     41.900261
  H      42.146260     19.464170     40.340980
37
Coordinates from ORCA-job job E -836.463891043815
  C      44.373732     22.285576     38.888114
  H      44.294790     22.203761     37.802278
  H      45.201305     22.842162     39.330267
  C      43.476059     21.739960     39.716279
  C      43.555046     21.928934     41.244434
  O      44.669141     22.042630     41.757763
  O      42.425401     21.963699     41.847529
  O      42.424222     20.949253     39.284104
  C      41.353483     21.502202     38.490474
  H      40.578179     20.700222     38.539185
  C      41.671941     21.739523     37.043627
  H      42.462264     21.174130     36.542885
  C      40.858546     22.513173     36.296782
  C      39.732999     23.200699     36.945200
  H      39.020567     23.668801     36.261452
  C      39.630431     23.276650     38.286101
  H      38.835778     23.838325     38.789104
  C      40.714420     22.714220     39.171454
  H      41.508993     23.489172     39.269908
  O      40.224691     22.380402     40.455906
  H      41.049932     22.244432     41.013997
  C      41.031019     22.625048     34.752386
  O      42.023814     22.036842     34.278832
  O      40.130190     23.282292     34.180956
  C      39.388000     20.557000     43.513000
  H      39.587925     20.549885     44.584485
  H      38.566454     19.859402     43.304501
  H      39.071924     21.568067     43.221018
  N      40.602381     20.178475     42.773370
  H      41.362598     20.867800     42.844184
  C      40.664314     19.432307     41.675356
  N      39.748773     19.623683     40.741055
  H      39.481825     20.603177     40.610382
  H      39.859268     19.175409     39.846448
  N      41.868762     19.092882     41.255171
  H      42.634508     19.229817     41.898489
  H      42.138877     19.458305     40.339733
37
Coordinates from ORCA-job job E -836.463897717992
  C      44.365948     22.274723     38.879236
  H      44.285390     22.193533     37.793263
  H      45.193651     22.831925     39.320464
  C      43.469614     21.727930     39.708542
  C      43.550204     21.917063     41.236572
  O      44.664599     22.027633     41.749746
  O      42.420658     21.955657     41.840001
  O      42.417774     20.936275     39.277757
  C      41.346639     21.486468     38.483272
  H      40.571028     20.684950     38.535688
  C      41.664262     21.719273     37.035180
  H      42.455818     21.153545     36.536413
  C      40.849536     22.489487     36.286340
  C      39.723326     23.177225     36.933251
  H      39.009847     23.641363     36.247752
  C      39.622373     23.258728     38.274054
  H      38.827734     23.821649     38.775885
  C      40.708388     22.700952     39.160129
  H      41.502493     23.476796     39.253658
  O      40.219950     22.372749     40.446505
  H      41.044988     22.238160     41.005342
  C      41.022385     22.599304     34.741694
  O      42.016926     22.012909     34.269613
  O      40.120279     23.253135     34.168720
  C      39.388000     20.557000     43.513000
  H      39.587925     20.549885     44.584485
  H      38.563407     19.862894     43.305298
  H      39.076048     21.569050     43.220181
  N      40.599727     20.172309     42.772729
  H      41.361560     20.859706     42.840759
  C      40.657820     19.425985     41.674667
  N      39.741062     19.618413     40.741977
  H      39.475299     20.598205     40.610471
  H      39.849980     19.169121     39.847310
  N      41.860725     19.084419     41.252434
  H      42.627747     19.216346     41.894753
  H      42.130195     19.450543     40.337165
37
Coordinates from ORCA-job job E -836.463903847671
  C      44.355454     22.261595     38.868412
  H      44.272747     22.179976     37.782768
  H      45.183148     22.820504     39.307705
  C      43.461301     21.713689     39.699475
  C      43.543309     21.903581     41.227111
  O      44.658470     22.009237     41.739972
  O      42.413692     21.948035     41.830604
  O      42.410009     20.919854     39.271490
  C      41.338472     21.466109     38.474924
  H      40.562952     20.664802     38.531215
  C      41.655433     21.693238     37.025644
  H      42.448020     21.126632     36.529240
  C      40.839391     22.459412     36.273885
  C      39.712242     23.147696     36.918431
  H      38.997348     23.606943     36.231045
  C      39.612592     23.235958     38.259013
  H      38.817549     23.800145     38.759178
  C      40.700430     22.683544     39.146532
  H      41.494065     23.460389     39.234998
  O      40.212862     22.362040     40.434931
  H      41.037107     22.230061     40.994926
  C      41.012423     22.565804     34.728762
  O      42.008471     21.980492     34.258342
  O      40.108707     23.215713     34.153957
  C      39.388000     20.557000     43.513000
  H      39.587925     20.549885     44.584485
  H      38.560269     19.866559     43.305931
  H      39.080748     21.570200     43.219262
  N      40.597219     20.165832     42.772013
  H      41.360293     20.852482     42.836162
  C      40.650982     19.417752     41.674746
  N      39.732414     19.610349     40.743782
  H      39.467500     20.590175     40.610839
  H      39.839148     19.159054     39.849658
  N      41.851928     19.072722     41.250462
  H      42.620469     19.197102     41.892634
  H      42.122031     19.440924     40.336239
37
Coordinates from ORCA-job job E -836.463908398932
  C      44.347408     22.253822     38.859459
  H      44.261692     22.171625     37.774157
  H      45.175321     22.814458     39.296432
  C      43.456034     21.704003     39.692422
  C      43.539558     21.892978     41.219896
  O      44.655305     21.995522     41.731969
  O      42.410482     21.939687     41.823714
  O      42.405099     20.908449     39.266742
  C      41.332502     21.452160     38.469927
  H      40.557139     20.650978     38.529103
  C      41.647777     21.676091     37.019815
  H      42.440953     21.109715     36.524109
  C      40.830445     22.439870     36.267147
  C      39.703387     23.128372     36.911248
  H      38.986741     23.584554     36.223775
  C      39.606164     23.221198     38.251670
  H      38.811712     23.786368     38.751562
  C      40.695529     22.671456     39.138950
  H      41.489528     23.448252     39.223796
  O      40.208780     22.354228     40.428658
  H      41.032534     22.223189     40.989169
  C      41.002659     22.544998     34.721826
  O      42.000051     21.961925     34.251745
  O      40.096625     23.191512     34.146619
  C      39.388000     20.557000     43.513000
  H      39.587925     20.549885     44.584485
  H      38.557179     19.870111     43.306415
  H      39.085433     21.571478     43.218462
  N      40.595147     20.159813     42.771491
  H      41.360128     20.844651     42.833812
  C      40.644782     19.411670     41.674041
  N      39.724380     19.605474     40.744903
  H      39.460744     20.585479     40.611093
  H      39.827168     19.151919     39.851323
  N      41.844042     19.063693     41.247652
  H      42.613417     19.184016     41.889217
  H      42.115050     19.432687     40.334162
37
Coordinates from ORCA-job job E -836.463911862358
  C      44.341381     22.247872     38.854832
  H      44.253430     22.165297     37.769956
  H      45.169075     22.810146     39.290087
  C      43.452601     21.696208     39.688850
  C      43.536673     21.884605     41.216147
  O      44.652873     21.983404     41.728252
  O      42.407659     21.934678     41.819512
  O      42.402390     20.898788     39.265113
  C      41.329321     21.440155     38.467187
  H      40.554264     20.638843     38.528339
  C      41.643685     21.660821     37.016357
  H      42.437372     21.094235     36.521712
  C      40.825635     22.422426     36.262257
  C      39.698319     23.111318     36.905381
  H      38.980046     23.564508     36.217667
  C      39.602328     23.208012     38.245531
  H      38.807635     23.773560     38.744586
  C      40.692506     22.661207     39.133530
  H      41.486767     23.437994     39.215905
  O      40.206217     22.347346     40.424349
  H      41.029806     22.217147     40.985100
  C      40.997090     22.525019     34.716647
  O      41.995540     21.942999     34.247421
  O      40.089493     23.168749     34.140789
  C      39.388000     20.557000     43.513000
  H      39.587925     20.549885     44.584485
  H      38.555035     19.872519     43.306757
  H      39.088639     21.572418     43.218076
  N      40.594190     20.156133     42.771369
  H      41.360464     20.840181     42.831932
  C      40.640857     19.406689     41.674660
  N      39.718942     19.600355     40.746787
  H      39.456234     20.580439     40.611383
  H      39.818302     19.144138     39.854257
  N      41.838783     19.055301     41.247040
  H      42.608845     19.170997     41.888847
  H      42.111280     19.425814     40.334538
37
Coordinates from ORCA-job job E -836.463914315686
  C      44.336747     22.244897     38.851668
  H      44.246227     22.163001     37.767040
  H      45.164303     22.808575     39.285360
  C      43.451194     21.690381     39.687021
  C      43.536343     21.877530     41.214291
  O      44.652737     21.973343     41.726374
  O      42.407605     21.929939     41.817452
  O      42.401250     20.891793     39.264777
  C      41.327676     21.431863     38.466550
  H      40.552729     20.630571     38.529498
  C      41.640950     21.649861     37.015115
  H      42.434821     21.083420     36.520981
  C      40.822049     22.409667     36.260216
  C      39.694867     23.099093     36.903009
  H      38.974907     23.549878     36.215705
  C      39.600610     23.199056     38.242895
  H      38.806067     23.765027     38.741479
  C      40.691496     22.654409     39.131126
  H      41.486394     23.430961     39.211187
  O      40.206122     22.343071     40.422908
  H      41.029987     22.212247     40.983206
  C      40.992397     22.509642     34.714531
  O      41.991954     21.929300     34.245820
  O      40.082985     23.150270     34.137939
  C      39.388000     20.557000     43.513000
  H      39.587925     20.549885     44.584485
  H      38.553045     19.874658     43.307186
  H      39.091286     21.573278     43.217921
  N      40.593504     20.153195     42.771435
  H      41.361244     20.835958     42.831267
  C      40.637667     19.403323     41.674954
  N      39.714574     19.597265     40.748254
  H      39.452855     20.577419     40.612102
  H      39.810689     19.139136     39.856552
  N      41.834488     19.048738     41.246231
  H      42.604938     19.161273     41.887949
  H      42.108164     19.419886     40.334365
37
Coordinates from ORCA-job job E -836.463915927036
  C      44.335427     22.243573     38.851719
  H      44.243666     22.163006     37.767092
  H      45.162748     22.807628     39.285099
  C      43.451527     21.687139     39.687319
  C      43.537402     21.873367     41.214629
  O      44.653832     21.967460     41.726862
  O      42.408751     21.927416     41.817672
  O      42.401565     20.888471     39.265309
  C      41.327980     21.428576     38.467143
  H      40.552965     20.627360     38.530615
  C      41.640753     21.645520     37.015405
  H      42.434646     21.079166     36.521317
  C      40.821367     22.404547     36.260342
  C      39.694285     23.094183     36.903140
  H      38.973461     23.543834     36.216018
  C      39.600876     23.195324     38.242894
  H      38.806330     23.761345     38.741326
  C      40.692122     22.651702     39.131167
  H      41.487318     23.428072     39.210218
  O      40.207397     22.341335     40.423420
  H      41.031721     22.209655     40.983132
  C      40.990759     22.502761     34.714598
  O      41.990981     21.923489     34.246140
  O      40.080338     23.141698     34.137689
  C      39.388000     20.557000     43.513000
  H      39.587925     20.549885     44.584485
  H      38.552111     19.875570     43.307492
  H      39.092311     21.573630     43.217925
  N      40.593240     20.152102     42.771557
  H      41.361869     20.833922     42.831177
  C      40.636302     19.401990     41.675268
  N      39.712744     19.595838     40.749067
  H      39.451385     20.576052     40.612369
  H      39.807283     19.136538     39.857833
  N      41.832536     19.045325     41.246121
  H      42.603241     19.155973     41.887907
  H      42.106814     19.416570     40.334400
37
Coordinates from ORCA-job job E -836.463917890877
  C      44.334301     22.242444     38.852048
  H      44.240877     22.164271     37.767346
  H      45.161715     22.806512     39.285234
  C      43.452209     21.683720     39.687960
  C      43.539529     21.868651     41.215360
  O      44.656168     21.961146     41.727413
  O      42.411241     21.924245     41.818841
  O      42.401797     20.885623     39.265993
  C      41.328233     21.426700     38.468558
  H      40.552894     20.625750     38.532402
  C      41.640140     21.643150     37.016485
  H      42.433693     21.076761     36.522004
  C      40.820023     22.401728     36.261829
  C      39.693501     23.091679     36.905273
  H      38.971859     23.540678     36.218681
  C      39.601435     23.193451     38.245003
  H      38.807345     23.759760     38.743798
  C      40.693218     22.650202     39.132722
  H      41.488823     23.426386     39.210704
  O      40.209568     22.340410     40.425467
  H      41.034481     22.207282     40.984218
  C      40.987579     22.498135     34.715923
  O      41.988410     21.920368     34.247086
  O      40.075741     23.135057     34.139114
  C      39.388000     20.557000     43.513000
  H      39.587925     20.549885     44.584485
  H      38.551279     19.876386     43.307842
  H      39.093124     21.573882     43.217909
  N      40.592860     20.151104     42.771639
  H      41.362477     20.831804     42.831306
  C      40.634981     19.400813     41.675414
  N      39.711384     19.594918     40.749528
  H      39.449905     20.575089     40.613141
  H      39.805089     19.135162     39.858527
  N      41.830629     19.041883     41.246012
  H      42.601578     19.150774     41.887749
  H      42.105389     19.412644     40.334174
37
Coordinates from ORCA-job job E -836.463919988225
  C      44.333448     22.240702     38.852353
  H      44.238680     22.165263     37.767538
  H      45.161151     22.804182     39.285723
  C      43.452584     21.680055     39.688281
  C      43.541563     21.863596     41.215726
  O      44.658573     21.954523     41.727233
  O      42.413697     21.920775     41.819967
  O      42.401485     20.882973     39.266199
  C      41.327846     21.425451     38.469925
  H      40.552062     20.624881     38.533846
  C      41.638623     21.642128     37.017551
  H      42.431613     21.075649     36.522249
  C      40.817439     22.400433     36.263783
  C      39.691735     23.090633     36.908366
  H      38.969414     23.539495     36.222348
  C      39.601285     23.192482     38.248195
  H      38.807897     23.759129     38.747807
  C      40.693875     22.649043     39.134868
  H      41.489732     23.425023     39.212019
  O      40.211370     22.339524     40.428060
  H      41.036899     22.205253     40.985871
  C      40.982606     22.495597     34.717580
  O      41.983937     21.919602     34.247817
  O      40.068967     23.130540     34.141399
  C      39.388000     20.557000     43.513000
  H      39.587925     20.549885     44.584485
  H      38.550594     19.877102     43.308135
  H      39.093922     21.574040     43.217722
  N      40.592362     20.149894     42.771690
  H      41.362893     20.829396     42.831371
  C      40.633694     19.399512     41.675509
  N      39.710217     19.594088     40.749772
  H      39.448339     20.574267     40.613861
  H      39.803463     19.133970     39.858798
  N      41.828776     19.038553     41.245963
  H      42.600119     19.145511     41.887606
  H      42.103946     19.408388     40.333766
37
Coordinates from ORCA-job job E -836.463922742657
  C      44.331578     22.238547     38.851483
  H      44.234682     22.166285     37.766612
  H      45.160285     22.800989     39.284693
  C      43.451875     21.676498     39.687818
  C      43.543574     21.858319     41.215343
  O      44.661485     21.947594     41.725283
  O      42.416763     21.916726     41.821432
  O      42.399433     20.880975     39.266052
  C      41.325547     21.425715     38.471699
  H      40.549048     20.625819     38.535502
  C      41.634559     21.643549     37.019045
  H      42.426491     21.076795     36.522252
  C      40.812098     22.402244     36.267102
  C      39.687976     23.092927     36.913942
  H      38.965001     23.542676     36.229128
  C      39.599879     23.194015     38.254036
  H      38.807992     23.761361     38.755347
  C      40.693536     22.649128     39.138519
  H      41.489866     23.424652     39.215056
  O      40.212661     22.339271     40.432199
  H      41.038792     22.203679     40.988743
  C      40.973714     22.497121     34.720412
  O      41.975451     21.923525     34.248609
  O      40.057503     23.129869     34.145959
  C      39.388000     20.557000     43.513000
  H      39.587925     20.549885     44.584485
  H      38.550242     19.877618     43.308275
  H      39.094540     21.574022     43.217364
  N      40.591779     20.148679     42.771755
  H      41.363069     20.827148     42.831533
  C      40.632609     19.397968     41.675682
  N      39.709899     19.593610     40.749645
  H      39.446931     20.573673     40.615248
  H      39.803647     19.134021     39.858379
  N      41.827186     19.035174     41.246358
  H      42.598701     19.139870     41.888156
  H      42.102928     19.403900     40.333739
37
Coordinates from ORCA-job job E -836.463925323113
  C      44.329766     22.235941     38.850305
  H      44.231445     22.166021     37.765475
  H      45.159530     22.796944     39.283486
  C      43.450627     21.673219     39.686923
  C      43.544538     21.853189     41.214516
  O      44.663442     21.940240     41.722890
  O      42.418554     21.912983     41.822076
  O      42.396959     20.879090     39.265706
  C      41.322673     21.425501     38.473065
  H      40.545487     20.626310     38.536789
  C      41.629822     21.644564     37.020158
  H      42.420913     21.077785     36.521862
  C      40.805593     22.403108     36.269845
  C      39.682908     23.094032     36.918915
  H      38.959213     23.544585     36.235272
  C      39.597336     23.194789     38.259286
  H      38.806854     23.762692     38.762283
  C      40.692394     22.648776     39.141672
  H      41.488949     23.424084     39.217519
  O      40.213076     22.338593     40.435849
  H      41.039841     22.202568     40.991341
  C      40.964027     22.498353     34.722761
  O      41.966156     21.927248     34.248860
  O      40.044932     23.128688     34.150035
  C      39.388000     20.557000     43.513000
  H      39.587925     20.549885     44.584485
  H      38.549841     19.878254     43.308279
  H      39.095484     21.574077     43.216881
  N      40.591245     20.147023     42.771839
  H      41.363109     20.824627     42.831560
  C      40.631576     19.396007     41.675948
  N      39.709547     19.593051     40.749565
  H      39.446203     20.573215     40.616361
  H      39.803489     19.133756     39.857950
  N      41.825730     19.031822     41.246885
  H      42.597528     19.133931     41.888780
  H      42.102104     19.399327     40.333844
37
Coordinates from ORCA-job job E -836.463927511328
  C      44.328060     22.234440     38.848619
  H      44.227890     22.165930     37.763917
  H      45.159280     22.794029     39.281178
  C      43.449258     21.672100     39.685919
  C      43.545543     21.850380     41.213644
  O      44.665399     21.936047     41.719977
  O      42.420667     21.910235     41.823167
  O      42.394122     20.879292     39.265757
  C      41.319571     21.427270     38.474528
  H      40.541636     20.628909     38.538040
  C      41.625139     21.647894     37.021515
  H      42.415531     21.081305     36.521702
  C      40.799922     22.407060     36.273000
  C      39.678678     23.098193     36.924383
  H      38.954473     23.550250     36.242182
  C      39.595158     23.198022     38.265004
  H      38.806030     23.766336     38.769693
  C      40.691170     22.650319     39.145101
  H      41.488163     23.425052     39.220840
  O      40.213241     22.339290     40.439617
  H      41.040258     22.202544     40.994070
  C      40.956117     22.503984     34.725642
  O      41.958567     21.934977     34.249802
  O      40.034636     23.132667     34.154888
  C      39.388000     20.557000     43.513000
  H      39.587925     20.549885     44.584485
  H      38.549846     19.878499     43.308042
  H      39.095993     21.574062     43.216536
  N      40.591092     20.146091     42.772084
  H      41.363104     20.823474     42.831905
  C      40.631338     19.394811     41.676334
  N      39.710260     19.593475     40.749354
  H      39.447046     20.573830     40.617393
  H      39.804686     19.135065     39.857270
  N      41.825405     19.030397     41.247813
  H      42.596804     19.130755     41.890373
  H      42.102498     19.397651     40.334809
37
Coordinates from ORCA-job job E -836.463929460529
  C      44.327465     22.232348     38.847588
  H      44.226286     22.164418     37.763048
  H      45.159712     22.790548     39.279720
  C      43.448767     21.670547     39.685384
  C      43.546498     21.846909     41.213206
  O      44.667128     21.930210     41.718387
  O      42.422177     21.907348     41.823644
  O      42.392560     20.878786     39.266156
  C      41.317976     21.427402     38.475533
  H      40.539435     20.629761     38.539024
  C      41.622466     21.648921     37.022518
  H      42.412833     21.083101     36.521829
  C      40.795989     22.407782     36.274999
  C      39.675295     23.098485     36.927783
  H      38.950415     23.551069     36.246607
  C      39.593532     23.198426     38.268521
  H      38.805117     23.766701     38.774246
  C      40.690680     22.650481     39.147176
  H      41.487840     23.425187     39.222175
  O      40.214109     22.339055     40.442177
  H      41.041665     22.202078     40.995719
  C      40.950890     22.506236     34.727503
  O      41.953902     21.939121     34.250531
  O      40.027342     23.132994     34.158013
  C      39.388000     20.557000     43.513000
  H      39.587925     20.549885     44.584485
  H      38.549365     19.879167     43.307908
  H      39.096990     21.574297     43.216302
  N      40.590887     20.144781     42.772201
  H      41.363212     20.821767     42.831911
  C      40.630646     19.393283     41.676601
  N      39.710087     19.593514     40.749296
  H      39.448598     20.574373     40.617544
  H      39.803958     19.135187     39.857000
  N      41.824594     19.028546     41.248333
  H      42.595759     19.126875     41.891452
  H      42.102419     19.395897     40.335590
37
Coordinates from ORCA-job job E -836.463931445853
  C      44.327923     22.230858     38.847371
  H      44.225372     22.163529     37.762970
  H      45.161353     22.787563     39.278927
  C      43.449427     21.669669     39.685723
  C      43.548770     21.843955     41.213664
  O      44.669922     21.925323     41.717721
  O      42.425041     21.904467     41.825213
  O      42.391885     20.879286     39.267331
  C      41.317564     21.428895     38.477110
  H      40.538283     20.632040     38.540387
  C      41.621325     21.651427     37.024101
  H      42.411898     21.086748     36.522514
  C      40.794205     22.410562     36.277680
  C      39.673878     23.100546     36.931839
  H      38.948413     23.553850     36.251733
  C      39.593383     23.200166     38.272649
  H      38.805342     23.768154     38.779239
  C      40.691335     22.651929     39.149946
  H      41.488716     23.426381     39.224467
  O      40.216190     22.339786     40.445282
  H      41.044135     22.201623     40.997664
  C      40.948533     22.510836     34.730238
  O      41.952161     21.945382     34.252468
  O      40.023341     23.135938     34.161735
  C      39.388000     20.557000     43.513000
  H      39.587925     20.549885     44.584485
  H      38.548797     19.879844     43.307804
  H      39.097904     21.574620     43.216294
  N      40.590843     20.143886     42.772369
  H      41.363605     20.820518     42.832046
  C      40.630037     19.392299     41.676848
  N      39.709930     19.594155     40.749392
  H      39.451198     20.575743     40.617328
  H      39.802829     19.135856     39.857007
  N      41.823985     19.027662     41.248731
  H      42.594542     19.124614     41.892670
  H      42.102546     19.395853     40.336618
37
Coordinates from ORCA-job job E -836.463933322091
  C      44.329348     22.227467     38.847448
  H      44.225700     22.160996     37.763112
  H      45.163717     22.782703     39.278643
  C      43.451092     21.666529     39.686154
  C      43.551865     21.838502     41.214162
  O      44.673465     21.917075     41.717748
  O      42.428532     21.899848     41.826408
  O      42.392245     20.877755     39.268238
  C      41.318365     21.428431     38.478354
  H      40.538345     20.632345     38.541691
  C      41.621555     21.651501     37.025348
  H      42.412570     21.088275     36.523091
  C      40.793685     22.410630     36.279814
  C      39.673245     23.099425     36.934945
  H      38.946909     23.552568     36.255654
  C      39.594063     23.199235     38.275783
  H      38.806088     23.766664     38.783002
  C      40.693037     22.651565     39.151992
  H      41.490547     23.426115     39.225308
  O      40.219621     22.339138     40.447902
  H      41.048326     22.199530     40.998973
  C      40.947257     22.511990     34.732338
  O      41.951699     21.948240     34.254176
  O      40.020489     23.135080     34.164507
  C      39.388000     20.557000     43.513000
  H      39.587925     20.549885     44.584485
  H      38.547566     19.881133     43.308039
  H      39.099394     21.575156     43.216334
  N      40.590375     20.142309     42.772339
  H      41.364125     20.817883     42.831816
  C      40.628285     19.390609     41.676839
  N      39.708142     19.593849     40.749656
  H      39.453040     20.576261     40.616618
  H      39.799220     19.134834     39.857504
  N      41.821933     19.025331     41.248272
  H      42.592274     19.120532     41.892726
  H      42.101062     19.394673     40.336913
37
Coordinates from ORCA-job job E -836.463935083818
  C      44.331195     22.223395     38.847704
  H      44.226469     22.158438     37.763349
  H      45.166627     22.776923     39.278777
  C      43.453192     21.662347     39.686555
  C      43.555823     21.831952     41.214635
  O      44.677806     21.908403     41.717521
  O      42.433031     21.893912     41.828004
  O      42.392845     20.875676     39.268646
  C      41.319199     21.428392     38.479988
  H      40.538286     20.633124     38.543344
  C      41.621353     21.652410     37.026841
  H      42.412321     21.090392     36.523307
  C      40.792869     22.412322     36.282815
  C      39.672800     23.100035     36.939589
  H      38.945552     23.553297     36.261377
  C      39.595272     23.199385     38.280520
  H      38.807670     23.766392     38.788858
  C      40.695280     22.651465     39.155159
  H      41.493056     23.425807     39.227588
  O      40.223655     22.338384     40.451463
  H      41.053044     22.196488     41.001043
  C      40.944842     22.514485     34.735331
  O      41.949717     21.952447     34.256100
  O      40.016350     23.135760     34.168471
  C      39.388000     20.557000     43.513000
  H      39.587925     20.549885     44.584485
  H      38.546102     19.882654     43.308461
  H      39.101131     21.575721     43.216314
  N      40.589665     20.140347     42.772253
  H      41.364888     20.814336     42.831692
  C      40.625938     19.388761     41.676603
  N      39.705490     19.593388     40.750095
  H      39.453659     20.576528     40.616216
  H      39.794598     19.133588     39.858245
  N      41.819099     19.022737     41.247079
  H      42.589504     19.117063     41.891498
  H      42.098357     19.393043     40.336303
37
Coordinates from ORCA-job job E -836.463937022776
  C      44.331613     22.216423     38.846008
  H      44.225597     22.153319     37.761600
  H      45.168375     22.768134     39.276786
  C      43.453853     21.655392     39.685164
  C      43.558943     21.822773     41.213240
  O      44.681631     21.896487     41.715063
  O      42.437037     21.886044     41.828230
  O      42.391730     20.871053     39.267439
  C      41.317977     21.426262     38.480742
  H      40.536104     20.631900     38.544538
  C      41.618492     21.651202     37.027356
  H      42.408935     21.090061     36.522178
  C      40.789364     22.412362     36.285294
  C      39.670106     23.099210     36.944206
  H      38.941632     23.552451     36.267269
  C      39.594854     23.197933     38.285328
  H      38.808047     23.764648     38.795248
  C      40.696198     22.649372     39.157758
  H      41.494425     23.423396     39.228951
  O      40.226813     22.335847     40.454701
  H      41.057085     22.191585     41.002603
  C      40.938323     22.514700     34.737525
  O      41.943497     21.954576     34.256712
  O      40.007599     23.133891     34.172185
  C      39.388000     20.557000     43.513000
  H      39.587925     20.549885     44.584485
  H      38.544169     19.884750     43.309132
  H      39.103564     21.576356     43.216029
  N      40.588394     20.137237     42.772070
  H      41.365552     20.809006     42.831208
  C      40.622308     19.385569     41.676326
  N      39.701112     19.591392     40.750885
  H      39.452192     20.575129     40.616138
  H      39.787881     19.130375     39.859516
  N      41.814590     19.018281     41.245117
  H      42.585699     19.111279     41.888980
  H      42.093577     19.389720     40.334860
37
Coordinates from ORCA-job job E -836.463939388646
  C      44.330775     22.207014     38.842655
  H      44.223331     22.146245     37.758172
  H      45.169529     22.756095     39.273087
  C      43.453178     21.646232     39.682262
  C      43.561937     21.810957     41.210382
  O      44.685685     21.881988     41.710085
  O      42.441434     21.875375     41.828022
  O      42.388721     20.864970     39.264866
  C      41.314286     21.423832     38.481739
  H      40.531131     20.630695     38.546149
  C      41.611824     21.650531     37.027927
  H      42.400724     21.089789     36.519855
  C      40.781896     22.414101     36.289026
  C      39.664584     23.100463     36.951597
  H      38.934550     23.554344     36.276831
  C      39.592826     23.197638     38.293045
  H      38.807728     23.764323     38.805771
  C      40.695961     22.646920     39.161962
  H      41.495115     23.420066     39.232089
  O      40.229344     22.332361     40.459554
  H      41.060583     22.185102     41.005330
  C      40.926000     22.516583     34.740923
  O      41.930895     21.958841     34.257036
  O      39.992024     23.133393     34.178181
  C      39.388000     20.557000     43.513000
  H      39.587925     20.549885     44.584485
  H      38.541706     19.887566     43.309951
  H      39.106974     21.577127     43.215413
  N      40.586631     20.132627     42.771918
  H      41.366407     20.801391     42.830866
  C      40.617392     19.381058     41.675925
  N      39.695037     19.588623     40.752132
  H      39.448936     20.572930     40.617015
  H      39.779128     19.126421     39.861212
  N      41.808423     19.012531     41.242105
  H      42.580880     19.104939     41.884417
  H      42.086372     19.384920     40.332085
37
Coordinates from ORCA-job job E -836.463941714646
  C      44.326202     22.197591     38.836389
  H      44.217373     22.137933     37.751902
  H      45.166905     22.744645     39.265919
  C      43.448554     21.638046     39.676953
  C      43.560643     21.801559     41.204980
  O      44.685662     21.869991     41.702323
  O      42.441697     21.867481     41.825241
  O      42.382104     20.858893     39.260646
  C      41.306518     21.420368     38.480863
  H      40.522556     20.628073     38.546165
  C      41.601122     21.648504     37.026706
  H      42.388097     21.087298     36.516089
  C      40.770848     22.414578     36.290616
  C      39.655768     23.101317     36.956497
  H      38.924455     23.556089     36.283725
  C      39.587067     23.196781     38.298289
  H      38.803859     23.763669     38.813642
  C      40.691570     22.643504     39.163856
  H      41.491804     23.415569     39.233124
  O      40.227345     22.328241     40.462075
  H      41.059406     22.179367     41.006161
  C      40.910083     22.516682     34.742069
  O      41.914473     21.960673     34.255259
  O      39.973252     23.131714     34.181967
  C      39.388000     20.557000     43.513000
  H      39.587925     20.549885     44.584485
  H      38.539678     19.890059     43.310568
  H      39.110119     21.577692     43.214597
  N      40.584926     20.128188     42.771806
  H      41.366682     20.794623     42.830147
  C      40.612824     19.376460     41.675772
  N      39.689044     19.584995     40.753605
  H      39.444325     20.569612     40.618213
  H      39.770802     19.121558     39.863093
  N      41.802617     19.007166     41.239189
  H      42.576841     19.098859     41.879628
  H      42.079000     19.380424     40.329112
37
Coordinates from ORCA-job job E -836.463944159184
  C      44.318955     22.188369     38.828453
  H      44.208839     22.128832     37.744046
  H      45.161739     22.733423     39.256744
  C      43.441277     21.630780     39.670380
  C      43.556755     21.793573     41.198381
  O      44.683119     21.859674     41.692966
  O      42.439442     21.860759     41.821285
  O      42.372899     20.853219     39.255805
  C      41.295811     21.416730     38.479457
  H      40.511220     20.625167     38.545871
  C      41.587145     21.646199     37.024927
  H      42.371525     21.083558     36.511783
  C      40.756731     22.414931     36.291570
  C      39.644448     23.102972     36.960918
  H      38.912037     23.559105     36.290367
  C      39.578841     23.196569     38.303028
  H      38.797894     23.764076     38.821143
  C      40.684474     22.640063     39.165208
  H      41.486232     23.410584     39.233750
  O      40.222408     22.324156     40.464072
  H      41.055220     22.174417     41.006575
  C      40.890898     22.516519     34.742569
  O      41.894430     21.962002     34.252473
  O      39.951158     23.129989     34.185412
  C      39.388000     20.557000     43.513000
  H      39.587925     20.549885     44.584485
  H      38.537774     19.892548     43.311003
  H      39.113366     21.578236     43.213668
  N      40.583270     20.123533     42.771741
  H      41.366686     20.788087     42.829313
  C      40.608321     19.371684     41.675665
  N      39.682869     19.581215     40.755335
  H      39.438746     20.566012     40.620444
  H      39.762686     19.117204     39.864915
  N      41.796833     19.002080     41.236019
  H      42.573259     19.093723     41.873815
  H      42.070872     19.375740     40.325407
37
Coordinates from ORCA-job job E -836.463945864363
  C      44.311544     22.183165     38.821410
  H      44.200109     22.122857     37.737176
  H      45.155686     22.727267     39.248323
  C      43.434189     21.627276     39.664823
  C      43.551807     21.790276     41.192757
  O      44.679092     21.854535     41.685481
  O      42.435563     21.858807     41.817257
  O      42.364609     20.850239     39.252121
  C      41.286516     21.414266     38.477478
  H      40.501686     20.623055     38.544740
  C      41.575937     21.644158     37.022717
  H      42.358588     21.080135     36.508387
  C      40.745566     22.414221     36.290674
  C      39.635257     23.103765     36.961844
  H      38.902333     23.560923     36.292621
  C      39.571269     23.196367     38.304097
  H      38.791787     23.764493     38.823569
  C      40.677335     22.637932     39.164471
  H      41.480271     23.407266     39.232282
  O      40.216585     22.322058     40.463816
  H      41.049941     22.172441     41.005325
  C      40.877041     22.515307     34.741477
  O      41.880231     21.961711     34.249661
  O      39.935547     23.127651     34.185948
  C      39.388000     20.557000     43.513000
  H      39.587925     20.549885     44.584485
  H      38.536707     19.894017     43.311088
  H      39.115243     21.578570     43.213207
  N      40.582381     20.120943     42.771686
  H      41.366319     20.784919     42.828460
  C      40.605700     19.369130     41.675582
  N      39.678934     19.579074     40.756540
  H      39.434750     20.563993     40.622109
  H      39.757417     19.114997     39.865953
  N      41.793341     18.999367     41.233894
  H      42.571393     19.090529     41.869856
  H      42.065533     19.373046     40.322626
37
Coordinates from ORCA-job job E -836.463947560330
  C      44.303568     22.178981     38.814418
  H      44.190322     22.117761     37.730445
  H      45.149086     22.722038     39.239756
  C      43.426871     21.624796     39.659518
  C      43.546847     21.787692     41.187431
  O      44.675046     21.849983     41.678274
  O      42.431707     21.857487     41.813559
  O      42.355798     20.848567     39.248883
  C      41.276922     21.413347     38.475860
  H      40.491737     20.622601     38.543719
  C      41.564530     21.643850     37.020885
  H      42.345405     21.078375     36.505429
  C      40.734082     22.415128     36.290265
  C      39.625893     23.106342     36.963364
  H      38.892519     23.564850     36.295637
  C      39.563624     23.197877     38.305728
  H      38.785673     23.766781     38.826561
  C      40.669980     22.637321     39.164249
  H      41.474389     23.405206     39.231098
  O      40.210752     22.321407     40.464151
  H      41.044834     22.171592     41.004369
  C      40.863086     22.516323     34.740891
  O      41.866224     21.964131     34.247370
  O      39.919694     23.127223     34.187098
  C      39.388000     20.557000     43.513000
  H      39.587925     20.549885     44.584485
  H      38.535583     19.895485     43.311137
  H      39.116926     21.578981     43.213048
  N      40.581551     20.118792     42.771443
  H      41.365885     20.782399     42.827395
  C      40.603020     19.367444     41.675000
  N      39.674882     19.578242     40.757433
  H      39.430788     20.563384     40.624129
  H      39.751926     19.114912     39.866268
  N      41.789719     18.997295     41.231224
  H      42.569402     19.088178     41.865156
  H      42.059809     19.370376     40.318958
37
Coordinates from ORCA-job job E -836.463948936216
  C      44.295961     22.174392     38.807266
  H      44.180362     22.112793     37.723597
  H      45.142958     22.716285     39.230939
  C      43.420199     21.621564     39.654130
  C      43.542945     21.784133     41.181879
  O      44.672068     21.844059     41.670881
  O      42.428935     21.855873     41.809841
  O      42.347250     20.846823     39.245509
  C      41.267941     21.412944     38.474150
  H      40.482016     20.622972     38.542557
  C      41.553820     21.644067     37.018875
  H      42.333204     21.077601     36.502261
  C      40.723094     22.416441     36.289816
  C      39.616903     23.108957     36.964860
  H      38.882924     23.568605     36.298629
  C      39.556556     23.199644     38.307353
  H      38.780031     23.769207     38.829519
  C      40.663434     22.637332     39.164025
  H      41.469239     23.403919     39.229431
  O      40.206142     22.321560     40.464585
  H      41.041135     22.170826     41.003160
  C      40.849947     22.518171     34.740372
  O      41.853394     21.967914     34.245315
  O      39.904454     23.127094     34.188107
  C      39.388000     20.557000     43.513000
  H      39.587925     20.549885     44.584485
  H      38.534257     19.897055     43.311347
  H      39.118495     21.579475     43.213172
  N      40.580633     20.116906     42.770956
  H      41.365425     20.780049     42.825977
  C      40.599925     19.366338     41.673954
  N      39.670361     19.578279     40.758034
  H      39.426819     20.563754     40.625817
  H      39.745590     19.115939     39.866192
  N      41.785520     18.995056     41.228097
  H      42.566748     19.084964     41.860356
  H      42.053819     19.367487     40.314899
37
Coordinates from ORCA-job job E -836.463950049649
  C      44.291130     22.171170     38.802574
  H      44.173554     22.109937     37.719128
  H      45.139236     22.711929     39.225184
  C      43.416115     21.619042     39.650508
  C      43.541401     21.780798     41.178056
  O      44.671159     21.839307     41.665602
  O      42.428373     21.853636     41.807729
  O      42.341373     20.846246     39.243079
  C      41.262028     21.414369     38.473390
  H      40.475139     20.625329     38.541932
  C      41.546580     21.646519     37.017916
  H      42.324765     21.079523     36.500117
  C      40.715637     22.420193     36.290575
  C      39.611072     23.113431     36.967473
  H      38.876626     23.574247     36.302560
  C      39.552473     23.203108     38.310099
  H      38.777159     23.773143     38.833634
  C      40.659761     22.638936     39.165017
  H      41.466733     23.404425     39.229396
  O      40.204149     22.322836     40.466055
  H      41.039964     22.170524     41.003078
  C      40.840729     22.523143     34.741031
  O      41.844469     21.974720     34.244583
  O      39.893523     23.130522     34.190207
  C      39.388000     20.557000     43.513000
  H      39.587925     20.549885     44.584485
  H      38.533158     19.898246     43.311716
  H      39.119531     21.579864     43.213430
  N      40.579782     20.115668     42.770325
  H      41.365097     20.778207     42.824736
  C      40.597067     19.366329     41.672405
  N      39.666288     19.579668     40.758070
  H      39.423458     20.565494     40.627202
  H      39.739860     19.118675     39.865419
  N      41.781625     18.993780     41.224726
  H      42.563974     19.083560     41.855571
  H      42.048504     19.365258     40.310678
37
Coordinates from ORCA-job job E -836.463950661918
  C      44.288424     22.168585     38.799341
  H      44.169437     22.107981     37.716044
  H      45.137320     22.708601     39.221320
  C      43.413811     21.616824     39.647946
  C      43.540955     21.778109     41.175284
  O      44.671209     21.835683     41.661829
  O      42.428569     21.852074     41.806170
  O      42.337740     20.845636     39.241166
  C      41.258481     21.415560     38.472689
  H      40.470763     20.627297     38.541293
  C      41.542308     21.648405     37.017099
  H      42.319840     21.081324     36.498409
  C      40.711318     22.423143     36.291004
  C      39.607720     23.116586     36.969164
  H      38.872996     23.578122     36.304995
  C      39.550304     23.205647     38.311912
  H      38.775712     23.775878     38.836351
  C      40.657889     22.640211     39.165595
  H      41.465420     23.405165     39.229419
  O      40.203446     22.323820     40.466893
  H      41.039796     22.170254     41.002877
  C      40.835349     22.527067     34.741400
  O      41.839255     21.979760     34.244100
  O      39.887118     23.133540     34.191410
  C      39.388000     20.557000     43.513000
  H      39.587925     20.549885     44.584485
  H      38.532622     19.898780     43.312091
  H      39.119883     21.579994     43.213574
  N      40.579183     20.115177     42.769748
  H      41.364819     20.777341     42.823601
  C      40.595080     19.366623     41.671230
  N      39.663527     19.580844     40.757936
  H      39.421086     20.566848     40.627837
  H      39.736003     19.120715     39.864830
  N      41.778910     18.992890     41.222483
  H      42.561837     19.082220     41.852760
  H      42.045236     19.363990     40.308111
37
Coordinates from ORCA-job job E -836.463951004181
  C      44.288507     22.168564     38.799051
  H      44.169393     22.108419     37.715753
  H      45.137459     22.708366     39.221186
  C      43.413653     21.616930     39.647486
  C      43.541069     21.778011     41.174689
  O      44.671368     21.835867     41.661151
  O      42.428847     21.851947     41.805763
  O      42.337183     20.846529     39.240464
  C      41.258116     21.417498     38.472487
  H      40.470004     20.629579     38.540810
  C      41.542034     21.650933     37.016982
  H      42.319504     21.083991     36.498024
  C      40.711273     22.426400     36.291404
  C      39.607823     23.119622     36.969948
  H      38.873299     23.581679     36.305864
  C      39.550532     23.208163     38.312740
  H      38.776092     23.778349     38.837476
  C      40.658003     22.641930     39.166094
  H      41.465524     23.406822     39.230377
  O      40.203585     22.324887     40.467230
  H      41.040060     22.170814     41.002972
  C      40.835222     22.531301     34.741772
  O      41.839032     21.984017     34.244205
  O      39.887121     23.138135     34.192112
  C      39.388000     20.557000     43.513000
  H      39.587925     20.549885     44.584485
  H      38.532771     19.898531     43.312344
  H      39.119454     21.579863     43.213613
  N      40.579018     20.115557     42.769346
  H      41.364612     20.777735     42.822980
  C      40.594471     19.367612     41.670358
  N      39.662574     19.582219     40.757550
  H      39.420146     20.568268     40.627910
  H      39.734619     19.122540     39.864193
  N      41.778017     18.993425     41.221188
  H      42.561045     19.083273     41.851228
  H      42.044166     19.364087     40.306623
37
Coordinates from ORCA-job job E -836.463951456465
  C      44.286746     22.166743     38.796962
  H      44.167010     22.107406     37.713657
  H      45.136209     22.706056     39.218931
  C      43.411991     21.615197     39.645615
  C      43.540468     21.775845     41.172706
  O      44.671141     21.832973     41.658584
  O      42.428639     21.850765     41.804399
  O      42.334829     20.845636     39.238955
  C      41.255683     21.417594     38.471812
  H      40.466986     20.630268     38.540543
  C      41.538976     21.651093     37.016150
  H      42.316079     21.084034     36.496698
  C      40.708271     22.427271     36.291209
  C      39.605440     23.120692     36.970528
  H      38.870897     23.583211     36.306745
  C      39.549059     23.209271     38.313406
  H      38.775180     23.779730     38.838738
  C      40.656708     22.642199     39.166078
  H      41.464425     23.406914     39.230497
  O      40.202671     22.324887     40.467341
  H      41.039412     22.170520     41.002616
  C      40.831186     22.532528     34.741383
  O      41.834865     21.985370     34.243208
  O      39.882661     23.139148     34.192307
  C      39.388000     20.557000     43.513000
  H      39.587925     20.549885     44.584485
  H      38.532618     19.898651     43.312711
  H      39.119563     21.579832     43.213434
  N      40.578615     20.115067     42.768920
  H      41.364358     20.777129     42.821884
  C      40.593010     19.367421     41.669660
  N      39.660547     19.582526     40.757558
  H      39.418130     20.568589     40.628315
  H      39.731841     19.123039     39.864082
  N      41.776026     18.992419     41.219742
  H      42.559402     19.081784     41.849463
  H      42.042009     19.363113     40.305181
37
Coordinates from ORCA-job job E -836.463951681978
  C      44.286289     22.167720     38.796824
  H      44.167013     22.108392     37.713502
  H      45.135588     22.707207     39.219002
  C      43.411201     21.616398     39.645332
  C      43.539239     21.777481     41.172377
  O      44.669822     21.834843     41.658450
  O      42.427307     21.852702     41.803748
  O      42.334218     20.846620     39.238622
  C      41.255076     21.418449     38.471312
  H      40.466399     20.631158     38.540078
  C      41.538708     21.651775     37.015753
  H      42.315895     21.084665     36.496485
  C      40.708476     22.428193     36.290525
  C      39.605460     23.121709     36.969526
  H      38.871348     23.584477     36.305392
  C      39.548687     23.210404     38.312378
  H      38.774678     23.780897     38.837480
  C      40.655931     22.643058     39.165433
  H      41.463542     23.407790     39.230641
  O      40.201278     22.325486     40.466485
  H      41.037950     22.171772     41.001991
  C      40.832125     22.533434     34.740824
  O      41.835421     21.985364     34.242987
  O      39.884285     23.140892     34.191362
  C      39.388000     20.557000     43.513000
  H      39.587925     20.549885     44.584485
  H      38.533163     19.898041     43.312754
  H      39.118830     21.579587     43.213407
  N      40.578749     20.115807     42.768728
  H      41.363954     20.778523     42.821379
  C      40.593265     19.368203     41.669494
  N      39.660704     19.583054     40.757441
  H      39.417765     20.568962     40.628270
  H      39.732227     19.123662     39.863979
  N      41.776328     18.993352     41.219637
  H      42.559664     19.082818     41.849413
  H      42.042365     19.364167     40.305130
