24
frame 59999 P, aligned onto 20000 on 8 atoms
C      48.01406571    28.27908121    56.14825738
H      48.92536447    27.71690524    56.40183526
H      48.01220252    29.22556536    56.70368270
C      46.84725509    27.40045478    56.52000673
C      45.56418995    27.90731057    57.26127730
O      45.60290340    29.00478948    57.87351035
O      44.58913645    27.13433527    57.21574851
O      46.88674635    26.22908874    56.20710412
C      46.67150229    26.93837039    53.30184965
H      46.56149948    26.02267374    52.71309077
C      47.86773939    27.33535082    53.74931958
H      48.76167915    26.75793729    53.52217355
C      48.04226671    28.58182372    54.58535698
C      46.91071901    29.54271672    54.30834533
H      47.14738942    30.60226609    54.45304936
C      45.70368020    29.13136233    53.90934924
H      44.89517796    29.85472737    53.77922564
C      45.39451126    27.68155715    53.61908983
H      44.97139370    27.23953681    54.54775638
O      44.44502943    27.61520456    52.58709440
H      44.19139222    26.62623825    52.39577321
C      49.43939103    29.24990632    54.35738487
O      50.41237260    28.50922523    54.09091837
O      49.49677170    30.49042031    54.51045510
