24
frame 59999 R, aligned onto 20000 on 8 atoms
C      47.88903844    28.16054247    56.82696627
H      48.82281542    27.83701796    56.36894720
H      47.90898558    28.95029720    57.57696598
C      46.70958333    27.61390367    56.50723725
C      45.40837051    27.98752898    57.21017632
O      45.38031542    29.05851010    57.88076885
O      44.45047648    27.19476813    57.09388678
O      46.60297652    26.60757473    55.57305362
C      46.55408218    26.96720680    54.14397730
H      46.34198440    26.01137181    53.64630371
C      47.90368119    27.49447993    53.77600506
H      48.71737699    26.78009725    53.65531728
C      48.15747740    28.81782734    53.80313655
C      47.04490342    29.76486040    53.95319504
H      47.32630822    30.81959928    54.03035875
C      45.76129213    29.36520950    54.00762114
H      44.95332326    30.09384357    54.12075245
C      45.37600383    27.91193763    53.83377404
H      44.57496626    27.65385427    54.55335293
O      44.94869850    27.74351702    52.50135420
H      44.48951480    26.81866044    52.37613583
C      49.58995223    29.33797612    53.83523160
O      50.51660950    28.49396492    53.90901787
O      49.75104036    30.58428899    53.85087863
