24
frame 59999 TS, aligned onto 20000 on 8 atoms
C      48.02520502    28.23132217    56.55549194
H      48.96062228    27.73531441    56.30709993
H      48.07119590    29.17866367    57.09350706
C      46.83854448    27.49754557    56.51933448
C      45.52661476    27.97163054    57.19413199
O      45.52228458    29.03806589    57.87096905
O      44.53866746    27.21801871    57.06547665
O      46.76908287    26.41524586    55.85264654
C      46.58223285    26.88923567    53.75046116
H      46.40872890    25.85254231    53.45329490
C      47.86069974    27.41581266    53.72644915
H      48.71907150    26.77284774    53.54039957
C      48.06672313    28.72560371    54.16679444
C      46.92417003    29.64291515    54.19755483
H      47.17274198    30.69872836    54.34304354
C      45.66467157    29.20827365    54.03353861
H      44.82553376    29.90710116    54.07031869
C      45.34468033    27.75906488    53.77239636
H      44.68040599    27.39227180    54.57710421
O      44.71329252    27.68049635    52.51215253
H      44.33733241    26.71261018    52.35233724
C      49.47683099    29.31041883    54.17372550
O      50.44443382    28.51675632    54.09906153
O      49.56844116    30.55857143    54.24127475
