24
frame 43087 P, aligned onto 20000 on 8 atoms
C      47.99284223    28.25650977    56.16067648
H      48.89029190    27.64777749    56.33710518
H      48.06038978    29.17343268    56.75726906
C      46.79944914    27.43139034    56.53595218
C      45.56476079    28.00432920    57.29606121
O      45.66426643    29.12428260    57.86192428
O      44.56480458    27.25965610    57.29794762
O      46.76183241    26.26306583    56.19938150
C      46.54073296    27.03737276    53.33509838
H      46.38937469    26.12972709    52.74511616
C      47.75771298    27.38565153    53.76955265
H      48.63621695    26.77625088    53.55709883
C      47.98762599    28.61649054    54.61116797
C      46.88936617    29.62573244    54.37079915
H      47.13130349    30.66605192    54.60280497
C      45.67265715    29.27612023    53.93741655
H      44.88130154    30.02282520    53.81345294
C      45.29985092    27.84389045    53.63531331
H      44.82693969    27.43307902    54.55571265
O      44.36203998    27.81780682    52.58217502
H      44.04302443    26.86913311    52.38478131
C      49.44048664    29.18043435    54.37251904
O      50.36087500    28.32554044    54.37122809
O      49.57951434    30.41803689    54.27229301
