24
frame 43087 R, aligned onto 20000 on 8 atoms
C      48.00093205    28.08373562    56.81705263
H      48.90452444    27.77326431    56.29182282
H      48.08926362    28.82948812    57.60878032
C      46.78693906    27.60581716    56.51073745
C      45.53552905    28.04568724    57.26253482
O      45.58588065    29.11714842    57.92979013
O      44.53728087    27.29376580    57.17658876
O      46.58607286    26.61973721    55.56787845
C      46.54284430    26.97751530    54.12601849
H      46.34181405    26.01825767    53.62994527
C      47.89811075    27.49277988    53.79829260
H      48.72141069    26.78024503    53.73274641
C      48.15721297    28.81208324    53.85427184
C      47.03828235    29.75708369    53.96283246
H      47.30392675    30.81148343    54.06826135
C      45.74973782    29.36417540    53.95470403
H      44.94143680    30.10022200    54.02704949
C      45.35079989    27.91380813    53.82326469
H      44.59180134    27.68508770    54.59654870
O      44.82334239    27.71030026    52.52490876
H      44.34662881    26.81930261    52.42329501
C      49.60468618    29.28936545    53.94865405
O      50.45671704    28.41678353    54.27109816
O      49.83141562    30.50723851    53.75877785
