24
frame 43087 TS, aligned onto 20000 on 8 atoms
C      48.06045661    28.09732895    56.59392474
H      48.95803033    27.62146641    56.20965548
H      48.17934750    28.98804252    57.20956306
C      46.83472205    27.46078104    56.50702761
C      45.58384103    28.02276093    57.21381189
O      45.66080171    29.11504947    57.84486020
O      44.55496379    27.31234413    57.13611136
O      46.66839662    26.41072225    55.78886628
C      46.50484594    26.93555984    53.72204969
H      46.32058934    25.90920574    53.39834548
C      47.79969172    27.43297141    53.71396911
H      48.64920550    26.76945855    53.55484777
C      48.03559094    28.73275776    54.15015802
C      46.90807738    29.66502365    54.21582495
H      47.15100781    30.70808850    54.43131765
C      45.63931642    29.26337274    54.01055859
H      44.80979991    29.97608828    54.05145849
C      45.27849692    27.82345440    53.75526501
H      44.65384816    27.48674821    54.60395458
O      44.55841556    27.73687164    52.53799395
H      44.15629568    26.80517874    52.38835448
C      49.48368905    29.23083002    54.23023442
O      50.38016834    28.35280639    54.32536032
O      49.65893880    30.47032340    54.19863721
