100
Image 0. Energy: -22874.87615488672 
C  56.31210552236861 37.87188964181788 62.29359970817898
H  57.16459852180604 37.826536041509065 61.61969875160771
H  56.26879157758625 38.75551387955315 62.997116133216885
C  55.28869450743324 37.023229345880694 62.463415841310535
C  54.17074253558521 37.277935393051195 63.5021991647147
O  53.96076589618016 38.457145576826804 63.86131101764356
O  53.58039658051182 36.24481563773172 63.91502237857785
O  55.1483263192273 35.87771868979286 61.782172632231855
C  56.21551499192919 34.87651833580276 61.76223146243468
H  55.685715134813755 33.977563683390905 61.415145730703365
C  56.71352846153375 34.69678378653834 63.15927876334847
H  56.00683049510867 34.32904010038132 63.90655112324318
C  57.95912032605989 35.03947757282533 63.54669198112626
C  58.905537335362446 35.58128671085981 62.5646654682134
H  59.88265471180832 35.88894691644564 62.94405541704324
C  58.6013065263086 35.66180829712786 61.25361873194293
H  59.320307068991916 36.04064566377271 60.519943713450004
C  57.31454463331923 35.090515289695084 60.699409824558735
H  56.903802603915125 35.73758613813213 59.904339307621
O  57.59634309253235 33.789250570799986 60.21642857621516
H  57.96890586396783 33.833623555098264 59.31830175809747
C  58.386358482853964 34.884907845561024 65.01079288647077
O  57.539595630198704 34.38845539286306 65.8212230919308
O  59.53730908060976 35.27460237455198 65.31052996611994
C  51.0783 35.2298 63.6566
N  51.228877 35.61502 62.392546
H  50.91836 36.277522 63.0888
H  51.425046 34.659982 62.656213
N  50.669401 36.102204 64.573449
H  50.86557 35.147166 64.837116
H  50.783749 36.39474 63.613528
N  51.336621 33.972176 64.003805
H  51.45097 34.264711 63.043884
H  51.026104 34.634678 64.700059
C  64.0774 35.2869 45.5285
O  65.261225 35.348676 45.131963
O  63.366116 34.259517 45.561059
H  63.619421 36.22275 45.881261
C  66.2928 24.2336 56.8278
O  67.476625 24.295376 56.431263
O  65.581516 23.206217 56.860359
H  65.834821 25.16945 57.180561
C  56.2593 31.7457 66.2272
N  56.409877 32.13092 64.963146
H  56.09936 32.793422 65.6594
H  56.606046 31.175882 65.226813
N  55.850401 32.618104 67.144049
H  56.04657 31.663066 67.407716
H  55.964749 32.91064 66.184128
N  56.517621 30.488076 66.574405
H  56.63197 30.780611 65.614484
H  56.207104 31.150578 67.270659
C  54.9773 24.021 60.3344
N  55.127877 24.40622 59.070346
H  54.81736 25.068722 59.7666
H  55.324046 23.451182 59.334013
N  54.568401 24.893404 61.251249
H  54.76457 23.938366 61.514916
H  54.682749 25.18594 60.291328
N  55.235621 22.763376 60.681605
H  55.34997 23.055911 59.721684
H  54.925104 23.425878 61.377859
C  69.2501 33.1912 49.2088
O  70.433925 33.252976 48.812263
O  68.538816 32.163817 49.241359
H  68.792121 34.12705 49.561561
C  63.858 34.4666 65.3911
N  64.008577 34.85182 64.127046
H  63.69806 35.514322 64.8233
H  64.204746 33.896782 64.390713
N  63.449101 35.339004 66.307949
H  63.64527 34.383966 66.571616
H  63.563449 35.63154 65.348028
N  64.116321 33.208976 65.738305
H  64.23067 33.501511 64.778384
H  63.805804 33.871478 66.434559
C  62.4823 39.901 63.9924
N  62.632877 40.28622 62.728346
H  62.32236 40.948722 63.4246
H  62.829046 39.331182 62.992013
N  62.073401 40.773404 64.909249
H  62.26957 39.818366 65.172916
H  62.187749 41.06594 63.949328
N  62.740621 38.643376 64.339605
H  62.85497 38.935911 63.379684
H  62.430104 39.305878 65.035859
C  56.1298 40.3696 64.5471
N  56.280377 40.75482 63.283046
H  55.96986 41.417322 63.9793
H  56.476546 39.799782 63.546713
N  55.720901 41.242004 65.463949
H  55.91707 40.286966 65.727616
H  55.835249 41.53454 64.504028
N  56.388121 39.111976 64.894305
H  56.50247 39.404511 63.934384
H  56.077604 39.774478 65.590559
C  58.0751 26.9406 47.1016
O  59.258925 27.002376 46.705063
O  57.363816 25.913217 47.134159
H  57.617121 27.87645 47.454361
100
Image 1. Energy: -22874.5627039566 
C  56.13129001001726 37.646274209477525 62.415832402721804
H  56.950235060235066 37.623358824048815 61.70285612676208
H  56.00160579628675 38.57012692337326 63.03322264112116
C  55.25865165140507 36.664130522479674 62.691801510517855
C  54.16114820863469 36.84195551226109 63.75979552827957
O  53.88443566406102 38.00441145619391 64.12281080204183
O  53.64500504117727 35.77219812722607 64.19019118904588
O  55.24066253869176 35.457777413147035 62.100400579640784
C  56.456069189081624 34.655265069068115 61.91681735956975
H  56.04956884682831 33.668861199407345 61.65140094848083
C  57.16635357513614 34.61566775646047 63.22423279122453
H  56.67924224179129 34.111568239244875 64.06227630755042
C  58.32144268640292 35.270076994759826 63.4535516601967
C  58.994307491640726 35.96500751125053 62.35036985647333
H  59.89748613947931 36.529163028237754 62.594514346467236
C  58.53351945894187 35.897316787354725 61.08419778328242
H  59.05074196234786 36.39278564591868 60.256170328254825
C  57.343833535945926 35.03669613849632 60.71537599109254
H  56.70899461876623 35.54445214924882 59.967006583833474
O  57.82708506086789 33.79631544624856 60.2351424200771
H  58.14837269928596 33.888220345526484 59.32081009747867
C  58.882114721692794 35.30902182385487 64.88143682113726
O  58.30477052396703 34.58320714601921 65.74008752696051
O  59.86044445730826 36.079262960709016 65.08169685778945
C  51.0783 35.2298 63.6566
N  51.228877 35.61502 62.392546
H  50.91836 36.277522 63.0888
H  51.425046 34.659982 62.656213
N  50.669401 36.102204 64.573449
H  50.86557 35.147166 64.837116
H  50.783749 36.39474 63.613528
N  51.336621 33.972176 64.003805
H  51.45097 34.264711 63.043884
H  51.026104 34.634678 64.700059
C  64.0774 35.2869 45.5285
O  65.261225 35.348676 45.131963
O  63.366116 34.259517 45.561059
H  63.619421 36.22275 45.881261
C  66.2928 24.2336 56.8278
O  67.476625 24.295376 56.431263
O  65.581516 23.206217 56.860359
H  65.834821 25.16945 57.180561
C  56.2593 31.7457 66.2272
N  56.409877 32.13092 64.963146
H  56.09936 32.793422 65.6594
H  56.606046 31.175882 65.226813
N  55.850401 32.618104 67.144049
H  56.04657 31.663066 67.407716
H  55.964749 32.91064 66.184128
N  56.517621 30.488076 66.574405
H  56.63197 30.780611 65.614484
H  56.207104 31.150578 67.270659
C  54.9773 24.021 60.3344
N  55.127877 24.40622 59.070346
H  54.81736 25.068722 59.7666
H  55.324046 23.451182 59.334013
N  54.568401 24.893404 61.251249
H  54.76457 23.938366 61.514916
H  54.682749 25.18594 60.291328
N  55.235621 22.763376 60.681605
H  55.34997 23.055911 59.721684
H  54.925104 23.425878 61.377859
C  69.2501 33.1912 49.2088
O  70.433925 33.252976 48.812263
O  68.538816 32.163817 49.241359
H  68.792121 34.12705 49.561561
C  63.858 34.4666 65.3911
N  64.008577 34.85182 64.127046
H  63.69806 35.514322 64.8233
H  64.204746 33.896782 64.390713
N  63.449101 35.339004 66.307949
H  63.64527 34.383966 66.571616
H  63.563449 35.63154 65.348028
N  64.116321 33.208976 65.738305
H  64.23067 33.501511 64.778384
H  63.805804 33.871478 66.434559
C  62.4823 39.901 63.9924
N  62.632877 40.28622 62.728346
H  62.32236 40.948722 63.4246
H  62.829046 39.331182 62.992013
N  62.073401 40.773404 64.909249
H  62.26957 39.818366 65.172916
H  62.187749 41.06594 63.949328
N  62.740621 38.643376 64.339605
H  62.85497 38.935911 63.379684
H  62.430104 39.305878 65.035859
C  56.1298 40.3696 64.5471
N  56.280377 40.75482 63.283046
H  55.96986 41.417322 63.9793
H  56.476546 39.799782 63.546713
N  55.720901 41.242004 65.463949
H  55.91707 40.286966 65.727616
H  55.835249 41.53454 64.504028
N  56.388121 39.111976 64.894305
H  56.50247 39.404511 63.934384
H  56.077604 39.774478 65.590559
C  58.0751 26.9406 47.1016
O  59.258925 27.002376 46.705063
O  57.363816 25.913217 47.134159
H  57.617121 27.87645 47.454361
100
Image 2. Energy: -22874.390824131995 
C  56.08480833850174 37.44768064226824 62.533196536813215
H  56.92693357570037 37.43339240798389 61.847739794788524
H  55.811213737568906 38.39168009415558 63.042701814090435
C  55.305783896260635 36.40002285511176 62.85126147593819
C  54.151254800933664 36.56443278969013 63.85583629480981
O  53.78187879962782 37.72570742880015 64.1308585740331
O  53.67988150185868 35.4933031886221 64.33375082593287
O  55.41755154675148 35.14741681672924 62.378456578116705
C  56.70826598272964 34.507761328164186 62.08643954330613
H  56.40768721237015 33.468134487803496 61.891369621115686
C  57.541469317810346 34.62425200794569 63.31704175369959
H  57.201946753873614 34.101854969260266 64.21695472434054
C  58.60404084841222 35.45085145800841 63.403028825374435
C  59.08807043755116 36.13961570369915 62.20471129602642
H  59.93410988302446 36.81649273891985 62.336478659203884
C  58.52945087680384 35.942697249222704 60.99353839356386
H  58.916936258990575 36.43948878642792 60.09836170039286
C  57.40605359551378 34.95134688624117 60.78228138353745
H  56.63850288166748 35.37654721499712 60.10876878298589
O  57.95304657005644 33.755754268334194 60.26076501461068
H  58.22541831461791 33.8823175627836 59.334305022933144
C  59.25935475722832 35.711845369656835 64.76668420548293
O  58.89363239670148 34.98529738294101 65.72293539411793
O  60.09567415544641 36.662552462243504 64.81878725477428
C  51.0783 35.2298 63.6566
N  51.228877 35.61502 62.392546
H  50.91836 36.277522 63.0888
H  51.425046 34.659982 62.656213
N  50.669401 36.102204 64.573449
H  50.86557 35.147166 64.837116
H  50.783749 36.39474 63.613528
N  51.336621 33.972176 64.003805
H  51.45097 34.264711 63.043884
H  51.026104 34.634678 64.700059
C  64.0774 35.2869 45.5285
O  65.261225 35.348676 45.131963
O  63.366116 34.259517 45.561059
H  63.619421 36.22275 45.881261
C  66.2928 24.2336 56.8278
O  67.476625 24.295376 56.431263
O  65.581516 23.206217 56.860359
H  65.834821 25.16945 57.180561
C  56.2593 31.7457 66.2272
N  56.409877 32.13092 64.963146
H  56.09936 32.793422 65.6594
H  56.606046 31.175882 65.226813
N  55.850401 32.618104 67.144049
H  56.04657 31.663066 67.407716
H  55.964749 32.91064 66.184128
N  56.517621 30.488076 66.574405
H  56.63197 30.780611 65.614484
H  56.207104 31.150578 67.270659
C  54.9773 24.021 60.3344
N  55.127877 24.40622 59.070346
H  54.81736 25.068722 59.7666
H  55.324046 23.451182 59.334013
N  54.568401 24.893404 61.251249
H  54.76457 23.938366 61.514916
H  54.682749 25.18594 60.291328
N  55.235621 22.763376 60.681605
H  55.34997 23.055911 59.721684
H  54.925104 23.425878 61.377859
C  69.2501 33.1912 49.2088
O  70.433925 33.252976 48.812263
O  68.538816 32.163817 49.241359
H  68.792121 34.12705 49.561561
C  63.858 34.4666 65.3911
N  64.008577 34.85182 64.127046
H  63.69806 35.514322 64.8233
H  64.204746 33.896782 64.390713
N  63.449101 35.339004 66.307949
H  63.64527 34.383966 66.571616
H  63.563449 35.63154 65.348028
N  64.116321 33.208976 65.738305
H  64.23067 33.501511 64.778384
H  63.805804 33.871478 66.434559
C  62.4823 39.901 63.9924
N  62.632877 40.28622 62.728346
H  62.32236 40.948722 63.4246
H  62.829046 39.331182 62.992013
N  62.073401 40.773404 64.909249
H  62.26957 39.818366 65.172916
H  62.187749 41.06594 63.949328
N  62.740621 38.643376 64.339605
H  62.85497 38.935911 63.379684
H  62.430104 39.305878 65.035859
C  56.1298 40.3696 64.5471
N  56.280377 40.75482 63.283046
H  55.96986 41.417322 63.9793
H  56.476546 39.799782 63.546713
N  55.720901 41.242004 65.463949
H  55.91707 40.286966 65.727616
H  55.835249 41.53454 64.504028
N  56.388121 39.111976 64.894305
H  56.50247 39.404511 63.934384
H  56.077604 39.774478 65.590559
C  58.0751 26.9406 47.1016
O  59.258925 27.002376 46.705063
O  57.363816 25.913217 47.134159
H  57.617121 27.87645 47.454361
100
Image 3. Energy: -22874.271989186644 
C  56.091027398214464 37.26496168977428 62.67885761063642
H  56.95278473625614 37.23093981010764 62.02329660165025
H  55.70760918660428 38.2264798309797 63.05402611080509
C  55.38561649562006 36.18455817094703 63.055184059035504
C  54.14762710657979 36.40802249259206 63.97557173570568
O  53.74460073061959 37.583405979289154 64.12035423478893
O  53.64254395719707 35.38385738816665 64.51434696567566
O  55.64133501957238 34.90534025853376 62.69979636169596
C  56.99072309806051 34.37056251943684 62.2159076992264
H  56.73359644500747 33.31259881485345 62.05687163230009
C  57.91874839483278 34.58903380485316 63.3572428693495
H  57.748572065280676 34.01637612968331 64.27375978887659
C  58.83705507874014 35.58223156436208 63.352448989503166
C  59.17170148533165 36.26669280507816 62.10355654832234
H  59.9297928884129 37.04976945064128 62.16164473076139
C  58.60319110749961 35.92389469105021 60.93160183924897
H  58.92935792802491 36.37373104511247 59.98676954613062
C  57.5267238796949 34.86434944972599 60.836816079407605
H  56.66878377648683 35.275108991888715 60.27542468833191
O  58.05796104152158 33.721150895445746 60.19520094232951
H  58.24580226147431 33.91819317395864 59.256222262223964
C  59.4970177312848 36.03079301325628 64.6618790953239
O  59.376811651821164 35.27633608591917 65.65410554793606
O  60.07956822587985 37.15938286435992 64.63962253074573
C  51.0783 35.2298 63.6566
N  51.228877 35.61502 62.392546
H  50.91836 36.277522 63.0888
H  51.425046 34.659982 62.656213
N  50.669401 36.102204 64.573449
H  50.86557 35.147166 64.837116
H  50.783749 36.39474 63.613528
N  51.336621 33.972176 64.003805
H  51.45097 34.264711 63.043884
H  51.026104 34.634678 64.700059
C  64.0774 35.2869 45.5285
O  65.261225 35.348676 45.131963
O  63.366116 34.259517 45.561059
H  63.619421 36.22275 45.881261
C  66.2928 24.2336 56.8278
O  67.476625 24.295376 56.431263
O  65.581516 23.206217 56.860359
H  65.834821 25.16945 57.180561
C  56.2593 31.7457 66.2272
N  56.409877 32.13092 64.963146
H  56.09936 32.793422 65.6594
H  56.606046 31.175882 65.226813
N  55.850401 32.618104 67.144049
H  56.04657 31.663066 67.407716
H  55.964749 32.91064 66.184128
N  56.517621 30.488076 66.574405
H  56.63197 30.780611 65.614484
H  56.207104 31.150578 67.270659
C  54.9773 24.021 60.3344
N  55.127877 24.40622 59.070346
H  54.81736 25.068722 59.7666
H  55.324046 23.451182 59.334013
N  54.568401 24.893404 61.251249
H  54.76457 23.938366 61.514916
H  54.682749 25.18594 60.291328
N  55.235621 22.763376 60.681605
H  55.34997 23.055911 59.721684
H  54.925104 23.425878 61.377859
C  69.2501 33.1912 49.2088
O  70.433925 33.252976 48.812263
O  68.538816 32.163817 49.241359
H  68.792121 34.12705 49.561561
C  63.858 34.4666 65.3911
N  64.008577 34.85182 64.127046
H  63.69806 35.514322 64.8233
H  64.204746 33.896782 64.390713
N  63.449101 35.339004 66.307949
H  63.64527 34.383966 66.571616
H  63.563449 35.63154 65.348028
N  64.116321 33.208976 65.738305
H  64.23067 33.501511 64.778384
H  63.805804 33.871478 66.434559
C  62.4823 39.901 63.9924
N  62.632877 40.28622 62.728346
H  62.32236 40.948722 63.4246
H  62.829046 39.331182 62.992013
N  62.073401 40.773404 64.909249
H  62.26957 39.818366 65.172916
H  62.187749 41.06594 63.949328
N  62.740621 38.643376 64.339605
H  62.85497 38.935911 63.379684
H  62.430104 39.305878 65.035859
C  56.1298 40.3696 64.5471
N  56.280377 40.75482 63.283046
H  55.96986 41.417322 63.9793
H  56.476546 39.799782 63.546713
N  55.720901 41.242004 65.463949
H  55.91707 40.286966 65.727616
H  55.835249 41.53454 64.504028
N  56.388121 39.111976 64.894305
H  56.50247 39.404511 63.934384
H  56.077604 39.774478 65.590559
C  58.0751 26.9406 47.1016
O  59.258925 27.002376 46.705063
O  57.363816 25.913217 47.134159
H  57.617121 27.87645 47.454361
100
Image 4. Energy: -22873.636404063218 
C  56.16558758936243 37.23095553141355 62.76919563460803
H  57.016774242741555 37.14215940049366 62.10582282130624
H  55.85909426082239 38.2337575768256 63.12309540064827
C  55.41189226440879 36.17617451726144 63.17705422838371
C  54.16656896489824 36.4902041301715 64.09125917397054
O  53.82105232996878 37.68468648099103 64.21766470129536
O  53.588491830630126 35.49464062900301 64.6139281477356
O  55.617868452287944 34.91664363197333 62.8551520493692
C  57.33839840719729 34.205960299725184 62.17933780049374
H  56.87987797349236 33.21924384542733 62.07197488274601
C  58.104366052795406 34.50936064595271 63.34372798518298
H  57.92757313873806 33.950127276319 64.26362000686025
C  58.96919915952494 35.57137272126946 63.35509971261588
C  59.31814407357689 36.25533455021341 62.124192803548844
H  60.02420322410646 37.08271210126067 62.20304885934848
C  58.821187662093685 35.8575158526581 60.93279729778386
H  59.145923099052766 36.31191586694419 59.99046474041907
C  57.787012754476635 34.76589187968264 60.83056954226011
H  56.88500555432675 35.22008595005325 60.374850597121146
O  58.257684039736816 33.674532006224645 60.07481788543247
H  58.37565253420835 33.935845354494106 59.13970336873058
C  59.58844108798808 36.03995068052813 64.67973992382126
O  59.47200265639706 35.27047972244926 65.65911131239008
O  60.152135617169606 37.17554508863419 64.66853464392251
C  51.0783 35.2298 63.6566
N  51.228877 35.61502 62.392546
H  50.91836 36.277522 63.0888
H  51.425046 34.659982 62.656213
N  50.669401 36.102204 64.573449
H  50.86557 35.147166 64.837116
H  50.783749 36.39474 63.613528
N  51.336621 33.972176 64.003805
H  51.45097 34.264711 63.043884
H  51.026104 34.634678 64.700059
C  64.0774 35.2869 45.5285
O  65.261225 35.348676 45.131963
O  63.366116 34.259517 45.561059
H  63.619421 36.22275 45.881261
C  66.2928 24.2336 56.8278
O  67.476625 24.295376 56.431263
O  65.581516 23.206217 56.860359
H  65.834821 25.16945 57.180561
C  56.2593 31.7457 66.2272
N  56.409877 32.13092 64.963146
H  56.09936 32.793422 65.6594
H  56.606046 31.175882 65.226813
N  55.850401 32.618104 67.144049
H  56.04657 31.663066 67.407716
H  55.964749 32.91064 66.184128
N  56.517621 30.488076 66.574405
H  56.63197 30.780611 65.614484
H  56.207104 31.150578 67.270659
C  54.9773 24.021 60.3344
N  55.127877 24.40622 59.070346
H  54.81736 25.068722 59.7666
H  55.324046 23.451182 59.334013
N  54.568401 24.893404 61.251249
H  54.76457 23.938366 61.514916
H  54.682749 25.18594 60.291328
N  55.235621 22.763376 60.681605
H  55.34997 23.055911 59.721684
H  54.925104 23.425878 61.377859
C  69.2501 33.1912 49.2088
O  70.433925 33.252976 48.812263
O  68.538816 32.163817 49.241359
H  68.792121 34.12705 49.561561
C  63.858 34.4666 65.3911
N  64.008577 34.85182 64.127046
H  63.69806 35.514322 64.8233
H  64.204746 33.896782 64.390713
N  63.449101 35.339004 66.307949
H  63.64527 34.383966 66.571616
H  63.563449 35.63154 65.348028
N  64.116321 33.208976 65.738305
H  64.23067 33.501511 64.778384
H  63.805804 33.871478 66.434559
C  62.4823 39.901 63.9924
N  62.632877 40.28622 62.728346
H  62.32236 40.948722 63.4246
H  62.829046 39.331182 62.992013
N  62.073401 40.773404 64.909249
H  62.26957 39.818366 65.172916
H  62.187749 41.06594 63.949328
N  62.740621 38.643376 64.339605
H  62.85497 38.935911 63.379684
H  62.430104 39.305878 65.035859
C  56.1298 40.3696 64.5471
N  56.280377 40.75482 63.283046
H  55.96986 41.417322 63.9793
H  56.476546 39.799782 63.546713
N  55.720901 41.242004 65.463949
H  55.91707 40.286966 65.727616
H  55.835249 41.53454 64.504028
N  56.388121 39.111976 64.894305
H  56.50247 39.404511 63.934384
H  56.077604 39.774478 65.590559
C  58.0751 26.9406 47.1016
O  59.258925 27.002376 46.705063
O  57.363816 25.913217 47.134159
H  57.617121 27.87645 47.454361
100
Image 5. Energy: -22873.476274553614 
C  56.246154577392396 37.20151921542286 62.84572337220986
H  57.088752161516915 37.0712469214536 62.17607829383334
H  56.00796521395385 38.24198566044842 63.17129719494913
C  55.433548864554616 36.18192481673755 63.299038639679594
C  54.19522305999566 36.56024905260025 64.18941618212733
O  53.87779133009329 37.76535386585849 64.30241648233542
O  53.569184169752575 35.57930198717291 64.68904853064858
O  55.568716032108604 34.93908420553214 63.02825067488975
C  57.69133708302414 34.03463288739477 62.14177895947842
H  57.086433217089656 33.1297958977841 62.06890345640994
C  58.2658364591356 34.44692528088114 63.330317487393884
H  58.0544418798185 33.92335749672944 64.26275218184398
C  59.099745328477496 35.56445443382251 63.360198817482235
C  59.45895316300144 36.23929390337551 62.15000116536655
H  60.121932881557406 37.09971522081527 62.237587605400485
C  59.024726364782865 35.794503470635696 60.93825651454942
H  59.33511896567344 36.268639056102174 60.001309604123264
C  58.06005724596449 34.65453978548182 60.8348804152803
H  57.10419557310484 35.15864343164455 60.51473066461216
O  58.429757592552065 33.63368856771159 59.961131504195215
H  58.5175290945103 33.96173107666372 59.0469252884966
C  59.69125283636985 36.038586833390774 64.69888109137447
O  59.58246587060369 35.249043590258346 65.66153155733274
O  60.248603264950354 37.17420390209978 64.69856285598247
C  51.0783 35.2298 63.6566
N  51.228877 35.61502 62.392546
H  50.91836 36.277522 63.0888
H  51.425046 34.659982 62.656213
N  50.669401 36.102204 64.573449
H  50.86557 35.147166 64.837116
H  50.783749 36.39474 63.613528
N  51.336621 33.972176 64.003805
H  51.45097 34.264711 63.043884
H  51.026104 34.634678 64.700059
C  64.0774 35.2869 45.5285
O  65.261225 35.348676 45.131963
O  63.366116 34.259517 45.561059
H  63.619421 36.22275 45.881261
C  66.2928 24.2336 56.8278
O  67.476625 24.295376 56.431263
O  65.581516 23.206217 56.860359
H  65.834821 25.16945 57.180561
C  56.2593 31.7457 66.2272
N  56.409877 32.13092 64.963146
H  56.09936 32.793422 65.6594
H  56.606046 31.175882 65.226813
N  55.850401 32.618104 67.144049
H  56.04657 31.663066 67.407716
H  55.964749 32.91064 66.184128
N  56.517621 30.488076 66.574405
H  56.63197 30.780611 65.614484
H  56.207104 31.150578 67.270659
C  54.9773 24.021 60.3344
N  55.127877 24.40622 59.070346
H  54.81736 25.068722 59.7666
H  55.324046 23.451182 59.334013
N  54.568401 24.893404 61.251249
H  54.76457 23.938366 61.514916
H  54.682749 25.18594 60.291328
N  55.235621 22.763376 60.681605
H  55.34997 23.055911 59.721684
H  54.925104 23.425878 61.377859
C  69.2501 33.1912 49.2088
O  70.433925 33.252976 48.812263
O  68.538816 32.163817 49.241359
H  68.792121 34.12705 49.561561
C  63.858 34.4666 65.3911
N  64.008577 34.85182 64.127046
H  63.69806 35.514322 64.8233
H  64.204746 33.896782 64.390713
N  63.449101 35.339004 66.307949
H  63.64527 34.383966 66.571616
H  63.563449 35.63154 65.348028
N  64.116321 33.208976 65.738305
H  64.23067 33.501511 64.778384
H  63.805804 33.871478 66.434559
C  62.4823 39.901 63.9924
N  62.632877 40.28622 62.728346
H  62.32236 40.948722 63.4246
H  62.829046 39.331182 62.992013
N  62.073401 40.773404 64.909249
H  62.26957 39.818366 65.172916
H  62.187749 41.06594 63.949328
N  62.740621 38.643376 64.339605
H  62.85497 38.935911 63.379684
H  62.430104 39.305878 65.035859
C  56.1298 40.3696 64.5471
N  56.280377 40.75482 63.283046
H  55.96986 41.417322 63.9793
H  56.476546 39.799782 63.546713
N  55.720901 41.242004 65.463949
H  55.91707 40.286966 65.727616
H  55.835249 41.53454 64.504028
N  56.388121 39.111976 64.894305
H  56.50247 39.404511 63.934384
H  56.077604 39.774478 65.590559
C  58.0751 26.9406 47.1016
O  59.258925 27.002376 46.705063
O  57.363816 25.913217 47.134159
H  57.617121 27.87645 47.454361
100
Image 6. Energy: -22873.50946674741 
C  56.31869134803585 37.159136296054214 62.920700924043416
H  57.184124311714925 36.993066038701485 62.28763097224407
H  56.08240707932644 38.225075964061645 63.16765540852766
C  55.52071307563956 36.16601014754185 63.46910385531303
C  54.23238565269228 36.59512422322125 64.25607465119631
O  53.92425218669821 37.80871492003983 64.32873455922797
O  53.55082539473404 35.635285861993296 64.72600864095902
O  55.69798123208192 34.91101129054316 63.34539867527659
C  57.959847746671706 33.92068942957405 62.114416173828985
H  57.319115240692504 33.040039821212254 62.04396733474092
C  58.420026222609906 34.40714384641402 63.316519376860704
H  58.15869961475744 33.91417792748329 64.2515974685782
C  59.238674798403835 35.543491659448364 63.358342349705964
C  59.59484293543715 36.212968486993496 62.15861649856082
H  60.20883041668351 37.10883407345923 62.24584699818146
C  59.226720387617696 35.725015102827605 60.93011757908692
H  59.52531625834504 36.21442925726283 59.99728936980685
C  58.32670798278974 34.552132504708226 60.837366564426134
H  57.34840916715802 35.16311175191595 60.728535395247356
O  58.46943403462323 33.633599164517214 59.836341706065646
H  58.68609314888948 34.033999684747926 58.97413535321523
C  59.79779868353579 36.034132233562886 64.70510084222973
O  59.71114933188325 35.23030086760606 65.6590315784429
O  60.32226126899128 37.18225484609874 64.71474127423231
C  51.0783 35.2298 63.6566
N  51.228877 35.61502 62.392546
H  50.91836 36.277522 63.0888
H  51.425046 34.659982 62.656213
N  50.669401 36.102204 64.573449
H  50.86557 35.147166 64.837116
H  50.783749 36.39474 63.613528
N  51.336621 33.972176 64.003805
H  51.45097 34.264711 63.043884
H  51.026104 34.634678 64.700059
C  64.0774 35.2869 45.5285
O  65.261225 35.348676 45.131963
O  63.366116 34.259517 45.561059
H  63.619421 36.22275 45.881261
C  66.2928 24.2336 56.8278
O  67.476625 24.295376 56.431263
O  65.581516 23.206217 56.860359
H  65.834821 25.16945 57.180561
C  56.2593 31.7457 66.2272
N  56.409877 32.13092 64.963146
H  56.09936 32.793422 65.6594
H  56.606046 31.175882 65.226813
N  55.850401 32.618104 67.144049
H  56.04657 31.663066 67.407716
H  55.964749 32.91064 66.184128
N  56.517621 30.488076 66.574405
H  56.63197 30.780611 65.614484
H  56.207104 31.150578 67.270659
C  54.9773 24.021 60.3344
N  55.127877 24.40622 59.070346
H  54.81736 25.068722 59.7666
H  55.324046 23.451182 59.334013
N  54.568401 24.893404 61.251249
H  54.76457 23.938366 61.514916
H  54.682749 25.18594 60.291328
N  55.235621 22.763376 60.681605
H  55.34997 23.055911 59.721684
H  54.925104 23.425878 61.377859
C  69.2501 33.1912 49.2088
O  70.433925 33.252976 48.812263
O  68.538816 32.163817 49.241359
H  68.792121 34.12705 49.561561
C  63.858 34.4666 65.3911
N  64.008577 34.85182 64.127046
H  63.69806 35.514322 64.8233
H  64.204746 33.896782 64.390713
N  63.449101 35.339004 66.307949
H  63.64527 34.383966 66.571616
H  63.563449 35.63154 65.348028
N  64.116321 33.208976 65.738305
H  64.23067 33.501511 64.778384
H  63.805804 33.871478 66.434559
C  62.4823 39.901 63.9924
N  62.632877 40.28622 62.728346
H  62.32236 40.948722 63.4246
H  62.829046 39.331182 62.992013
N  62.073401 40.773404 64.909249
H  62.26957 39.818366 65.172916
H  62.187749 41.06594 63.949328
N  62.740621 38.643376 64.339605
H  62.85497 38.935911 63.379684
H  62.430104 39.305878 65.035859
C  56.1298 40.3696 64.5471
N  56.280377 40.75482 63.283046
H  55.96986 41.417322 63.9793
H  56.476546 39.799782 63.546713
N  55.720901 41.242004 65.463949
H  55.91707 40.286966 65.727616
H  55.835249 41.53454 64.504028
N  56.388121 39.111976 64.894305
H  56.50247 39.404511 63.934384
H  56.077604 39.774478 65.590559
C  58.0751 26.9406 47.1016
O  59.258925 27.002376 46.705063
O  57.363816 25.913217 47.134159
H  57.617121 27.87645 47.454361
100
Image 7. Energy: -22873.655541723616 
C  56.395446072642045 37.0969221600319 62.99677719348111
H  57.31434788403629 36.90785517255107 62.44843173794327
H  56.09925873089963 38.16836766896672 63.10515722598358
C  55.647123834739126 36.1397569366255 63.67109558448812
C  54.27778982407306 36.599360686610154 64.28879220782119
O  53.96118160493816 37.81580983573001 64.30278538531503
O  53.54170243991249 35.656990789080695 64.70511022716103
O  55.91304683825305 34.89653581818414 63.77863407550096
C  58.169345652262884 33.85362465538478 62.0914126879536
H  57.51823895426346 32.98056005539155 62.01623886758579
C  58.57494196847099 34.373736128482015 63.30180942201066
H  58.28497247711824 33.89529652924395 64.23363919844907
C  59.388739183040784 35.51544511398202 63.35367568317718
C  59.73356266398953 36.18671522019959 62.16362199134595
H  60.31304665702633 37.10598923624442 62.24817545022939
C  59.39320759057422 35.68464461789464 60.92196330630647
H  59.67713147087383 36.190408845856375 59.99319493359859
C  58.5511227569492 34.48668941045743 60.83177965336436
H  57.58516157587334 35.18399626769402 60.892518123359295
O  58.526584783729305 33.66795641624761 59.76514336584942
H  58.867038748222534 34.06875606353664 58.94309924743415
C  59.913539975549234 36.023490968135036 64.70626319237499
O  59.87217000476896 35.20764342807793 65.65065109212271
O  60.37219107780392 37.20051817539132 64.72755872713371
C  51.0783 35.2298 63.6566
N  51.228877 35.61502 62.392546
H  50.91836 36.277522 63.0888
H  51.425046 34.659982 62.656213
N  50.669401 36.102204 64.573449
H  50.86557 35.147166 64.837116
H  50.783749 36.39474 63.613528
N  51.336621 33.972176 64.003805
H  51.45097 34.264711 63.043884
H  51.026104 34.634678 64.700059
C  64.0774 35.2869 45.5285
O  65.261225 35.348676 45.131963
O  63.366116 34.259517 45.561059
H  63.619421 36.22275 45.881261
C  66.2928 24.2336 56.8278
O  67.476625 24.295376 56.431263
O  65.581516 23.206217 56.860359
H  65.834821 25.16945 57.180561
C  56.2593 31.7457 66.2272
N  56.409877 32.13092 64.963146
H  56.09936 32.793422 65.6594
H  56.606046 31.175882 65.226813
N  55.850401 32.618104 67.144049
H  56.04657 31.663066 67.407716
H  55.964749 32.91064 66.184128
N  56.517621 30.488076 66.574405
H  56.63197 30.780611 65.614484
H  56.207104 31.150578 67.270659
C  54.9773 24.021 60.3344
N  55.127877 24.40622 59.070346
H  54.81736 25.068722 59.7666
H  55.324046 23.451182 59.334013
N  54.568401 24.893404 61.251249
H  54.76457 23.938366 61.514916
H  54.682749 25.18594 60.291328
N  55.235621 22.763376 60.681605
H  55.34997 23.055911 59.721684
H  54.925104 23.425878 61.377859
C  69.2501 33.1912 49.2088
O  70.433925 33.252976 48.812263
O  68.538816 32.163817 49.241359
H  68.792121 34.12705 49.561561
C  63.858 34.4666 65.3911
N  64.008577 34.85182 64.127046
H  63.69806 35.514322 64.8233
H  64.204746 33.896782 64.390713
N  63.449101 35.339004 66.307949
H  63.64527 34.383966 66.571616
H  63.563449 35.63154 65.348028
N  64.116321 33.208976 65.738305
H  64.23067 33.501511 64.778384
H  63.805804 33.871478 66.434559
C  62.4823 39.901 63.9924
N  62.632877 40.28622 62.728346
H  62.32236 40.948722 63.4246
H  62.829046 39.331182 62.992013
N  62.073401 40.773404 64.909249
H  62.26957 39.818366 65.172916
H  62.187749 41.06594 63.949328
N  62.740621 38.643376 64.339605
H  62.85497 38.935911 63.379684
H  62.430104 39.305878 65.035859
C  56.1298 40.3696 64.5471
N  56.280377 40.75482 63.283046
H  55.96986 41.417322 63.9793
H  56.476546 39.799782 63.546713
N  55.720901 41.242004 65.463949
H  55.91707 40.286966 65.727616
H  55.835249 41.53454 64.504028
N  56.388121 39.111976 64.894305
H  56.50247 39.404511 63.934384
H  56.077604 39.774478 65.590559
C  58.0751 26.9406 47.1016
O  59.258925 27.002376 46.705063
O  57.363816 25.913217 47.134159
H  57.617121 27.87645 47.454361
100
Image 8. Energy: -22873.876478865805 
C  56.486285295669646 37.001146235850406 63.08698831050549
H  57.465616867600424 36.81956341016711 62.63871598600539
H  56.069550839070985 38.017895969156434 62.95730830787037
C  55.77352358360794 36.10980327484389 63.884583791334634
C  54.336747731951654 36.559878605376525 64.30384125717167
O  54.009293664931015 37.77235947497284 64.24909763582039
O  53.57455877498461 35.610943430023646 64.66056464527973
O  56.1353770198207 34.93709468259047 64.24605775933455
C  58.34286206477267 33.82098687530562 62.08646813008263
H  57.701481014069145 32.94097778476803 62.0074665345884
C  58.73910103581132 34.34529584001987 63.29707090126027
H  58.438182161391666 33.875751410554244 64.22860552831501
C  59.539915904783506 35.501665742488264 63.35379084169087
C  59.872636128921854 36.17479887241597 62.17182973135155
H  60.42440009525337 37.111062615766485 62.250341920328566
C  59.532183878872665 35.670001939559974 60.922229208235244
H  59.79873056192562 36.18692347934882 59.99472269388348
C  58.72844434790586 34.45766289811913 60.83292957694685
H  57.8184794610318 35.2499185401917 60.96879716317266
O  58.613659099322795 33.70099692234296 59.74083133550563
H  59.02355727491475 34.078333271894415 58.93806022180937
C  60.04272726886315 36.02876144108053 64.70602256443534
O  60.09813389028705 35.19090956452348 65.6315682121766
O  60.39103008423277 37.24166273862958 64.74389137290535
C  51.0783 35.2298 63.6566
N  51.228877 35.61502 62.392546
H  50.91836 36.277522 63.0888
H  51.425046 34.659982 62.656213
N  50.669401 36.102204 64.573449
H  50.86557 35.147166 64.837116
H  50.783749 36.39474 63.613528
N  51.336621 33.972176 64.003805
H  51.45097 34.264711 63.043884
H  51.026104 34.634678 64.700059
C  64.0774 35.2869 45.5285
O  65.261225 35.348676 45.131963
O  63.366116 34.259517 45.561059
H  63.619421 36.22275 45.881261
C  66.2928 24.2336 56.8278
O  67.476625 24.295376 56.431263
O  65.581516 23.206217 56.860359
H  65.834821 25.16945 57.180561
C  56.2593 31.7457 66.2272
N  56.409877 32.13092 64.963146
H  56.09936 32.793422 65.6594
H  56.606046 31.175882 65.226813
N  55.850401 32.618104 67.144049
H  56.04657 31.663066 67.407716
H  55.964749 32.91064 66.184128
N  56.517621 30.488076 66.574405
H  56.63197 30.780611 65.614484
H  56.207104 31.150578 67.270659
C  54.9773 24.021 60.3344
N  55.127877 24.40622 59.070346
H  54.81736 25.068722 59.7666
H  55.324046 23.451182 59.334013
N  54.568401 24.893404 61.251249
H  54.76457 23.938366 61.514916
H  54.682749 25.18594 60.291328
N  55.235621 22.763376 60.681605
H  55.34997 23.055911 59.721684
H  54.925104 23.425878 61.377859
C  69.2501 33.1912 49.2088
O  70.433925 33.252976 48.812263
O  68.538816 32.163817 49.241359
H  68.792121 34.12705 49.561561
C  63.858 34.4666 65.3911
N  64.008577 34.85182 64.127046
H  63.69806 35.514322 64.8233
H  64.204746 33.896782 64.390713
N  63.449101 35.339004 66.307949
H  63.64527 34.383966 66.571616
H  63.563449 35.63154 65.348028
N  64.116321 33.208976 65.738305
H  64.23067 33.501511 64.778384
H  63.805804 33.871478 66.434559
C  62.4823 39.901 63.9924
N  62.632877 40.28622 62.728346
H  62.32236 40.948722 63.4246
H  62.829046 39.331182 62.992013
N  62.073401 40.773404 64.909249
H  62.26957 39.818366 65.172916
H  62.187749 41.06594 63.949328
N  62.740621 38.643376 64.339605
H  62.85497 38.935911 63.379684
H  62.430104 39.305878 65.035859
C  56.1298 40.3696 64.5471
N  56.280377 40.75482 63.283046
H  55.96986 41.417322 63.9793
H  56.476546 39.799782 63.546713
N  55.720901 41.242004 65.463949
H  55.91707 40.286966 65.727616
H  55.835249 41.53454 64.504028
N  56.388121 39.111976 64.894305
H  56.50247 39.404511 63.934384
H  56.077604 39.774478 65.590559
C  58.0751 26.9406 47.1016
O  59.258925 27.002376 46.705063
O  57.363816 25.913217 47.134159
H  57.617121 27.87645 47.454361
100
Image 9. Energy: -22874.23795782534 
C  56.60851337220685 36.85825903780044 63.26131510408896
H  57.65493990523807 36.72971828693059 62.998354357696606
H  56.10146703892283 37.74936652580151 62.87428975739734
C  55.89946357401695 36.027288820664374 64.12295786353741
C  54.397231290939395 36.42768516780139 64.31338210060014
O  54.03729134041785 37.61597674914536 64.15581197348413
O  53.61388383829765 35.47709699732118 64.61202504781133
O  56.294716968549494 34.96152208772055 64.7277347692237
C  58.51476682118429 33.815855378019286 62.08574480551776
H  57.89331368966727 32.92066586353526 62.01239105824629
C  58.912050264309514 34.35343110188214 63.28715000125612
H  58.595674533666084 33.89993611375755 64.22351130194485
C  59.68737246805208 35.536116436322374 63.33358244188553
C  59.98728456235379 36.20613901668482 62.151848998793476
H  60.509441882112895 37.160576659318686 62.21000736191982
C  59.6317890582851 35.687814872961646 60.901784340866726
H  59.87598742244697 36.20934454293089 59.97022592581984
C  58.88722322477915 34.44579469285623 60.82708320006896
H  58.03115328285983 35.33441674828127 60.988537058000695
O  58.726070300863704 33.7209308452571 59.73016892504034
H  59.17190551748414 34.077240158219766 58.93448406143269
C  60.192551586174915 36.09582292839548 64.66521392937189
O  60.46850189232872 35.24413806584051 65.54019611669861
O  60.32946948482463 37.34658276258344 64.73823810927766
C  51.0783 35.2298 63.6566
N  51.228877 35.61502 62.392546
H  50.91836 36.277522 63.0888
H  51.425046 34.659982 62.656213
N  50.669401 36.102204 64.573449
H  50.86557 35.147166 64.837116
H  50.783749 36.39474 63.613528
N  51.336621 33.972176 64.003805
H  51.45097 34.264711 63.043884
H  51.026104 34.634678 64.700059
C  64.0774 35.2869 45.5285
O  65.261225 35.348676 45.131963
O  63.366116 34.259517 45.561059
H  63.619421 36.22275 45.881261
C  66.2928 24.2336 56.8278
O  67.476625 24.295376 56.431263
O  65.581516 23.206217 56.860359
H  65.834821 25.16945 57.180561
C  56.2593 31.7457 66.2272
N  56.409877 32.13092 64.963146
H  56.09936 32.793422 65.6594
H  56.606046 31.175882 65.226813
N  55.850401 32.618104 67.144049
H  56.04657 31.663066 67.407716
H  55.964749 32.91064 66.184128
N  56.517621 30.488076 66.574405
H  56.63197 30.780611 65.614484
H  56.207104 31.150578 67.270659
C  54.9773 24.021 60.3344
N  55.127877 24.40622 59.070346
H  54.81736 25.068722 59.7666
H  55.324046 23.451182 59.334013
N  54.568401 24.893404 61.251249
H  54.76457 23.938366 61.514916
H  54.682749 25.18594 60.291328
N  55.235621 22.763376 60.681605
H  55.34997 23.055911 59.721684
H  54.925104 23.425878 61.377859
C  69.2501 33.1912 49.2088
O  70.433925 33.252976 48.812263
O  68.538816 32.163817 49.241359
H  68.792121 34.12705 49.561561
C  63.858 34.4666 65.3911
N  64.008577 34.85182 64.127046
H  63.69806 35.514322 64.8233
H  64.204746 33.896782 64.390713
N  63.449101 35.339004 66.307949
H  63.64527 34.383966 66.571616
H  63.563449 35.63154 65.348028
N  64.116321 33.208976 65.738305
H  64.23067 33.501511 64.778384
H  63.805804 33.871478 66.434559
C  62.4823 39.901 63.9924
N  62.632877 40.28622 62.728346
H  62.32236 40.948722 63.4246
H  62.829046 39.331182 62.992013
N  62.073401 40.773404 64.909249
H  62.26957 39.818366 65.172916
H  62.187749 41.06594 63.949328
N  62.740621 38.643376 64.339605
H  62.85497 38.935911 63.379684
H  62.430104 39.305878 65.035859
C  56.1298 40.3696 64.5471
N  56.280377 40.75482 63.283046
H  55.96986 41.417322 63.9793
H  56.476546 39.799782 63.546713
N  55.720901 41.242004 65.463949
H  55.91707 40.286966 65.727616
H  55.835249 41.53454 64.504028
N  56.388121 39.111976 64.894305
H  56.50247 39.404511 63.934384
H  56.077604 39.774478 65.590559
C  58.0751 26.9406 47.1016
O  59.258925 27.002376 46.705063
O  57.363816 25.913217 47.134159
H  57.617121 27.87645 47.454361
100
Image 10. Energy: -22874.399590906964 
C  56.86182354182158 36.70951301088746 63.630821418450665
H  57.93480392089473 36.758278922135275 63.77569870480298
H  56.418275383785854 37.48804062448136 62.99831353335552
C  56.026542330689104 35.899385209209505 64.37582165782618
C  54.50759575983856 36.2260836906881 64.20650814205274
O  54.15854183214153 37.390113862715204 63.88549028708759
O  53.70007065923934 35.275070046761044 64.42730543667439
O  56.34893664677838 34.922699499528996 65.1613808947557
C  58.68323160746808 33.824753016765165 62.06007530517079
H  58.128270352297875 32.88656293027766 61.98243873719461
C  59.042447251426275 34.387162545531325 63.26068363641976
H  58.74276679055051 33.927793433019986 64.20283929734951
C  59.74798435484708 35.61300061442236 63.28713916907533
C  60.027232813341506 36.2957070080721 62.09675531831755
H  60.504313828825644 37.27429983147346 62.1607591897925
C  59.70522351496597 35.759152573173104 60.86079259832715
H  59.928934789217145 36.28169669380269 59.92459463552274
C  58.96255898882035 34.507068015394545 60.79392594774741
H  57.99600842097786 35.205049826574864 60.9442666311454
O  58.86594284613504 33.757410799475544 59.68565187809447
H  59.530279584870556 33.9764905722389 59.002667170779716
C  60.27511817440506 36.20443994987632 64.59699427471253
O  60.757430096853064 35.369565645322325 65.39157304953638
O  60.2333150698003 37.4597063881786 64.71779674583631
C  51.0783 35.2298 63.6566
N  51.228877 35.61502 62.392546
H  50.91836 36.277522 63.0888
H  51.425046 34.659982 62.656213
N  50.669401 36.102204 64.573449
H  50.86557 35.147166 64.837116
H  50.783749 36.39474 63.613528
N  51.336621 33.972176 64.003805
H  51.45097 34.264711 63.043884
H  51.026104 34.634678 64.700059
C  64.0774 35.2869 45.5285
O  65.261225 35.348676 45.131963
O  63.366116 34.259517 45.561059
H  63.619421 36.22275 45.881261
C  66.2928 24.2336 56.8278
O  67.476625 24.295376 56.431263
O  65.581516 23.206217 56.860359
H  65.834821 25.16945 57.180561
C  56.2593 31.7457 66.2272
N  56.409877 32.13092 64.963146
H  56.09936 32.793422 65.6594
H  56.606046 31.175882 65.226813
N  55.850401 32.618104 67.144049
H  56.04657 31.663066 67.407716
H  55.964749 32.91064 66.184128
N  56.517621 30.488076 66.574405
H  56.63197 30.780611 65.614484
H  56.207104 31.150578 67.270659
C  54.9773 24.021 60.3344
N  55.127877 24.40622 59.070346
H  54.81736 25.068722 59.7666
H  55.324046 23.451182 59.334013
N  54.568401 24.893404 61.251249
H  54.76457 23.938366 61.514916
H  54.682749 25.18594 60.291328
N  55.235621 22.763376 60.681605
H  55.34997 23.055911 59.721684
H  54.925104 23.425878 61.377859
C  69.2501 33.1912 49.2088
O  70.433925 33.252976 48.812263
O  68.538816 32.163817 49.241359
H  68.792121 34.12705 49.561561
C  63.858 34.4666 65.3911
N  64.008577 34.85182 64.127046
H  63.69806 35.514322 64.8233
H  64.204746 33.896782 64.390713
N  63.449101 35.339004 66.307949
H  63.64527 34.383966 66.571616
H  63.563449 35.63154 65.348028
N  64.116321 33.208976 65.738305
H  64.23067 33.501511 64.778384
H  63.805804 33.871478 66.434559
C  62.4823 39.901 63.9924
N  62.632877 40.28622 62.728346
H  62.32236 40.948722 63.4246
H  62.829046 39.331182 62.992013
N  62.073401 40.773404 64.909249
H  62.26957 39.818366 65.172916
H  62.187749 41.06594 63.949328
N  62.740621 38.643376 64.339605
H  62.85497 38.935911 63.379684
H  62.430104 39.305878 65.035859
C  56.1298 40.3696 64.5471
N  56.280377 40.75482 63.283046
H  55.96986 41.417322 63.9793
H  56.476546 39.799782 63.546713
N  55.720901 41.242004 65.463949
H  55.91707 40.286966 65.727616
H  55.835249 41.53454 64.504028
N  56.388121 39.111976 64.894305
H  56.50247 39.404511 63.934384
H  56.077604 39.774478 65.590559
C  58.0751 26.9406 47.1016
O  59.258925 27.002376 46.705063
O  57.363816 25.913217 47.134159
H  57.617121 27.87645 47.454361
100
Image 11. Energy: -22874.130861300702 
C  57.20501364708077 36.691018466739685 63.78295652542698
H  58.121157960890734 37.027458662954395 64.26312159298631
H  56.874916610716674 37.28999649225962 62.92739999774632
C  56.271028404667106 35.856983971797575 64.42190796509259
C  54.74781659396193 36.15078084153909 64.12527275688588
O  54.44900730297949 37.31571667810373 63.7548496678223
O  53.91941236344538 35.22341257617437 64.34840533043713
O  56.53898798805863 34.94458324518506 65.27196566676841
C  58.79897804124949 33.776573086333286 62.07566126275831
H  58.38801295420905 32.76864721506436 61.97195434190597
C  59.06402833044229 34.349305615388076 63.278654014372776
H  58.86209974831958 33.83491587879128 64.21928650791754
C  59.584482490636184 35.67957692509371 63.33477763452127
C  59.97304426965608 36.33680834547418 62.133672341018816
H  60.49336585171528 37.29175959043046 62.2276481388945
C  59.763606542944174 35.76723227760529 60.908841387386744
H  60.126724776872855 36.23070489156438 59.98611057823984
C  58.94616716710083 34.54187383890055 60.80311020314031
H  57.926408954164096 35.0793630103002 60.81619314658996
O  58.99936046102962 33.76672767513874 59.677570144879596
H  59.81665406853593 33.89057475692606 59.16528512100012
C  60.232801797299466 36.230985240293876 64.6101312988539
O  60.83911333598189 35.37297298513409 65.29364590803185
O  60.2110441580315 37.47839723281421 64.79612713728902
C  51.0783 35.2298 63.6566
N  51.228877 35.61502 62.392546
H  50.91836 36.277522 63.0888
H  51.425046 34.659982 62.656213
N  50.669401 36.102204 64.573449
H  50.86557 35.147166 64.837116
H  50.783749 36.39474 63.613528
N  51.336621 33.972176 64.003805
H  51.45097 34.264711 63.043884
H  51.026104 34.634678 64.700059
C  64.0774 35.2869 45.5285
O  65.261225 35.348676 45.131963
O  63.366116 34.259517 45.561059
H  63.619421 36.22275 45.881261
C  66.2928 24.2336 56.8278
O  67.476625 24.295376 56.431263
O  65.581516 23.206217 56.860359
H  65.834821 25.16945 57.180561
C  56.2593 31.7457 66.2272
N  56.409877 32.13092 64.963146
H  56.09936 32.793422 65.6594
H  56.606046 31.175882 65.226813
N  55.850401 32.618104 67.144049
H  56.04657 31.663066 67.407716
H  55.964749 32.91064 66.184128
N  56.517621 30.488076 66.574405
H  56.63197 30.780611 65.614484
H  56.207104 31.150578 67.270659
C  54.9773 24.021 60.3344
N  55.127877 24.40622 59.070346
H  54.81736 25.068722 59.7666
H  55.324046 23.451182 59.334013
N  54.568401 24.893404 61.251249
H  54.76457 23.938366 61.514916
H  54.682749 25.18594 60.291328
N  55.235621 22.763376 60.681605
H  55.34997 23.055911 59.721684
H  54.925104 23.425878 61.377859
C  69.2501 33.1912 49.2088
O  70.433925 33.252976 48.812263
O  68.538816 32.163817 49.241359
H  68.792121 34.12705 49.561561
C  63.858 34.4666 65.3911
N  64.008577 34.85182 64.127046
H  63.69806 35.514322 64.8233
H  64.204746 33.896782 64.390713
N  63.449101 35.339004 66.307949
H  63.64527 34.383966 66.571616
H  63.563449 35.63154 65.348028
N  64.116321 33.208976 65.738305
H  64.23067 33.501511 64.778384
H  63.805804 33.871478 66.434559
C  62.4823 39.901 63.9924
N  62.632877 40.28622 62.728346
H  62.32236 40.948722 63.4246
H  62.829046 39.331182 62.992013
N  62.073401 40.773404 64.909249
H  62.26957 39.818366 65.172916
H  62.187749 41.06594 63.949328
N  62.740621 38.643376 64.339605
H  62.85497 38.935911 63.379684
H  62.430104 39.305878 65.035859
C  56.1298 40.3696 64.5471
N  56.280377 40.75482 63.283046
H  55.96986 41.417322 63.9793
H  56.476546 39.799782 63.546713
N  55.720901 41.242004 65.463949
H  55.91707 40.286966 65.727616
H  55.835249 41.53454 64.504028
N  56.388121 39.111976 64.894305
H  56.50247 39.404511 63.934384
H  56.077604 39.774478 65.590559
C  58.0751 26.9406 47.1016
O  59.258925 27.002376 46.705063
O  57.363816 25.913217 47.134159
H  57.617121 27.87645 47.454361
100
Image 12. Energy: -22874.792452096823 
C  57.68343235483631 36.5400879962552 63.73728626605836
H  58.10129657677736 37.269262128579804 64.42925248848715
H  57.23934284440405 37.08758959618177 62.87790425272719
C  56.54703885517227 35.77369813399637 64.43175114357787
C  54.981943611244965 36.12198014277101 64.14062156250323
O  54.70881313145268 37.27873125815262 63.74743680245225
O  54.16689902099119 35.206305617993806 64.39076347903709
O  56.74283645082496 34.9105131480406 65.27537432133506
C  58.91548405296149 33.75132808726714 62.116852132012724
H  58.617009461647726 32.70562394720942 61.99742802078816
C  59.08989317310943 34.323754957169285 63.31463830108705
H  58.989454928925994 33.77129829594938 64.25207291935385
C  59.27190841551971 35.80549724337351 63.44398945561844
C  59.95268783847964 36.357866085099786 62.19166861986378
H  60.55239748684023 37.27033882601766 62.302465166477475
C  59.857275857255274 35.759506792372235 60.990588339279995
H  60.312161511604366 36.175177268207115 60.08132395284937
C  58.97302317118548 34.55363144535844 60.8312908736496
H  57.960086126919514 35.02383658371213 60.76173815535321
O  59.144078596632255 33.74601529190528 59.714658340877
H  59.990278161372224 33.877213229331964 59.25730228628324
C  60.22329118459239 36.237833036161135 64.62604592329771
O  60.92938538598699 35.36395139039436 65.18367900997202
O  60.268800911257145 37.4826538185146 64.86267185703723
C  51.0783 35.2298 63.6566
N  51.228877 35.61502 62.392546
H  50.91836 36.277522 63.0888
H  51.425046 34.659982 62.656213
N  50.669401 36.102204 64.573449
H  50.86557 35.147166 64.837116
H  50.783749 36.39474 63.613528
N  51.336621 33.972176 64.003805
H  51.45097 34.264711 63.043884
H  51.026104 34.634678 64.700059
C  64.0774 35.2869 45.5285
O  65.261225 35.348676 45.131963
O  63.366116 34.259517 45.561059
H  63.619421 36.22275 45.881261
C  66.2928 24.2336 56.8278
O  67.476625 24.295376 56.431263
O  65.581516 23.206217 56.860359
H  65.834821 25.16945 57.180561
C  56.2593 31.7457 66.2272
N  56.409877 32.13092 64.963146
H  56.09936 32.793422 65.6594
H  56.606046 31.175882 65.226813
N  55.850401 32.618104 67.144049
H  56.04657 31.663066 67.407716
H  55.964749 32.91064 66.184128
N  56.517621 30.488076 66.574405
H  56.63197 30.780611 65.614484
H  56.207104 31.150578 67.270659
C  54.9773 24.021 60.3344
N  55.127877 24.40622 59.070346
H  54.81736 25.068722 59.7666
H  55.324046 23.451182 59.334013
N  54.568401 24.893404 61.251249
H  54.76457 23.938366 61.514916
H  54.682749 25.18594 60.291328
N  55.235621 22.763376 60.681605
H  55.34997 23.055911 59.721684
H  54.925104 23.425878 61.377859
C  69.2501 33.1912 49.2088
O  70.433925 33.252976 48.812263
O  68.538816 32.163817 49.241359
H  68.792121 34.12705 49.561561
C  63.858 34.4666 65.3911
N  64.008577 34.85182 64.127046
H  63.69806 35.514322 64.8233
H  64.204746 33.896782 64.390713
N  63.449101 35.339004 66.307949
H  63.64527 34.383966 66.571616
H  63.563449 35.63154 65.348028
N  64.116321 33.208976 65.738305
H  64.23067 33.501511 64.778384
H  63.805804 33.871478 66.434559
C  62.4823 39.901 63.9924
N  62.632877 40.28622 62.728346
H  62.32236 40.948722 63.4246
H  62.829046 39.331182 62.992013
N  62.073401 40.773404 64.909249
H  62.26957 39.818366 65.172916
H  62.187749 41.06594 63.949328
N  62.740621 38.643376 64.339605
H  62.85497 38.935911 63.379684
H  62.430104 39.305878 65.035859
C  56.1298 40.3696 64.5471
N  56.280377 40.75482 63.283046
H  55.96986 41.417322 63.9793
H  56.476546 39.799782 63.546713
N  55.720901 41.242004 65.463949
H  55.91707 40.286966 65.727616
H  55.835249 41.53454 64.504028
N  56.388121 39.111976 64.894305
H  56.50247 39.404511 63.934384
H  56.077604 39.774478 65.590559
C  58.0751 26.9406 47.1016
O  59.258925 27.002376 46.705063
O  57.363816 25.913217 47.134159
H  57.617121 27.87645 47.454361
100
Image 13. Energy: -22876.142810957306 
C  57.735572389632736 36.31064211512888 63.805536062537776
H  57.67836724536483 37.32964581164728 64.23530182088926
H  57.093824476044645 36.32901186783214 62.91017802487989
C  57.05348754223684 35.3917397472519 64.78697561598896
C  55.477932153416894 35.36693084796211 64.76366027308664
O  54.88114557432257 36.34650784226822 64.28154633007232
O  54.95833208948532 34.329412934490534 65.26422512675501
O  57.62800023678892 34.66594597812295 65.58395527695264
C  59.436427720505094 33.8613786120508 62.14288282925931
H  59.65029788152896 32.7878394322642 62.10498764216577
C  59.5114392033269 34.555944634940715 63.284318000363484
H  59.78320134386636 34.06257256385939 64.2197832957297
C  59.21555612350917 36.04035822645796 63.36816594271621
C  59.374249461842425 36.67184209971149 61.982361499638515
H  59.504275414758055 37.759296843941996 61.95873063119488
C  59.299441374886634 35.97348535098617 60.84207823552603
H  59.3861169051841 36.46127712973781 59.86499021536188
C  59.051274074269685 34.48349964369168 60.8174508595576
H  57.95273261175577 34.35564686932325 60.70895882156954
O  59.58564107611742 33.81923338962157 59.714912015920426
H  60.53386529003522 33.99721344142264 59.60871971644536
C  60.23458754954179 36.79427901020731 64.28814877909781
O  61.25701227091298 36.17227698748443 64.67604174781196
O  60.00162437064672 38.02503776959159 64.50914994648329
C  51.0783 35.2298 63.6566
N  51.228877 35.61502 62.392546
H  50.91836 36.277522 63.0888
H  51.425046 34.659982 62.656213
N  50.669401 36.102204 64.573449
H  50.86557 35.147166 64.837116
H  50.783749 36.39474 63.613528
N  51.336621 33.972176 64.003805
H  51.45097 34.264711 63.043884
H  51.026104 34.634678 64.700059
C  64.0774 35.2869 45.5285
O  65.261225 35.348676 45.131963
O  63.366116 34.259517 45.561059
H  63.619421 36.22275 45.881261
C  66.2928 24.2336 56.8278
O  67.476625 24.295376 56.431263
O  65.581516 23.206217 56.860359
H  65.834821 25.16945 57.180561
C  56.2593 31.7457 66.2272
N  56.409877 32.13092 64.963146
H  56.09936 32.793422 65.6594
H  56.606046 31.175882 65.226813
N  55.850401 32.618104 67.144049
H  56.04657 31.663066 67.407716
H  55.964749 32.91064 66.184128
N  56.517621 30.488076 66.574405
H  56.63197 30.780611 65.614484
H  56.207104 31.150578 67.270659
C  54.9773 24.021 60.3344
N  55.127877 24.40622 59.070346
H  54.81736 25.068722 59.7666
H  55.324046 23.451182 59.334013
N  54.568401 24.893404 61.251249
H  54.76457 23.938366 61.514916
H  54.682749 25.18594 60.291328
N  55.235621 22.763376 60.681605
H  55.34997 23.055911 59.721684
H  54.925104 23.425878 61.377859
C  69.2501 33.1912 49.2088
O  70.433925 33.252976 48.812263
O  68.538816 32.163817 49.241359
H  68.792121 34.12705 49.561561
C  63.858 34.4666 65.3911
N  64.008577 34.85182 64.127046
H  63.69806 35.514322 64.8233
H  64.204746 33.896782 64.390713
N  63.449101 35.339004 66.307949
H  63.64527 34.383966 66.571616
H  63.563449 35.63154 65.348028
N  64.116321 33.208976 65.738305
H  64.23067 33.501511 64.778384
H  63.805804 33.871478 66.434559
C  62.4823 39.901 63.9924
N  62.632877 40.28622 62.728346
H  62.32236 40.948722 63.4246
H  62.829046 39.331182 62.992013
N  62.073401 40.773404 64.909249
H  62.26957 39.818366 65.172916
H  62.187749 41.06594 63.949328
N  62.740621 38.643376 64.339605
H  62.85497 38.935911 63.379684
H  62.430104 39.305878 65.035859
C  56.1298 40.3696 64.5471
N  56.280377 40.75482 63.283046
H  55.96986 41.417322 63.9793
H  56.476546 39.799782 63.546713
N  55.720901 41.242004 65.463949
H  55.91707 40.286966 65.727616
H  55.835249 41.53454 64.504028
N  56.388121 39.111976 64.894305
H  56.50247 39.404511 63.934384
H  56.077604 39.774478 65.590559
C  58.0751 26.9406 47.1016
O  59.258925 27.002376 46.705063
O  57.363816 25.913217 47.134159
H  57.617121 27.87645 47.454361
