100
-2 1 -840.682731604329
C       57.73783796    36.30994763    63.80630920
H       57.68232748    37.33018871    64.23338568
H       57.09502676    36.32702897    62.91173528
C       57.05519740    35.39346263    64.78979717
C       55.47960828    35.37380065    64.77055804
O       54.88469505    36.35960945    64.29860145
O       54.95843835    34.33302241    65.26283157
O       57.62921700    34.66457679    65.58458900
C       59.43343785    33.85988204    62.13965695
H       59.64507650    32.78584433    62.10097215
C       59.51148625    34.55347950    63.28163079
H       59.78512444    34.05880188    64.21583975
C       59.21710107    36.03789801    63.36763411
C       59.37399305    36.67053040    61.98210979
H       59.50651949    37.75757877    61.95966529
C       59.29459928    35.97353408    60.84126408
H       59.37821161    36.46235475    59.86427359
C       59.04742042    34.48330235    60.81508716
H       57.94959228    34.35261425    60.70550345
O       59.58441885    33.82237535    59.71169622
H       60.53344592    33.99942481    59.61052004
C       60.23730262    36.79099031    64.28708169
O       61.26122856    36.16973822    64.67203513
O       60.00309791    38.02103286    64.51028113
C       51.07830000    35.22980000    63.65660000
N       51.22887700    35.61502000    62.39254600
H       50.91836000    36.27752200    63.08880000
H       51.42504600    34.65998200    62.65621300
N       50.66940100    36.10220400    64.57344900
H       50.86557000    35.14716600    64.83711600
H       50.78374900    36.39474000    63.61352800
N       51.33662100    33.97217600    64.00380500
H       51.45097000    34.26471100    63.04388400
H       51.02610400    34.63467800    64.70005900
C       64.07740000    35.28690000    45.52850000
O       65.26122500    35.34867600    45.13196300
O       63.36611600    34.25951700    45.56105900
H       63.61942100    36.22275000    45.88126100
C       66.29280000    24.23360000    56.82780000
O       67.47662500    24.29537600    56.43126300
O       65.58151600    23.20621700    56.86035900
H       65.83482100    25.16945000    57.18056100
C       56.25930000    31.74570000    66.22720000
N       56.40987700    32.13092000    64.96314600
H       56.09936000    32.79342200    65.65940000
H       56.60604600    31.17588200    65.22681300
N       55.85040100    32.61810400    67.14404900
H       56.04657000    31.66306600    67.40771600
H       55.96474900    32.91064000    66.18412800
N       56.51762100    30.48807600    66.57440500
H       56.63197000    30.78061100    65.61448400
H       56.20710400    31.15057800    67.27065900
C       54.97730000    24.02100000    60.33440000
N       55.12787700    24.40622000    59.07034600
H       54.81736000    25.06872200    59.76660000
H       55.32404600    23.45118200    59.33401300
N       54.56840100    24.89340400    61.25124900
H       54.76457000    23.93836600    61.51491600
H       54.68274900    25.18594000    60.29132800
N       55.23562100    22.76337600    60.68160500
H       55.34997000    23.05591100    59.72168400
H       54.92510400    23.42587800    61.37785900
C       69.25010000    33.19120000    49.20880000
O       70.43392500    33.25297600    48.81226300
O       68.53881600    32.16381700    49.24135900
H       68.79212100    34.12705000    49.56156100
C       63.85800000    34.46660000    65.39110000
N       64.00857700    34.85182000    64.12704600
H       63.69806000    35.51432200    64.82330000
H       64.20474600    33.89678200    64.39071300
N       63.44910100    35.33900400    66.30794900
H       63.64527000    34.38396600    66.57161600
H       63.56344900    35.63154000    65.34802800
N       64.11632100    33.20897600    65.73830500
H       64.23067000    33.50151100    64.77838400
H       63.80580400    33.87147800    66.43455900
C       62.48230000    39.90100000    63.99240000
N       62.63287700    40.28622000    62.72834600
H       62.32236000    40.94872200    63.42460000
H       62.82904600    39.33118200    62.99201300
N       62.07340100    40.77340400    64.90924900
H       62.26957000    39.81836600    65.17291600
H       62.18774900    41.06594000    63.94932800
N       62.74062100    38.64337600    64.33960500
H       62.85497000    38.93591100    63.37968400
H       62.43010400    39.30587800    65.03585900
C       56.12980000    40.36960000    64.54710000
N       56.28037700    40.75482000    63.28304600
H       55.96986000    41.41732200    63.97930000
H       56.47654600    39.79978200    63.54671300
N       55.72090100    41.24200400    65.46394900
H       55.91707000    40.28696600    65.72761600
H       55.83524900    41.53454000    64.50402800
N       56.38812100    39.11197600    64.89430500
H       56.50247000    39.40451100    63.93438400
H       56.07760400    39.77447800    65.59055900
C       58.07510000    26.94060000    47.10160000
O       59.25892500    27.00237600    46.70506300
O       57.36381600    25.91321700    47.13415900
H       57.61712100    27.87645000    47.45436100
