24
Coordinates from ORCA-job neb_MEP_ALL.QMRegion E -1076.356373477625
  C      49.040000     24.209000     54.467000
  H      49.766000     23.472000     54.125000
  H      49.396000     25.142000     54.903000
  C      47.723000     24.016000     54.354000
  C      46.711000     25.020000     54.873000
  O      47.091000     26.215000     55.027000
  O      45.563000     24.591000     55.133000
  O      47.197000     22.866000     53.798000
  C      47.053000     22.831000     52.334000
  H      46.659000     21.825000     52.135000
  C      48.409000     23.007000     51.724000
  H      49.123000     22.186000     51.795000
  C      48.806000     24.204000     51.255000
  C      47.873000     25.339000     51.259000
  H      48.301000     26.312000     51.008000
  C      46.579000     25.198000     51.589000
  H      45.913000     26.064000     51.631000
  C      45.982000     23.839000     51.855000
  H      45.244000     23.917000     52.668000
  O      45.358000     23.362000     50.662000
  H      44.380000     23.230000     50.816000
  C      50.237000     24.468000     50.805000
  O      51.139000     23.629000     51.081000
  O      50.411000     25.556000     50.208000
24
Coordinates from ORCA-job neb_MEP_ALL.QMRegion E -1076.358478805955
  C      49.051763     24.212900     54.394628
  H      49.778281     23.477495     54.050167
  H      49.409130     25.168273     54.775183
  C      47.732032     24.006075     54.326674
  C      46.728822     25.010527     54.859882
  O      47.112260     26.203919     55.015816
  O      45.582932     24.582775     55.131338
  O      47.196314     22.848674     53.787812
  C      47.042116     22.805647     52.319493
  H      46.652718     21.796514     52.126569
  C      48.395639     22.990860     51.711596
  H      49.109954     22.166991     51.756457
  C      48.799892     24.207646     51.303378
  C      47.863149     25.338811     51.326750
  H      48.287976     26.321557     51.116466
  C      46.560731     25.180649     51.615797
  H      45.884661     26.038264     51.642682
  C      45.967156     23.816744     51.848040
  H      45.230395     23.876562     52.662575
  O      45.342713     23.363301     50.647059
  H      44.364223     23.233366     50.799773
  C      50.229140     24.480781     50.869722
  O      51.130106     23.631180     51.113925
  O      50.403158     25.587098     50.307456
24
Coordinates from ORCA-job neb_MEP_ALL.QMRegion E -1076.359249509769
  C      49.062766     24.217409     54.326142
  H      49.789758     23.483341     53.980666
  H      49.421060     25.193074     54.648719
  C      47.742481     23.997202     54.299561
  C      46.746640     25.000305     54.846245
  O      47.133531     26.192200     55.005311
  O      45.602428     24.574708     55.129927
  O      47.199946     22.833970     53.783472
  C      47.032308     22.781788     52.296748
  H      46.648622     21.768990     52.117225
  C      48.383135     22.976364     51.699134
  H      49.097631     22.152261     51.718969
  C      48.791851     24.209719     51.350513
  C      47.852086     25.338095     51.393653
  H      48.274918     26.329633     51.223531
  C      46.543230     25.163693     51.639633
  H      45.857351     26.013442     51.652902
  C      45.953658     23.794116     51.840845
  H      45.217769     23.836090     52.657047
  O      45.326656     23.365668     50.632649
  H      44.347203     23.237222     50.784710
  C      50.221450     24.492263     50.933084
  O      51.121211     23.633261     51.145957
  O      50.395093     25.615619     50.406256
24
Coordinates from ORCA-job neb_MEP_ALL.QMRegion E -1076.359827006232
  C      49.073932     24.222824     54.261327
  H      49.801306     23.488736     53.917743
  H      49.432746     25.217261     54.522752
  C      47.754423     23.986161     54.276532
  C      46.764856     24.990521     54.835398
  O      47.153908     26.181861     54.995000
  O      45.621122     24.568598     55.128255
  O      47.208519     22.819351     53.776639
  C      47.024045     22.757768     52.275326
  H      46.645756     21.742274     52.105754
  C      48.370228     22.963511     51.686356
  H      49.085664     22.140702     51.682104
  C      48.783472     24.211507     51.399652
  C      47.840359     25.336937     51.459763
  H      48.260535     26.335662     51.327543
  C      46.526202     25.147098     51.660097
  H      45.831590     25.990135     51.661207
  C      45.941800     23.771658     51.832138
  H      45.207942     23.796038     52.649885
  O      45.308964     23.371175     50.616862
  H      44.328364     23.241603     50.769681
  C      50.213664     24.502919     50.996509
  O      51.111609     23.634994     51.176926
  O      50.387503     25.640745     50.502089
24
Coordinates from ORCA-job neb_MEP_ALL.QMRegion E -1076.356810424394
  C      49.088884     24.236915     54.178259
  H      49.816645     23.491978     53.860318
  H      49.447727     25.246928     54.376963
  C      47.773337     23.968796     54.272860
  C      46.786135     24.983362     54.830776
  O      47.174179     26.176721     54.983505
  O      45.640394     24.567651     55.126262
  O      47.233381     22.797114     53.791687
  C      47.013966     22.726252     52.229603
  H      46.640471     21.703655     52.081974
  C      48.352802     22.950229     51.666402
  H      49.070652     22.130910     51.645934
  C      48.776584     24.216774     51.477534
  C      47.826396     25.336989     51.534836
  H      48.243127     26.341132     51.436924
  C      46.507913     25.130578     51.676328
  H      45.804658     25.966453     51.667263
  C      45.929059     23.748935     51.812286
  H      45.206072     23.748527     52.637594
  O      45.281758     23.385911     50.591335
  H      44.301256     23.247369     50.752506
  C      50.205602     24.514596     51.074089
  O      51.099268     23.635164     51.209046
  O      50.376251     25.661434     50.599425
24
Coordinates from ORCA-job neb_MEP_ALL.QMRegion E -1076.347274262256
  C      49.098958     24.251135     54.116868
  H      49.827545     23.490391     53.842358
  H      49.457019     25.263533     54.299394
  C      47.785360     23.954440     54.291067
  C      46.796518     24.983184     54.834065
  O      47.183149     26.178331     54.978264
  O      45.648665     24.571169     55.126800
  O      47.267616     22.786503     53.876252
  C      47.003647     22.703862     52.133269
  H      46.635158     21.675301     52.060483
  C      48.337956     22.940744     51.654150
  H      49.061302     22.126933     51.634044
  C      48.775939     24.224001     51.546557
  C      47.819235     25.338963     51.574161
  H      48.234195     26.344403     51.486652
  C      46.499637     25.123406     51.680733
  H      45.792568     25.955548     51.668690
  C      45.922995     23.739319     51.792949
  H      45.212226     23.721698     52.629003
  O      45.260852     23.400027     50.572222
  H      44.283100     23.250636     50.744201
  C      50.202965     24.520582     51.119631
  O      51.091762     23.633814     51.223666
  O      50.367798     25.666451     50.640921
24
Coordinates from ORCA-job neb_MEP_ALL.QMRegion E -1076.341686235600
  C      49.108594     24.268483     54.013408
  H      49.841738     23.484357     53.837037
  H      49.464132     25.274693     54.226220
  C      47.790811     23.936876     54.309835
  C      46.801608     24.985320     54.838368
  O      47.192804     26.178857     54.974326
  O      45.655226     24.574496     55.130288
  O      47.315287     22.783062     54.022070
  C      46.992234     22.679649     51.983919
  H      46.631259     21.653245     52.033797
  C      48.316112     22.926887     51.652441
  H      49.051587     22.123656     51.631124
  C      48.782120     24.238892     51.651292
  C      47.813201     25.342883     51.609813
  H      48.225584     26.348886     51.524560
  C      46.493703     25.116415     51.682376
  H      45.783769     25.945921     51.668375
  C      45.920252     23.729826     51.772463
  H      45.218961     23.697967     52.619899
  O      45.238878     23.415492     50.553529
  H      44.266544     23.253495     50.738075
  C      50.201739     24.526769     51.164477
  O      51.084432     23.632074     51.234544
  O      50.358506     25.667293     50.671002
24
Coordinates from ORCA-job neb_MEP_ALL.QMRegion E -1076.354816514724
  C      49.107003     24.283465     53.783915
  H      49.853034     23.485948     53.840549
  H      49.463467     25.263006     54.131004
  C      47.792430     23.919026     54.303838
  C      46.809192     24.981858     54.848814
  O      47.210017     26.170286     54.972686
  O      45.668874     24.566628     55.144076
  O      47.364697     22.771791     54.157700
  C      46.984697     22.662506     51.857497
  H      46.623417     21.639915     51.961504
  C      48.297796     22.916062     51.672124
  H      49.039670     22.117110     51.637972
  C      48.813905     24.264493     51.860839
  C      47.812040     25.349519     51.661782
  H      48.217999     26.357183     51.569595
  C      46.495586     25.110660     51.679424
  H      45.782220     25.938539     51.650069
  C      45.918536     23.723027     51.746946
  H      45.223970     23.678392     52.602995
  O      45.212845     23.445141     50.530798
  H      44.246916     23.266549     50.727304
  C      50.199371     24.532729     51.214934
  O      51.076057     23.629875     51.243923
  O      50.340906     25.660896     50.691234
24
Coordinates from ORCA-job neb_MEP_ALL.QMRegion E -1076.383177129192
  C      49.115428     24.275087     53.642108
  H      49.882315     23.504410     53.824529
  H      49.465177     25.255607     54.001055
  C      47.839822     23.884474     54.334467
  C      46.852386     24.952600     54.879277
  O      47.248861     26.142482     54.974892
  O      45.722535     24.529789     55.195379
  O      47.500951     22.716599     54.363475
  C      46.964140     22.671915     51.689201
  H      46.595815     21.647913     51.662181
  C      48.278193     22.914840     51.703674
  H      49.008239     22.105324     51.671053
  C      48.828029     24.271137     52.017853
  C      47.818174     25.358359     51.754727
  H      48.216453     26.372595     51.712060
  C      46.506315     25.121695     51.660187
  H      45.803328     25.954641     51.586701
  C      45.908925     23.742193     51.657523
  H      45.240186     23.654395     52.533568
  O      45.147516     23.556193     50.459167
  H      44.195336     23.341113     50.684720
  C      50.179193     24.527618     51.265050
  O      51.056358     23.624132     51.268657
  O      50.296423     25.644524     50.714361
24
Coordinates from ORCA-job neb_MEP_ALL.QMRegion E -1076.390687122225
  C      49.140000     24.255000     53.626000
  H      49.929000     23.514000     53.810000
  H      49.475000     25.253000     53.933000
  C      47.916000     23.844000     54.405000
  C      46.901000     24.915000     54.918000
  O      47.281000     26.113000     54.975000
  O      45.777000     24.489000     55.249000
  O      47.664000     22.669000     54.584000
  C      46.944000     22.696000     51.508000
  H      46.572000     21.689000     51.317000
  C      48.246000     22.912000     51.708000
  H      48.965000     22.091000     51.697000
  C      48.810000     24.255000     52.076000
  C      47.815000     25.359000     51.825000
  H      48.213000     26.373000     51.870000
  C      46.513000     25.142000     51.625000
  H      45.824000     25.985000     51.527000
  C      45.896000     23.774000     51.542000
  H      45.266000     23.630000     52.441000
  O      45.077000     23.681000     50.377000
  H      44.141000     23.433000     50.632000
  C      50.148000     24.515000     51.296000
  O      51.030000     23.616000     51.293000
  O      50.247000     25.626000     50.732000
24
Coordinates from ORCA-job neb_MEP_ALL.QMRegion E -1076.356373477625
  C      49.040000     24.209000     54.467000
  H      49.766000     23.472000     54.125000
  H      49.396000     25.142000     54.903000
  C      47.723000     24.016000     54.354000
  C      46.711000     25.020000     54.873000
  O      47.091000     26.215000     55.027000
  O      45.563000     24.591000     55.133000
  O      47.197000     22.866000     53.798000
  C      47.053000     22.831000     52.334000
  H      46.659000     21.825000     52.135000
  C      48.409000     23.007000     51.724000
  H      49.123000     22.186000     51.795000
  C      48.806000     24.204000     51.255000
  C      47.873000     25.339000     51.259000
  H      48.301000     26.312000     51.008000
  C      46.579000     25.198000     51.589000
  H      45.913000     26.064000     51.631000
  C      45.982000     23.839000     51.855000
  H      45.244000     23.917000     52.668000
  O      45.358000     23.362000     50.662000
  H      44.380000     23.230000     50.816000
  C      50.237000     24.468000     50.805000
  O      51.139000     23.629000     51.081000
  O      50.411000     25.556000     50.208000
24
Coordinates from ORCA-job neb_MEP_ALL.QMRegion E -1076.358501036838
  C      49.049733     24.211125     54.396212
  H      49.776964     23.477616     54.049217
  H      49.409265     25.167799     54.781608
  C      47.731111     24.000957     54.324051
  C      46.728975     25.010288     54.861332
  O      47.110588     26.205007     55.015938
  O      45.581469     24.583887     55.131211
  O      47.198019     22.853713     53.789689
  C      47.042384     22.805252     52.318789
  H      46.652576     21.799181     52.128327
  C      48.393601     22.989897     51.713097
  H      49.109261     22.167517     51.755845
  C      48.797810     24.205224     51.299155
  C      47.862915     25.338857     51.324417
  H      48.288276     26.321153     51.114501
  C      46.560817     25.180728     51.614832
  H      45.885123     26.039706     51.645270
  C      45.968902     23.814156     51.850300
  H      45.229435     23.878076     52.662780
  O      45.344140     23.362111     50.647549
  H      44.365228     23.232355     50.800183
  C      50.229969     24.481383     50.867159
  O      51.130176     23.631459     51.112186
  O      50.403962     25.588546     50.306395
24
Coordinates from ORCA-job neb_MEP_ALL.QMRegion E -1076.359321012195
  C      49.060018     24.215424     54.328211
  H      49.787197     23.483101     53.979562
  H      49.421129     25.192342     54.661701
  C      47.741338     23.989493     54.299829
  C      46.746077     25.001545     54.848851
  O      47.130329     26.195319     55.005703
  O      45.600728     24.576266     55.129164
  O      47.199703     22.839068     53.770347
  C      47.034177     22.780503     52.313541
  H      46.647626     21.771367     52.119751
  C      48.380197     22.975408     51.697915
  H      49.096751     22.152716     51.718472
  C      48.789875     24.206880     51.341963
  C      47.851441     25.337928     51.388015
  H      48.275347     26.328061     51.219971
  C      46.543318     25.164776     51.638187
  H      45.858082     26.015646     51.658112
  C      45.955051     23.792059     51.843041
  H      45.217115     23.838328     52.657723
  O      45.328909     23.362841     50.632746
  H      44.349100     23.235308     50.785957
  C      50.222506     24.493473     50.928449
  O      51.121140     23.633527     51.142356
  O      50.396290     25.618289     50.404454
24
Coordinates from ORCA-job neb_MEP_ALL.QMRegion E -1076.359941537320
  C      49.071027     24.220097     54.264318
  H      49.798106     23.488197     53.915759
  H      49.431376     25.214326     54.541416
  C      47.752927     23.981648     54.278662
  C      46.763328     24.992338     54.836109
  O      47.150499     26.184680     54.995800
  O      45.619995     24.568898     55.127157
  O      47.204491     22.822994     53.758327
  C      47.026796     22.758850     52.299354
  H      46.644062     21.743523     52.109979
  C      48.368833     22.962980     51.681556
  H      49.085049     22.140927     51.681190
  C      48.781633     24.208566     51.385735
  C      47.839121     25.335953     51.450529
  H      48.260901     26.332901     51.323666
  C      46.526229     25.148957     51.659963
  H      45.832596     25.991587     51.668575
  C      45.941205     23.771976     51.833699
  H      45.206322     23.799077     52.651820
  O      45.312805     23.365470     50.618304
  H      44.332463     23.239225     50.771843
  C      50.214544     24.504183     50.989124
  O      51.111414     23.635396     51.172214
  O      50.389182     25.644552     50.501108
24
Coordinates from ORCA-job neb_MEP_ALL.QMRegion E -1076.356907568966
  C      49.088398     24.234327     54.174426
  H      49.816257     23.492919     53.848962
  H      49.447912     25.247303     54.373466
  C      47.773574     23.965346     54.267898
  C      46.788114     24.982071     54.828086
  O      47.175090     26.175684     54.982504
  O      45.642703     24.566487     55.124938
  O      47.231307     22.798493     53.780980
  C      47.014733     22.725041     52.239440
  H      46.639403     21.701723     52.084504
  C      48.351235     22.948145     51.661049
  H      49.068495     22.129993     51.637965
  C      48.773250     24.214194     51.469878
  C      47.823101     25.335699     51.537068
  H      48.240497     26.339142     51.450269
  C      46.504971     25.129372     51.679520
  H      45.801349     25.963361     51.674646
  C      45.926405     23.745860     51.812326
  H      45.202121     23.744835     52.638073
  O      45.282399     23.381854     50.590938
  H      44.301813     23.246495     50.751510
  C      50.204589     24.516720     51.076349
  O      51.097371     23.636061     51.210019
  O      50.376900     25.667864     50.613707
24
Coordinates from ORCA-job neb_MEP_ALL.QMRegion E -1076.347312903946
  C      49.098987     24.250262     54.110508
  H      49.828601     23.490904     53.834715
  H      49.457716     25.264307     54.293641
  C      47.785621     23.952275     54.286361
  C      46.798119     24.981813     54.831838
  O      47.184622     26.176827     54.977513
  O      45.650514     24.570440     55.126238
  O      47.267535     22.786485     53.871936
  C      47.004241     22.702401     52.136250
  H      46.635012     21.674491     52.061281
  C      48.336537     22.938923     51.652441
  H      49.059475     22.126190     51.627948
  C      48.773773     24.222498     51.545444
  C      47.816681     25.338262     51.577971
  H      48.231846     26.343314     51.497197
  C      46.497298     25.121737     51.682673
  H      45.789810     25.952566     51.673510
  C      45.921537     23.736272     51.792602
  H      45.209345     23.717869     52.628669
  O      45.260019     23.398419     50.571359
  H      44.282130     23.250456     50.742769
  C      50.202071     24.522101     51.123535
  O      51.090200     23.634299     51.224644
  O      50.367485     25.670517     50.651357
24
Coordinates from ORCA-job neb_MEP_ALL.QMRegion E -1076.341704478288
  C      49.110126     24.268311     54.022238
  H      49.841484     23.485508     53.836347
  H      49.465398     25.275809     54.230833
  C      47.792007     23.936882     54.313813
  C      46.801640     24.985625     54.839602
  O      47.192083     26.179567     54.973632
  O      45.654743     24.574989     55.129483
  O      47.316934     22.782107     54.025310
  C      46.991285     22.679027     51.982018
  H      46.630688     21.652490     52.033951
  C      48.315751     22.926311     51.651038
  H      49.051210     22.123157     51.629391
  C      48.780724     24.238009     51.643881
  C      47.812935     25.342474     51.607419
  H      48.225918     26.348175     51.524662
  C      46.493477     25.116301     51.681871
  H      45.783288     25.945656     51.670272
  C      45.919926     23.729538     51.770645
  H      45.219776     23.696884     52.619246
  O      45.237465     23.416298     50.552351
  H      44.265332     23.253659     50.737286
  C      50.201228     24.526773     51.162077
  O      51.084031     23.632247     51.233990
  O      50.358782     25.668525     50.671651
24
Coordinates from ORCA-job neb_MEP_ALL.QMRegion E -1076.354406761185
  C      49.104374     24.280758     53.836833
  H      49.845418     23.485915     53.842490
  H      49.461999     25.262902     54.155839
  C      47.792436     23.923017     54.305538
  C      46.806011     24.983121     54.847541
  O      47.202448     26.173754     54.973439
  O      45.662359     24.572125     55.139510
  O      47.353576     22.777156     54.134701
  C      46.990499     22.666154     51.889149
  H      46.626372     21.642849     51.981793
  C      48.304020     22.918230     51.670985
  H      49.042639     22.119180     51.638789
  C      48.807041     24.257589     51.813955
  C      47.814384     25.347418     51.646163
  H      48.220560     26.355453     51.549602
  C      46.496652     25.112072     51.678726
  H      45.783336     25.939857     51.653588
  C      45.918834     23.723699     51.751928
  H      45.224824     23.682956     52.608588
  O      45.219279     23.437423     50.539158
  H      44.252682     23.261264     50.731061
  C      50.201155     24.531568     51.201210
  O      51.078581     23.630245     51.239419
  O      50.345553     25.661112     50.680470
24
Coordinates from ORCA-job neb_MEP_ALL.QMRegion E -1076.383249606483
  C      49.116676     24.275302     53.622713
  H      49.872037     23.509109     53.825686
  H      49.461786     25.251944     53.994392
  C      47.842906     23.884375     54.322627
  C      46.849818     24.954499     54.883693
  O      47.245711     26.145163     54.973957
  O      45.714998     24.535337     55.192395
  O      47.494318     22.720720     54.370564
  C      46.968588     22.669246     51.690564
  H      46.596246     21.642147     51.677781
  C      48.281868     22.917536     51.708185
  H      49.010272     22.105813     51.672732
  C      48.831666     24.271823     52.034005
  C      47.821283     25.356885     51.752869
  H      48.216254     26.373817     51.702611
  C      46.508193     25.120456     51.660812
  H      45.800903     25.953193     51.587931
  C      45.907723     23.738455     51.660436
  H      45.240347     23.653565     52.540003
  O      45.149616     23.551852     50.465082
  H      44.198609     23.336183     50.688075
  C      50.181887     24.530638     51.269927
  O      51.056699     23.625449     51.266310
  O      50.298315     25.643653     50.711517
24
Coordinates from ORCA-job neb_MEP_ALL.QMRegion E -1076.390687122225
  C      49.140000     24.255000     53.626000
  H      49.929000     23.514000     53.810000
  H      49.475000     25.253000     53.933000
  C      47.916000     23.844000     54.405000
  C      46.901000     24.915000     54.918000
  O      47.281000     26.113000     54.975000
  O      45.777000     24.489000     55.249000
  O      47.664000     22.669000     54.584000
  C      46.944000     22.696000     51.508000
  H      46.572000     21.689000     51.317000
  C      48.246000     22.912000     51.708000
  H      48.965000     22.091000     51.697000
  C      48.810000     24.255000     52.076000
  C      47.815000     25.359000     51.825000
  H      48.213000     26.373000     51.870000
  C      46.513000     25.142000     51.625000
  H      45.824000     25.985000     51.527000
  C      45.896000     23.774000     51.542000
  H      45.266000     23.630000     52.441000
  O      45.077000     23.681000     50.377000
  H      44.141000     23.433000     50.632000
  C      50.148000     24.515000     51.296000
  O      51.030000     23.616000     51.293000
  O      50.247000     25.626000     50.732000
24
Coordinates from ORCA-job neb_MEP_ALL.QMRegion E -1076.356373477625
  C      49.040000     24.209000     54.467000
  H      49.766000     23.472000     54.125000
  H      49.396000     25.142000     54.903000
  C      47.723000     24.016000     54.354000
  C      46.711000     25.020000     54.873000
  O      47.091000     26.215000     55.027000
  O      45.563000     24.591000     55.133000
  O      47.197000     22.866000     53.798000
  C      47.053000     22.831000     52.334000
  H      46.659000     21.825000     52.135000
  C      48.409000     23.007000     51.724000
  H      49.123000     22.186000     51.795000
  C      48.806000     24.204000     51.255000
  C      47.873000     25.339000     51.259000
  H      48.301000     26.312000     51.008000
  C      46.579000     25.198000     51.589000
  H      45.913000     26.064000     51.631000
  C      45.982000     23.839000     51.855000
  H      45.244000     23.917000     52.668000
  O      45.358000     23.362000     50.662000
  H      44.380000     23.230000     50.816000
  C      50.237000     24.468000     50.805000
  O      51.139000     23.629000     51.081000
  O      50.411000     25.556000     50.208000
24
Coordinates from ORCA-job neb_MEP_ALL.QMRegion E -1076.358460737419
  C      49.052279     24.213429     54.397914
  H      49.776640     23.477606     54.048875
  H      49.407457     25.163981     54.783201
  C      47.732144     24.010744     54.329421
  C      46.728198     25.009974     54.860574
  O      47.110455     26.203490     55.015913
  O      45.582237     24.583995     55.131093
  O      47.193951     22.845789     53.785604
  C      47.042779     22.807461     52.321332
  H      46.651618     21.797236     52.129170
  C      48.395403     22.990546     51.710864
  H      49.108896     22.167250     51.755925
  C      48.798094     24.205870     51.297908
  C      47.862525     25.337546     51.323011
  H      48.288589     26.321121     51.113380
  C      46.560411     25.180149     51.615431
  H      45.885731     26.039256     51.646487
  C      45.967401     23.817249     51.848728
  H      45.229801     23.878159     52.662788
  O      45.344473     23.361039     50.648661
  H      44.366291     23.231950     50.800296
  C      50.228413     24.480693     50.866024
  O      51.130354     23.631803     51.111252
  O      50.403931     25.588474     50.306369
24
Coordinates from ORCA-job neb_MEP_ALL.QMRegion E -1076.359301100169
  C      49.062023     24.217217     54.331383
  H      49.786578     23.483277     53.978585
  H      49.418404     25.186401     54.666070
  C      47.741603     24.000576     54.302323
  C      46.745757     24.999824     54.848077
  O      47.129956     26.192886     55.005522
  O      45.600733     24.576457     55.129131
  O      47.197280     22.833369     53.779670
  C      47.032019     22.783982     52.301493
  H      46.647198     21.771562     52.122138
  C      48.382085     22.975564     51.697572
  H      49.096257     22.152840     51.718144
  C      48.788477     24.206649     51.338488
  C      47.851171     25.335716     51.385577
  H      48.276053     26.328523     51.217843
  C      46.542805     25.163064     51.638581
  H      45.858642     26.016055     51.660528
  C      45.954997     23.793404     51.843682
  H      45.216617     23.839344     52.657551
  O      45.330497     23.360910     50.635283
  H      44.350774     23.234384     50.786149
  C      50.220625     24.492419     50.925679
  O      51.121546     23.634341     51.140615
  O      50.396762     25.618760     50.404400
24
Coordinates from ORCA-job neb_MEP_ALL.QMRegion E -1076.360281779269
  C      49.071657     24.220912     54.268081
  H      49.797010     23.488207     53.914294
  H      49.428824     25.208372     54.548977
  C      47.751961     23.987494     54.277165
  C      46.763086     24.990720     54.836451
  O      47.149785     26.183054     54.995482
  O      45.619204     24.568901     55.126832
  O      47.204069     22.822680     53.771275
  C      47.022883     22.759289     52.283858
  H      46.644690     21.747526     52.113542
  C      48.368260     22.962878     51.683106
  H      49.085153     22.140731     51.680336
  C      48.780036     24.208332     51.379050
  C      47.839027     25.333447     51.447117
  H      48.261705     26.333335     51.321072
  C      46.525697     25.146772     51.659713
  H      45.832570     25.993377     51.672184
  C      45.942960     23.771263     51.837535
  H      45.205242     23.800911     52.651425
  O      45.315369     23.362708     50.620678
  H      44.334215     23.237788     50.772303
  C      50.212872     24.503093     50.985278
  O      51.111783     23.636442     51.169730
  O      50.390251     25.646033     50.501052
24
Coordinates from ORCA-job neb_MEP_ALL.QMRegion E -1076.357767688102
  C      49.089591     24.235620     54.173389
  H      49.816281     23.493170     53.844312
  H      49.446577     25.243937     54.372384
  C      47.774544     23.969517     54.265973
  C      46.788455     24.981008     54.827319
  O      47.176326     26.174050     54.981643
  O      45.643465     24.565389     55.124296
  O      47.229248     22.795736     53.779147
  C      47.012906     22.723737     52.237368
  H      46.639913     21.703215     52.086463
  C      48.349259     22.948429     51.660398
  H      49.068609     22.128533     51.634444
  C      48.771593     24.214430     51.466879
  C      47.822168     25.332990     51.537831
  H      48.239893     26.339625     51.455037
  C      46.503523     25.126345     51.680709
  H      45.799213     25.963302     51.678168
  C      45.926629     23.744757     51.814807
  H      45.200712     23.743557     52.637180
  O      45.282993     23.379795     50.591268
  H      44.301895     23.245816     50.750881
  C      50.202847     24.516336     51.076748
  O      51.096904     23.636821     51.209934
  O      50.377424     25.670772     50.619389
24
Coordinates from ORCA-job neb_MEP_ALL.QMRegion E -1076.347583929106
  C      49.099902     24.251601     54.109917
  H      49.828904     23.491210     53.832044
  H      49.457330     25.262857     54.291552
  C      47.787609     23.955137     54.287041
  C      46.798608     24.981520     54.831602
  O      47.185544     26.176315     54.976827
  O      45.650870     24.569784     55.125801
  O      47.266897     22.783477     53.871462
  C      47.002230     22.701518     52.134784
  H      46.634881     21.673434     52.061487
  C      48.336360     22.939850     51.650647
  H      49.059454     22.124995     51.625808
  C      48.772749     24.222656     51.545245
  C      47.816108     25.336380     51.578932
  H      48.231326     26.343701     51.500714
  C      46.496400     25.119841     51.683469
  H      45.788173     25.952153     51.675426
  C      45.920805     23.736102     51.793019
  H      45.209311     23.716235     52.627593
  O      45.259744     23.397851     50.570794
  H      44.281362     23.250305     50.742181
  C      50.200822     24.521983     51.124249
  O      51.089753     23.634716     51.224912
  O      50.367577     25.671994     50.655164
24
Coordinates from ORCA-job neb_MEP_ALL.QMRegion E -1076.341812015493
  C      49.110231     24.269173     54.025412
  H      49.841949     23.485647     53.836117
  H      49.465967     25.275953     54.232798
  C      47.792860     23.936169     54.315350
  C      46.801790     24.985522     54.839991
  O      47.191808     26.179992     54.973448
  O      45.654493     24.575218     55.129266
  O      47.317999     22.782157     54.027213
  C      46.991206     22.678642     51.980962
  H      46.630365     21.652101     52.033704
  C      48.315394     22.926131     51.650283
  H      49.050974     22.122868     51.628605
  C      48.779924     24.237523     51.641310
  C      47.812892     25.341931     51.606612
  H      48.226060     26.348095     51.524884
  C      46.492937     25.116037     51.681564
  H      45.783043     25.945467     51.671260
  C      45.919646     23.729406     51.770202
  H      45.220223     23.696284     52.618625
  O      45.236871     23.416776     50.551380
  H      44.264423     23.253795     50.736919
  C      50.200902     24.526771     51.161376
  O      51.083795     23.632443     51.233538
  O      50.359004     25.669032     50.672037
24
Coordinates from ORCA-job neb_MEP_ALL.QMRegion E -1076.349126766754
  C      49.104984     24.288255     53.787200
  H      49.849545     23.482454     53.845033
  H      49.462256     25.262837     54.138164
  C      47.788196     23.922893     54.310139
  C      46.805732     24.985019     54.849208
  O      47.205877     26.173151     54.973392
  O      45.664825     24.571000     55.141748
  O      47.363396     22.772007     54.167966
  C      46.986201     22.661383     51.858359
  H      46.626435     21.641119     51.969586
  C      48.298712     22.914481     51.676212
  H      49.042166     22.117165     51.641783
  C      48.816061     24.267607     51.858338
  C      47.813184     25.350050     51.655391
  H      48.219769     26.356673     51.554688
  C      46.497591     25.110595     51.677153
  H      45.783830     25.938722     51.649406
  C      45.921881     23.723209     51.750843
  H      45.227269     23.679537     52.605517
  O      45.214818     23.442890     50.533446
  H      44.248305     23.263188     50.730241
  C      50.201337     24.533162     51.211804
  O      51.077895     23.629897     51.240534
  O      50.341751     25.658972     50.682412
24
Coordinates from ORCA-job neb_MEP_ALL.QMRegion E -1076.383321631233
  C      49.108260     24.278507     53.650897
  H      49.871376     23.502832     53.827559
  H      49.460713     25.252735     54.008655
  C      47.827253     23.891762     54.326293
  C      46.844550     24.958560     54.874809
  O      47.239844     26.148495     54.975326
  O      45.712116     24.540628     55.185309
  O      47.481055     22.728179     54.345454
  C      46.969698     22.667188     51.715060
  H      46.602380     21.643611     51.715413
  C      48.284494     22.913513     51.705335
  H      49.014805     22.108163     51.670698
  C      48.832058     24.273785     51.999501
  C      47.819226     25.357525     51.742572
  H      48.216645     26.370407     51.682136
  C      46.506440     25.118222     51.662868
  H      45.800495     25.949330     51.594771
  C      45.913091     23.736691     51.674821
  H      45.240061     23.656018     52.548645
  O      45.158062     23.537739     50.472851
  H      44.203869     23.325633     50.694488
  C      50.184447     24.530169     51.261631
  O      51.060153     23.625482     51.263943
  O      50.303024     25.645727     50.707975
24
Coordinates from ORCA-job neb_MEP_ALL.QMRegion E -1076.390687122225
  C      49.140000     24.255000     53.626000
  H      49.929000     23.514000     53.810000
  H      49.475000     25.253000     53.933000
  C      47.916000     23.844000     54.405000
  C      46.901000     24.915000     54.918000
  O      47.281000     26.113000     54.975000
  O      45.777000     24.489000     55.249000
  O      47.664000     22.669000     54.584000
  C      46.944000     22.696000     51.508000
  H      46.572000     21.689000     51.317000
  C      48.246000     22.912000     51.708000
  H      48.965000     22.091000     51.697000
  C      48.810000     24.255000     52.076000
  C      47.815000     25.359000     51.825000
  H      48.213000     26.373000     51.870000
  C      46.513000     25.142000     51.625000
  H      45.824000     25.985000     51.527000
  C      45.896000     23.774000     51.542000
  H      45.266000     23.630000     52.441000
  O      45.077000     23.681000     50.377000
  H      44.141000     23.433000     50.632000
  C      50.148000     24.515000     51.296000
  O      51.030000     23.616000     51.293000
  O      50.247000     25.626000     50.732000
24
Coordinates from ORCA-job neb_MEP_ALL.QMRegion E -1076.356373477625
  C      49.040000     24.209000     54.467000
  H      49.766000     23.472000     54.125000
  H      49.396000     25.142000     54.903000
  C      47.723000     24.016000     54.354000
  C      46.711000     25.020000     54.873000
  O      47.091000     26.215000     55.027000
  O      45.563000     24.591000     55.133000
  O      47.197000     22.866000     53.798000
  C      47.053000     22.831000     52.334000
  H      46.659000     21.825000     52.135000
  C      48.409000     23.007000     51.724000
  H      49.123000     22.186000     51.795000
  C      48.806000     24.204000     51.255000
  C      47.873000     25.339000     51.259000
  H      48.301000     26.312000     51.008000
  C      46.579000     25.198000     51.589000
  H      45.913000     26.064000     51.631000
  C      45.982000     23.839000     51.855000
  H      45.244000     23.917000     52.668000
  O      45.358000     23.362000     50.662000
  H      44.380000     23.230000     50.816000
  C      50.237000     24.468000     50.805000
  O      51.139000     23.629000     51.081000
  O      50.411000     25.556000     50.208000
24
Coordinates from ORCA-job neb_MEP_ALL.QMRegion E -1076.357784278862
  C      49.051708     24.212601     54.397921
  H      49.776379     23.477726     54.048799
  H      49.407745     25.164342     54.784508
  C      47.731726     24.008642     54.328618
  C      46.727913     25.010471     54.860839
  O      47.110502     26.203812     55.015964
  O      45.581874     24.583696     55.131092
  O      47.194850     22.847681     53.786735
  C      47.042322     22.806868     52.321319
  H      46.651625     21.797714     52.129302
  C      48.395203     22.990679     51.710786
  H      49.108954     22.167063     51.755890
  C      48.798255     24.205867     51.297178
  C      47.862355     25.337692     51.322529
  H      48.288520     26.320759     51.113036
  C      46.560522     25.180481     51.615338
  H      45.885915     26.039282     51.646943
  C      45.967381     23.817166     51.848939
  H      45.229784     23.878320     52.662778
  O      45.344716     23.360758     50.648648
  H      44.366414     23.231758     50.800387
  C      50.228519     24.480714     50.865540
  O      51.130173     23.631930     51.110907
  O      50.403864     25.588466     50.306342
24
Coordinates from ORCA-job neb_MEP_ALL.QMRegion E -1076.357177734571
  C      49.061503     24.216267     54.331729
  H      49.786103     23.483469     53.978443
  H      49.418504     25.186337     54.668384
  C      47.741294     23.999222     54.301861
  C      46.745244     25.000453     54.848341
  O      47.129908     26.193000     55.005583
  O      45.600363     24.576140     55.129102
  O      47.197837     22.834803     53.780736
  C      47.032045     22.783728     52.301592
  H      46.646986     21.771852     52.122520
  C      48.381733     22.975856     51.697300
  H      49.096301     22.152594     51.718094
  C      48.788649     24.206360     51.337148
  C      47.850772     25.335985     51.384563
  H      48.275987     26.327930     51.217120
  C      46.542875     25.163471     51.638553
  H      45.859041     26.015962     51.661453
  C      45.954691     23.793710     51.843650
  H      45.216524     23.839640     52.657637
  O      45.330795     23.360251     50.635569
  H      44.351263     23.234031     50.786292
  C      50.220687     24.492530     50.924663
  O      51.121291     23.634564     51.139924
  O      50.396675     25.618711     50.404399
24
Coordinates from ORCA-job neb_MEP_ALL.QMRegion E -1076.357768230228
  C      49.071151     24.219844     54.268501
  H      49.796397     23.488418     53.913883
  H      49.428681     25.207868     54.551899
  C      47.751970     23.987553     54.277047
  C      46.762724     24.991014     54.836565
  O      47.149608     26.183012     54.995514
  O      45.618855     24.568683     55.126751
  O      47.203986     22.823059     53.771991
  C      47.023355     22.760396     52.283917
  H      46.644148     21.747135     52.114150
  C      48.368222     22.963059     51.682539
  H      49.084924     22.140740     51.680084
  C      48.779536     24.207340     51.377342
  C      47.838571     25.333772     51.445752
  H      48.261606     26.332691     51.320364
  C      46.525642     25.147049     51.659808
  H      45.832965     25.993249     51.673591
  C      45.942634     23.771328     51.837327
  H      45.204893     23.801287     52.651643
  O      45.315786     23.361739     50.621327
  H      44.334969     23.237298     50.772444
  C      50.213004     24.503564     50.983849
  O      51.111536     23.636666     51.168826
  O      50.390230     25.646028     50.501429
24
Coordinates from ORCA-job neb_MEP_ALL.QMRegion E -1076.356273706456
  C      49.089551     24.234553     54.172452
  H      49.816102     23.493506     53.842734
  H      49.446733     25.244173     54.372112
  C      47.774349     23.968765     54.264853
  C      46.788639     24.980895     54.827020
  O      47.176723     26.173815     54.981441
  O      45.643669     24.564965     55.124112
  O      47.229514     22.796352     53.779042
  C      47.012744     22.724118     52.237481
  H      46.639661     21.702662     52.086734
  C      48.349406     22.947930     51.659676
  H      49.068056     22.128601     51.633213
  C      48.771032     24.213736     51.466125
  C      47.821579     25.333330     51.538067
  H      48.239314     26.339053     51.456873
  C      46.502947     25.126322     51.681252
  H      45.798893     25.962587     51.679482
  C      45.926196     23.743983     51.814598
  H      45.200065     23.742969     52.637177
  O      45.283097     23.379152     50.591465
  H      44.301954     23.245593     50.750646
  C      50.202708     24.517090     51.076746
  O      51.096514     23.636987     51.209909
  O      50.377341     25.671149     50.621756
24
Coordinates from ORCA-job neb_MEP_ALL.QMRegion E -1076.346761307371
  C      49.100151     24.250907     54.110236
  H      49.828758     23.491562     53.831183
  H      49.457554     25.263205     54.291526
  C      47.787192     23.954112     54.286518
  C      46.798697     24.981406     54.831550
  O      47.185697     26.176282     54.976690
  O      45.651139     24.569632     55.125590
  O      47.267207     22.784218     53.870520
  C      47.002431     22.701620     52.135760
  H      46.634753     21.673091     52.061626
  C      48.336127     22.939244     51.650282
  H      49.059183     22.125025     51.625026
  C      48.772646     24.222473     51.544157
  C      47.815746     25.336632     51.579042
  H      48.230967     26.343256     51.501771
  C      46.496017     25.119927     51.683764
  H      45.787961     25.951683     51.676170
  C      45.920569     23.735631     51.792810
  H      45.208942     23.715815     52.627594
  O      45.259621     23.397582     50.570781
  H      44.281298     23.250249     50.741975
  C      50.200718     24.522261     51.124214
  O      51.089491     23.634848     51.224904
  O      50.367563     25.672304     50.656409
24
Coordinates from ORCA-job neb_MEP_ALL.QMRegion E -1076.341693616384
  C      49.110748     24.268944     54.026134
  H      49.841901     23.486003     53.836132
  H      49.466220     25.276225     54.233483
  C      47.793038     23.936338     54.316100
  C      46.801820     24.985600     54.840210
  O      47.191691     26.179981     54.973350
  O      45.654504     24.575298     55.129164
  O      47.318395     22.781784     54.028131
  C      46.990978     22.678470     51.980292
  H      46.630258     21.651944     52.033531
  C      48.315317     22.925880     51.650012
  H      49.050836     22.122793     51.628316
  C      48.779763     24.237471     51.640623
  C      47.812648     25.341894     51.606369
  H      48.226058     26.347949     51.525020
  C      46.492975     25.115948     51.681465
  H      45.782911     25.945408     51.671619
  C      45.919651     23.729277     51.769784
  H      45.220296     23.696007     52.618472
  O      45.236491     23.416974     50.551109
  H      44.264156     23.253880     50.736721
  C      50.200786     24.526845     51.161144
  O      51.083701     23.632467     51.233387
  O      50.359027     25.669167     50.672243
24
Coordinates from ORCA-job neb_MEP_ALL.QMRegion E -1076.353732785338
  C      49.104958     24.286260     53.788666
  H      49.848401     23.483574     53.845179
  H      49.462648     25.263724     54.139328
  C      47.788863     23.921769     54.309921
  C      46.805238     24.985292     54.849556
  O      47.205776     26.173726     54.973327
  O      45.664111     24.571111     55.141578
  O      47.363892     22.773442     54.168785
  C      46.986401     22.661910     51.858991
  H      46.626306     21.640583     51.970124
  C      48.299535     22.915410     51.676116
  H      49.042270     22.117075     51.641914
  C      48.815474     24.266475     51.857516
  C      47.813698     25.350156     51.654681
  H      48.219863     26.356629     51.553792
  C      46.497311     25.110668     51.677151
  H      45.783932     25.938579     51.649511
  C      45.921754     23.722973     51.750091
  H      45.227440     23.679516     52.605848
  O      45.214764     23.442863     50.533828
  H      44.248479     23.263073     50.730319
  C      50.201435     24.533105     51.211017
  O      51.077878     23.630013     51.240438
  O      50.341943     25.659066     50.682066
24
Coordinates from ORCA-job neb_MEP_ALL.QMRegion E -1076.380539069918
  C      49.107679     24.277870     53.649550
  H      49.869912     23.502667     53.828106
  H      49.460545     25.253715     54.010105
  C      47.826416     23.894320     54.325889
  C      46.843102     24.960187     54.874024
  O      47.239293     26.149452     54.975361
  O      45.710295     24.541219     55.184240
  O      47.477927     22.727467     54.343546
  C      46.970871     22.667203     51.718196
  H      46.603132     21.642760     51.721893
  C      48.284419     22.914109     51.705031
  H      49.016219     22.107844     51.670779
  C      48.831686     24.273554     52.000188
  C      47.819188     25.357358     51.740400
  H      48.216778     26.370385     51.678444
  C      46.506648     25.117658     51.663451
  H      45.800207     25.948647     51.595721
  C      45.913437     23.735987     51.676633
  H      45.240242     23.656233     52.550354
  O      45.159388     23.535441     50.474729
  H      44.204970     23.323783     50.695663
  C      50.185212     24.530414     51.260210
  O      51.060846     23.625584     51.263653
  O      50.304086     25.646163     50.707260
24
Coordinates from ORCA-job neb_MEP_ALL.QMRegion E -1076.390687122225
  C      49.140000     24.255000     53.626000
  H      49.929000     23.514000     53.810000
  H      49.475000     25.253000     53.933000
  C      47.916000     23.844000     54.405000
  C      46.901000     24.915000     54.918000
  O      47.281000     26.113000     54.975000
  O      45.777000     24.489000     55.249000
  O      47.664000     22.669000     54.584000
  C      46.944000     22.696000     51.508000
  H      46.572000     21.689000     51.317000
  C      48.246000     22.912000     51.708000
  H      48.965000     22.091000     51.697000
  C      48.810000     24.255000     52.076000
  C      47.815000     25.359000     51.825000
  H      48.213000     26.373000     51.870000
  C      46.513000     25.142000     51.625000
  H      45.824000     25.985000     51.527000
  C      45.896000     23.774000     51.542000
  H      45.266000     23.630000     52.441000
  O      45.077000     23.681000     50.377000
  H      44.141000     23.433000     50.632000
  C      50.148000     24.515000     51.296000
  O      51.030000     23.616000     51.293000
  O      50.247000     25.626000     50.732000
24
Coordinates from ORCA-job neb_MEP_ALL.QMRegion E -1076.356373477625
  C      49.040000     24.209000     54.467000
  H      49.766000     23.472000     54.125000
  H      49.396000     25.142000     54.903000
  C      47.723000     24.016000     54.354000
  C      46.711000     25.020000     54.873000
  O      47.091000     26.215000     55.027000
  O      45.563000     24.591000     55.133000
  O      47.197000     22.866000     53.798000
  C      47.053000     22.831000     52.334000
  H      46.659000     21.825000     52.135000
  C      48.409000     23.007000     51.724000
  H      49.123000     22.186000     51.795000
  C      48.806000     24.204000     51.255000
  C      47.873000     25.339000     51.259000
  H      48.301000     26.312000     51.008000
  C      46.579000     25.198000     51.589000
  H      45.913000     26.064000     51.631000
  C      45.982000     23.839000     51.855000
  H      45.244000     23.917000     52.668000
  O      45.358000     23.362000     50.662000
  H      44.380000     23.230000     50.816000
  C      50.237000     24.468000     50.805000
  O      51.139000     23.629000     51.081000
  O      50.411000     25.556000     50.208000
24
Coordinates from ORCA-job neb_MEP_ALL.QMRegion E -1076.358642269477
  C      49.051106     24.212002     54.398109
  H      49.776151     23.477782     54.048690
  H      49.407945     25.164454     54.785942
  C      47.731370     24.006901     54.327993
  C      46.727681     25.010732     54.861053
  O      47.110502     26.204196     55.016046
  O      45.581495     24.583476     55.131101
  O      47.195596     22.849305     53.787719
  C      47.042030     22.806574     52.321290
  H      46.651566     21.798102     52.129485
  C      48.394952     22.990721     51.710735
  H      49.108967     22.166929     51.755846
  C      48.798256     24.205797     51.296388
  C      47.862255     25.337781     51.321947
  H      48.288466     26.320421     51.112588
  C      46.560625     25.180732     51.615243
  H      45.886089     26.039393     51.647480
  C      45.967436     23.817015     51.849185
  H      45.229721     23.878533     52.662790
  O      45.344964     23.360439     50.648652
  H      44.366575     23.231531     50.800482
  C      50.228606     24.480723     50.864999
  O      51.130048     23.631993     51.110504
  O      50.403829     25.588587     50.306213
24
Coordinates from ORCA-job neb_MEP_ALL.QMRegion E -1076.359884189619
  C      49.060967     24.215579     54.332290
  H      49.785638     23.483575     53.978263
  H      49.418539     25.186018     54.671042
  C      47.740948     23.998008     54.301617
  C      46.744760     25.000849     54.848556
  O      47.129818     26.193321     55.005706
  O      45.599924     24.575878     55.129087
  O      47.198260     22.836080     53.781331
  C      47.032127     22.783643     52.302154
  H      46.646710     21.772104     52.122959
  C      48.381420     22.975960     51.696966
  H      49.096255     22.152424     51.718049
  C      48.788652     24.206166     51.335616
  C      47.850465     25.336097     51.383356
  H      48.275941     26.327354     51.216211
  C      46.542935     25.163855     51.638500
  H      45.859437     26.015974     51.662546
  C      45.954465     23.793972     51.843665
  H      45.216406     23.840002     52.657754
  O      45.331159     23.359505     50.635820
  H      44.351759     23.233601     50.786468
  C      50.220700     24.492504     50.923580
  O      51.121092     23.634714     51.139104
  O      50.396628     25.618931     50.404228
24
Coordinates from ORCA-job neb_MEP_ALL.QMRegion E -1076.361190383473
  C      49.070777     24.219072     54.269220
  H      49.795744     23.488529     53.913455
  H      49.428450     25.207035     54.555463
  C      47.751691     23.987480     54.277108
  C      46.762272     24.991246     54.836677
  O      47.149363     26.183134     54.995612
  O      45.618476     24.568485     55.126661
  O      47.203827     22.823532     53.772221
  C      47.023745     22.761193     52.284613
  H      46.643622     21.746986     52.114878
  C      48.368145     22.962994     51.681899
  H      49.084649     22.140771     51.679859
  C      48.779094     24.206752     51.375157
  C      47.838094     25.333811     51.444083
  H      48.261562     26.332065     51.319336
  C      46.525603     25.147390     51.659858
  H      45.833400     25.993208     51.675250
  C      45.942295     23.771553     51.837195
  H      45.204555     23.801766     52.651883
  O      45.316338     23.360586     50.621958
  H      44.335782     23.236693     50.772659
  C      50.212984     24.503598     50.982332
  O      51.111323     23.636881     51.167694
  O      50.390290     25.646473     50.501518
24
Coordinates from ORCA-job neb_MEP_ALL.QMRegion E -1076.358409105317
  C      49.089417     24.233747     54.171677
  H      49.815995     23.493740     53.840875
  H      49.446815     25.244150     54.371953
  C      47.774211     23.968088     54.263681
  C      46.788855     24.980681     54.826626
  O      47.177126     26.173551     54.981239
  O      45.643931     24.564524     55.123899
  O      47.229610     22.796914     53.778510
  C      47.012679     22.724273     52.237895
  H      46.639420     21.702218     52.087122
  C      48.349299     22.947436     51.658879
  H      49.067544     22.128552     51.631809
  C      48.770446     24.213221     51.465008
  C      47.820820     25.333344     51.538278
  H      48.238728     26.338552     51.458865
  C      46.502417     25.126206     51.681860
  H      45.798453     25.961871     51.681035
  C      45.925688     23.743306     51.814474
  H      45.199327     23.742330     52.637176
  O      45.283222     23.378328     50.591646
  H      44.302067     23.245316     50.750402
  C      50.202458     24.517361     51.076880
  O      51.096066     23.637227     51.209809
  O      50.377355     25.672085     50.624210
24
Coordinates from ORCA-job neb_MEP_ALL.QMRegion E -1076.347819448095
  C      49.100308     24.250581     54.109683
  H      49.828868     23.491786     53.830216
  H      49.457864     25.263600     54.290833
  C      47.787180     23.953186     54.286376
  C      46.798943     24.981325     54.831529
  O      47.185917     26.176233     54.976482
  O      45.651385     24.569532     55.125414
  O      47.267981     22.784678     53.871270
  C      47.002459     22.701279     52.134895
  H      46.634590     21.672580     52.061468
  C      48.335639     22.938700     51.649808
  H      49.058820     22.124955     51.624149
  C      48.772426     24.222309     51.544087
  C      47.815255     25.336756     51.579468
  H      48.230547     26.342946     51.503220
  C      46.495637     25.119856     51.684043
  H      45.787580     25.951161     51.676978
  C      45.920302     23.735107     51.792351
  H      45.208666     23.715099     52.627446
  O      45.259219     23.397500     50.570483
  H      44.280990     23.250229     50.741668
  C      50.200569     24.522466     51.124648
  O      51.089154     23.634956     51.224962
  O      50.367495     25.672834     50.657914
24
Coordinates from ORCA-job neb_MEP_ALL.QMRegion E -1076.341910860727
  C      49.111169     24.268865     54.027277
  H      49.841931     23.486316     53.836123
  H      49.466497     25.276451     54.234406
  C      47.793293     23.936382     54.316868
  C      46.801847     24.985640     54.840444
  O      47.191565     26.180037     54.973248
  O      45.654483     24.575374     55.129040
  O      47.318817     22.781505     54.028953
  C      46.990775     22.678297     51.979775
  H      46.630133     21.651786     52.033393
  C      48.315217     22.925689     51.649692
  H      49.050717     22.122677     51.627966
  C      48.779518     24.237336     51.639588
  C      47.812497     25.341835     51.606019
  H      48.226056     26.347770     51.525131
  C      46.492886     25.115857     51.681357
  H      45.782780     25.945325     51.672063
  C      45.919613     23.729144     51.769361
  H      45.220380     23.695717     52.618286
  O      45.236115     23.417172     50.550815
  H      44.263852     23.253970     50.736505
  C      50.200659     24.526872     51.160811
  O      51.083591     23.632508     51.233191
  O      50.359078     25.669380     50.672438
24
Coordinates from ORCA-job neb_MEP_ALL.QMRegion E -1076.353815556749
  C      49.104957     24.285109     53.792699
  H      49.847434     23.484403     53.845284
  H      49.462891     25.264162     54.141353
  C      47.789810     23.921895     54.310026
  C      46.804866     24.985604     54.849786
  O      47.205366     26.174218     54.973260
  O      45.663303     24.571347     55.141249
  O      47.363540     22.773827     54.168230
  C      46.986930     22.662400     51.860886
  H      46.626280     21.640305     51.971277
  C      48.300208     22.915997     51.675754
  H      49.042401     22.117115     51.641928
  C      48.814756     24.265398     51.854418
  C      47.813863     25.349923     51.653490
  H      48.220079     26.356547     51.552496
  C      46.497376     25.110786     51.677138
  H      45.783945     25.938540     51.649842
  C      45.921471     23.722843     51.749630
  H      45.227632     23.679619     52.606231
  O      45.214883     23.442567     50.534300
  H      44.248769     23.262839     50.730468
  C      50.201418     24.532959     51.209740
  O      51.077973     23.630109     51.240221
  O      50.342303     25.659255     50.681571
24
Coordinates from ORCA-job neb_MEP_ALL.QMRegion E -1076.380468763712
  C      49.107211     24.277783     53.647412
  H      49.868179     23.502546     53.828718
  H      49.460216     25.254358     54.011150
  C      47.825146     23.894819     54.325175
  C      46.841295     24.961737     54.873414
  O      47.238706     26.150669     54.975397
  O      45.708444     24.542049     55.183044
  O      47.475204     22.728725     54.342032
  C      46.971621     22.666899     51.721263
  H      46.603988     21.641893     51.728733
  C      48.285072     22.914554     51.704830
  H      49.017519     22.107716     51.670973
  C      48.831513     24.273464     52.001676
  C      47.819392     25.357188     51.738231
  H      48.216906     26.370396     51.674480
  C      46.506729     25.117082     51.664042
  H      45.799897     25.947874     51.596656
  C      45.913761     23.735186     51.678524
  H      45.240492     23.656406     52.552212
  O      45.160757     23.533036     50.476762
  H      44.206162     23.321813     50.696936
  C      50.185971     24.530625     51.259031
  O      51.061552     23.625780     51.263296
  O      50.305209     25.646590     50.706443
24
Coordinates from ORCA-job neb_MEP_ALL.QMRegion E -1076.390687122225
  C      49.140000     24.255000     53.626000
  H      49.929000     23.514000     53.810000
  H      49.475000     25.253000     53.933000
  C      47.916000     23.844000     54.405000
  C      46.901000     24.915000     54.918000
  O      47.281000     26.113000     54.975000
  O      45.777000     24.489000     55.249000
  O      47.664000     22.669000     54.584000
  C      46.944000     22.696000     51.508000
  H      46.572000     21.689000     51.317000
  C      48.246000     22.912000     51.708000
  H      48.965000     22.091000     51.697000
  C      48.810000     24.255000     52.076000
  C      47.815000     25.359000     51.825000
  H      48.213000     26.373000     51.870000
  C      46.513000     25.142000     51.625000
  H      45.824000     25.985000     51.527000
  C      45.896000     23.774000     51.542000
  H      45.266000     23.630000     52.441000
  O      45.077000     23.681000     50.377000
  H      44.141000     23.433000     50.632000
  C      50.148000     24.515000     51.296000
  O      51.030000     23.616000     51.293000
  O      50.247000     25.626000     50.732000
24
Coordinates from ORCA-job neb_MEP_ALL.QMRegion E -1076.356373477625
  C      49.040000     24.209000     54.467000
  H      49.766000     23.472000     54.125000
  H      49.396000     25.142000     54.903000
  C      47.723000     24.016000     54.354000
  C      46.711000     25.020000     54.873000
  O      47.091000     26.215000     55.027000
  O      45.563000     24.591000     55.133000
  O      47.197000     22.866000     53.798000
  C      47.053000     22.831000     52.334000
  H      46.659000     21.825000     52.135000
  C      48.409000     23.007000     51.724000
  H      49.123000     22.186000     51.795000
  C      48.806000     24.204000     51.255000
  C      47.873000     25.339000     51.259000
  H      48.301000     26.312000     51.008000
  C      46.579000     25.198000     51.589000
  H      45.913000     26.064000     51.631000
  C      45.982000     23.839000     51.855000
  H      45.244000     23.917000     52.668000
  O      45.358000     23.362000     50.662000
  H      44.380000     23.230000     50.816000
  C      50.237000     24.468000     50.805000
  O      51.139000     23.629000     51.081000
  O      50.411000     25.556000     50.208000
24
Coordinates from ORCA-job neb_MEP_ALL.QMRegion E -1076.358714108042
  C      49.048964     24.210121     54.399639
  H      49.775042     23.477978     54.048098
  H      49.408319     25.163711     54.793041
  C      47.730056     24.001798     54.326630
  C      46.726680     25.011533     54.861841
  O      47.110246     26.205505     55.016446
  O      45.579948     24.582738     55.131128
  O      47.197810     22.854435     53.790958
  C      47.041142     22.806179     52.321538
  H      46.651013     21.799422     52.130616
  C      48.394023     22.990850     51.710187
  H      49.108819     22.166422     51.755631
  C      48.797907     24.205300     51.292463
  C      47.861815     25.337785     51.318853
  H      48.288326     26.319001     51.110083
  C      46.561022     25.181564     51.614890
  H      45.886958     26.040031     51.650340
  C      45.967619     23.816711     51.850119
  H      45.229374     23.879634     52.662890
  O      45.346181     23.358721     50.648917
  H      44.367562     23.230331     50.800933
  C      50.228724     24.480712     50.862180
  O      51.129610     23.632194     51.108358
  O      50.403738     25.589368     50.305432
24
Coordinates from ORCA-job neb_MEP_ALL.QMRegion E -1076.359964157489
  C      49.058869     24.213246     54.335801
  H      49.783374     23.483961     53.977209
  H      49.418120     25.183033     54.684704
  C      47.739428     23.994825     54.301572
  C      46.742651     25.002126     54.849389
  O      47.129078     26.194497     55.006333
  O      45.597853     24.574912     55.129023
  O      47.199356     22.840365     53.784030
  C      47.032249     22.784092     52.304044
  H      46.645251     21.773276     52.125511
  C      48.380340     22.976274     51.695192
  H      49.095776     22.151801     51.717773
  C      48.787962     24.205112     51.327694
  C      47.849161     25.335902     51.377034
  H      48.275897     26.324885     51.211267
  C      46.543144     25.165187     51.638232
  H      45.861263     26.016431     51.668369
  C      45.953674     23.795198     51.844026
  H      45.215718     23.841957     52.658302
  O      45.333226     23.355593     50.637253
  H      44.354268     23.231280     50.787367
  C      50.220372     24.492321     50.917909
  O      51.120394     23.635269     51.134765
  O      50.396539     25.620401     50.403191
24
Coordinates from ORCA-job neb_MEP_ALL.QMRegion E -1076.361304609635
  C      49.069056     24.216188     54.273530
  H      49.792538     23.488831     53.911053
  H      49.426924     25.201745     54.574132
  C      47.750145     23.987831     54.277643
  C      46.760112     24.992046     54.837241
  O      47.147938     26.183629     54.996123
  O      45.616546     24.567647     55.126187
  O      47.202853     22.825673     53.773835
  C      47.024643     22.764102     52.286980
  H      46.641305     21.747383     52.118971
  C      48.367533     22.962698     51.678854
  H      49.083353     22.140757     51.678630
  C      48.776720     24.204291     51.363367
  C      47.835958     25.333142     51.435359
  H      48.261517     26.329266     51.313757
  C      46.525249     25.148541     51.659980
  H      45.835328     25.993549     51.684086
  C      45.941059     23.772659     51.837434
  H      45.202864     23.804333     52.652906
  O      45.319489     23.354474     50.624998
  H      44.339764     23.233410     50.773822
  C      50.212304     24.503635     50.974453
  O      51.110538     23.637771     51.161674
  O      50.390744     25.649195     50.501839
24
Coordinates from ORCA-job neb_MEP_ALL.QMRegion E -1076.358543478813
  C      49.089053     24.230835     54.167787
  H      49.815663     23.494698     53.830967
  H      49.446899     25.243094     54.370819
  C      47.773951     23.965881     54.258236
  C      46.790075     24.979377     54.824526
  O      47.179183     26.171948     54.980126
  O      45.645449     24.562360     55.122756
  O      47.229588     22.798666     53.775521
  C      47.012111     22.724057     52.239278
  H      46.638374     21.700455     52.089274
  C      48.347914     22.945386     51.654776
  H      49.065225     22.127791     51.624367
  C      48.767275     24.211052     51.459249
  C      47.817140     25.332465     51.539516
  H      48.235818     26.336445     51.469369
  C      46.499494     25.124807     51.685000
  H      45.795732     25.958546     51.689268
  C      45.923257     23.740165     51.814356
  H      45.195597     23.738881     52.636940
  O      45.283777     23.373947     50.592258
  H      44.302512     23.243828     50.749104
  C      50.200727     24.518696     51.077793
  O      51.093962     23.638274     51.209270
  O      50.377483     25.677297     50.637077
24
Coordinates from ORCA-job neb_MEP_ALL.QMRegion E -1076.347787150138
  C      49.101241     24.249853     54.107074
  H      49.829648     23.492755     53.825158
  H      49.459209     25.264932     54.287238
  C      47.787946     23.950061     54.286279
  C      46.800290     24.980762     54.831345
  O      47.187075     26.175878     54.975379
  O      45.652581     24.569045     55.124530
  O      47.271346     22.785542     53.875098
  C      47.002042     22.699229     52.129887
  H      46.633817     21.670035     52.060720
  C      48.333356     22.936580     51.647092
  H      49.057090     22.124305     51.619559
  C      48.770834     24.221460     51.543839
  C      47.812925     25.336622     51.581675
  H      48.228522     26.341759     51.510723
  C      46.493636     25.118889     51.685443
  H      45.785330     25.948730     51.681237
  C      45.918925     23.732699     51.790309
  H      45.207433     23.711313     52.626435
  O      45.257219     23.397072     50.568780
  H      44.279226     23.250115     50.740075
  C      50.199554     24.523448     51.126905
  O      51.087555     23.635416     51.225225
  O      50.367186     25.675732     50.665695
24
Coordinates from ORCA-job neb_MEP_ALL.QMRegion E -1076.341940207131
  C      49.113016     24.268947     54.033380
  H      49.842336     23.487726     53.836042
  H      49.467947     25.277467     54.239250
  C      47.794763     23.936220     54.320795
  C      46.802040     24.985772     54.841659
  O      47.190941     26.180463     54.972728
  O      45.654290     24.575748     55.128417
  O      47.321179     22.780339     54.033445
  C      46.989835     22.677366     51.976935
  H      46.629447     21.650907     52.032627
  C      48.314585     22.924785     51.648026
  H      49.050110     22.122013     51.626110
  C      48.778172     24.236590     51.634215
  C      47.811795     25.341364     51.604196
  H      48.226063     26.346915     51.525725
  C      46.492298     25.115375     51.680773
  H      45.782088     25.944855     51.674426
  C      45.919269     23.728472     51.767257
  H      45.220900     23.694167     52.617195
  O      45.234213     23.418242     50.549171
  H      44.262145     23.254450     50.735384
  C      50.199988     24.526996     51.159080
  O      51.083005     23.632717     51.232137
  O      50.359340     25.670530     50.673472
24
Coordinates from ORCA-job neb_MEP_ALL.QMRegion E -1076.353457899836
  C      49.105130     24.282761     53.808184
  H      49.844225     23.486890     53.846131
  H      49.463885     25.265535     54.149633
  C      47.792736     23.922511     54.311968
  C      46.803165     24.987075     54.850800
  O      47.203433     26.176429     54.973000
  O      45.660189     24.572631     55.139716
  O      47.362848     22.774998     54.168477
  C      46.988644     22.663561     51.867072
  H      46.626455     21.639421     51.975775
  C      48.302508     22.917481     51.674419
  H      49.042980     22.117200     51.642197
  C      48.812447     24.262161     51.842647
  C      47.814533     25.349023     51.648538
  H      48.221066     26.356032     51.546649
  C      46.497594     25.111032     51.676757
  H      45.784010     25.938301     51.651171
  C      45.920661     23.722402     51.748057
  H      45.228937     23.679759     52.607541
  O      45.215101     23.441579     50.535636
  H      44.249509     23.261851     50.731140
  C      50.201311     24.532397     51.204721
  O      51.078434     23.630496     51.239118
  O      50.343624     25.659922     50.679347
24
Coordinates from ORCA-job neb_MEP_ALL.QMRegion E -1076.380314891945
  C      49.103836     24.278887     53.640630
  H      49.859370     23.501252     53.831935
  H      49.458083     25.256533     54.017425
  C      47.817548     23.899383     54.321260
  C      46.832113     24.969615     54.869560
  O      47.234616     26.156894     54.975711
  O      45.698731     24.547323     55.176173
  O      47.459693     22.735035     54.332098
  C      46.975712     22.664725     51.739167
  H      46.609057     21.637886     51.767422
  C      48.288712     22.915491     51.703845
  H      49.024162     22.107814     51.671749
  C      48.831753     24.273904     52.004423
  C      47.820166     25.356336     51.726640
  H      48.217568     26.369951     51.652110
  C      46.506983     25.114056     51.667100
  H      45.798217     25.943551     51.602069
  C      45.915989     23.730968     51.689855
  H      45.241684     23.657518     52.562622
  O      45.168542     23.519314     50.487726
  H      44.212749     23.310691     50.704109
  C      50.189771     24.531746     51.253023
  O      51.065399     23.626882     51.260987
  O      50.311250     25.648592     50.701888
24
Coordinates from ORCA-job neb_MEP_ALL.QMRegion E -1076.390687122225
  C      49.140000     24.255000     53.626000
  H      49.929000     23.514000     53.810000
  H      49.475000     25.253000     53.933000
  C      47.916000     23.844000     54.405000
  C      46.901000     24.915000     54.918000
  O      47.281000     26.113000     54.975000
  O      45.777000     24.489000     55.249000
  O      47.664000     22.669000     54.584000
  C      46.944000     22.696000     51.508000
  H      46.572000     21.689000     51.317000
  C      48.246000     22.912000     51.708000
  H      48.965000     22.091000     51.697000
  C      48.810000     24.255000     52.076000
  C      47.815000     25.359000     51.825000
  H      48.213000     26.373000     51.870000
  C      46.513000     25.142000     51.625000
  H      45.824000     25.985000     51.527000
  C      45.896000     23.774000     51.542000
  H      45.266000     23.630000     52.441000
  O      45.077000     23.681000     50.377000
  H      44.141000     23.433000     50.632000
  C      50.148000     24.515000     51.296000
  O      51.030000     23.616000     51.293000
  O      50.247000     25.626000     50.732000
24
Coordinates from ORCA-job neb_MEP_ALL.QMRegion E -1076.356373477625
  C      49.040000     24.209000     54.467000
  H      49.766000     23.472000     54.125000
  H      49.396000     25.142000     54.903000
  C      47.723000     24.016000     54.354000
  C      46.711000     25.020000     54.873000
  O      47.091000     26.215000     55.027000
  O      45.563000     24.591000     55.133000
  O      47.197000     22.866000     53.798000
  C      47.053000     22.831000     52.334000
  H      46.659000     21.825000     52.135000
  C      48.409000     23.007000     51.724000
  H      49.123000     22.186000     51.795000
  C      48.806000     24.204000     51.255000
  C      47.873000     25.339000     51.259000
  H      48.301000     26.312000     51.008000
  C      46.579000     25.198000     51.589000
  H      45.913000     26.064000     51.631000
  C      45.982000     23.839000     51.855000
  H      45.244000     23.917000     52.668000
  O      45.358000     23.362000     50.662000
  H      44.380000     23.230000     50.816000
  C      50.237000     24.468000     50.805000
  O      51.139000     23.629000     51.081000
  O      50.411000     25.556000     50.208000
24
Coordinates from ORCA-job neb_MEP_ALL.QMRegion E -1076.358486119090
  C      49.049503     24.210985     54.400263
  H      49.775020     23.477909     54.048060
  H      49.407854     25.162604     54.793308
  C      47.730480     24.004556     54.327956
  C      46.726918     25.010944     54.861715
  O      47.109863     26.205059     55.016473
  O      45.580183     24.583194     55.131118
  O      47.196629     22.852156     53.789615
  C      47.041769     22.807107     52.321578
  H      46.650810     21.799135     52.130869
  C      48.394025     22.990587     51.710201
  H      49.108557     22.166687     51.755591
  C      48.797327     24.204897     51.292373
  C      47.861919     25.337426     51.318605
  H      48.288444     26.319274     51.109685
  C      46.560939     25.181173     51.614903
  H      45.886928     26.040300     51.650625
  C      45.967814     23.816675     51.850117
  H      45.229218     23.879775     52.662948
  O      45.346196     23.358611     50.649075
  H      44.367689     23.230203     50.800912
  C      50.228618     24.480764     50.861995
  O      51.129776     23.631998     51.108128
  O      50.403862     25.589702     50.305174
24
Coordinates from ORCA-job neb_MEP_ALL.QMRegion E -1076.359431150640
  C      49.059115     24.214160     54.336498
  H      49.783323     23.483791     53.977141
  H      49.417839     25.182037     54.685713
  C      47.739578     23.996338     54.302789
  C      46.742907     25.001587     54.849362
  O      47.128623     26.194501     55.006459
  O      45.597899     24.575338     55.129019
  O      47.198480     22.838893     53.781717
  C      47.032303     22.784576     52.305568
  H      46.645101     21.773296     52.125758
  C      48.380476     22.975929     51.694983
  H      49.095463     22.152058     51.717752
  C      48.787217     24.204922     51.327259
  C      47.849407     25.335274     51.376508
  H      48.276013     26.325161     51.210597
  C      46.543131     25.164833     51.638091
  H      45.861105     26.017000     51.668967
  C      45.954135     23.794845     51.844375
  H      45.215624     23.842151     52.658325
  O      45.333435     23.355374     50.637092
  H      44.354176     23.230985     50.787435
  C      50.220231     24.492383     50.917602
  O      51.120590     23.634922     51.134298
  O      50.396657     25.621007     50.402799
24
Coordinates from ORCA-job neb_MEP_ALL.QMRegion E -1076.360997503569
  C      49.069064     24.217072     54.274231
  H      49.792473     23.488549     53.910834
  H      49.426814     25.200875     54.575717
  C      47.749912     23.987605     54.278416
  C      46.760071     24.991932     54.837279
  O      47.147621     26.183876     54.996293
  O      45.616503     24.567830     55.126174
  O      47.202588     22.825610     53.771698
  C      47.024076     22.762857     52.289083
  H      46.641375     21.748180     52.119242
  C      48.367210     22.962630     51.678489
  H      49.083311     22.140579     51.678565
  C      48.776611     24.204830     51.362348
  C      47.836075     25.332364     51.434642
  H      48.261594     26.329384     51.312996
  C      46.525169     25.148334     51.659814
  H      45.835162     25.994061     51.685008
  C      45.941281     23.772787     51.837990
  H      45.202935     23.804471     52.652823
  O      45.319795     23.353972     50.624579
  H      44.339642     23.232986     50.773966
  C      50.211900     24.503464     50.974103
  O      51.110642     23.637466     51.160988
  O      50.390787     25.649954     50.501586
24
Coordinates from ORCA-job neb_MEP_ALL.QMRegion E -1076.358475766166
  C      49.089254     24.231809     54.167655
  H      49.815874     23.494472     53.830169
  H      49.446756     25.242406     54.370542
  C      47.774385     23.966518     54.258813
  C      46.790311     24.979130     54.824328
  O      47.179154     26.171758     54.980068
  O      45.645739     24.562473     55.122666
  O      47.229271     22.797798     53.775036
  C      47.012061     22.722969     52.238953
  H      46.638374     21.700552     52.089340
  C      48.347034     22.945614     51.654309
  H      49.065286     22.127333     51.623803
  C      48.766988     24.211459     51.459035
  C      47.817059     25.331584     51.539715
  H      48.235693     26.336703     51.470084
  C      46.499230     25.124172     51.685163
  H      45.795156     25.958632     51.690018
  C      45.923136     23.740388     51.814543
  H      45.195495     23.738453     52.636773
  O      45.283589     23.373596     50.591784
  H      44.302343     23.243667     50.748999
  C      50.200375     24.518567     51.078212
  O      51.093899     23.638135     51.209111
  O      50.377476     25.678070     50.637872
24
Coordinates from ORCA-job neb_MEP_ALL.QMRegion E -1076.347341403632
  C      49.101468     24.250806     54.106771
  H      49.830028     23.492595     53.825034
  H      49.459215     25.264584     54.286992
  C      47.788783     23.951139     54.287190
  C      46.800486     24.980648     54.831352
  O      47.187072     26.175798     54.975311
  O      45.652576     24.569190     55.124548
  O      47.271427     22.784240     53.876687
  C      47.001554     22.698616     52.127793
  H      46.633800     21.669910     52.060483
  C      48.333255     22.936892     51.646733
  H      49.057012     22.124065     51.619307
  C      48.770320     24.221468     51.544446
  C      47.812924     25.335987     51.581879
  H      48.228535     26.342089     51.511095
  C      46.493526     25.118344     51.685366
  H      45.784953     25.948820     51.681530
  C      45.918882     23.732758     51.790231
  H      45.207608     23.710909     52.626116
  O      45.256936     23.397264     50.568310
  H      44.278797     23.250152     50.739923
  C      50.199370     24.523427     51.127263
  O      51.087539     23.635303     51.225149
  O      50.367135     25.676030     50.665987
24
Coordinates from ORCA-job neb_MEP_ALL.QMRegion E -1076.342002863943
  C      49.112854     24.269401     54.033934
  H      49.842627     23.487652     53.836060
  H      49.468061     25.277376     54.239732
  C      47.794996     23.935865     54.320978
  C      46.802099     24.985699     54.841757
  O      47.190945     26.180613     54.972709
  O      45.654214     24.575721     55.128389
  O      47.321513     22.780509     54.033918
  C      46.989851     22.677268     51.976611
  H      46.629363     21.650790     52.032512
  C      48.314438     22.924814     51.647924
  H      49.050087     22.121893     51.625941
  C      48.778022     24.236502     51.633862
  C      47.811845     25.341194     51.604053
  H      48.226048     26.346893     51.525761
  C      46.492116     25.115330     51.680724
  H      45.782018     25.944768     51.674672
  C      45.919085     23.728433     51.767166
  H      45.220975     23.694007     52.616999
  O      45.234118     23.418341     50.548971
  H      44.261911     23.254512     50.735288
  C      50.199944     24.526971     51.158926
  O      51.082939     23.632711     51.232005
  O      50.359336     25.670674     50.673550
24
Coordinates from ORCA-job neb_MEP_ALL.QMRegion E -1076.352052032223
  C      49.105223     24.285398     53.814020
  H      49.845353     23.485601     53.846062
  H      49.463684     25.264725     54.151823
  C      47.791748     23.923526     54.313267
  C      46.803476     24.986778     54.850320
  O      47.202614     26.176284     54.973071
  O      45.660534     24.573109     55.139272
  O      47.361867     22.774313     54.165414
  C      46.988600     22.663037     51.869645
  H      46.626848     21.640342     51.977071
  C      48.302116     22.916379     51.673878
  H      49.043080     22.117423     51.641809
  C      48.812068     24.262696     51.836903
  C      47.814281     25.348622     51.647469
  H      48.221222     26.355599     51.545912
  C      46.497579     25.110921     51.676600
  H      45.783857     25.938494     51.651788
  C      45.920798     23.722706     51.749205
  H      45.228978     23.679971     52.607450
  O      45.215528     23.440991     50.535536
  H      44.249499     23.261603     50.731247
  C      50.201231     24.532277     51.203889
  O      51.078605     23.630458     51.238708
  O      50.343912     25.660077     50.679074
24
Coordinates from ORCA-job neb_MEP_ALL.QMRegion E -1076.378798499198
  C      49.103904     24.280447     53.640193
  H      49.858338     23.501634     53.832017
  H      49.457413     25.255021     54.016405
  C      47.817577     23.898789     54.319605
  C      46.831986     24.969403     54.870014
  O      47.233734     26.157109     54.975664
  O      45.698037     24.548533     55.175659
  O      47.459180     22.736550     54.333139
  C      46.976056     22.663860     51.739354
  H      46.609425     21.637795     51.769479
  C      48.289451     22.914680     51.704531
  H      49.023948     22.108438     51.671989
  C      48.833185     24.274727     52.004623
  C      47.820486     25.356187     51.726801
  H      48.217541     26.369822     51.650639
  C      46.507078     25.114023     51.667053
  H      45.797956     25.943299     51.602155
  C      45.916008     23.730621     51.690525
  H      45.241770     23.657438     52.563406
  O      45.168852     23.518595     50.488268
  H      44.213137     23.310056     50.704589
  C      50.189722     24.532005     51.254230
  O      51.065376     23.627219     51.260479
  O      50.311362     25.648105     50.701509
24
Coordinates from ORCA-job neb_MEP_ALL.QMRegion E -1076.390687122225
  C      49.140000     24.255000     53.626000
  H      49.929000     23.514000     53.810000
  H      49.475000     25.253000     53.933000
  C      47.916000     23.844000     54.405000
  C      46.901000     24.915000     54.918000
  O      47.281000     26.113000     54.975000
  O      45.777000     24.489000     55.249000
  O      47.664000     22.669000     54.584000
  C      46.944000     22.696000     51.508000
  H      46.572000     21.689000     51.317000
  C      48.246000     22.912000     51.708000
  H      48.965000     22.091000     51.697000
  C      48.810000     24.255000     52.076000
  C      47.815000     25.359000     51.825000
  H      48.213000     26.373000     51.870000
  C      46.513000     25.142000     51.625000
  H      45.824000     25.985000     51.527000
  C      45.896000     23.774000     51.542000
  H      45.266000     23.630000     52.441000
  O      45.077000     23.681000     50.377000
  H      44.141000     23.433000     50.632000
  C      50.148000     24.515000     51.296000
  O      51.030000     23.616000     51.293000
  O      50.247000     25.626000     50.732000
24
Coordinates from ORCA-job neb_MEP_ALL.QMRegion E -1076.356373477625
  C      49.040000     24.209000     54.467000
  H      49.766000     23.472000     54.125000
  H      49.396000     25.142000     54.903000
  C      47.723000     24.016000     54.354000
  C      46.711000     25.020000     54.873000
  O      47.091000     26.215000     55.027000
  O      45.563000     24.591000     55.133000
  O      47.197000     22.866000     53.798000
  C      47.053000     22.831000     52.334000
  H      46.659000     21.825000     52.135000
  C      48.409000     23.007000     51.724000
  H      49.123000     22.186000     51.795000
  C      48.806000     24.204000     51.255000
  C      47.873000     25.339000     51.259000
  H      48.301000     26.312000     51.008000
  C      46.579000     25.198000     51.589000
  H      45.913000     26.064000     51.631000
  C      45.982000     23.839000     51.855000
  H      45.244000     23.917000     52.668000
  O      45.358000     23.362000     50.662000
  H      44.380000     23.230000     50.816000
  C      50.237000     24.468000     50.805000
  O      51.139000     23.629000     51.081000
  O      50.411000     25.556000     50.208000
24
Coordinates from ORCA-job neb_MEP_ALL.QMRegion E -1076.358865254714
  C      49.049830     24.211277     54.400665
  H      49.774894     23.477938     54.048102
  H      49.407641     25.162012     54.793823
  C      47.730551     24.005700     54.328559
  C      46.726978     25.010750     54.861762
  O      47.109586     26.204770     55.016497
  O      45.580294     24.583444     55.131099
  O      47.196143     22.851249     53.789016
  C      47.042009     22.807391     52.321635
  H      46.650727     21.799174     52.131057
  C      48.394017     22.990469     51.710212
  H      49.108396     22.166838     51.755579
  C      48.797057     24.204620     51.292140
  C      47.861909     25.337237     51.318346
  H      48.288513     26.319384     51.109283
  C      46.560887     25.181024     51.614869
  H      45.886981     26.040471     51.650892
  C      45.967921     23.816666     51.850152
  H      45.229133     23.879904     52.662967
  O      45.346265     23.358503     50.649193
  H      44.367788     23.230075     50.800917
  C      50.228579     24.480803     50.861756
  O      51.129811     23.631932     51.107866
  O      50.403936     25.589843     50.304981
24
Coordinates from ORCA-job neb_MEP_ALL.QMRegion E -1076.360389487737
  C      49.059204     24.214423     54.337039
  H      49.783127     23.483780     53.977214
  H      49.417731     25.181452     54.686975
  C      47.739573     23.996885     54.303457
  C      46.742948     25.001455     54.849518
  O      47.128229     26.194431     55.006555
  O      45.597901     24.575612     55.128996
  O      47.198090     22.838340     53.780308
  C      47.032332     22.784727     52.306683
  H      46.644997     21.773489     52.125977
  C      48.380415     22.975817     51.694870
  H      49.095296     22.152183     51.717771
  C      48.786856     24.204644     51.326697
  C      47.849463     25.334987     51.375938
  H      48.276079     26.325222     51.209861
  C      46.543130     25.164697     51.637943
  H      45.861107     26.017403     51.669526
  C      45.954418     23.794613     51.844645
  H      45.215568     23.842366     52.658330
  O      45.333609     23.355143     50.637046
  H      44.354202     23.230707     50.787500
  C      50.220208     24.492493     50.917156
  O      51.120601     23.634772     51.133778
  O      50.396722     25.621273     50.402466
24
Coordinates from ORCA-job neb_MEP_ALL.QMRegion E -1076.362108371236
  C      49.068923     24.217247     54.274682
  H      49.792260     23.488489     53.910664
  H      49.426819     25.200361     54.577297
  C      47.749882     23.987423     54.278925
  C      46.760010     24.991937     54.837384
  O      47.147344     26.183969     54.996413
  O      45.616425     24.567948     55.126156
  O      47.202431     22.825579     53.770224
  C      47.023838     22.762430     52.290598
  H      46.641268     21.748510     52.119460
  C      48.366930     22.962672     51.678151
  H      49.083233     22.140456     51.678459
  C      48.776408     24.204790     51.361497
  C      47.836071     25.332056     51.433958
  H      48.261579     26.329310     51.312333
  C      46.525100     25.148218     51.659705
  H      45.835094     25.994413     51.685907
  C      45.941421     23.772680     51.838330
  H      45.202913     23.804597     52.652785
  O      45.319996     23.353510     50.624364
  H      44.339648     23.232589     50.774050
  C      50.211784     24.503596     50.973621
  O      51.110554     23.637318     51.160313
  O      50.390762     25.650318     50.501571
24
Coordinates from ORCA-job neb_MEP_ALL.QMRegion E -1076.359205751487
  C      49.089503     24.232123     54.167276
  H      49.815932     23.494457     53.829484
  H      49.446786     25.242177     54.370254
  C      47.774665     23.966697     54.259157
  C      46.790514     24.978995     54.824225
  O      47.179183     26.171625     54.979989
  O      45.645964     24.562519     55.122574
  O      47.229259     22.797277     53.774932
  C      47.011901     22.722411     52.238557
  H      46.638280     21.700339     52.089299
  C      48.346600     22.945595     51.653790
  H      49.065141     22.127119     51.623248
  C      48.766689     24.211530     51.458984
  C      47.816917     25.331228     51.539943
  H      48.235465     26.336724     51.470839
  C      46.498927     25.123790     51.685326
  H      45.794720     25.958554     51.690727
  C      45.922998     23.740259     51.814529
  H      45.195372     23.738006     52.636633
  O      45.283410     23.373356     50.591411
  H      44.302139     23.243523     50.748864
  C      50.200209     24.518752     51.078527
  O      51.093722     23.638066     51.208976
  O      50.377393     25.678468     50.638808
24
Coordinates from ORCA-job neb_MEP_ALL.QMRegion E -1076.347449866651
  C      49.101874     24.251300     54.106255
  H      49.830275     23.492602     53.824999
  H      49.459367     25.264603     54.286722
  C      47.789118     23.951291     54.287891
  C      46.800578     24.980626     54.831463
  O      47.187094     26.175803     54.975237
  O      45.652648     24.569318     55.124531
  O      47.271977     22.783699     53.878650
  C      47.001221     22.698214     52.125651
  H      46.633712     21.669589     52.060142
  C      48.333019     22.936778     51.646452
  H      49.056863     22.123934     51.619070
  C      48.770128     24.221608     51.545094
  C      47.812858     25.335764     51.582105
  H      48.228459     26.342183     51.511489
  C      46.493354     25.118056     51.685299
  H      45.784704     25.948758     51.681794
  C      45.918809     23.732651     51.789951
  H      45.207758     23.710485     52.625845
  O      45.256557     23.397512     50.567869
  H      44.278396     23.250211     50.739744
  C      50.199262     24.523513     51.127611
  O      51.087421     23.635256     51.225085
  O      50.367024     25.676131     50.666353
24
Coordinates from ORCA-job neb_MEP_ALL.QMRegion E -1076.342071112382
  C      49.112931     24.269546     54.034412
  H      49.842779     23.487736     53.836116
  H      49.468186     25.277396     54.240253
  C      47.795155     23.935764     54.321242
  C      46.802143     24.985676     54.841861
  O      47.190919     26.180667     54.972684
  O      45.654190     24.575709     55.128348
  O      47.321772     22.780478     54.034307
  C      46.989790     22.677182     51.976322
  H      46.629292     21.650692     52.032409
  C      48.314361     22.924755     51.647812
  H      49.050033     22.121816     51.625773
  C      48.777906     24.236444     51.633483
  C      47.811788     25.341072     51.603907
  H      48.226028     26.346842     51.525793
  C      46.492037     25.115270     51.680680
  H      45.781934     25.944706     51.674917
  C      45.918978     23.728385     51.767031
  H      45.221004     23.693850     52.616850
  O      45.233976     23.418420     50.548800
  H      44.261722     23.254577     50.735179
  C      50.199892     24.526977     51.158757
  O      51.082878     23.632702     51.231870
  O      50.359332     25.670784     50.673636
24
Coordinates from ORCA-job neb_MEP_ALL.QMRegion E -1076.351635696221
  C      49.105308     24.286024     53.818458
  H      49.845822     23.485128     53.846035
  H      49.463806     25.264854     54.153828
  C      47.791197     23.923756     54.314098
  C      46.803568     24.986600     54.850037
  O      47.202081     26.176305     54.973096
  O      45.660616     24.573404     55.138942
  O      47.361416     22.774433     54.163294
  C      46.988472     22.662932     51.871468
  H      46.627039     21.640762     51.978117
  C      48.302043     22.916073     51.673501
  H      49.043228     22.117471     51.641496
  C      48.811465     24.262555     51.832520
  C      47.814214     25.348473     51.646529
  H      48.221311     26.355235     51.545310
  C      46.497394     25.110859     51.676495
  H      45.783779     25.938581     51.652293
  C      45.920981     23.722805     51.749833
  H      45.228940     23.680115     52.607461
  O      45.215830     23.440560     50.535584
  H      44.249520     23.261427     50.731295
  C      50.201275     24.532225     51.203166
  O      51.078687     23.630448     51.238383
  O      50.344166     25.660230     50.678847
24
Coordinates from ORCA-job neb_MEP_ALL.QMRegion E -1076.378863812810
  C      49.103791     24.281089     53.639938
  H      49.857357     23.502004     53.832117
  H      49.456975     25.254233     54.015999
  C      47.817523     23.899452     54.318393
  C      46.831838     24.969460     54.870196
  O      47.232917     26.157321     54.975633
  O      45.697266     24.549542     55.175112
  O      47.458299     22.737059     54.333643
  C      46.976619     22.663364     51.739937
  H      46.609775     21.637543     51.771906
  C      48.289818     22.914407     51.705112
  H      49.024083     22.108730     51.672158
  C      48.834125     24.275191     52.004468
  C      47.820713     25.356079     51.726669
  H      48.217526     26.369666     51.649000
  C      46.507228     25.113871     51.667079
  H      45.797701     25.943041     51.602346
  C      45.916159     23.730244     51.691259
  H      45.241838     23.657400     52.564245
  O      45.169283     23.517734     50.488907
  H      44.213549     23.309325     50.705110
  C      50.189869     24.532296     51.254950
  O      51.065424     23.627446     51.260057
  O      50.311533     25.647775     50.701136
24
Coordinates from ORCA-job neb_MEP_ALL.QMRegion E -1076.390687122225
  C      49.140000     24.255000     53.626000
  H      49.929000     23.514000     53.810000
  H      49.475000     25.253000     53.933000
  C      47.916000     23.844000     54.405000
  C      46.901000     24.915000     54.918000
  O      47.281000     26.113000     54.975000
  O      45.777000     24.489000     55.249000
  O      47.664000     22.669000     54.584000
  C      46.944000     22.696000     51.508000
  H      46.572000     21.689000     51.317000
  C      48.246000     22.912000     51.708000
  H      48.965000     22.091000     51.697000
  C      48.810000     24.255000     52.076000
  C      47.815000     25.359000     51.825000
  H      48.213000     26.373000     51.870000
  C      46.513000     25.142000     51.625000
  H      45.824000     25.985000     51.527000
  C      45.896000     23.774000     51.542000
  H      45.266000     23.630000     52.441000
  O      45.077000     23.681000     50.377000
  H      44.141000     23.433000     50.632000
  C      50.148000     24.515000     51.296000
  O      51.030000     23.616000     51.293000
  O      50.247000     25.626000     50.732000
24
Coordinates from ORCA-job neb_MEP_ALL.QMRegion E -1076.356373477625
  C      49.040000     24.209000     54.467000
  H      49.766000     23.472000     54.125000
  H      49.396000     25.142000     54.903000
  C      47.723000     24.016000     54.354000
  C      46.711000     25.020000     54.873000
  O      47.091000     26.215000     55.027000
  O      45.563000     24.591000     55.133000
  O      47.197000     22.866000     53.798000
  C      47.053000     22.831000     52.334000
  H      46.659000     21.825000     52.135000
  C      48.409000     23.007000     51.724000
  H      49.123000     22.186000     51.795000
  C      48.806000     24.204000     51.255000
  C      47.873000     25.339000     51.259000
  H      48.301000     26.312000     51.008000
  C      46.579000     25.198000     51.589000
  H      45.913000     26.064000     51.631000
  C      45.982000     23.839000     51.855000
  H      45.244000     23.917000     52.668000
  O      45.358000     23.362000     50.662000
  H      44.380000     23.230000     50.816000
  C      50.237000     24.468000     50.805000
  O      51.139000     23.629000     51.081000
  O      50.411000     25.556000     50.208000
24
Coordinates from ORCA-job neb_MEP_ALL.QMRegion E -1076.358884943951
  C      49.052054     24.213056     54.404786
  H      49.773318     23.478377     54.048636
  H      49.405977     25.156616     54.800783
  C      47.731089     24.014230     54.333421
  C      46.727166     25.009220     54.862700
  O      47.106891     26.202441     55.016875
  O      45.580876     24.585604     55.130941
  O      47.192509     22.844726     53.784332
  C      47.043768     22.809296     52.322373
  H      46.649956     21.800277     52.133043
  C      48.393748     22.989444     51.710289
  H      49.106847     22.168140     51.755481
  C      48.794762     24.201939     51.288867
  C      47.861543     25.335580     51.315186
  H      48.289109     26.320028     51.104564
  C      46.560379     25.179974     51.614374
  H      45.887841     26.042176     51.654101
  C      45.968851     23.816566     51.850697
  H      45.228337     23.881377     52.663061
  O      45.347202     23.357171     50.650443
  H      44.368912     23.228527     50.801042
  C      50.228194     24.481101     50.858807
  O      51.129889     23.631503     51.104640
  O      50.404644     25.591101     50.302949
24
Coordinates from ORCA-job neb_MEP_ALL.QMRegion E -1076.360454965824
  C      49.059372     24.215791     54.343073
  H      49.780535     23.483999     53.978133
  H      49.416948     25.175550     54.702635
  C      47.739305     24.000451     54.309411
  C      46.742819     25.000497     54.851714
  O      47.124102     26.193957     55.007659
  O      45.597465     24.578158     55.128742
  O      47.195053     22.834666     53.767342
  C      47.032568     22.785816     52.317791
  H      46.643776     21.776014     52.128511
  C      48.379156     22.974754     51.693792
  H      49.093642     22.153246     51.717965
  C      48.783666     24.201548     51.319486
  C      47.849521     25.332499     51.369085
  H      48.276628     26.325214     51.201103
  C      46.543022     25.163757     51.636312
  H      45.861658     26.021463     51.676260
  C      45.956985     23.792295     51.847432
  H      45.214936     23.844873     52.658315
  O      45.335589     23.352238     50.636991
  H      44.354948     23.227404     50.788214
  C      50.219990     24.493469     50.911643
  O      51.120237     23.633631     51.127406
  O      50.397394     25.623905     50.398910
24
Coordinates from ORCA-job neb_MEP_ALL.QMRegion E -1076.362227215554
  C      49.067378     24.217691     54.279892
  H      49.789260     23.488357     53.908840
  H      49.427015     25.194651     54.596772
  C      47.749372     23.985360     54.283944
  C      46.759031     24.991907     54.838896
  O      47.144255     26.184875     54.997744
  O      45.615314     24.569104     55.125914
  O      47.201022     22.825577     53.755883
  C      47.021922     22.759711     52.305755
  H      46.639507     21.751360     52.122074
  C      48.363812     22.962633     51.674515
  H      49.081988     22.139428     51.677136
  C      48.773983     24.203418     51.351202
  C      47.835395     25.329354     51.425666
  H      48.261227     26.327991     51.304225
  C      46.524287     25.147327     51.658563
  H      45.834791     25.998011     51.696743
  C      45.942682     23.770924     51.841630
  H      45.202296     23.806222     52.652484
  O      45.322253     23.347974     50.622790
  H      44.340284     23.227841     50.774876
  C      50.210748     24.504757     50.967575
  O      51.109063     23.636143     51.152024
  O      50.390546     25.654457     50.501529
24
Coordinates from ORCA-job neb_MEP_ALL.QMRegion E -1076.359244857081
  C      49.092211     24.234365     54.162015
  H      49.816487     23.494670     53.821443
  H      49.447746     25.240759     54.366502
  C      47.777800     23.967032     54.262388
  C      46.792854     24.977623     54.823371
  O      47.179862     26.170381     54.978945
  O      45.648387     24.562798     55.121463
  O      47.230325     22.792303     53.775304
  C      47.009832     22.717067     52.233118
  H      46.636860     21.696793     52.088355
  C      48.342249     22.944481     51.647551
  H      49.062862     22.125152     51.616514
  C      48.763392     24.211772     51.459002
  C      47.814490     25.328218     51.542984
  H      48.232446     26.336415     51.480171
  C      46.495431     25.120086     51.687251
  H      45.789881     25.956985     51.699135
  C      45.921144     23.737674     51.813558
  H      45.193853     23.732440     52.634940
  O      45.281091     23.370901     50.587269
  H      44.299540     23.241882     50.747059
  C      50.198450     24.520700     51.082549
  O      51.091192     23.637618     51.207429
  O      50.376345     25.683094     50.650270
24
Coordinates from ORCA-job neb_MEP_ALL.QMRegion E -1076.347328110722
  C      49.106088     24.255806     54.100379
  H      49.833052     23.492997     53.824692
  H      49.461626     25.265836     54.283911
  C      47.792573     23.950851     54.295471
  C      46.801683     24.980630     54.832952
  O      47.187417     26.176113     54.974360
  O      45.653380     24.570641     55.124292
  O      47.279536     22.779366     53.902115
  C      46.997807     22.693832     52.100757
  H      46.632490     21.665389     52.056003
  C      48.329900     22.934907     51.643233
  H      49.055008     22.122551     51.616208
  C      48.768500     24.222982     51.552354
  C      47.811596     25.334155     51.584679
  H      48.227323     26.342644     51.516160
  C      46.491370     25.115391     51.684574
  H      45.782066     25.947590     51.684979
  C      45.917802     23.731054     51.786071
  H      45.209338     23.705432     52.622829
  O      45.251869     23.400464     50.562841
  H      44.273801     23.250961     50.737539
  C      50.198142     24.524457     51.131593
  O      51.085755     23.634898     51.224292
  O      50.365676     25.677255     50.670744
24
Coordinates from ORCA-job neb_MEP_ALL.QMRegion E -1076.342085626984
  C      49.114332     24.270723     54.040036
  H      49.844374     23.489066     53.836893
  H      49.469729     25.277855     54.246661
  C      47.796953     23.934977     54.324587
  C      46.802608     24.985469     54.843135
  O      47.190543     26.181138     54.972382
  O      45.654041     24.575599     55.127832
  O      47.324797     22.779759     54.038891
  C      46.988893     22.676143     51.972873
  H      46.628467     21.649549     52.031153
  C      48.313543     22.923932     51.646424
  H      49.049325     22.120938     51.623748
  C      48.776587     24.235712     51.628872
  C      47.811042     25.339842     51.602122
  H      48.225728     26.346078     51.526165
  C      46.491106     25.114525     51.680186
  H      45.780913     25.943967     51.677890
  C      45.917917     23.727749     51.765233
  H      45.221203     23.691939     52.615169
  O      45.232106     23.419353     50.546792
  H      44.259533     23.255388     50.733826
  C      50.199237     24.527052     51.156738
  O      51.082128     23.632614     51.230194
  O      50.359303     25.672080     50.674676
24
Coordinates from ORCA-job neb_MEP_ALL.QMRegion E -1076.351265410624
  C      49.106271     24.289458     53.864769
  H      49.849904     23.481451     53.846059
  H      49.465888     25.268149     54.175815
  C      47.787473     23.926431     54.322616
  C      46.804077     24.985330     54.847524
  O      47.196824     26.176818     54.973166
  O      45.660535     24.576136     55.135560
  O      47.357008     22.775467     54.142749
  C      46.987285     22.662699     51.889091
  H      46.628614     21.644048     51.989114
  C      48.301579     22.913966     51.669678
  H      49.044833     22.117688     51.638208
  C      48.804357     24.259726     51.787228
  C      47.813095     25.346927     51.636268
  H      48.222268     26.351584     51.538798
  C      46.495644     25.110375     51.675364
  H      45.782946     25.939283     51.657733
  C      45.922773     23.723403     51.755352
  H      45.228398     23.681405     52.607723
  O      45.218692     23.436203     50.536431
  H      44.249781     23.259717     50.731616
  C      50.201878     24.531758     51.195376
  O      51.079501     23.630337     51.234869
  O      50.346959     25.662035     50.676406
24
Coordinates from ORCA-job neb_MEP_ALL.QMRegion E -1076.378816374856
  C      49.101470     24.286354     53.638757
  H      49.846052     23.505719     53.833607
  H      49.452685     25.247576     54.014348
  C      47.814211     23.906191     54.306194
  C      46.828734     24.971221     54.870994
  O      47.223510     26.160641     54.975424
  O      45.688125     24.560986     55.167959
  O      47.447493     22.745276     54.336198
  C      46.982802     22.658374     51.749719
  H      46.614321     21.634301     51.803983
  C      48.294590     22.912778     51.711161
  H      49.026894     22.111374     51.673805
  C      48.842864     24.279315     52.000196
  C      47.823172     25.354912     51.723219
  H      48.217445     26.367619     51.627850
  C      46.508815     25.111629     51.667782
  H      45.794780     25.939643     51.605390
  C      45.918587     23.725537     51.700847
  H      45.242682     23.657220     52.574745
  O      45.175263     23.506243     50.497337
  H      44.218871     23.299797     50.711725
  C      50.192542     24.535464     51.261014
  O      51.066478     23.629705     51.255346
  O      50.314130     25.644958     50.696454
24
Coordinates from ORCA-job neb_MEP_ALL.QMRegion E -1076.390687122225
  C      49.140000     24.255000     53.626000
  H      49.929000     23.514000     53.810000
  H      49.475000     25.253000     53.933000
  C      47.916000     23.844000     54.405000
  C      46.901000     24.915000     54.918000
  O      47.281000     26.113000     54.975000
  O      45.777000     24.489000     55.249000
  O      47.664000     22.669000     54.584000
  C      46.944000     22.696000     51.508000
  H      46.572000     21.689000     51.317000
  C      48.246000     22.912000     51.708000
  H      48.965000     22.091000     51.697000
  C      48.810000     24.255000     52.076000
  C      47.815000     25.359000     51.825000
  H      48.213000     26.373000     51.870000
  C      46.513000     25.142000     51.625000
  H      45.824000     25.985000     51.527000
  C      45.896000     23.774000     51.542000
  H      45.266000     23.630000     52.441000
  O      45.077000     23.681000     50.377000
  H      44.141000     23.433000     50.632000
  C      50.148000     24.515000     51.296000
  O      51.030000     23.616000     51.293000
  O      50.247000     25.626000     50.732000
24
Coordinates from ORCA-job neb_MEP_ALL.QMRegion E -1076.356373477625
  C      49.040000     24.209000     54.467000
  H      49.766000     23.472000     54.125000
  H      49.396000     25.142000     54.903000
  C      47.723000     24.016000     54.354000
  C      46.711000     25.020000     54.873000
  O      47.091000     26.215000     55.027000
  O      45.563000     24.591000     55.133000
  O      47.197000     22.866000     53.798000
  C      47.053000     22.831000     52.334000
  H      46.659000     21.825000     52.135000
  C      48.409000     23.007000     51.724000
  H      49.123000     22.186000     51.795000
  C      48.806000     24.204000     51.255000
  C      47.873000     25.339000     51.259000
  H      48.301000     26.312000     51.008000
  C      46.579000     25.198000     51.589000
  H      45.913000     26.064000     51.631000
  C      45.982000     23.839000     51.855000
  H      45.244000     23.917000     52.668000
  O      45.358000     23.362000     50.662000
  H      44.380000     23.230000     50.816000
  C      50.237000     24.468000     50.805000
  O      51.139000     23.629000     51.081000
  O      50.411000     25.556000     50.208000
24
Coordinates from ORCA-job neb_MEP_ALL.QMRegion E -1076.358347155109
  C      49.052313     24.213035     54.408044
  H      49.771877     23.478753     54.049117
  H      49.405379     25.153288     54.808376
  C      47.731322     24.016914     54.335610
  C      46.726802     25.008611     54.863883
  O      47.105188     26.201764     55.017384
  O      45.580330     24.586489     55.130937
  O      47.191299     22.842904     53.782680
  C      47.044285     22.810015     52.323116
  H      46.649308     21.801601     52.134551
  C      48.393274     22.989006     51.710164
  H      49.105915     22.168654     51.755452
  C      48.793511     24.200275     51.285239
  C      47.861013     25.334704     51.312016
  H      48.289342     26.319742     51.100163
  C      46.560115     25.179770     51.613851
  H      45.888893     26.043410     51.657212
  C      45.969276     23.816512     51.851312
  H      45.227826     23.882666     52.663019
  O      45.348187     23.355806     50.651398
  H      44.369943     23.227028     50.801239
  C      50.227830     24.481152     50.855834
  O      51.129669     23.631402     51.101469
  O      50.405086     25.591892     50.301331
24
Coordinates from ORCA-job neb_MEP_ALL.QMRegion E -1076.359711975266
  C      49.058599     24.215436     54.348620
  H      49.777963     23.484457     53.979001
  H      49.416638     25.170746     54.718342
  C      47.738785     24.000974     54.312724
  C      46.742049     25.000114     54.853977
  O      47.121099     26.194101     55.008727
  O      45.596174     24.579444     55.128645
  O      47.194053     22.834249     53.761467
  C      47.032573     22.786491     52.323939
  H      46.642528     21.778373     52.130815
  C      48.377670     22.974133     51.692976
  H      49.092440     22.153725     51.718149
  C      48.781665     24.199084     51.312072
  C      47.848885     25.331089     51.362402
  H      48.276850     26.324287     51.192669
  C      46.542838     25.163626     51.635032
  H      45.862888     26.024279     51.682756
  C      45.958267     23.790994     51.849355
  H      45.214319     23.847175     52.658256
  O      45.337417     23.349208     50.637713
  H      44.356262     23.224259     50.788812
  C      50.219579     24.493911     50.905983
  O      51.119550     23.633165     51.121137
  O      50.397887     25.625798     50.396003
24
Coordinates from ORCA-job neb_MEP_ALL.QMRegion E -1076.361798715264
  C      49.066075     24.216803     54.285041
  H      49.786116     23.488704     53.907187
  H      49.427149     25.189109     54.615985
  C      47.748603     23.983701     54.287120
  C      46.758007     24.991972     54.840616
  O      47.141692     26.185164     54.998843
  O      45.613808     24.569649     55.125713
  O      47.200523     22.826192     53.748710
  C      47.020857     22.759366     52.314175
  H      46.637356     21.753052     52.124634
  C      48.361242     22.962107     51.671571
  H      49.080449     22.138850     51.675787
  C      48.771466     24.201416     51.341223
  C      47.833933     25.327638     51.417622
  H      48.260700     26.326245     51.296181
  C      46.523520     25.146995     51.657774
  H      45.835233     26.000469     51.707211
  C      45.943151     23.769270     51.843592
  H      45.201185     23.807837     52.652392
  O      45.324310     23.342591     50.622780
  H      44.341665     23.223275     50.775409
  C      50.209747     24.505764     50.961187
  O      51.107474     23.635481     51.143883
  O      50.390415     25.657878     50.501864
24
Coordinates from ORCA-job neb_MEP_ALL.QMRegion E -1076.358476099636
  C      49.094433     24.235485     54.155891
  H      49.817326     23.495125     53.814040
  H      49.449485     25.241001     54.361754
  C      47.780718     23.965101     54.264658
  C      46.795128     24.976575     54.823144
  O      47.181058     26.169702     54.977764
  O      45.650322     24.562771     55.120429
  O      47.233324     22.788948     53.778942
  C      47.007746     22.712890     52.225536
  H      46.635192     21.692167     52.086586
  C      48.338646     22.942644     51.641743
  H      49.060152     22.123712     51.609985
  C      48.760666     24.211461     51.460694
  C      47.811386     25.326681     51.546671
  H      48.229247     26.335672     51.489648
  C      46.492027     25.117395     51.689022
  H      45.785675     25.954600     51.706822
  C      45.919048     23.734259     51.811332
  H      45.192550     23.726559     52.633089
  O      45.278268     23.369429     50.583526
  H      44.296633     23.240566     50.744921
  C      50.196664     24.522422     51.087059
  O      51.088522     23.637429     51.206235
  O      50.375223     25.687187     50.661584
24
Coordinates from ORCA-job neb_MEP_ALL.QMRegion E -1076.345477856026
  C      49.109225     24.258532     54.096578
  H      49.835418     23.493725     53.824332
  H      49.464021     25.267652     54.282575
  C      47.795224     23.948561     54.301445
  C      46.802712     24.980692     54.834368
  O      47.187771     26.176586     54.973587
  O      45.653956     24.571547     55.123947
  O      47.286909     22.777477     53.921874
  C      46.995326     22.690176     52.080047
  H      46.631286     21.661454     52.052549
  C      48.326886     22.932863     51.640245
  H      49.053284     22.121420     51.613312
  C      48.767304     24.223690     51.557270
  C      47.809996     25.333453     51.586597
  H      48.226046     26.342373     51.520327
  C      46.489542     25.113663     51.684120
  H      45.779907     25.946105     51.688216
  C      45.916709     23.729371     51.782167
  H      45.210343     23.700878     52.620392
  O      45.247628     23.402862     50.558669
  H      44.269891     23.251651     50.735442
  C      50.197160     24.525233     51.134577
  O      51.084109     23.634672     51.223411
  O      50.364549     25.678430     50.674820
24
Coordinates from ORCA-job neb_MEP_ALL.QMRegion E -1076.342068194042
  C      49.116004     24.271522     54.045176
  H      49.845811     23.490567     53.837778
  H      49.471257     25.278455     54.252922
  C      47.798643     23.934426     54.327951
  C      46.803014     24.985315     54.844372
  O      47.190145     26.181453     54.972105
  O      45.654017     24.575526     55.127337
  O      47.327755     22.778855     54.043504
  C      46.987910     22.675094     51.969320
  H      46.627677     21.648454     52.029841
  C      48.312750     22.923039     51.645068
  H      49.048590     22.120106     51.621809
  C      48.775404     24.234990     51.624624
  C      47.810246     25.338896     51.600439
  H      48.225355     26.345196     51.526529
  C      46.490207     25.113793     51.679735
  H      45.779928     25.943226     51.680777
  C      45.917092     23.727024     51.763276
  H      45.221256     23.690036     52.613637
  O      45.230129     23.420271     50.544866
  H      44.257449     23.256207     50.732462
  C      50.198558     24.527118     51.154882
  O      51.081378     23.632558     51.228504
  O      50.359291     25.673289     50.675672
24
Coordinates from ORCA-job neb_MEP_ALL.QMRegion E -1076.347626956148
  C      49.107366     24.290226     53.899020
  H      49.852356     23.479742     53.846890
  H      49.468160     25.272140     54.192870
  C      47.786781     23.928313     54.329156
  C      46.803717     24.985102     54.846218
  O      47.193132     26.177739     54.973002
  O      45.659503     24.577979     55.133006
  O      47.354522     22.776120     54.130566
  C      46.986312     22.662922     51.899981
  H      46.629466     21.645433     51.997224
  C      48.301892     22.913292     51.667051
  H      49.045921     22.117713     51.636002
  C      48.798316     24.256419     51.754412
  C      47.812177     25.345776     51.628244
  H      48.223039     26.349045     51.533397
  C      46.494242     25.110104     51.674354
  H      45.782300     25.939507     51.661817
  C      45.923917     23.723491     51.758258
  H      45.228061     23.682012     52.608004
  O      45.220366     23.433221     50.537328
  H      44.249930     23.258593     50.731697
  C      50.202407     24.531521     51.189569
  O      51.080128     23.630253     51.232085
  O      50.349169     25.663516     50.674416
24
Coordinates from ORCA-job neb_MEP_ALL.QMRegion E -1076.377287261636
  C      49.097727     24.288974     53.642061
  H      49.836934     23.507291     53.835610
  H      49.450118     25.245423     54.018539
  C      47.808188     23.913447     54.298959
  C      46.823807     24.975014     54.869386
  O      47.215416     26.164860     54.975470
  O      45.679496     24.570292     55.160433
  O      47.435820     22.752927     54.332486
  C      46.988035     22.654922     51.763773
  H      46.619289     21.631438     51.838564
  C      48.299051     22.912579     51.714776
  H      49.031177     22.112844     51.674675
  C      48.847032     24.281331     51.991629
  C      47.824738     25.353867     51.716570
  H      48.217607     26.365356     51.605846
  C      46.509867     25.109074     51.669033
  H      45.792384     25.935920     51.609586
  C      45.921541     23.721102     51.711197
  H      45.243605     23.657519     52.584944
  O      45.182075     23.493652     50.506350
  H      44.224435     23.289787     50.718397
  C      50.196153     24.537859     51.261930
  O      51.068469     23.631003     51.251496
  O      50.317613     25.644271     50.691831
24
Coordinates from ORCA-job neb_MEP_ALL.QMRegion E -1076.390687122225
  C      49.140000     24.255000     53.626000
  H      49.929000     23.514000     53.810000
  H      49.475000     25.253000     53.933000
  C      47.916000     23.844000     54.405000
  C      46.901000     24.915000     54.918000
  O      47.281000     26.113000     54.975000
  O      45.777000     24.489000     55.249000
  O      47.664000     22.669000     54.584000
  C      46.944000     22.696000     51.508000
  H      46.572000     21.689000     51.317000
  C      48.246000     22.912000     51.708000
  H      48.965000     22.091000     51.697000
  C      48.810000     24.255000     52.076000
  C      47.815000     25.359000     51.825000
  H      48.213000     26.373000     51.870000
  C      46.513000     25.142000     51.625000
  H      45.824000     25.985000     51.527000
  C      45.896000     23.774000     51.542000
  H      45.266000     23.630000     52.441000
  O      45.077000     23.681000     50.377000
  H      44.141000     23.433000     50.632000
  C      50.148000     24.515000     51.296000
  O      51.030000     23.616000     51.293000
  O      50.247000     25.626000     50.732000
24
Coordinates from ORCA-job neb_MEP_ALL.QMRegion E -1076.356373477625
  C      49.040000     24.209000     54.467000
  H      49.766000     23.472000     54.125000
  H      49.396000     25.142000     54.903000
  C      47.723000     24.016000     54.354000
  C      46.711000     25.020000     54.873000
  O      47.091000     26.215000     55.027000
  O      45.563000     24.591000     55.133000
  O      47.197000     22.866000     53.798000
  C      47.053000     22.831000     52.334000
  H      46.659000     21.825000     52.135000
  C      48.409000     23.007000     51.724000
  H      49.123000     22.186000     51.795000
  C      48.806000     24.204000     51.255000
  C      47.873000     25.339000     51.259000
  H      48.301000     26.312000     51.008000
  C      46.579000     25.198000     51.589000
  H      45.913000     26.064000     51.631000
  C      45.982000     23.839000     51.855000
  H      45.244000     23.917000     52.668000
  O      45.358000     23.362000     50.662000
  H      44.380000     23.230000     50.816000
  C      50.237000     24.468000     50.805000
  O      51.139000     23.629000     51.081000
  O      50.411000     25.556000     50.208000
24
Coordinates from ORCA-job neb_MEP_ALL.QMRegion E -1076.358079336280
  C      49.049381     24.210262     54.407059
  H      49.771954     23.478688     54.049111
  H      49.406979     25.156132     54.810160
  C      47.730495     24.007633     54.331507
  C      46.725780     25.010069     54.864410
  O      47.106558     26.204161     55.017640
  O      45.578677     24.584597     55.131151
  O      47.195210     22.850517     53.787486
  C      47.042298     22.808094     52.323227
  H      46.649459     21.802141     52.133934
  C      48.392981     22.989901     51.709796
  H      49.106781     22.167479     51.755571
  C      48.795057     24.201737     51.284299
  C      47.860674     25.335823     51.311655
  H      48.288787     26.318241     51.100180
  C      46.560490     25.181105     51.613762
  H      45.889313     26.042777     51.657365
  C      45.968518     23.816654     51.851450
  H      45.228220     23.882504     52.662815
  O      45.348368     23.355607     50.651017
  H      44.369898     23.226950     50.801379
  C      50.227859     24.480736     50.855471
  O      51.129143     23.631919     51.101220
  O      50.404691     25.591218     50.301810
24
Coordinates from ORCA-job neb_MEP_ALL.QMRegion E -1076.359257296302
  C      49.057117     24.212649     54.348404
  H      49.777738     23.484905     53.979017
  H      49.417336     25.171952     54.719985
  C      47.738213     23.996197     54.308919
  C      46.740813     25.001061     54.854312
  O      47.122593     26.194924     55.008771
  O      45.594858     24.577573     55.128863
  O      47.197239     22.839453     53.772087
  C      47.032195     22.785887     52.316803
  H      46.642339     21.778281     52.130664
  C      48.377238     22.974834     51.693226
  H      49.093029     22.152819     51.718151
  C      48.783348     24.199876     51.311024
  C      47.847680     25.332646     51.361989
  H      48.276322     26.322696     51.192331
  C      46.542706     25.164919     51.635493
  H      45.864112     26.022518     51.683040
  C      45.956291     23.792595     51.848105
  H      45.214275     23.847039     52.658196
  O      45.337344     23.348683     50.639009
  H      44.357299     23.224188     50.788682
  C      50.219302     24.493013     50.905183
  O      51.118876     23.634254     51.120642
  O      50.397615     25.624803     50.396797
24
Coordinates from ORCA-job neb_MEP_ALL.QMRegion E -1076.361505265301
  C      49.066397     24.214361     54.285434
  H      49.785514     23.489600     53.907396
  H      49.427083     25.188841     54.617604
  C      47.748180     23.984521     54.284682
  C      46.757427     24.991528     54.841089
  O      47.142427     26.184571     54.998654
  O      45.613257     24.568815     55.125718
  O      47.201855     22.827071     53.759301
  C      47.022155     22.763227     52.304228
  H      46.636501     21.751343     52.124822
  C      48.361970     22.961221     51.672375
  H      49.079750     22.139589     51.675619
  C      48.771178     24.200133     51.340684
  C      47.832523     25.329071     51.417177
  H      48.260351     26.325405     51.295388
  C      46.523329     25.147891     51.658277
  H      45.836522     25.998848     51.707677
  C      45.941874     23.769294     51.841758
  H      45.200325     23.807983     52.652661
  O      45.324192     23.342290     50.625243
  H      44.342986     23.223091     50.774997
  C      50.209761     24.504758     50.960243
  O      51.106938     23.636513     51.143187
  O      50.390644     25.657562     50.502285
24
Coordinates from ORCA-job neb_MEP_ALL.QMRegion E -1076.357663555625
  C      49.094083     24.233793     54.153967
  H      49.817890     23.495655     53.814529
  H      49.450933     25.243745     54.359636
  C      47.780597     23.961415     54.263504
  C      46.795224     24.976964     54.824153
  O      47.181996     26.170484     54.977424
  O      45.649804     24.562335     55.120455
  O      47.236803     22.791126     53.784650
  C      47.007470     22.714360     52.221189
  H      46.634662     21.689952     52.085020
  C      48.339616     22.941173     51.641912
  H      49.059161     22.124464     51.609714
  C      48.761244     24.210700     51.463690
  C      47.809994     25.328842     51.548125
  H      48.228667     26.334926     51.490767
  C      46.491960     25.118699     51.688896
  H      45.786250     25.953075     51.706290
  C      45.918450     23.732653     51.809074
  H      45.192834     23.725428     52.632605
  O      45.277115     23.371006     50.583722
  H      44.295734     23.241031     50.744142
  C      50.196666     24.521933     51.088355
  O      51.087881     23.637986     51.206703
  O      50.374957     25.686728     50.662313
24
Coordinates from ORCA-job neb_MEP_ALL.QMRegion E -1076.344216169968
  C      49.107931     24.255889     54.099393
  H      49.834960     23.494371     53.824183
  H      49.464472     25.268766     54.284775
  C      47.794146     23.945371     54.299444
  C      46.802730     24.980871     54.834390
  O      47.187868     26.176805     54.973656
  O      45.653763     24.570940     55.123738
  O      47.287357     22.781166     53.917942
  C      46.996543     22.691021     52.084578
  H      46.631198     21.661447     52.053307
  C      48.326704     22.932252     51.640267
  H      49.053291     22.121731     51.612901
  C      48.767917     24.222786     51.554049
  C      47.809232     25.334820     51.585769
  H      48.225650     26.341154     51.520017
  C      46.489613     25.114969     51.684535
  H      45.780415     25.945435     51.688684
  C      45.916451     23.728973     51.781770
  H      45.209511     23.701176     52.621052
  O      45.247894     23.402195     50.559602
  H      44.270594     23.251606     50.735394
  C      50.197302     24.524932     51.133318
  O      51.083878     23.634954     51.223169
  O      50.364790     25.678663     50.674809
24
Coordinates from ORCA-job neb_MEP_ALL.QMRegion E -1076.342089880564
  C      49.116703     24.270908     54.044930
  H      49.845675     23.491048     53.838081
  H      49.471393     25.278779     54.253381
  C      47.798611     23.934848     54.328353
  C      46.802957     24.985382     54.844437
  O      47.190060     26.181210     54.972120
  O      45.654232     24.575578     55.127322
  O      47.327919     22.778386     54.043969
  C      46.987640     22.674959     51.968825
  H      46.627661     21.648433     52.029618
  C      48.312748     22.922812     51.644972
  H      49.048460     22.120107     51.621757
  C      48.775484     24.234936     51.624753
  C      47.810088     25.339258     51.600424
  H      48.225197     26.344914     51.526532
  C      46.490157     25.113723     51.679761
  H      45.779883     25.943149     51.680939
  C      45.917387     23.726815     51.762837
  H      45.221017     23.689852     52.613713
  O      45.229746     23.420333     50.544805
  H      44.257417     23.256308     50.732301
  C      50.198465     24.527123     51.154939
  O      51.081300     23.632604     51.228293
  O      50.359314     25.673256     50.675695
24
Coordinates from ORCA-job neb_MEP_ALL.QMRegion E -1076.345421292867
  C      49.107768     24.285244     53.883277
  H      49.849674     23.483018     53.848407
  H      49.468785     25.274058     54.186820
  C      47.791869     23.927928     54.326697
  C      46.802398     24.986900     54.847994
  O      47.195179     26.178508     54.972582
  O      45.657549     24.576731     55.134064
  O      47.357141     22.775158     54.142710
  C      46.986978     22.663995     51.890409
  H      46.628372     21.642364     51.993626
  C      48.302836     22.915627     51.668810
  H      49.045366     22.117339     51.637658
  C      48.799533     24.255304     51.771012
  C      47.812026     25.346205     51.630864
  H      48.222892     26.350634     51.534384
  C      46.495102     25.110506     51.674417
  H      45.782511     25.938815     51.659949
  C      45.922977     23.722604     51.754356
  H      45.228381     23.681038     52.608166
  O      45.218701     23.435060     50.537614
  H      44.249850     23.259365     50.731396
  C      50.202369     24.531816     51.192055
  O      51.079918     23.630336     51.233023
  O      50.348519     25.663095     50.674849
24
Coordinates from ORCA-job neb_MEP_ALL.QMRegion E -1076.375070821193
  C      49.095608     24.285470     53.650052
  H      49.839556     23.504011     53.836686
  H      49.452626     25.252220     54.028582
  C      47.802731     23.912113     54.306394
  C      46.820098     24.978391     54.865473
  O      47.216836     26.166977     54.975882
  O      45.679625     24.567767     55.159077
  O      47.434022     22.755253     54.321789
  C      46.986690     22.656941     51.772019
  H      46.620454     21.631929     51.845808
  C      48.299200     22.914699     51.710996
  H      49.033814     22.111219     51.673443
  C      48.840118     24.278038     51.983853
  C      47.823425     25.353989     51.710551
  H      48.218020     26.364753     51.602438
  C      46.508918     25.108348     51.669999
  H      45.792994     25.935089     51.611913
  C      45.922607     23.721170     51.713306
  H      45.243775     23.658341     52.585361
  O      45.184061     23.490703     50.508156
  H      44.225367     23.288126     50.719058
  C      50.197811     24.536639     51.253683
  O      51.070111     23.629729     51.252443
  O      50.319503     25.647677     50.691458
24
Coordinates from ORCA-job neb_MEP_ALL.QMRegion E -1076.390687122225
  C      49.140000     24.255000     53.626000
  H      49.929000     23.514000     53.810000
  H      49.475000     25.253000     53.933000
  C      47.916000     23.844000     54.405000
  C      46.901000     24.915000     54.918000
  O      47.281000     26.113000     54.975000
  O      45.777000     24.489000     55.249000
  O      47.664000     22.669000     54.584000
  C      46.944000     22.696000     51.508000
  H      46.572000     21.689000     51.317000
  C      48.246000     22.912000     51.708000
  H      48.965000     22.091000     51.697000
  C      48.810000     24.255000     52.076000
  C      47.815000     25.359000     51.825000
  H      48.213000     26.373000     51.870000
  C      46.513000     25.142000     51.625000
  H      45.824000     25.985000     51.527000
  C      45.896000     23.774000     51.542000
  H      45.266000     23.630000     52.441000
  O      45.077000     23.681000     50.377000
  H      44.141000     23.433000     50.632000
  C      50.148000     24.515000     51.296000
  O      51.030000     23.616000     51.293000
  O      50.247000     25.626000     50.732000
24
Coordinates from ORCA-job neb_MEP_ALL.QMRegion E -1076.356373477625
  C      49.040000     24.209000     54.467000
  H      49.766000     23.472000     54.125000
  H      49.396000     25.142000     54.903000
  C      47.723000     24.016000     54.354000
  C      46.711000     25.020000     54.873000
  O      47.091000     26.215000     55.027000
  O      45.563000     24.591000     55.133000
  O      47.197000     22.866000     53.798000
  C      47.053000     22.831000     52.334000
  H      46.659000     21.825000     52.135000
  C      48.409000     23.007000     51.724000
  H      49.123000     22.186000     51.795000
  C      48.806000     24.204000     51.255000
  C      47.873000     25.339000     51.259000
  H      48.301000     26.312000     51.008000
  C      46.579000     25.198000     51.589000
  H      45.913000     26.064000     51.631000
  C      45.982000     23.839000     51.855000
  H      45.244000     23.917000     52.668000
  O      45.358000     23.362000     50.662000
  H      44.380000     23.230000     50.816000
  C      50.237000     24.468000     50.805000
  O      51.139000     23.629000     51.081000
  O      50.411000     25.556000     50.208000
24
Coordinates from ORCA-job neb_MEP_ALL.QMRegion E -1076.359063331075
  C      49.048600     24.209678     54.407070
  H      49.772108     23.478516     54.049162
  H      49.407402     25.156724     54.811056
  C      47.729753     24.004573     54.330304
  C      46.725449     25.010540     54.864447
  O      47.107105     26.204996     55.017801
  O      45.578026     24.583784     55.131280
  O      47.196580     22.853098     53.789288
  C      47.041715     22.808048     52.323354
  H      46.649344     21.801936     52.133676
  C      48.392967     22.990342     51.709484
  H      49.107150     22.166977     51.755681
  C      48.795432     24.202380     51.283916
  C      47.860642     25.336160     51.311286
  H      48.288535     26.317568     51.099939
  C      46.560751     25.181531     51.613765
  H      45.889476     26.042599     51.657494
  C      45.968209     23.816858     51.851422
  H      45.228345     23.882478     52.662795
  O      45.348425     23.355450     50.650855
  H      44.369934     23.226881     50.801457
  C      50.227803     24.480531     50.855132
  O      51.129051     23.631955     51.101044
  O      50.404502     25.591037     50.301853
24
Coordinates from ORCA-job neb_MEP_ALL.QMRegion E -1076.360848473041
  C      49.056732     24.212019     54.348917
  H      49.777808     23.484918     53.979101
  H      49.417354     25.171721     54.721134
  C      47.737814     23.995176     54.307769
  C      46.740321     25.001289     54.854231
  O      47.123315     26.195145     55.008878
  O      45.594142     24.576605     55.129056
  O      47.198331     22.841067     53.776982
  C      47.032031     22.786259     52.313365
  H      46.642108     21.777907     52.130662
  C      48.377583     22.975288     51.693073
  H      49.093205     22.152449     51.718254
  C      48.783626     24.200368     51.310495
  C      47.847230     25.332999     51.361489
  H      48.276081     26.321977     51.191717
  C      46.542736     25.165378     51.635754
  H      45.864736     26.021723     51.683297
  C      45.955320     23.793731     51.847378
  H      45.214196     23.847024     52.658249
  O      45.337418     23.348306     50.639694
  H      44.357825     23.224072     50.788659
  C      50.218946     24.492572     50.904454
  O      51.118830     23.634493     51.120262
  O      50.397462     25.624400     50.396976
24
Coordinates from ORCA-job neb_MEP_ALL.QMRegion E -1076.363205846841
  C      49.066456     24.213866     54.286071
  H      49.785491     23.489777     53.907297
  H      49.426903     25.188079     54.618553
  C      47.748125     23.985404     54.283694
  C      46.757315     24.991318     54.841234
  O      47.142864     26.184082     54.998579
  O      45.612821     24.568217     55.125787
  O      47.202369     22.827230     53.764517
  C      47.022441     22.764184     52.299076
  H      46.636211     21.750922     52.125018
  C      48.362440     22.961157     51.672584
  H      49.079413     22.139738     51.675480
  C      48.770816     24.199805     51.340302
  C      47.831871     25.329291     51.416875
  H      48.260155     26.325081     51.294826
  C      46.523069     25.148080     51.658596
  H      45.837115     25.997988     51.708157
  C      45.941037     23.769930     51.840867
  H      45.199896     23.807918     52.652706
  O      45.324247     23.341973     50.626451
  H      44.343567     23.222881     50.774770
  C      50.209277     24.504594     50.959523
  O      51.106980     23.636700     51.142716
  O      50.390700     25.657312     50.502774
24
Coordinates from ORCA-job neb_MEP_ALL.QMRegion E -1076.358165459126
  C      49.094220     24.234039     54.152870
  H      49.818674     23.495751     53.814776
  H      49.451674     25.244875     54.357602
  C      47.780777     23.960036     54.263550
  C      46.795502     24.977024     54.824675
  O      47.182548     26.170750     54.977185
  O      45.649696     24.562257     55.120485
  O      47.238825     22.791603     53.788157
  C      47.007359     22.714018     52.217730
  H      46.634515     21.688889     52.083933
  C      48.339508     22.940823     51.642041
  H      49.058835     22.124440     51.609459
  C      48.761392     24.210692     51.466117
  C      47.809581     25.329428     51.549338
  H      48.228383     26.334871     51.491728
  C      46.491651     25.118822     51.688816
  H      45.786254     25.952299     51.705858
  C      45.918075     23.732353     51.807766
  H      45.193183     23.724426     52.632088
  O      45.276082     23.372138     50.583404
  H      44.294884     23.241429     50.743548
  C      50.196350     24.522010     51.089435
  O      51.087776     23.637959     51.207158
  O      50.374666     25.686344     50.662934
24
Coordinates from ORCA-job neb_MEP_ALL.QMRegion E -1076.344927691981
  C      49.107623     24.255242     54.101028
  H      49.834923     23.494631     53.824215
  H      49.464521     25.268819     54.286097
  C      47.793832     23.944885     54.298941
  C      46.802717     24.980807     54.834422
  O      47.187933     26.176866     54.973682
  O      45.653745     24.570654     55.123607
  O      47.287304     22.782082     53.916084
  C      46.996914     22.691164     52.086323
  H      46.631203     21.661547     52.053683
  C      48.326697     22.932076     51.640179
  H      49.053290     22.121817     51.612671
  C      48.767853     24.222435     51.552576
  C      47.809079     25.335027     51.585251
  H      48.225516     26.340765     51.519784
  C      46.489586     25.115345     51.684749
  H      45.780521     25.945221     51.688983
  C      45.916308     23.728942     51.781663
  H      45.209155     23.701273     52.621254
  O      45.248047     23.401877     50.559954
  H      44.270808     23.251616     50.735352
  C      50.197267     24.524897     51.132495
  O      51.083914     23.634938     51.223008
  O      50.364934     25.678812     50.674769
24
Coordinates from ORCA-job neb_MEP_ALL.QMRegion E -1076.342278979790
  C      49.116860     24.270946     54.044982
  H      49.845821     23.491173     53.838268
  H      49.471480     25.278840     54.253773
  C      47.798735     23.934799     54.328529
  C      46.802988     24.985363     54.844465
  O      47.190043     26.181170     54.972145
  O      45.654273     24.575568     55.127337
  O      47.328137     22.778308     54.044374
  C      46.987573     22.674856     51.968441
  H      46.627618     21.648375     52.029433
  C      48.312650     22.922728     51.644900
  H      49.048392     22.120049     51.621701
  C      48.775451     24.234917     51.624804
  C      47.809971     25.339287     51.600417
  H      48.225111     26.344822     51.526523
  C      46.490126     25.113679     51.679763
  H      45.779823     25.943073     51.681099
  C      45.917391     23.726674     51.762638
  H      45.220928     23.689696     52.613644
  O      45.229578     23.420400     50.544686
  H      44.257284     23.256381     50.732201
  C      50.198397     24.527130     51.154948
  O      51.081254     23.632614     51.228113
  O      50.359321     25.673252     50.675719
24
Coordinates from ORCA-job neb_MEP_ALL.QMRegion E -1076.346902729111
  C      49.108775     24.284874     53.875266
  H      49.848606     23.484436     53.849182
  H      49.468716     25.273714     54.183119
  C      47.793928     23.926782     54.325428
  C      46.801678     24.987619     54.849045
  O      47.196331     26.179117     54.972347
  O      45.656791     24.576082     55.134564
  O      47.358913     22.775058     54.149788
  C      46.987216     22.663804     51.885136
  H      46.627853     21.641026     51.991400
  C      48.303335     22.916084     51.669455
  H      49.044841     22.117290     51.638564
  C      48.800724     24.255633     51.780244
  C      47.812312     25.346314     51.632322
  H      48.222770     26.351483     51.535037
  C      46.495219     25.110603     51.674504
  H      45.782514     25.938426     51.659000
  C      45.921956     23.722368     51.752123
  H      45.228732     23.680397     52.608090
  O      45.217688     23.436137     50.537431
  H      44.249665     23.259845     50.731239
  C      50.202066     24.531796     51.193155
  O      51.079746     23.630463     51.233623
  O      50.348089     25.662802     50.675370
24
Coordinates from ORCA-job neb_MEP_ALL.QMRegion E -1076.374648929404
  C      49.094860     24.285270     53.655250
  H      49.841049     23.501848     53.837579
  H      49.453697     25.255084     54.034723
  C      47.801365     23.914192     54.310201
  C      46.817979     24.980757     54.863317
  O      47.217433     26.168221     54.976007
  O      45.678797     24.566358     55.158195
  O      47.431143     22.753661     54.315286
  C      46.986650     22.657844     51.777178
  H      46.621283     21.632341     51.851093
  C      48.298741     22.914600     51.708378
  H      49.035091     22.110783     51.672660
  C      48.837030     24.276762     51.979671
  C      47.822304     25.353770     51.706444
  H      48.218361     26.364439     51.599875
  C      46.508291     25.108083     51.670562
  H      45.793259     25.934510     51.613531
  C      45.922875     23.721263     51.714825
  H      45.243848     23.658910     52.585750
  O      45.185365     23.488556     50.509475
  H      44.226188     23.286946     50.719564
  C      50.198135     24.535899     51.248771
  O      51.071274     23.629149     51.252758
  O      50.321016     25.649542     50.691164
24
Coordinates from ORCA-job neb_MEP_ALL.QMRegion E -1076.390687122225
  C      49.140000     24.255000     53.626000
  H      49.929000     23.514000     53.810000
  H      49.475000     25.253000     53.933000
  C      47.916000     23.844000     54.405000
  C      46.901000     24.915000     54.918000
  O      47.281000     26.113000     54.975000
  O      45.777000     24.489000     55.249000
  O      47.664000     22.669000     54.584000
  C      46.944000     22.696000     51.508000
  H      46.572000     21.689000     51.317000
  C      48.246000     22.912000     51.708000
  H      48.965000     22.091000     51.697000
  C      48.810000     24.255000     52.076000
  C      47.815000     25.359000     51.825000
  H      48.213000     26.373000     51.870000
  C      46.513000     25.142000     51.625000
  H      45.824000     25.985000     51.527000
  C      45.896000     23.774000     51.542000
  H      45.266000     23.630000     52.441000
  O      45.077000     23.681000     50.377000
  H      44.141000     23.433000     50.632000
  C      50.148000     24.515000     51.296000
  O      51.030000     23.616000     51.293000
  O      50.247000     25.626000     50.732000
24
Coordinates from ORCA-job neb_MEP_ALL.QMRegion E -1076.356373477625
  C      49.040000     24.209000     54.467000
  H      49.766000     23.472000     54.125000
  H      49.396000     25.142000     54.903000
  C      47.723000     24.016000     54.354000
  C      46.711000     25.020000     54.873000
  O      47.091000     26.215000     55.027000
  O      45.563000     24.591000     55.133000
  O      47.197000     22.866000     53.798000
  C      47.053000     22.831000     52.334000
  H      46.659000     21.825000     52.135000
  C      48.409000     23.007000     51.724000
  H      49.123000     22.186000     51.795000
  C      48.806000     24.204000     51.255000
  C      47.873000     25.339000     51.259000
  H      48.301000     26.312000     51.008000
  C      46.579000     25.198000     51.589000
  H      45.913000     26.064000     51.631000
  C      45.982000     23.839000     51.855000
  H      45.244000     23.917000     52.668000
  O      45.358000     23.362000     50.662000
  H      44.380000     23.230000     50.816000
  C      50.237000     24.468000     50.805000
  O      51.139000     23.629000     51.081000
  O      50.411000     25.556000     50.208000
24
Coordinates from ORCA-job neb_MEP_ALL.QMRegion E -1076.359137768187
  C      49.047959     24.209536     54.407621
  H      49.772404     23.478198     54.049355
  H      49.407513     25.156516     54.812459
  C      47.729236     24.003426     54.330248
  C      46.725010     25.010823     54.864247
  O      47.107593     26.205419     55.018064
  O      45.577579     24.582977     55.131461
  O      47.197314     22.854310     53.790558
  C      47.041402     22.808790     52.323498
  H      46.649022     21.801309     52.133484
  C      48.393123     22.990834     51.708930
  H      49.107469     22.166495     51.755871
  C      48.795481     24.203073     51.283437
  C      47.860680     25.336229     51.310518
  H      48.288247     26.316843     51.099193
  C      46.561131     25.181829     51.613832
  H      45.889660     26.042528     51.657807
  C      45.967887     23.817366     51.851275
  H      45.228381     23.882521     52.662878
  O      45.348505     23.355135     50.650691
  H      44.370049     23.226711     50.801568
  C      50.227712     24.480238     50.854441
  O      51.129040     23.631756     51.100641
  O      50.404253     25.591022     50.301675
24
Coordinates from ORCA-job neb_MEP_ALL.QMRegion E -1076.361150254281
  C      49.056552     24.211788     54.350290
  H      49.778049     23.484774     53.979337
  H      49.417031     25.170429     54.723400
  C      47.737481     23.995952     54.307530
  C      46.739540     25.001342     54.853875
  O      47.124179     26.194973     55.009156
  O      45.593406     24.575358     55.129388
  O      47.198974     22.841613     53.782499
  C      47.031771     22.787342     52.309141
  H      46.641645     21.777145     52.130792
  C      48.378553     22.975941     51.692504
  H      49.093278     22.152017     51.718474
  C      48.783399     24.201193     51.309610
  C      47.846724     25.332906     51.360368
  H      48.275736     26.321077     51.190218
  C      46.542891     25.165739     51.636130
  H      45.865522     26.020846     51.683962
  C      45.954098     23.795608     51.846434
  H      45.213968     23.847041     52.658418
  O      45.337659     23.347575     50.640501
  H      44.358478     23.223730     50.788679
  C      50.218350     24.491848     50.903067
  O      51.118912     23.634503     51.119405
  O      50.397190     25.624132     50.397012
24
Coordinates from ORCA-job neb_MEP_ALL.QMRegion E -1076.363673844428
  C      49.066653     24.213708     54.287541
  H      49.785643     23.489816     53.907108
  H      49.426565     25.186299     54.620716
  C      47.748012     23.987128     54.282885
  C      46.756952     24.990848     54.841377
  O      47.143533     26.183296     54.998611
  O      45.612306     24.567259     55.125930
  O      47.202850     22.827080     53.770944
  C      47.022337     22.764535     52.292494
  H      46.635900     21.750788     52.125382
  C      48.363108     22.961373     51.672568
  H      49.078987     22.139630     51.675252
  C      48.770107     24.199967     51.339334
  C      47.830958     25.328981     51.416106
  H      48.259788     26.324626     51.293460
  C      46.522653     25.148014     51.659047
  H      45.837806     25.996912     51.709332
  C      45.939751     23.771438     51.839924
  H      45.199296     23.807688     52.652654
  O      45.324442     23.341220     50.627856
  H      44.344228     23.222324     50.774460
  C      50.208382     24.504023     50.958247
  O      51.106988     23.636848     51.141577
  O      50.390700     25.657256     50.503562
24
Coordinates from ORCA-job neb_MEP_ALL.QMRegion E -1076.358120266040
  C      49.095039     24.235472     54.150977
  H      49.820402     23.495926     53.815271
  H      49.452874     25.246462     54.353207
  C      47.781644     23.959086     54.264745
  C      46.796176     24.976880     54.825415
  O      47.183450     26.170884     54.976755
  O      45.649904     24.562416     55.120544
  O      47.242032     22.791011     53.793769
  C      47.007075     22.712380     52.211114
  H      46.634428     21.687126     52.081849
  C      48.338849     22.940445     51.642142
  H      49.058434     22.124025     51.608860
  C      48.761372     24.211302     51.471024
  C      47.809139     25.329626     51.551913
  H      48.227920     26.335198     51.493819
  C      46.491118     25.118315     51.688651
  H      45.785723     25.951183     51.704966
  C      45.917462     23.732323     51.805683
  H      45.193979     23.722260     52.630939
  O      45.273884     23.374356     50.582138
  H      44.292913     23.242291     50.742376
  C      50.195874     24.521919     51.091862
  O      51.087524     23.637816     51.208118
  O      50.373998     25.685865     50.664148
24
Coordinates from ORCA-job neb_MEP_ALL.QMRegion E -1076.345276022876
  C      49.107763     24.255186     54.103130
  H      49.835206     23.495004     53.824648
  H      49.464490     25.268454     54.288194
  C      47.793810     23.945456     54.299169
  C      46.802732     24.980717     54.834609
  O      47.188008     26.176834     54.973691
  O      45.653777     24.570309     55.123432
  O      47.287330     22.782168     53.914916
  C      46.996962     22.690988     52.086912
  H      46.631203     21.661601     52.053932
  C      48.326672     22.931917     51.639919
  H      49.053245     22.121800     51.612363
  C      48.767432     24.222158     51.551270
  C      47.809029     25.334749     51.584489
  H      48.225406     26.340537     51.519358
  C      46.489559     25.115432     51.684976
  H      45.780417     25.945102     51.689460
  C      45.916107     23.729014     51.781503
  H      45.208864     23.701203     52.621225
  O      45.248046     23.401652     50.560057
  H      44.270759     23.251748     50.735207
  C      50.197170     24.524764     51.131325
  O      51.083974     23.634854     51.222668
  O      50.365128     25.679092     50.674594
24
Coordinates from ORCA-job neb_MEP_ALL.QMRegion E -1076.342298633778
  C      49.117043     24.271260     54.045351
  H      49.846267     23.491340     53.838647
  H      49.471656     25.278872     54.254738
  C      47.799058     23.934541     54.328833
  C      46.803083     24.985267     54.844531
  O      47.190038     26.181169     54.972201
  O      45.654311     24.575507     55.127367
  O      47.328621     22.778257     54.045131
  C      46.987479     22.674641     51.967721
  H      46.627508     21.648217     52.029051
  C      48.312451     22.922601     51.644723
  H      49.048253     22.119900     51.621550
  C      48.775282     24.234890     51.624756
  C      47.809803     25.339160     51.600373
  H      48.224947     26.344711     51.526487
  C      46.489973     25.113543     51.679766
  H      45.779669     25.942899     51.681495
  C      45.917224     23.726431     51.762356
  H      45.220808     23.689350     52.613386
  O      45.229292     23.420529     50.544380
  H      44.256944     23.256537     50.731994
  C      50.198270     24.527132     51.154885
  O      51.081152     23.632612     51.227710
  O      50.359318     25.673285     50.675783
24
Coordinates from ORCA-job neb_MEP_ALL.QMRegion E -1076.347576841963
  C      49.110650     24.286481     53.864671
  H      49.847887     23.486036     53.850252
  H      49.468392     25.272089     54.177817
  C      47.796088     23.925283     54.324212
  C      46.801136     24.988381     54.850519
  O      47.197750     26.179760     54.972006
  O      45.656238     24.575290     55.135177
  O      47.361800     22.774508     54.160226
  C      46.987524     22.662681     51.877591
  H      46.627176     21.639533     51.987773
  C      48.303373     22.915797     51.669915
  H      49.043995     22.117183     51.639765
  C      48.803264     24.257221     51.793308
  C      47.812729     25.346364     51.634442
  H      48.222483     26.352546     51.536189
  C      46.495312     25.110507     51.674652
  H      45.782235     25.937956     51.657869
  C      45.920146     23.722178     51.748968
  H      45.229417     23.679262     52.607683
  O      45.215919     23.437791     50.536373
  H      44.249037     23.260622     50.730975
  C      50.201244     24.531545     51.194340
  O      51.079376     23.630708     51.234538
  O      50.347372     25.662392     50.676527
24
Coordinates from ORCA-job neb_MEP_ALL.QMRegion E -1076.374016518918
  C      49.094991     24.286841     53.663968
  H      49.842792     23.498641     53.839393
  H      49.454999     25.258317     54.045041
  C      47.799233     23.914188     54.315346
  C      46.814063     24.984173     54.860408
  O      47.217815     26.170663     54.976064
  O      45.676862     24.564899     55.156347
  O      47.426296     22.754380     54.304458
  C      46.986483     22.658400     51.785829
  H      46.622843     21.633221     51.861356
  C      48.298403     22.913313     51.703918
  H      49.036785     22.110702     51.671265
  C      48.833462     24.275501     51.973510
  C      47.820658     25.353241     51.699112
  H      48.218928     26.363796     51.594728
  C      46.506803     25.107653     51.671385
  H      45.793348     25.933590     51.616525
  C      45.922971     23.721397     51.717682
  H      45.243837     23.659928     52.586782
  O      45.187798     23.484412     50.511986
  H      44.227897     23.284665     50.720617
  C      50.198177     24.534627     51.241213
  O      51.072969     23.628877     51.252707
  O      50.323924     25.651989     50.690552
24
Coordinates from ORCA-job neb_MEP_ALL.QMRegion E -1076.390687122225
  C      49.140000     24.255000     53.626000
  H      49.929000     23.514000     53.810000
  H      49.475000     25.253000     53.933000
  C      47.916000     23.844000     54.405000
  C      46.901000     24.915000     54.918000
  O      47.281000     26.113000     54.975000
  O      45.777000     24.489000     55.249000
  O      47.664000     22.669000     54.584000
  C      46.944000     22.696000     51.508000
  H      46.572000     21.689000     51.317000
  C      48.246000     22.912000     51.708000
  H      48.965000     22.091000     51.697000
  C      48.810000     24.255000     52.076000
  C      47.815000     25.359000     51.825000
  H      48.213000     26.373000     51.870000
  C      46.513000     25.142000     51.625000
  H      45.824000     25.985000     51.527000
  C      45.896000     23.774000     51.542000
  H      45.266000     23.630000     52.441000
  O      45.077000     23.681000     50.377000
  H      44.141000     23.433000     50.632000
  C      50.148000     24.515000     51.296000
  O      51.030000     23.616000     51.293000
  O      50.247000     25.626000     50.732000
24
Coordinates from ORCA-job neb_MEP_ALL.QMRegion E -1076.356373477625
  C      49.040000     24.209000     54.467000
  H      49.766000     23.472000     54.125000
  H      49.396000     25.142000     54.903000
  C      47.723000     24.016000     54.354000
  C      46.711000     25.020000     54.873000
  O      47.091000     26.215000     55.027000
  O      45.563000     24.591000     55.133000
  O      47.197000     22.866000     53.798000
  C      47.053000     22.831000     52.334000
  H      46.659000     21.825000     52.135000
  C      48.409000     23.007000     51.724000
  H      49.123000     22.186000     51.795000
  C      48.806000     24.204000     51.255000
  C      47.873000     25.339000     51.259000
  H      48.301000     26.312000     51.008000
  C      46.579000     25.198000     51.589000
  H      45.913000     26.064000     51.631000
  C      45.982000     23.839000     51.855000
  H      45.244000     23.917000     52.668000
  O      45.358000     23.362000     50.662000
  H      44.380000     23.230000     50.816000
  C      50.237000     24.468000     50.805000
  O      51.139000     23.629000     51.081000
  O      50.411000     25.556000     50.208000
24
Coordinates from ORCA-job neb_MEP_ALL.QMRegion E -1076.359161134059
  C      49.048590     24.209728     54.408603
  H      49.772333     23.478186     54.049915
  H      49.407089     25.155238     54.814073
  C      47.729153     24.005879     54.331960
  C      46.724728     25.010741     54.864079
  O      47.107383     26.204683     55.018300
  O      45.577842     24.582919     55.131564
  O      47.196581     22.852695     53.789940
  C      47.041554     22.809204     52.323473
  H      46.648857     21.801283     52.133668
  C      48.393342     22.990905     51.708606
  H      49.107316     22.166630     51.756047
  C      48.795294     24.202986     51.282891
  C      47.860633     25.335826     51.309600
  H      48.288172     26.316709     51.097887
  C      46.561185     25.181847     51.613876
  H      45.889849     26.042722     51.658262
  C      45.967856     23.817902     51.851170
  H      45.228219     23.882720     52.663018
  O      45.348638     23.354836     50.650713
  H      44.370199     23.226444     50.801643
  C      50.227686     24.480134     50.853615
  O      51.128994     23.631406     51.099953
  O      50.404168     25.591193     50.301200
24
Coordinates from ORCA-job neb_MEP_ALL.QMRegion E -1076.361254824378
  C      49.056980     24.211746     54.351920
  H      49.778051     23.484712     53.980002
  H      49.416672     25.168759     54.726624
  C      47.737291     23.998110     54.309101
  C      46.738854     25.001353     54.853673
  O      47.124201     26.194214     55.009599
  O      45.593357     24.574851     55.129661
  O      47.198508     22.840470     53.783144
  C      47.031517     22.787921     52.308436
  H      46.641316     21.777027     52.131048
  C      48.379050     22.976325     51.691889
  H      49.093172     22.151853     51.718739
  C      48.783056     24.201508     51.308395
  C      47.846512     25.332388     51.358809
  H      48.275425     26.320525     51.187952
  C      46.542978     25.165779     51.636219
  H      45.865872     26.020895     51.685007
  C      45.953799     23.796600     51.846378
  H      45.213655     23.847198     52.658598
  O      45.337937     23.346851     50.640507
  H      44.358705     23.223143     50.788780
  C      50.218080     24.491503     50.901569
  O      51.118803     23.634100     51.118053
  O      50.396943     25.624287     50.396628
24
Coordinates from ORCA-job neb_MEP_ALL.QMRegion E -1076.363844475215
  C      49.066867     24.213402     54.288954
  H      49.785705     23.489818     53.907178
  H      49.426623     25.184752     54.624088
  C      47.747881     23.987988     54.283414
  C      46.756514     24.990640     54.841462
  O      47.143794     26.182632     54.998965
  O      45.612089     24.566521     55.126145
  O      47.202939     22.826691     53.772214
  C      47.021741     22.764318     52.291013
  H      46.635556     21.750780     52.125521
  C      48.363140     22.961750     51.671928
  H      49.078767     22.139134     51.675003
  C      48.769545     24.200420     51.337948
  C      47.830380     25.328476     51.414844
  H      48.259165     26.323976     51.291483
  C      46.522334     25.147688     51.659256
  H      45.837890     25.996652     51.711104
  C      45.939157     23.772210     51.840020
  H      45.198799     23.807320     52.652520
  O      45.324531     23.340299     50.627846
  H      44.344278     23.221451     50.774258
  C      50.207808     24.503751     50.956916
  O      51.106630     23.636590     51.139838
  O      50.390458     25.657516     50.504345
24
Coordinates from ORCA-job neb_MEP_ALL.QMRegion E -1076.357487977493
  C      49.096843     24.237300     54.148638
  H      49.822381     23.496559     53.816150
  H      49.454271     25.248385     54.347542
  C      47.783294     23.959181     54.267340
  C      46.797146     24.976726     54.825978
  O      47.184259     26.170688     54.976335
  O      45.650613     24.562918     55.120635
  O      47.245284     22.788930     53.799157
  C      47.006295     22.710279     52.203706
  H      46.634382     21.684744     52.079231
  C      48.338232     22.939963     51.641712
  H      49.057935     22.123496     51.608024
  C      48.761269     24.212087     51.477178
  C      47.808949     25.329580     51.555283
  H      48.227267     26.335668     51.496719
  C      46.490585     25.117403     51.688467
  H      45.784535     25.950184     51.703762
  C      45.917039     23.731967     51.803584
  H      45.194966     23.719405     52.629545
  O      45.271048     23.377174     50.579674
  H      44.290045     23.243503     50.740996
  C      50.195574     24.522107     51.095173
  O      51.087075     23.637435     51.209392
  O      50.373011     25.685281     50.665710
24
Coordinates from ORCA-job neb_MEP_ALL.QMRegion E -1076.345389515820
  C      49.108419     24.255694     54.104217
  H      49.835823     23.495471     53.825708
  H      49.464646     25.268234     54.290341
  C      47.794249     23.946003     54.300229
  C      46.802744     24.980740     54.834994
  O      47.187983     26.176822     54.973730
  O      45.653836     24.570188     55.123359
  O      47.288145     22.781747     53.916709
  C      46.996422     22.690662     52.084702
  H      46.631063     21.661221     52.053553
  C      48.326478     22.931792     51.639559
  H      49.053133     22.121588     51.612138
  C      48.767184     24.222106     51.551227
  C      47.809024     25.334322     51.583965
  H      48.225322     26.340506     51.518886
  C      46.489414     25.115057     51.684974
  H      45.780112     25.945103     51.689943
  C      45.915969     23.728918     51.781235
  H      45.208930     23.700780     52.620739
  O      45.247579     23.401907     50.559486
  H      44.270189     23.252054     50.734929
  C      50.197002     24.524716     51.130642
  O      51.083876     23.634786     51.222115
  O      50.365165     25.679107     50.674323
24
Coordinates from ORCA-job neb_MEP_ALL.QMRegion E -1076.342312786069
  C      49.117474     24.271487     54.045891
  H      49.846844     23.491694     53.839225
  H      49.471917     25.278995     54.256195
  C      47.799426     23.934364     54.329321
  C      46.803210     24.985164     54.844691
  O      47.190041     26.181116     54.972251
  O      45.654410     24.575394     55.127373
  O      47.329291     22.778034     54.046132
  C      46.987269     22.674350     51.966708
  H      46.627344     21.647940     52.028509
  C      48.312254     22.922413     51.644480
  H      49.048035     22.119708     51.621319
  C      48.775064     24.234849     51.624628
  C      47.809575     25.338937     51.600296
  H      48.224712     26.344581     51.526435
  C      46.489711     25.113264     51.679783
  H      45.779412     25.942661     51.682078
  C      45.916952     23.726184     51.762008
  H      45.220658     23.688829     52.612975
  O      45.228861     23.420688     50.543933
  H      44.256469     23.256764     50.731688
  C      50.198124     24.527134     51.154713
  O      51.080986     23.632551     51.227170
  O      50.359264     25.673381     50.675898
24
Coordinates from ORCA-job neb_MEP_ALL.QMRegion E -1076.348512840945
  C      49.111104     24.287361     53.861792
  H      49.848868     23.486799     53.850768
  H      49.468738     25.271579     54.176960
  C      47.796209     23.925317     54.325006
  C      46.801804     24.988110     54.851021
  O      47.197882     26.179473     54.971875
  O      45.657087     24.575232     55.135245
  O      47.364065     22.773717     54.164801
  C      46.986983     22.661671     51.874688
  H      46.626779     21.639143     51.985361
  C      48.302670     22.915456     51.669326
  H      49.043673     22.116684     51.639879
  C      48.804723     24.258191     51.797703
  C      47.812704     25.346396     51.635334
  H      48.221999     26.352574     51.537140
  C      46.495184     25.110081     51.674709
  H      45.781628     25.937804     51.658074
  C      45.919585     23.721738     51.747579
  H      45.229757     23.678256     52.606941
  O      45.214457     23.438778     50.534389
  H      44.247845     23.261152     50.730598
  C      50.200546     24.531293     51.194186
  O      51.078906     23.630731     51.234788
  O      50.346935     25.662520     50.677626
24
Coordinates from ORCA-job neb_MEP_ALL.QMRegion E -1076.372657152963
  C      49.096764     24.288700     53.669755
  H      49.842678     23.497517     53.841461
  H      49.455575     25.259305     54.053938
  C      47.799907     23.917198     54.316768
  C      46.811730     24.986204     54.859394
  O      47.216236     26.172144     54.975698
  O      45.673742     24.565642     55.154205
  O      47.420106     22.753265     54.296419
  C      46.986917     22.657871     51.792340
  H      46.624053     21.633499     51.872487
  C      48.297996     22.912087     51.701107
  H      49.038038     22.110900     51.669884
  C      48.833339     24.275584     51.970148
  C      47.819620     25.352483     51.692822
  H      48.219242     26.362939     51.588739
  C      46.505691     25.107149     51.671746
  H      45.792384     25.933206     51.619455
  C      45.922809     23.721017     51.720616
  H      45.243333     23.660829     52.588590
  O      45.190211     23.479985     50.514416
  H      44.229778     23.282170     50.721905
  C      50.197799     24.534114     51.236950
  O      51.073813     23.629598     51.251402
  O      50.326651     25.652596     50.689675
24
Coordinates from ORCA-job neb_MEP_ALL.QMRegion E -1076.390687122225
  C      49.140000     24.255000     53.626000
  H      49.929000     23.514000     53.810000
  H      49.475000     25.253000     53.933000
  C      47.916000     23.844000     54.405000
  C      46.901000     24.915000     54.918000
  O      47.281000     26.113000     54.975000
  O      45.777000     24.489000     55.249000
  O      47.664000     22.669000     54.584000
  C      46.944000     22.696000     51.508000
  H      46.572000     21.689000     51.317000
  C      48.246000     22.912000     51.708000
  H      48.965000     22.091000     51.697000
  C      48.810000     24.255000     52.076000
  C      47.815000     25.359000     51.825000
  H      48.213000     26.373000     51.870000
  C      46.513000     25.142000     51.625000
  H      45.824000     25.985000     51.527000
  C      45.896000     23.774000     51.542000
  H      45.266000     23.630000     52.441000
  O      45.077000     23.681000     50.377000
  H      44.141000     23.433000     50.632000
  C      50.148000     24.515000     51.296000
  O      51.030000     23.616000     51.293000
  O      50.247000     25.626000     50.732000
24
Coordinates from ORCA-job neb_MEP_ALL.QMRegion E -1076.356373477625
  C      49.040000     24.209000     54.467000
  H      49.766000     23.472000     54.125000
  H      49.396000     25.142000     54.903000
  C      47.723000     24.016000     54.354000
  C      46.711000     25.020000     54.873000
  O      47.091000     26.215000     55.027000
  O      45.563000     24.591000     55.133000
  O      47.197000     22.866000     53.798000
  C      47.053000     22.831000     52.334000
  H      46.659000     21.825000     52.135000
  C      48.409000     23.007000     51.724000
  H      49.123000     22.186000     51.795000
  C      48.806000     24.204000     51.255000
  C      47.873000     25.339000     51.259000
  H      48.301000     26.312000     51.008000
  C      46.579000     25.198000     51.589000
  H      45.913000     26.064000     51.631000
  C      45.982000     23.839000     51.855000
  H      45.244000     23.917000     52.668000
  O      45.358000     23.362000     50.662000
  H      44.380000     23.230000     50.816000
  C      50.237000     24.468000     50.805000
  O      51.139000     23.629000     51.081000
  O      50.411000     25.556000     50.208000
24
Coordinates from ORCA-job neb_MEP_ALL.QMRegion E -1076.359212969890
  C      49.048332     24.209350     54.411289
  H      49.772025     23.478048     54.051653
  H      49.406726     25.152868     54.819577
  C      47.729190     24.006983     54.333750
  C      46.723988     25.010520     54.864442
  O      47.106896     26.204241     55.019091
  O      45.577511     24.582528     55.131929
  O      47.196463     22.852456     53.790019
  C      47.041621     22.809467     52.323586
  H      46.648604     21.802052     52.134012
  C      48.393345     22.990971     51.708236
  H      49.106991     22.167026     51.756539
  C      48.795382     24.202433     51.280774
  C      47.860303     25.335289     51.306974
  H      48.287896     26.316138     51.093914
  C      46.561245     25.182206     51.613715
  H      45.890499     26.043405     51.659592
  C      45.967792     23.818510     51.851320
  H      45.227881     23.883391     52.663154
  O      45.349033     23.354225     50.650863
  H      44.370656     23.225647     50.801820
  C      50.227614     24.479860     50.851394
  O      51.128611     23.630781     51.097652
  O      50.404196     25.591465     50.299760
24
Coordinates from ORCA-job neb_MEP_ALL.QMRegion E -1076.361328796848
  C      49.056564     24.210851     54.356409
  H      49.777769     23.484514     53.982276
  H      49.416542     25.165264     54.736855
  C      47.736952     23.998915     54.311589
  C      46.737452     25.001171     54.854086
  O      47.123721     26.193643     55.011051
  O      45.592486     24.573797     55.130442
  O      47.198471     22.840536     53.782846
  C      47.031129     22.788607     52.309567
  H      46.640599     21.777741     52.131555
  C      48.378950     22.976820     51.690900
  H      49.092834     22.151750     51.719449
  C      48.782899     24.201187     51.304370
  C      47.845777     25.331594     51.354243
  H      48.274505     26.319069     51.181039
  C      46.543022     25.166223     51.636034
  H      45.866676     26.021718     51.688127
  C      45.953509     23.797297     51.846889
  H      45.212811     23.847846     52.658875
  O      45.338562     23.345251     50.640346
  H      44.359231     23.221367     50.788990
  C      50.217662     24.490957     50.897664
  O      51.118042     23.633036     51.113715
  O      50.396648     25.624986     50.395117
24
Coordinates from ORCA-job neb_MEP_ALL.QMRegion E -1076.363972739600
  C      49.066785     24.212151     54.292700
  H      49.785677     23.489822     53.907762
  H      49.427380     25.181106     54.634470
  C      47.747828     23.987768     54.284961
  C      46.755497     24.989810     54.842027
  O      47.143930     26.181646     55.000276
  O      45.611535     24.565000     55.126786
  O      47.203321     22.826421     53.771501
  C      47.020728     22.764621     52.291495
  H      46.634333     21.750393     52.125519
  C      48.362432     22.961983     51.670070
  H      49.077824     22.138320     51.674241
  C      48.768393     24.200276     51.333858
  C      47.828628     25.327543     51.411003
  H      48.257222     26.322238     51.285503
  C      46.521391     25.147390     51.659599
  H      45.837786     25.996494     51.716362
  C      45.938192     23.771912     51.840388
  H      45.197208     23.806343     52.652294
  O      45.324597     23.338086     50.627248
  H      44.344077     23.218855     50.773667
  C      50.206588     24.503092     50.953735
  O      51.105216     23.635494     51.134486
  O      50.390029     25.659272     50.506051
24
Coordinates from ORCA-job neb_MEP_ALL.QMRegion E -1076.356681891633
  C      49.101035     24.241949     54.142374
  H      49.828031     23.498433     53.818873
  H      49.458529     25.254650     54.332310
  C      47.788097     23.956457     54.273584
  C      46.799796     24.976439     54.827564
  O      47.186510     26.171111     54.975376
  O      45.652451     24.564142     55.120886
  O      47.255017     22.785125     53.814106
  C      47.004271     22.705099     52.184255
  H      46.634064     21.677511     52.071737
  C      48.336441     22.938252     51.640072
  H      49.056502     22.122248     51.605619
  C      48.762053     24.213684     51.493788
  C      47.807892     25.330087     51.564720
  H      48.225269     26.336565     51.505047
  C      46.489179     25.115779     51.688093
  H      45.781329     25.947142     51.700309
  C      45.915759     23.729836     51.797265
  H      45.197482     23.711448     52.625902
  O      45.263091     23.385175     50.572714
  H      44.282100     23.247145     50.737205
  C      50.194841     24.522068     51.104910
  O      51.085470     23.636580     51.212889
  O      50.370464     25.684260     50.669774
24
Coordinates from ORCA-job neb_MEP_ALL.QMRegion E -1076.345312238226
  C      49.110056     24.256928     54.105479
  H      49.837954     23.496755     53.829195
  H      49.465730     25.268850     54.295844
  C      47.795441     23.945087     54.303408
  C      46.802964     24.980907     54.836219
  O      47.187843     26.177239     54.973919
  O      45.653833     24.570121     55.123363
  O      47.292257     22.781876     53.925845
  C      46.995206     22.689322     52.075394
  H      46.630448     21.659655     52.051555
  C      48.325167     22.930716     51.638748
  H      49.052526     22.121023     51.611687
  C      48.767316     24.222405     51.552704
  C      47.808491     25.333935     51.583155
  H      48.224879     26.340097     51.517718
  C      46.488926     25.114526     51.684687
  H      45.779524     25.944604     51.691182
  C      45.915526     23.728285     51.779320
  H      45.209186     23.699108     52.619312
  O      45.245481     23.403275     50.557497
  H      44.268258     23.253111     50.733917
  C      50.196640     24.524499     51.129915
  O      51.083315     23.634594     51.220413
  O      50.364934     25.679025     50.673473
24
Coordinates from ORCA-job neb_MEP_ALL.QMRegion E -1076.342335574739
  C      49.118685     24.272147     54.047633
  H      49.848623     23.492754     53.840971
  H      49.472684     25.279349     54.260611
  C      47.800525     23.933802     54.330747
  C      46.803592     24.984850     54.845232
  O      47.190076     26.180958     54.972367
  O      45.654725     24.575021     55.127358
  O      47.331328     22.777419     54.049032
  C      46.986593     22.673509     51.963735
  H      46.626859     21.647080     52.026873
  C      48.311599     22.921875     51.643813
  H      49.047402     22.119131     51.620607
  C      48.774586     24.234632     51.624149
  C      47.808801     25.338406     51.600047
  H      48.223942     26.344086     51.526300
  C      46.488944     25.112511     51.679869
  H      45.778636     25.941904     51.683829
  C      45.916268     23.725409     51.760822
  H      45.220100     23.687222     52.611842
  O      45.227474     23.421141     50.542659
  H      44.255108     23.257450     50.730734
  C      50.197688     24.527108     51.154129
  O      51.080454     23.632321     51.225606
  O      50.359058     25.673749     50.676255
24
Coordinates from ORCA-job neb_MEP_ALL.QMRegion E -1076.348900837251
  C      49.111710     24.287095     53.867012
  H      49.851805     23.488985     53.851485
  H      49.470419     25.272043     54.181779
  C      47.796986     23.924740     54.327816
  C      46.803780     24.986973     54.851486
  O      47.197808     26.178968     54.971670
  O      45.658810     24.574731     55.134974
  O      47.368025     22.772850     54.167432
  C      46.985675     22.661319     51.873803
  H      46.625558     21.638063     51.981806
  C      48.301835     22.915250     51.666977
  H      49.042804     22.115647     51.638430
  C      48.804007     24.257424     51.795112
  C      47.812051     25.345553     51.635497
  H      48.220724     26.351981     51.538937
  C      46.494164     25.109265     51.674858
  H      45.780186     25.937112     51.660671
  C      45.918744     23.720355     51.745062
  H      45.229580     23.676002     52.604894
  O      45.211733     23.440170     50.530498
  H      44.244879     23.262200     50.729132
  C      50.199485     24.530787     51.192352
  O      51.077765     23.630412     51.234012
  O      50.346610     25.663921     50.679655
24
Coordinates from ORCA-job neb_MEP_ALL.QMRegion E -1076.371442787980
  C      49.100170     24.292308     53.679609
  H      49.841604     23.496471     53.847104
  H      49.457208     25.260710     54.074537
  C      47.795212     23.908976     54.317338
  C      46.805861     24.988015     54.858414
  O      47.210675     26.176270     54.974756
  O      45.668010     24.570366     55.147792
  O      47.411396     22.768150     54.279624
  C      46.986794     22.656347     51.806233
  H      46.626465     21.632840     51.900991
  C      48.300074     22.911779     51.697274
  H      49.040703     22.111214     51.666369
  C      48.833742     24.275567     51.963619
  C      47.818915     25.350752     51.679973
  H      48.219332     26.360337     51.572560
  C      46.503211     25.105856     51.672026
  H      45.789101     25.932358     51.626596
  C      45.923061     23.718749     51.728082
  H      45.241469     23.662758     52.594050
  O      45.196078     23.468731     50.520079
  H      44.234278     23.275589     50.725349
  C      50.198322     24.533726     51.230847
  O      51.075133     23.631002     51.246981
  O      50.332119     25.653526     50.686579
24
Coordinates from ORCA-job neb_MEP_ALL.QMRegion E -1076.390687122225
  C      49.140000     24.255000     53.626000
  H      49.929000     23.514000     53.810000
  H      49.475000     25.253000     53.933000
  C      47.916000     23.844000     54.405000
  C      46.901000     24.915000     54.918000
  O      47.281000     26.113000     54.975000
  O      45.777000     24.489000     55.249000
  O      47.664000     22.669000     54.584000
  C      46.944000     22.696000     51.508000
  H      46.572000     21.689000     51.317000
  C      48.246000     22.912000     51.708000
  H      48.965000     22.091000     51.697000
  C      48.810000     24.255000     52.076000
  C      47.815000     25.359000     51.825000
  H      48.213000     26.373000     51.870000
  C      46.513000     25.142000     51.625000
  H      45.824000     25.985000     51.527000
  C      45.896000     23.774000     51.542000
  H      45.266000     23.630000     52.441000
  O      45.077000     23.681000     50.377000
  H      44.141000     23.433000     50.632000
  C      50.148000     24.515000     51.296000
  O      51.030000     23.616000     51.293000
  O      50.247000     25.626000     50.732000
24
Coordinates from ORCA-job neb_MEP_ALL.QMRegion E -1076.356373477625
  C      49.040000     24.209000     54.467000
  H      49.766000     23.472000     54.125000
  H      49.396000     25.142000     54.903000
  C      47.723000     24.016000     54.354000
  C      46.711000     25.020000     54.873000
  O      47.091000     26.215000     55.027000
  O      45.563000     24.591000     55.133000
  O      47.197000     22.866000     53.798000
  C      47.053000     22.831000     52.334000
  H      46.659000     21.825000     52.135000
  C      48.409000     23.007000     51.724000
  H      49.123000     22.186000     51.795000
  C      48.806000     24.204000     51.255000
  C      47.873000     25.339000     51.259000
  H      48.301000     26.312000     51.008000
  C      46.579000     25.198000     51.589000
  H      45.913000     26.064000     51.631000
  C      45.982000     23.839000     51.855000
  H      45.244000     23.917000     52.668000
  O      45.358000     23.362000     50.662000
  H      44.380000     23.230000     50.816000
  C      50.237000     24.468000     50.805000
  O      51.139000     23.629000     51.081000
  O      50.411000     25.556000     50.208000
24
Coordinates from ORCA-job neb_MEP_ALL.QMRegion E -1076.359286266489
  C      49.048539     24.208943     54.415082
  H      49.771400     23.477986     54.054177
  H      49.406105     25.149401     54.827084
  C      47.729296     24.009288     54.336416
  C      46.723280     25.010049     54.865156
  O      47.105831     26.203315     55.020118
  O      45.577194     24.582407     55.132377
  O      47.195820     22.851267     53.789314
  C      47.042005     22.809943     52.323788
  H      46.648309     21.803288     52.134612
  C      48.393261     22.990870     51.707964
  H      49.106394     22.167801     51.757183
  C      48.795187     24.201284     51.277903
  C      47.859882     25.334428     51.303451
  H      48.287621     26.315646     51.088337
  C      46.561197     25.182465     51.613407
  H      45.891343     26.044515     51.661408
  C      45.967894     23.819061     51.851632
  H      45.227362     23.884371     52.663293
  O      45.349587     23.353516     50.651218
  H      44.371276     23.224549     50.802012
  C      50.227547     24.479640     50.848413
  O      51.128132     23.629933     51.094408
  O      50.404412     25.591853     50.297702
24
Coordinates from ORCA-job neb_MEP_ALL.QMRegion E -1076.361533162891
  C      49.056269     24.209790     54.362502
  H      49.777176     23.484294     53.985607
  H      49.416455     25.160563     54.750940
  C      47.736505     23.999736     54.315278
  C      46.735960     25.000803     54.855091
  O      47.122389     26.192800     55.013027
  O      45.591578     24.573014     55.131394
  O      47.198013     22.840194     53.779489
  C      47.030800     22.789319     52.313346
  H      46.639757     21.779155     52.132264
  C      48.378395     22.977103     51.689795
  H      49.092198     22.151938     51.720385
  C      48.782373     24.200162     51.298878
  C      47.845002     25.330321     51.348030
  H      48.273349     26.317511     51.171429
  C      46.542974     25.166530     51.635539
  H      45.867442     26.023460     51.692432
  C      45.953695     23.797255     51.848084
  H      45.211662     23.848806     52.659142
  O      45.339410     23.343328     50.639894
  H      44.359703     23.218896     50.789248
  C      50.217349     24.490610     50.892555
  O      51.116958     23.631432     51.107641
  O      50.396474     25.626171     50.392836
24
Coordinates from ORCA-job neb_MEP_ALL.QMRegion E -1076.364400858306
  C      49.067097     24.210905     54.295967
  H      49.785993     23.489874     53.907692
  H      49.428944     25.177164     54.645529
  C      47.748147     23.986138     54.287380
  C      46.754936     24.988727     54.842753
  O      47.144074     26.180285     55.001886
  O      45.611392     24.563303     55.127574
  O      47.204150     22.825659     53.767423
  C      47.019127     22.763747     52.294384
  H      46.632780     21.749443     52.124812
  C      48.360658     22.961841     51.667067
  H      49.076303     22.137084     51.672401
  C      48.766757     24.200008     51.329890
  C      47.826286     25.326138     51.407337
  H      48.254205     26.320249     51.279670
  C      46.519728     25.146436     51.660212
  H      45.836571     25.996334     51.723477
  C      45.937046     23.770273     51.840888
  H      45.195109     23.803942     52.651635
  O      45.323974     23.335690     50.625210
  H      44.342823     23.215571     50.772497
  C      50.205129     24.503053     50.951211
  O      51.102932     23.633714     51.127890
  O      50.389216     25.662046     50.510172
24
Coordinates from ORCA-job neb_MEP_ALL.QMRegion E -1076.354327630139
  C      49.106109     24.246684     54.137830
  H      49.834546     23.501219     53.821884
  H      49.463354     25.261498     54.316289
  C      47.793753     23.953994     54.279451
  C      46.803237     24.975796     54.828787
  O      47.189078     26.170939     54.974448
  O      45.654870     24.565211     55.121086
  O      47.264145     22.780260     53.823183
  C      47.002423     22.699473     52.168983
  H      46.634059     21.669718     52.063927
  C      48.335004     22.936652     51.637857
  H      49.055044     22.120662     51.601958
  C      48.762588     24.214878     51.509948
  C      47.806719     25.330144     51.575427
  H      48.222679     26.337380     51.515010
  C      46.487286     25.113515     51.688100
  H      45.777077     25.943532     51.696732
  C      45.914127     23.727085     51.790879
  H      45.199616     23.702093     52.621865
  O      45.254295     23.393904     50.564831
  H      44.272933     23.251492     50.732706
  C      50.193834     24.522463     51.115333
  O      51.083674     23.635360     51.216863
  O      50.367588     25.683079     50.674929
24
Coordinates from ORCA-job neb_MEP_ALL.QMRegion E -1076.345012048691
  C      49.112625     24.259220     54.105852
  H      49.841152     23.498350     53.834183
  H      49.467335     25.269879     54.302617
  C      47.797336     23.943822     54.308393
  C      46.803282     24.981194     54.837972
  O      47.187586     26.177811     54.974174
  O      45.653914     24.570299     55.123478
  O      47.298420     22.781480     53.940868
  C      46.993292     22.687144     52.060257
  H      46.629536     21.657280     52.048273
  C      48.323243     22.929307     51.637666
  H      49.051572     22.120157     51.611230
  C      48.767463     24.223009     51.556171
  C      47.807849     25.333411     51.582529
  H      48.224260     26.339709     51.516291
  C      46.488165     25.113552     51.684089
  H      45.778644     25.943922     51.692744
  C      45.914936     23.727391     51.776416
  H      45.209777     23.696528     52.617136
  O      45.242271     23.405553     50.554370
  H      44.265280     23.254638     50.732451
  C      50.196194     24.524468     51.129622
  O      51.082516     23.634195     51.218095
  O      50.364388     25.678683     50.672371
24
Coordinates from ORCA-job neb_MEP_ALL.QMRegion E -1076.342388293531
  C      49.120375     24.273007     54.050143
  H      49.851070     23.494238     53.843382
  H      49.473718     25.279822     54.266747
  C      47.802003     23.933080     54.332701
  C      46.804132     24.984407     54.846003
  O      47.190139     26.180738     54.972510
  O      45.655160     24.574484     55.127318
  O      47.334103     22.776547     54.052867
  C      46.985636     22.672362     51.959744
  H      46.626197     21.645884     52.024634
  C      48.310742     22.921134     51.642924
  H      49.046526     22.118355     51.619612
  C      48.773921     24.234337     51.623379
  C      47.807776     25.337631     51.599685
  H      48.222863     26.343410     51.526119
  C      46.487863     25.111472     51.680002
  H      45.777541     25.940856     51.686247
  C      45.915285     23.724374     51.759226
  H      45.219333     23.684994     52.610271
  O      45.225623     23.421747     50.540915
  H      44.253216     23.258385     50.729424
  C      50.197109     24.527072     51.153250
  O      51.079708     23.631970     51.223487
  O      50.358745     25.674283     50.676768
24
Coordinates from ORCA-job neb_MEP_ALL.QMRegion E -1076.348868371106
  C      49.112313     24.286877     53.882332
  H      49.856515     23.491120     53.851945
  H      49.472786     25.273053     54.192350
  C      47.797670     23.924997     54.332514
  C      46.806573     24.985089     54.851473
  O      47.197069     26.177966     54.971516
  O      45.661403     24.574244     55.134199
  O      47.371419     22.771157     54.164572
  C      46.983831     22.660980     51.876935
  H      46.624222     21.637542     51.978974
  C      48.300524     22.914696     51.663339
  H      49.041851     22.114373     51.635458
  C      48.801339     24.255515     51.782463
  C      47.810662     25.344157     51.634255
  H      48.219054     26.350466     51.540816
  C      46.492546     25.108045     51.675025
  H      45.778218     25.936293     51.665336
  C      45.918028     23.718857     51.743128
  H      45.228795     23.673339     52.602070
  O      45.208904     23.441071     50.525918
  H      44.241124     23.263317     50.727017
  C      50.198278     24.530352     51.188895
  O      51.076383     23.629801     51.232118
  O      50.346640     25.666041     50.681948
24
Coordinates from ORCA-job neb_MEP_ALL.QMRegion E -1076.368362716230
  C      49.104045     24.296506     53.688968
  H      49.839454     23.496754     53.854395
  H      49.458685     25.260519     54.098773
  C      47.794311     23.912320     54.315240
  C      46.801160     24.990239     54.858268
  O      47.202158     26.179818     54.973214
  O      45.659299     24.577310     55.139733
  O      47.396673     22.775149     54.261404
  C      46.988623     22.654117     51.821410
  H      46.629104     21.631278     51.937130
  C      48.301709     22.911410     51.694685
  H      49.043619     22.111766     51.661978
  C      48.836567     24.276752     51.957578
  C      47.818200     25.348254     51.665871
  H      48.219122     26.356954     51.551472
  C      46.501051     25.104295     51.671998
  H      45.784319     25.931355     51.635401
  C      45.923258     23.715433     51.737402
  H      45.238681     23.664937     52.601466
  O      45.203181     23.454473     50.527014
  H      44.239849     23.267130     50.729770
  C      50.199228     24.534385     51.226210
  O      51.076367     23.632624     51.240543
  O      50.338199     25.653553     50.682434
24
Coordinates from ORCA-job neb_MEP_ALL.QMRegion E -1076.390687122225
  C      49.140000     24.255000     53.626000
  H      49.929000     23.514000     53.810000
  H      49.475000     25.253000     53.933000
  C      47.916000     23.844000     54.405000
  C      46.901000     24.915000     54.918000
  O      47.281000     26.113000     54.975000
  O      45.777000     24.489000     55.249000
  O      47.664000     22.669000     54.584000
  C      46.944000     22.696000     51.508000
  H      46.572000     21.689000     51.317000
  C      48.246000     22.912000     51.708000
  H      48.965000     22.091000     51.697000
  C      48.810000     24.255000     52.076000
  C      47.815000     25.359000     51.825000
  H      48.213000     26.373000     51.870000
  C      46.513000     25.142000     51.625000
  H      45.824000     25.985000     51.527000
  C      45.896000     23.774000     51.542000
  H      45.266000     23.630000     52.441000
  O      45.077000     23.681000     50.377000
  H      44.141000     23.433000     50.632000
  C      50.148000     24.515000     51.296000
  O      51.030000     23.616000     51.293000
  O      50.247000     25.626000     50.732000
24
Coordinates from ORCA-job neb_MEP_ALL.QMRegion E -1076.356373477625
  C      49.040000     24.209000     54.467000
  H      49.766000     23.472000     54.125000
  H      49.396000     25.142000     54.903000
  C      47.723000     24.016000     54.354000
  C      46.711000     25.020000     54.873000
  O      47.091000     26.215000     55.027000
  O      45.563000     24.591000     55.133000
  O      47.197000     22.866000     53.798000
  C      47.053000     22.831000     52.334000
  H      46.659000     21.825000     52.135000
  C      48.409000     23.007000     51.724000
  H      49.123000     22.186000     51.795000
  C      48.806000     24.204000     51.255000
  C      47.873000     25.339000     51.259000
  H      48.301000     26.312000     51.008000
  C      46.579000     25.198000     51.589000
  H      45.913000     26.064000     51.631000
  C      45.982000     23.839000     51.855000
  H      45.244000     23.917000     52.668000
  O      45.358000     23.362000     50.662000
  H      44.380000     23.230000     50.816000
  C      50.237000     24.468000     50.805000
  O      51.139000     23.629000     51.081000
  O      50.411000     25.556000     50.208000
24
Coordinates from ORCA-job neb_MEP_ALL.QMRegion E -1076.359356041888
  C      49.048767     24.208425     54.419759
  H      49.770630     23.477906     54.057294
  H      49.405353     25.145144     54.836365
  C      47.729416     24.012033     54.339654
  C      46.722406     25.009475     54.866047
  O      47.104524     26.202199     55.021387
  O      45.576784     24.582246     55.132932
  O      47.195063     22.849874     53.788482
  C      47.042471     22.810530     52.324043
  H      46.647944     21.804815     52.135346
  C      48.393151     22.990751     51.707631
  H      49.105665     22.168749     51.757979
  C      48.794952     24.199872     51.274353
  C      47.859362     25.333376     51.299102
  H      48.287279     26.315030     51.081454
  C      46.561141     25.182792     51.613023
  H      45.892387     26.045885     51.663651
  C      45.968018     23.819731     51.852022
  H      45.226724     23.885579     52.663461
  O      45.350272     23.352644     50.651656
  H      44.372042     23.223194     50.802249
  C      50.227465     24.479368     50.844734
  O      51.127539     23.628892     51.090400
  O      50.404679     25.592325     50.295163
24
Coordinates from ORCA-job neb_MEP_ALL.QMRegion E -1076.361824730767
  C      49.055887     24.208468     54.370022
  H      49.776440     23.484023     53.989720
  H      49.416356     25.154772     54.768336
  C      47.735950     24.000679     54.319788
  C      46.734123     25.000348     54.856346
  O      47.120746     26.191779     55.015466
  O      45.590442     24.572044     55.132570
  O      47.197474     22.839823     53.775384
  C      47.030398     22.790197     52.317996
  H      46.638718     21.780906     52.133136
  C      48.377699     22.977448     51.688441
  H      49.091414     22.152172     51.721539
  C      48.781728     24.198887     51.292092
  C      47.844041     25.328759     51.340360
  H      48.271920     26.315584     51.159563
  C      46.542912     25.166914     51.634926
  H      45.868392     26.025608     51.697746
  C      45.953917     23.797190     51.849556
  H      45.210245     23.849991     52.659467
  O      45.340456     23.340959     50.639347
  H      44.360291     23.215846     50.789565
  C      50.216963     24.490185     50.886250
  O      51.115616     23.629457     51.100137
  O      50.396264     25.627631     50.390020
24
Coordinates from ORCA-job neb_MEP_ALL.QMRegion E -1076.365022601482
  C      49.067488     24.209369     54.299964
  H      49.786389     23.489943     53.907586
  H      49.430885     25.172315     54.659109
  C      47.748552     23.984098     54.290344
  C      46.754263     24.987382     54.843652
  O      47.144256     26.178605     55.003867
  O      45.611222     24.561210     55.128544
  O      47.205192     22.824719     53.762418
  C      47.017160     22.762664     52.297905
  H      46.630862     21.748250     52.123926
  C      48.358457     22.961647     51.663361
  H      49.074411     22.135566     51.670108
  C      48.764733     24.199660     51.325029
  C      47.823384     25.324410     51.402851
  H      48.250473     26.317802     51.272523
  C      46.517664     25.145256     51.660976
  H      45.835058     25.996122     51.732257
  C      45.935622     23.768222     51.841482
  H      45.192513     23.800955     52.650816
  O      45.323188     23.332748     50.622694
  H      44.341265     23.211525     50.771041
  C      50.203327     24.503018     50.948135
  O      51.100106     23.631517     51.119765
  O      50.388213     25.665477     50.515301
24
Coordinates from ORCA-job neb_MEP_ALL.QMRegion E -1076.352187768299
  C      49.112341     24.252485     54.132307
  H      49.842567     23.504661     53.825585
  H      49.469294     25.269928     54.296619
  C      47.800707     23.950935     54.286607
  C      46.807480     24.974997     54.830283
  O      47.192243     26.170723     54.973309
  O      45.657845     24.566510     55.121330
  O      47.275343     22.774299     53.834165
  C      47.000170     22.692570     52.150373
  H      46.634060     21.660137     52.054336
  C      48.333253     22.934688     51.635128
  H      49.053252     22.118710     51.597430
  C      48.763246     24.216324     51.529754
  C      47.805265     25.330214     51.588597
  H      48.219482     26.338371     51.527277
  C      46.484948     25.110733     51.688121
  H      45.771842     25.939076     51.692340
  C      45.912108     23.723685     51.783029
  H      45.202219     23.690577     52.616903
  O      45.243483     23.404635     50.555148
  H      44.261659     23.256847     50.727165
  C      50.192586     24.522954     51.128139
  O      51.081463     23.633859     51.221752
  O      50.364053     25.681628     50.681285
24
Coordinates from ORCA-job neb_MEP_ALL.QMRegion E -1076.344458499042
  C      49.115792     24.262044     54.106301
  H      49.845103     23.500318     53.840341
  H      49.469321     25.271162     54.310972
  C      47.799671     23.942237     54.314545
  C      46.803675     24.981550     54.840135
  O      47.187269     26.178520     54.974489
  O      45.654015     24.570521     55.123621
  O      47.306040     22.781005     53.959436
  C      46.990937     22.684450     52.041554
  H      46.628408     21.654347     52.044216
  C      48.320862     22.927561     51.636333
  H      49.050391     22.119090     51.610668
  C      48.767646     24.223753     51.560460
  C      47.807052     25.332774     51.581764
  H      48.223491     26.339225     51.514532
  C      46.487226     25.112358     51.683350
  H      45.777563     25.943073     51.694672
  C      45.914205     23.726286     51.772818
  H      45.210503     23.693339     52.614453
  O      45.238304     23.408369     50.550512
  H      44.261604     23.256523     50.730639
  C      50.195647     24.524433     51.129267
  O      51.081529     23.633701     51.215234
  O      50.363710     25.678259     50.671013
24
Coordinates from ORCA-job neb_MEP_ALL.QMRegion E -1076.342454499920
  C      49.122461     24.274068     54.053244
  H      49.854091     23.496071     53.846360
  H      49.474996     25.280407     54.274324
  C      47.803827     23.932188     54.335114
  C      46.804799     24.983860     54.846956
  O      47.190217     26.180467     54.972686
  O      45.655699     24.573819     55.127268
  O      47.337528     22.775470     54.057599
  C      46.984454     22.670946     51.954818
  H      46.625381     21.644407     52.021870
  C      48.309685     22.920220     51.641828
  H      49.045445     22.117396     51.618383
  C      48.773100     24.233972     51.622428
  C      47.806509     25.336676     51.599238
  H      48.221529     26.342573     51.525895
  C      46.486530     25.110191     51.680166
  H      45.776190     25.939561     51.689233
  C      45.914073     23.723095     51.757255
  H      45.218384     23.682242     52.608334
  O      45.223339     23.422494     50.538762
  H      44.250881     23.259538     50.727807
  C      50.196394     24.527028     51.152163
  O      51.078786     23.631537     51.220872
  O      50.358358     25.674943     50.677400
24
Coordinates from ORCA-job neb_MEP_ALL.QMRegion E -1076.348209362370
  C      49.113075     24.286594     53.901321
  H      49.862311     23.493765     53.852512
  H      49.475705     25.274306     54.205435
  C      47.798558     23.925303     54.338297
  C      46.810000     24.982775     54.851460
  O      47.196169     26.176743     54.971326
  O      45.664579     24.573628     55.133243
  O      47.375575     22.769065     54.160986
  C      46.981568     22.660578     51.880825
  H      46.622569     21.636891     51.975504
  C      48.298924     22.914018     51.658856
  H      49.040667     22.112811     51.631781
  C      48.798004     24.253128     51.766763
  C      47.808941     25.342425     51.632705
  H      48.216995     26.348599     51.543126
  C      46.490545     25.106544     51.675232
  H      45.775796     25.935275     51.671103
  C      45.917132     23.717015     51.740738
  H      45.227815     23.670057     52.598588
  O      45.205426     23.442172     50.520303
  H      44.236502     23.264696     50.724400
  C      50.196794     24.529821     51.184626
  O      51.074682     23.629045     51.229767
  O      50.346685     25.668660     50.684766
24
Coordinates from ORCA-job neb_MEP_ALL.QMRegion E -1076.365050844787
  C      49.108773     24.301652     53.700482
  H      49.836819     23.497106     53.863391
  H      49.460514     25.260289     54.128659
  C      47.793222     23.916635     54.312653
  C      46.795391     24.992996     54.858080
  O      47.191649     26.184176     54.971313
  O      45.648556     24.585866     55.129792
  O      47.378485     22.783627     54.238950
  C      46.990908     22.651384     51.840113
  H      46.632354     21.629338     51.981703
  C      48.303719     22.910976     51.691525
  H      49.047216     22.112440     51.656560
  C      48.840031     24.278209     51.950122
  C      47.817319     25.345172     51.648515
  H      48.218856     26.352779     51.525453
  C      46.498404     25.102372     51.671961
  H      45.778422     25.930109     51.646261
  C      45.923509     23.711334     51.748897
  H      45.235239     23.667620     52.610617
  O      45.211936     23.436887     50.535565
  H      44.246715     23.256693     50.735222
  C      50.200372     24.535214     51.220510
  O      51.077893     23.634596     51.232602
  O      50.345678     25.653597     50.677315
24
Coordinates from ORCA-job neb_MEP_ALL.QMRegion E -1076.390687122225
  C      49.140000     24.255000     53.626000
  H      49.929000     23.514000     53.810000
  H      49.475000     25.253000     53.933000
  C      47.916000     23.844000     54.405000
  C      46.901000     24.915000     54.918000
  O      47.281000     26.113000     54.975000
  O      45.777000     24.489000     55.249000
  O      47.664000     22.669000     54.584000
  C      46.944000     22.696000     51.508000
  H      46.572000     21.689000     51.317000
  C      48.246000     22.912000     51.708000
  H      48.965000     22.091000     51.697000
  C      48.810000     24.255000     52.076000
  C      47.815000     25.359000     51.825000
  H      48.213000     26.373000     51.870000
  C      46.513000     25.142000     51.625000
  H      45.824000     25.985000     51.527000
  C      45.896000     23.774000     51.542000
  H      45.266000     23.630000     52.441000
  O      45.077000     23.681000     50.377000
  H      44.141000     23.433000     50.632000
  C      50.148000     24.515000     51.296000
  O      51.030000     23.616000     51.293000
  O      50.247000     25.626000     50.732000
24
Coordinates from ORCA-job neb_MEP_ALL.QMRegion E -1076.356373477625
  C      49.040000     24.209000     54.467000
  H      49.766000     23.472000     54.125000
  H      49.396000     25.142000     54.903000
  C      47.723000     24.016000     54.354000
  C      46.711000     25.020000     54.873000
  O      47.091000     26.215000     55.027000
  O      45.563000     24.591000     55.133000
  O      47.197000     22.866000     53.798000
  C      47.053000     22.831000     52.334000
  H      46.659000     21.825000     52.135000
  C      48.409000     23.007000     51.724000
  H      49.123000     22.186000     51.795000
  C      48.806000     24.204000     51.255000
  C      47.873000     25.339000     51.259000
  H      48.301000     26.312000     51.008000
  C      46.579000     25.198000     51.589000
  H      45.913000     26.064000     51.631000
  C      45.982000     23.839000     51.855000
  H      45.244000     23.917000     52.668000
  O      45.358000     23.362000     50.662000
  H      44.380000     23.230000     50.816000
  C      50.237000     24.468000     50.805000
  O      51.139000     23.629000     51.081000
  O      50.411000     25.556000     50.208000
24
Coordinates from ORCA-job neb_MEP_ALL.QMRegion E -1076.359357654878
  C      49.047584     24.207204     54.419559
  H      49.770649     23.477612     54.057492
  H      49.406411     25.146982     54.837576
  C      47.728202     24.005185     54.335983
  C      46.722657     25.010012     54.867124
  O      47.104828     26.204038     55.021444
  O      45.575368     24.581583     55.133000
  O      47.197360     22.854419     53.790697
  C      47.041842     22.811368     52.324773
  H      46.647764     21.804351     52.134901
  C      48.392727     22.991422     51.707734
  H      49.106464     22.167809     51.758096
  C      48.794436     24.200741     51.273867
  C      47.859488     25.334146     51.299063
  H      48.286933     26.314136     51.081288
  C      46.561570     25.182981     51.612619
  H      45.892533     26.045836     51.663599
  C      45.967854     23.818962     51.852357
  H      45.227027     23.885517     52.663112
  O      45.350368     23.352917     50.651797
  H      44.372025     23.223213     50.802209
  C      50.227399     24.479248     50.844621
  O      51.127674     23.629304     51.090094
  O      50.404915     25.591766     50.295353
24
Coordinates from ORCA-job neb_MEP_ALL.QMRegion E -1076.362017686951
  C      49.055359     24.207638     54.370295
  H      49.775982     23.484194     53.990244
  H      49.416736     25.155133     54.769148
  C      47.735557     23.996163     54.316047
  C      46.734951     25.000087     54.858177
  O      47.120302     26.192653     55.015245
  O      45.589522     24.572231     55.132410
  O      47.199240     22.842935     53.779537
  C      47.030960     22.790606     52.315013
  H      46.638764     21.781190     52.133081
  C      48.377231     22.976927     51.689472
  H      49.091254     22.152528     51.721471
  C      48.780726     24.198037     51.291750
  C      47.843550     25.329219     51.340448
  H      48.271877     26.315688     51.159032
  C      46.542580     25.166804     51.634753
  H      45.868838     26.025232     51.697683
  C      45.953163     23.796472     51.848954
  H      45.210274     23.849993     52.658939
  O      45.340508     23.341498     50.641160
  H      44.360920     23.215893     50.789188
  C      50.216916     24.490441     50.886223
  O      51.115657     23.630091     51.099561
  O      50.397139     25.627170     50.390205
24
Coordinates from ORCA-job neb_MEP_ALL.QMRegion E -1076.365575276591
  C      49.070564     24.211623     54.289729
  H      49.789431     23.491130     53.902232
  H      49.433111     25.177694     54.636841
  C      47.751775     23.981062     54.287571
  C      46.758851     24.985997     54.843835
  O      47.146490     26.177605     55.001628
  O      45.613970     24.562035     55.127860
  O      47.209705     22.822192     53.768532
  C      47.017384     22.758152     52.286084
  H      46.631194     21.743514     52.119908
  C      48.356372     22.958349     51.662579
  H      49.072083     22.135708     51.664947
  C      48.763594     24.198773     51.336939
  C      47.821660     25.324737     51.414412
  H      48.248509     26.319990     51.288319
  C      46.514665     25.142788     51.662990
  H      45.831086     25.992154     51.730086
  C      45.933191     23.764367     51.836726
  H      45.192400     23.793945     52.648535
  O      45.318292     23.337387     50.620433
  H      44.337159     23.214338     50.767770
  C      50.202892     24.505670     50.959278
  O      51.098733     23.631812     51.125543
  O      50.387405     25.666400     50.526740
24
Coordinates from ORCA-job neb_MEP_ALL.QMRegion E -1076.349396497217
  C      49.110019     24.245692     54.145961
  H      49.840477     23.506449     53.819974
  H      49.467937     25.267727     54.298336
  C      47.797904     23.951652     54.270822
  C      46.808214     24.972138     54.826345
  O      47.193848     26.167341     54.973662
  O      45.659415     24.563608     55.120452
  O      47.261530     22.776700     53.781248
  C      47.005379     22.697062     52.199211
  H      46.636993     21.665453     52.061469
  C      48.337991     22.937220     51.636063
  H      49.054961     22.118951     51.592436
  C      48.760884     24.212216     51.510859
  C      47.804267     25.328639     51.588728
  H      48.218147     26.337062     51.531244
  C      46.484097     25.110135     51.691263
  H      45.770600     25.937430     51.693147
  C      45.910819     23.722626     51.788961
  H      45.197065     23.691447     52.619415
  O      45.248227     23.400245     50.561040
  H      44.264828     23.256441     50.727068
  C      50.192046     24.522730     51.124068
  O      51.081835     23.634287     51.223845
  O      50.365245     25.682789     50.685408
24
Coordinates from ORCA-job neb_MEP_ALL.QMRegion E -1076.343818782443
  C      49.115547     24.261633     54.108662
  H      49.845061     23.500205     53.839908
  H      49.469205     25.271210     54.312453
  C      47.799130     23.942087     54.313715
  C      46.803648     24.981368     54.839796
  O      47.187091     26.178325     54.974624
  O      45.654220     24.570530     55.123511
  O      47.304702     22.781117     53.955356
  C      46.991847     22.684349     52.045043
  H      46.628590     21.654964     52.045095
  C      48.321296     22.927675     51.636210
  H      49.050267     22.119279     51.610345
  C      48.766746     24.223203     51.557755
  C      47.807019     25.332975     51.581558
  H      48.223259     26.338732     51.514312
  C      46.487132     25.112774     51.683502
  H      45.777780     25.942708     51.695087
  C      45.913920     23.726471     51.772770
  H      45.209763     23.693481     52.615084
  O      45.238832     23.407744     50.551373
  H      44.262180     23.256325     50.730688
  C      50.195933     24.524771     51.128708
  O      51.081775     23.633286     51.215051
  O      50.363593     25.678420     50.671023
24
Coordinates from ORCA-job neb_MEP_ALL.QMRegion E -1076.342514792002
  C      49.122569     24.273962     54.053623
  H      49.854143     23.496227     53.846535
  H      49.474910     25.280317     54.274663
  C      47.803856     23.932289     54.335173
  C      46.804890     24.983843     54.847004
  O      47.190231     26.180386     54.972650
  O      45.655714     24.573755     55.127242
  O      47.337511     22.775389     54.057246
  C      46.984363     22.670901     51.954992
  H      46.625412     21.644406     52.021777
  C      48.309726     22.920177     51.641958
  H      49.045411     22.117431     51.618328
  C      48.773048     24.233953     51.622137
  C      47.806546     25.336666     51.599172
  H      48.221354     26.342440     51.525911
  C      46.486563     25.110287     51.680230
  H      45.776077     25.939476     51.689288
  C      45.914046     23.722975     51.757152
  H      45.218244     23.682086     52.608380
  O      45.223381     23.422479     50.538798
  H      44.250813     23.259535     50.727761
  C      50.196380     24.527051     51.151973
  O      51.078715     23.631489     51.220891
  O      50.358314     25.674954     50.677451
24
Coordinates from ORCA-job neb_MEP_ALL.QMRegion E -1076.347333294948
  C      49.116507     24.288201     53.897843
  H      49.860698     23.494083     53.853232
  H      49.474802     25.273660     54.203395
  C      47.803491     23.923511     54.336251
  C      46.807237     24.984609     54.852671
  O      47.198215     26.177947     54.971022
  O      45.662139     24.572106     55.133892
  O      47.374042     22.767745     54.163660
  C      46.982579     22.659644     51.875847
  H      46.622536     21.636338     51.975056
  C      48.299729     22.913552     51.661657
  H      49.039648     22.113736     51.632073
  C      48.796681     24.252688     51.769367
  C      47.808352     25.342395     51.633453
  H      48.217121     26.349280     51.543377
  C      46.490253     25.106645     51.675084
  H      45.776429     25.934359     51.670502
  C      45.915343     23.718465     51.739305
  H      45.227204     23.669753     52.598374
  O      45.205757     23.442260     50.523918
  H      44.237762     23.265123     50.723606
  C      50.197298     24.530880     51.187494
  O      51.074932     23.629120     51.228982
  O      50.346711     25.667626     50.684137
24
Coordinates from ORCA-job neb_MEP_ALL.QMRegion E -1076.360386932313
  C      49.101727     24.298918     53.696264
  H      49.838770     23.498003     53.862161
  H      49.460073     25.258404     54.121264
  C      47.795327     23.936280     54.312630
  C      46.798862     24.995266     54.856556
  O      47.193828     26.182210     54.971917
  O      45.650261     24.582522     55.131167
  O      47.379013     22.766557     54.246236
  C      46.994746     22.652087     51.835338
  H      46.632258     21.629877     51.974594
  C      48.302308     22.911780     51.696793
  H      49.046096     22.112306     51.657475
  C      48.837409     24.278109     51.950748
  C      47.816438     25.345741     51.657061
  H      48.218038     26.353224     51.527627
  C      46.501261     25.102627     51.672029
  H      45.780100     25.928250     51.644151
  C      45.924032     23.711687     51.746671
  H      45.235617     23.666341     52.609237
  O      45.209922     23.439432     50.534553
  H      44.244898     23.257614     50.734190
  C      50.203946     24.537111     51.223918
  O      51.078013     23.630810     51.233951
  O      50.341432     25.654680     50.677814
24
Coordinates from ORCA-job neb_MEP_ALL.QMRegion E -1076.390687122225
  C      49.140000     24.255000     53.626000
  H      49.929000     23.514000     53.810000
  H      49.475000     25.253000     53.933000
  C      47.916000     23.844000     54.405000
  C      46.901000     24.915000     54.918000
  O      47.281000     26.113000     54.975000
  O      45.777000     24.489000     55.249000
  O      47.664000     22.669000     54.584000
  C      46.944000     22.696000     51.508000
  H      46.572000     21.689000     51.317000
  C      48.246000     22.912000     51.708000
  H      48.965000     22.091000     51.697000
  C      48.810000     24.255000     52.076000
  C      47.815000     25.359000     51.825000
  H      48.213000     26.373000     51.870000
  C      46.513000     25.142000     51.625000
  H      45.824000     25.985000     51.527000
  C      45.896000     23.774000     51.542000
  H      45.266000     23.630000     52.441000
  O      45.077000     23.681000     50.377000
  H      44.141000     23.433000     50.632000
  C      50.148000     24.515000     51.296000
  O      51.030000     23.616000     51.293000
  O      50.247000     25.626000     50.732000
24
Coordinates from ORCA-job neb_MEP_ALL.QMRegion E -1076.356373477625
  C      49.040000     24.209000     54.467000
  H      49.766000     23.472000     54.125000
  H      49.396000     25.142000     54.903000
  C      47.723000     24.016000     54.354000
  C      46.711000     25.020000     54.873000
  O      47.091000     26.215000     55.027000
  O      45.563000     24.591000     55.133000
  O      47.197000     22.866000     53.798000
  C      47.053000     22.831000     52.334000
  H      46.659000     21.825000     52.135000
  C      48.409000     23.007000     51.724000
  H      49.123000     22.186000     51.795000
  C      48.806000     24.204000     51.255000
  C      47.873000     25.339000     51.259000
  H      48.301000     26.312000     51.008000
  C      46.579000     25.198000     51.589000
  H      45.913000     26.064000     51.631000
  C      45.982000     23.839000     51.855000
  H      45.244000     23.917000     52.668000
  O      45.358000     23.362000     50.662000
  H      44.380000     23.230000     50.816000
  C      50.237000     24.468000     50.805000
  O      51.139000     23.629000     51.081000
  O      50.411000     25.556000     50.208000
24
Coordinates from ORCA-job neb_MEP_ALL.QMRegion E -1076.359512454522
  C      49.046517     24.206829     54.419860
  H      49.770873     23.477152     54.057812
  H      49.406765     25.147552     54.838451
  C      47.728569     24.003467     54.334902
  C      46.722581     25.009784     54.867864
  O      47.104740     26.204667     55.021464
  O      45.575121     24.581708     55.132974
  O      47.197757     22.855225     53.790806
  C      47.041484     22.811666     52.325198
  H      46.647772     21.804304     52.134834
  C      48.392709     22.991709     51.707893
  H      49.106828     22.167400     51.758222
  C      48.793851     24.201323     51.273449
  C      47.859395     25.334453     51.299030
  H      48.286779     26.313739     51.080831
  C      46.561685     25.182957     51.612270
  H      45.892750     26.045743     51.663508
  C      45.967894     23.818878     51.852516
  H      45.227162     23.885496     52.662914
  O      45.350434     23.353114     50.652060
  H      44.372074     23.223245     50.802150
  C      50.227213     24.478949     50.844520
  O      51.127891     23.629556     51.089751
  O      50.405253     25.591547     50.295318
24
Coordinates from ORCA-job neb_MEP_ALL.QMRegion E -1076.362209678914
  C      49.054755     24.207168     54.370717
  H      49.775783     23.484152     53.990843
  H      49.416735     25.154811     54.769913
  C      47.736258     23.995267     54.314445
  C      46.735639     24.999134     54.859647
  O      47.119724     26.192976     55.015069
  O      45.589332     24.572803     55.132239
  O      47.199620     22.843264     53.781304
  C      47.031203     22.790713     52.312802
  H      46.638902     21.781506     52.133215
  C      48.376936     22.976523     51.690212
  H      49.091103     22.152781     51.721421
  C      48.779584     24.197564     51.291357
  C      47.842968     25.329292     51.340505
  H      48.271789     26.315867     51.158354
  C      46.542168     25.166404     51.634528
  H      45.869150     26.024917     51.697669
  C      45.952844     23.796261     51.848711
  H      45.210243     23.849863     52.658455
  O      45.340585     23.341876     50.642537
  H      44.361323     23.215910     50.788840
  C      50.216614     24.490271     50.886327
  O      51.115784     23.630594     51.098882
  O      50.398064     25.627165     50.390410
24
Coordinates from ORCA-job neb_MEP_ALL.QMRegion E -1076.365564007752
  C      49.072543     24.212567     54.282117
  H      49.792032     23.491927     53.897581
  H      49.434995     25.182406     54.619483
  C      47.754713     23.979506     54.284734
  C      46.762109     24.983853     54.843733
  O      47.148570     26.177062     54.999925
  O      45.616832     24.562654     55.127180
  O      47.211614     22.819210     53.767778
  C      47.017459     22.754631     52.281638
  H      46.631675     21.739896     52.117183
  C      48.354793     22.955780     51.661797
  H      49.070604     22.135295     51.660431
  C      48.762688     24.198891     51.344945
  C      47.820409     25.324718     51.423731
  H      48.246741     26.321649     51.301282
  C      46.512031     25.140384     51.664800
  H      45.827442     25.988959     51.728399
  C      45.931356     23.761325     51.834010
  H      45.192019     23.788135     52.646769
  O      45.314645     23.340680     50.618361
  H      44.333861     23.216638     50.765163
  C      50.202173     24.506102     50.968668
  O      51.097565     23.632328     51.130172
  O      50.387198     25.668596     50.536095
24
Coordinates from ORCA-job neb_MEP_ALL.QMRegion E -1076.353263883562
  C      49.107494     24.238897     54.156196
  H      49.838088     23.507537     53.816071
  H      49.464770     25.262985     54.307293
  C      47.793796     23.953085     54.255763
  C      46.807460     24.970103     54.822642
  O      47.194716     26.164099     54.974209
  O      45.660381     24.560188     55.119610
  O      47.249901     22.781812     53.746966
  C      47.009594     22.701476     52.231460
  H      46.640009     21.673436     52.069387
  C      48.339617     22.937131     51.638199
  H      49.056819     22.119616     51.588937
  C      48.759416     24.210666     51.491616
  C      47.803675     25.326470     51.584944
  H      48.217570     26.335515     51.532250
  C      46.483384     25.109328     51.694255
  H      45.770539     25.936956     51.695277
  C      45.910542     23.721771     51.796004
  H      45.191476     23.694579     52.622134
  O      45.254221     23.394003     50.567933
  H      44.270239     23.255650     50.728186
  C      50.191366     24.521228     51.117068
  O      51.082609     23.635393     51.224171
  O      50.367826     25.685361     50.687215
24
Coordinates from ORCA-job neb_MEP_ALL.QMRegion E -1076.343831932156
  C      49.114619     24.259754     54.116174
  H      49.844104     23.500566     53.838961
  H      49.468521     25.270391     54.317544
  C      47.798560     23.943120     54.310960
  C      46.803661     24.980885     54.838824
  O      47.186703     26.177882     54.975010
  O      45.654061     24.570104     55.123217
  O      47.300106     22.781325     53.941662
  C      46.993102     22.685911     52.057128
  H      46.629041     21.656281     52.048197
  C      48.322841     22.928417     51.635557
  H      49.050670     22.119500     51.609335
  C      48.765517     24.221853     51.549154
  C      47.806697     25.332390     51.579954
  H      48.223240     26.338094     51.513227
  C      46.487296     25.113043     51.684030
  H      45.777910     25.942762     51.696225
  C      45.913674     23.726716     51.774780
  H      45.208361     23.694526     52.616219
  O      45.240748     23.405654     50.553279
  H      44.263759     23.255726     50.731118
  C      50.196083     24.524090     51.126314
  O      51.082024     23.633336     51.214391
  O      50.364052     25.679227     50.670572
24
Coordinates from ORCA-job neb_MEP_ALL.QMRegion E -1076.342532461508
  C      49.122576     24.273888     54.054210
  H      49.854301     23.496371     53.846775
  H      49.474811     25.280217     54.275170
  C      47.803920     23.932234     54.335200
  C      46.804924     24.983710     54.847063
  O      47.190281     26.180358     54.972618
  O      45.655801     24.573693     55.127200
  O      47.337537     22.775416     54.056787
  C      46.984349     22.670879     51.955236
  H      46.625430     21.644340     52.021629
  C      48.309710     22.920224     51.642120
  H      49.045398     22.117433     51.618258
  C      48.772973     24.233846     51.621730
  C      47.806522     25.336569     51.599101
  H      48.221148     26.342349     51.525934
  C      46.486570     25.110280     51.680317
  H      45.775901     25.939374     51.689376
  C      45.913967     23.722907     51.757155
  H      45.218106     23.681852     52.608365
  O      45.223268     23.422427     50.538780
  H      44.250804     23.259544     50.727683
  C      50.196312     24.526966     51.151790
  O      51.078616     23.631440     51.220895
  O      50.358290     25.675068     50.677472
24
Coordinates from ORCA-job neb_MEP_ALL.QMRegion E -1076.347771185932
  C      49.119088     24.288566     53.894921
  H      49.859873     23.493678     53.853927
  H      49.474251     25.274446     54.202174
  C      47.805533     23.921272     54.334927
  C      46.805949     24.985295     54.853141
  O      47.199286     26.178576     54.970955
  O      45.660204     24.571429     55.134519
  O      47.373445     22.768213     54.165531
  C      46.982403     22.659189     51.871246
  H      46.622663     21.635845     51.974885
  C      48.300121     22.913281     51.664350
  H      49.039275     22.114209     51.632408
  C      48.796088     24.252920     51.770994
  C      47.807821     25.342617     51.633852
  H      48.217154     26.349535     51.543496
  C      46.489899     25.106717     51.674903
  H      45.776804     25.933833     51.669903
  C      45.914644     23.718993     51.739191
  H      45.226403     23.669574     52.598325
  O      45.206376     23.442127     50.526786
  H      44.238868     23.265447     50.723092
  C      50.197711     24.531002     51.190151
  O      51.075030     23.629500     51.228199
  O      50.346813     25.666960     50.683332
24
Coordinates from ORCA-job neb_MEP_ALL.QMRegion E -1076.361211517210
  C      49.097094     24.297627     53.690956
  H      49.838807     23.500297     53.860123
  H      49.459201     25.255276     54.109329
  C      47.784015     23.916753     54.310855
  C      46.797259     24.993477     54.855069
  O      47.198000     26.184429     54.973471
  O      45.656729     24.580292     55.132366
  O      47.394446     22.785305     54.258409
  C      46.992516     22.651574     51.830190
  H      46.632738     21.631260     51.963763
  C      48.306741     22.913035     51.702194
  H      49.044092     22.112818     51.659264
  C      48.835381     24.277759     51.953213
  C      47.818341     25.347992     51.667426
  H      48.216785     26.353589     51.531437
  C      46.501172     25.101849     51.672527
  H      45.782468     25.925976     51.640884
  C      45.925163     23.711945     51.743636
  H      45.236820     23.664411     52.606909
  O      45.207395     23.443353     50.533021
  H      44.242376     23.259069     50.732842
  C      50.206881     24.537248     51.228755
  O      51.077108     23.628585     51.235778
  O      50.336974     25.655564     50.678911
24
Coordinates from ORCA-job neb_MEP_ALL.QMRegion E -1076.390687122225
  C      49.140000     24.255000     53.626000
  H      49.929000     23.514000     53.810000
  H      49.475000     25.253000     53.933000
  C      47.916000     23.844000     54.405000
  C      46.901000     24.915000     54.918000
  O      47.281000     26.113000     54.975000
  O      45.777000     24.489000     55.249000
  O      47.664000     22.669000     54.584000
  C      46.944000     22.696000     51.508000
  H      46.572000     21.689000     51.317000
  C      48.246000     22.912000     51.708000
  H      48.965000     22.091000     51.697000
  C      48.810000     24.255000     52.076000
  C      47.815000     25.359000     51.825000
  H      48.213000     26.373000     51.870000
  C      46.513000     25.142000     51.625000
  H      45.824000     25.985000     51.527000
  C      45.896000     23.774000     51.542000
  H      45.266000     23.630000     52.441000
  O      45.077000     23.681000     50.377000
  H      44.141000     23.433000     50.632000
  C      50.148000     24.515000     51.296000
  O      51.030000     23.616000     51.293000
  O      50.247000     25.626000     50.732000
24
Coordinates from ORCA-job neb_MEP_ALL.QMRegion E -1076.356373477625
  C      49.040000     24.209000     54.467000
  H      49.766000     23.472000     54.125000
  H      49.396000     25.142000     54.903000
  C      47.723000     24.016000     54.354000
  C      46.711000     25.020000     54.873000
  O      47.091000     26.215000     55.027000
  O      45.563000     24.591000     55.133000
  O      47.197000     22.866000     53.798000
  C      47.053000     22.831000     52.334000
  H      46.659000     21.825000     52.135000
  C      48.409000     23.007000     51.724000
  H      49.123000     22.186000     51.795000
  C      48.806000     24.204000     51.255000
  C      47.873000     25.339000     51.259000
  H      48.301000     26.312000     51.008000
  C      46.579000     25.198000     51.589000
  H      45.913000     26.064000     51.631000
  C      45.982000     23.839000     51.855000
  H      45.244000     23.917000     52.668000
  O      45.358000     23.362000     50.662000
  H      44.380000     23.230000     50.816000
  C      50.237000     24.468000     50.805000
  O      51.139000     23.629000     51.081000
  O      50.411000     25.556000     50.208000
24
Coordinates from ORCA-job neb_MEP_ALL.QMRegion E -1076.359516705901
  C      49.047129     24.207051     54.420176
  H      49.770858     23.477081     54.058078
  H      49.406506     25.147086     54.838600
  C      47.728537     24.004919     54.335642
  C      46.722733     25.009686     54.867871
  O      47.104500     26.204180     55.021453
  O      45.575326     24.581932     55.132987
  O      47.197170     22.854017     53.790070
  C      47.041566     22.811523     52.325153
  H      46.647838     21.804461     52.134951
  C      48.392850     22.991684     51.707953
  H      49.106734     22.167549     51.758271
  C      48.793741     24.201187     51.273365
  C      47.859278     25.334377     51.298969
  H      48.286812     26.313852     51.080519
  C      46.561541     25.182883     51.612211
  H      45.892840     26.045708     51.663455
  C      45.967977     23.819122     51.852482
  H      45.227119     23.885524     52.662936
  O      45.350456     23.353140     50.652159
  H      44.372108     23.223268     50.802134
  C      50.227133     24.478963     50.844397
  O      51.127967     23.629508     51.089635
  O      50.405361     25.591528     50.295252
24
Coordinates from ORCA-job neb_MEP_ALL.QMRegion E -1076.362278513098
  C      49.055212     24.207249     54.370889
  H      49.775795     23.484057     53.991090
  H      49.416547     25.154372     54.770157
  C      47.736226     23.996225     54.314956
  C      46.735896     24.998971     54.859840
  O      47.119512     26.192625     55.015043
  O      45.589528     24.572945     55.132236
  O      47.199229     22.842302     53.780626
  C      47.031059     22.790596     52.312831
  H      46.638943     21.781512     52.133279
  C      48.376934     22.976550     51.690165
  H      49.091087     22.152757     51.721413
  C      48.779308     24.197581     51.291204
  C      47.842786     25.329214     51.340446
  H      48.271667     26.315850     51.158091
  C      46.541984     25.166227     51.634461
  H      45.869139     26.024840     51.697707
  C      45.952978     23.796385     51.848848
  H      45.210187     23.849727     52.658375
  O      45.340603     23.341868     50.642552
  H      44.361281     23.215901     50.788772
  C      50.216430     24.490327     50.886285
  O      51.115840     23.630568     51.098650
  O      50.398230     25.627183     50.390667
24
Coordinates from ORCA-job neb_MEP_ALL.QMRegion E -1076.365548711135
  C      49.072983     24.212408     54.281294
  H      49.792554     23.491882     53.896727
  H      49.435237     25.183170     54.617277
  C      47.754786     23.979311     54.283771
  C      46.762809     24.983702     54.843510
  O      47.148952     26.176615     54.999672
  O      45.617324     24.562428     55.127101
  O      47.211173     22.818610     53.765351
  C      47.017169     22.754099     52.283126
  H      46.631871     21.739472     52.117056
  C      48.354654     22.955855     51.661493
  H      49.070683     22.134810     51.659551
  C      48.762469     24.198972     51.345376
  C      47.820164     25.324691     51.425089
  H      48.246317     26.321767     51.303366
  C      46.511644     25.139827     51.665191
  H      45.826606     25.988438     51.728158
  C      45.931237     23.760813     51.834270
  H      45.191704     23.787143     52.646598
  O      45.314321     23.340882     50.617862
  H      44.333352     23.217034     50.764802
  C      50.201828     24.506618     50.969768
  O      51.097589     23.632221     51.130942
  O      50.387234     25.668744     50.538050
24
Coordinates from ORCA-job neb_MEP_ALL.QMRegion E -1076.355636498891
  C      49.106354     24.237179     54.157321
  H      49.837362     23.507199     53.815763
  H      49.462752     25.259966     54.314237
  C      47.792162     23.954444     54.252391
  C      46.806572     24.969906     54.821383
  O      47.194527     26.163237     54.974526
  O      45.660138     24.558905     55.119475
  O      47.247879     22.784546     53.749693
  C      47.009574     22.702813     52.229322
  H      46.640757     21.676810     52.072221
  C      48.339277     22.937305     51.638791
  H      49.057412     22.119906     51.588760
  C      48.758705     24.209833     51.486026
  C      47.803659     25.325873     51.581452
  H      48.217727     26.334799     51.530775
  C      46.483415     25.109028     51.695041
  H      45.771171     25.937461     51.696821
  C      45.911084     23.721758     51.798611
  H      45.189595     23.696714     52.623189
  O      45.256835     23.391003     50.570286
  H      44.272961     23.255079     50.729297
  C      50.191291     24.521372     51.112982
  O      51.083130     23.635761     51.223176
  O      50.369129     25.686096     50.686677
24
Coordinates from ORCA-job neb_MEP_ALL.QMRegion E -1076.344442377851
  C      49.114138     24.258505     54.120751
  H      49.843347     23.500942     53.838438
  H      49.467994     25.269630     54.320817
  C      47.798267     23.943932     54.309119
  C      46.803544     24.980564     54.838275
  O      47.186518     26.177590     54.975227
  O      45.653971     24.569775     55.123004
  O      47.297112     22.781445     53.932651
  C      46.993626     22.687087     52.065341
  H      46.629338     21.657124     52.050160
  C      48.323863     22.929072     51.635072
  H      49.051063     22.119538     51.608691
  C      48.765013     24.220925     51.543825
  C      47.806694     25.331975     51.578765
  H      48.223280     26.337767     51.512533
  C      46.487174     25.113003     51.684420
  H      45.777931     25.942932     51.696949
  C      45.913629     23.726799     51.776300
  H      45.207591     23.695250     52.616822
  O      45.242066     23.404319     50.554385
  H      44.264680     23.255332     50.731431
  C      50.195880     24.523993     51.124496
  O      51.082251     23.633391     51.214000
  O      50.364431     25.679429     50.670431
24
Coordinates from ORCA-job neb_MEP_ALL.QMRegion E -1076.342530936368
  C      49.122584     24.273852     54.054531
  H      49.854398     23.496433     53.846901
  H      49.474768     25.280194     54.275452
  C      47.803953     23.932198     54.335219
  C      46.804986     24.983681     54.847075
  O      47.190295     26.180318     54.972607
  O      45.655813     24.573649     55.127194
  O      47.337538     22.775403     54.056567
  C      46.984332     22.670877     51.955359
  H      46.625435     21.644290     52.021546
  C      48.309724     22.920236     51.642166
  H      49.045387     22.117435     51.618229
  C      48.772927     24.233794     51.621521
  C      47.806495     25.336503     51.599072
  H      48.221059     26.342335     51.525947
  C      46.486513     25.110221     51.680362
  H      45.775821     25.939315     51.689428
  C      45.913913     23.722889     51.757179
  H      45.218052     23.681727     52.608334
  O      45.223280     23.422411     50.538752
  H      44.250744     23.259545     50.727650
  C      50.196261     24.526966     51.151705
  O      51.078578     23.631411     51.220883
  O      50.358281     25.675082     50.677494
24
Coordinates from ORCA-job neb_MEP_ALL.QMRegion E -1076.347978346033
  C      49.118976     24.288380     53.894505
  H      49.860289     23.493002     53.854133
  H      49.474204     25.275158     54.202233
  C      47.805054     23.921652     54.335052
  C      46.806080     24.984897     54.852997
  O      47.198994     26.178195     54.971037
  O      45.660370     24.571826     55.134576
  O      47.373389     22.768190     54.165505
  C      46.982055     22.659221     51.870346
  H      46.622782     21.635782     51.974938
  C      48.299772     22.913295     51.664882
  H      49.039528     22.114089     51.632582
  C      48.796368     24.253296     51.771201
  C      47.807724     25.342771     51.633728
  H      48.217111     26.349419     51.543427
  C      46.489864     25.106661     51.674893
  H      45.776689     25.933952     51.669733
  C      45.914970     23.718717     51.739881
  H      45.226093     23.669576     52.598468
  O      45.206708     23.441958     50.526916
  H      44.239008     23.265469     50.723173
  C      50.197646     24.531170     51.190309
  O      51.075170     23.629481     51.228108
  O      50.346811     25.666643     50.683235
24
Coordinates from ORCA-job neb_MEP_ALL.QMRegion E -1076.362669017447
  C      49.095952     24.296492     53.687307
  H      49.838134     23.501685     53.859067
  H      49.458397     25.254211     54.103422
  C      47.788299     23.928448     54.310260
  C      46.799372     24.995194     54.854471
  O      47.199045     26.182967     54.973858
  O      45.656488     24.578846     55.133830
  O      47.393564     22.772938     54.264474
  C      46.994150     22.652504     51.826928
  H      46.632690     21.631086     51.958193
  C      48.304705     22.912660     51.704176
  H      49.043936     22.112546     51.660418
  C      48.836909     24.278627     51.956768
  C      47.817809     25.348241     51.671332
  H      48.216484     26.354288     51.533807
  C      46.502305     25.101406     51.672974
  H      45.783127     25.925410     51.639161
  C      45.925242     23.711850     51.742274
  H      45.237506     23.663438     52.605616
  O      45.206012     23.445381     50.532059
  H      44.241259     23.259951     50.732215
  C      50.206018     24.537638     51.230485
  O      51.077010     23.628296     51.236654
  O      50.335853     25.655047     50.680010
24
Coordinates from ORCA-job neb_MEP_ALL.QMRegion E -1076.390687122225
  C      49.140000     24.255000     53.626000
  H      49.929000     23.514000     53.810000
  H      49.475000     25.253000     53.933000
  C      47.916000     23.844000     54.405000
  C      46.901000     24.915000     54.918000
  O      47.281000     26.113000     54.975000
  O      45.777000     24.489000     55.249000
  O      47.664000     22.669000     54.584000
  C      46.944000     22.696000     51.508000
  H      46.572000     21.689000     51.317000
  C      48.246000     22.912000     51.708000
  H      48.965000     22.091000     51.697000
  C      48.810000     24.255000     52.076000
  C      47.815000     25.359000     51.825000
  H      48.213000     26.373000     51.870000
  C      46.513000     25.142000     51.625000
  H      45.824000     25.985000     51.527000
  C      45.896000     23.774000     51.542000
  H      45.266000     23.630000     52.441000
  O      45.077000     23.681000     50.377000
  H      44.141000     23.433000     50.632000
  C      50.148000     24.515000     51.296000
  O      51.030000     23.616000     51.293000
  O      50.247000     25.626000     50.732000
24
Coordinates from ORCA-job neb_MEP_ALL.QMRegion E -1076.356373477625
  C      49.040000     24.209000     54.467000
  H      49.766000     23.472000     54.125000
  H      49.396000     25.142000     54.903000
  C      47.723000     24.016000     54.354000
  C      46.711000     25.020000     54.873000
  O      47.091000     26.215000     55.027000
  O      45.563000     24.591000     55.133000
  O      47.197000     22.866000     53.798000
  C      47.053000     22.831000     52.334000
  H      46.659000     21.825000     52.135000
  C      48.409000     23.007000     51.724000
  H      49.123000     22.186000     51.795000
  C      48.806000     24.204000     51.255000
  C      47.873000     25.339000     51.259000
  H      48.301000     26.312000     51.008000
  C      46.579000     25.198000     51.589000
  H      45.913000     26.064000     51.631000
  C      45.982000     23.839000     51.855000
  H      45.244000     23.917000     52.668000
  O      45.358000     23.362000     50.662000
  H      44.380000     23.230000     50.816000
  C      50.237000     24.468000     50.805000
  O      51.139000     23.629000     51.081000
  O      50.411000     25.556000     50.208000
24
Coordinates from ORCA-job neb_MEP_ALL.QMRegion E -1076.359546286141
  C      49.047950     24.207325     54.420594
  H      49.770814     23.477023     54.058477
  H      49.406109     25.146355     54.838791
  C      47.728554     24.006989     54.336775
  C      46.722828     25.009525     54.867758
  O      47.104241     26.203495     55.021464
  O      45.575661     24.582195     55.133031
  O      47.196390     22.852425     53.789192
  C      47.041776     22.811296     52.324977
  H      46.647915     21.804680     52.135096
  C      48.393026     22.991576     51.708028
  H      49.106535     22.167864     51.758334
  C      48.793748     24.200870     51.273273
  C      47.859118     25.334216     51.298831
  H      48.286870     26.314081     51.080070
  C      46.561326     25.182807     51.612179
  H      45.892917     26.045696     51.663379
  C      45.968070     23.819446     51.852422
  H      45.227035     23.885585     52.663009
  O      45.350474     23.353146     50.652231
  H      44.372158     23.223304     50.802131
  C      50.227099     24.478986     50.844219
  O      51.127982     23.629403     51.089496
  O      50.405453     25.591566     50.295138
24
Coordinates from ORCA-job neb_MEP_ALL.QMRegion E -1076.362316971866
  C      49.055762     24.207360     54.371056
  H      49.775918     23.483844     53.991366
  H      49.416322     25.153830     54.770506
  C      47.736150     23.997461     54.315951
  C      46.735993     24.998894     54.859826
  O      47.119415     26.192154     55.015080
  O      45.589881     24.572956     55.132296
  O      47.198696     22.841051     53.779298
  C      47.030781     22.790402     52.313457
  H      46.638942     21.781383     52.133297
  C      48.376960     22.976665     51.689890
  H      49.091093     22.152659     51.721402
  C      48.779178     24.197733     51.291000
  C      47.842582     25.329094     51.340295
  H      48.271429     26.315736     51.157785
  C      46.541800     25.166084     51.634407
  H      45.869014     26.024773     51.697788
  C      45.953210     23.796541     51.849107
  H      45.210085     23.849509     52.658370
  O      45.340611     23.341763     50.642215
  H      44.361116     23.215885     50.788739
  C      50.216262     24.490352     50.886218
  O      51.115803     23.630437     51.098387
  O      50.398270     25.627302     50.391097
24
Coordinates from ORCA-job neb_MEP_ALL.QMRegion E -1076.365664322465
  C      49.072863     24.211720     54.282370
  H      49.792665     23.491509     53.896775
  H      49.435011     25.182887     54.619157
  C      47.754198     23.979401     54.282748
  C      46.762730     24.983753     54.843164
  O      47.149039     26.176184     54.999809
  O      45.617437     24.561883     55.127159
  O      47.209820     22.818696     53.761766
  C      47.016775     22.754387     52.286716
  H      46.632066     21.739918     52.117750
  C      48.354907     22.956471     51.661347
  H      49.071185     22.134253     51.659432
  C      48.762328     24.199101     51.343407
  C      47.820082     25.324613     51.424409
  H      48.246121     26.321497     51.302785
  C      46.511731     25.139686     51.665349
  H      45.826319     25.988461     51.728260
  C      45.931522     23.760780     51.835498
  H      45.191165     23.787281     52.646909
  O      45.314970     23.340166     50.617857
  H      44.333630     23.217018     50.764983
  C      50.201691     24.506735     50.968804
  O      51.097751     23.632139     51.130724
  O      50.387494     25.668717     50.538382
24
Coordinates from ORCA-job neb_MEP_ALL.QMRegion E -1076.356382661047
  C      49.105077     24.236312     54.156219
  H      49.836707     23.506091     53.816611
  H      49.460013     25.255915     54.325080
  C      47.790438     23.956509     54.251765
  C      46.805122     24.970318     54.820359
  O      47.193680     26.163019     54.975000
  O      45.659275     24.557751     55.119469
  O      47.247762     22.787611     53.765434
  C      47.008212     22.704378     52.215784
  H      46.640853     21.679827     52.074823
  C      48.338394     22.937223     51.638719
  H      49.057718     22.120397     51.589759
  C      48.758000     24.209230     51.481597
  C      47.803653     25.325362     51.575846
  H      48.218287     26.333951     51.527229
  C      46.483868     25.109030     51.695434
  H      45.772527     25.938557     51.699241
  C      45.911947     23.722222     51.800823
  H      45.188088     23.699764     52.624322
  O      45.259831     23.387302     50.572441
  H      44.276401     23.254157     50.731124
  C      50.191635     24.521581     51.107706
  O      51.083605     23.636306     51.220839
  O      50.370653     25.686840     50.684673
24
Coordinates from ORCA-job neb_MEP_ALL.QMRegion E -1076.345176222261
  C      49.113598     24.257020     54.125740
  H      49.842448     23.501449     53.837868
  H      49.467314     25.268599     54.324618
  C      47.797963     23.944921     54.306856
  C      46.803383     24.980189     54.837676
  O      47.186363     26.177184     54.975443
  O      45.653873     24.569335     55.122752
  O      47.293568     22.781529     53.921812
  C      46.994199     22.688505     52.075502
  H      46.629709     21.658177     52.052341
  C      48.325033     22.929852     51.634511
  H      49.051556     22.119534     51.607932
  C      48.764570     24.219876     51.537849
  C      47.806648     25.331447     51.577363
  H      48.223298     26.337424     51.511807
  C      46.487004     25.112871     51.684917
  H      45.777896     25.943142     51.697838
  C      45.913583     23.726798     51.778109
  H      45.206705     23.696042     52.617473
  O      45.243573     23.402753     50.555638
  H      44.265743     23.254852     50.731788
  C      50.195564     24.523794     51.122316
  O      51.082430     23.633559     51.213563
  O      50.364925     25.679702     50.670386
24
Coordinates from ORCA-job neb_MEP_ALL.QMRegion E -1076.342543201814
  C      49.122620     24.273792     54.055023
  H      49.854532     23.496521     53.847079
  H      49.474713     25.280181     54.275879
  C      47.803996     23.932155     54.335250
  C      46.805056     24.983631     54.847082
  O      47.190315     26.180264     54.972598
  O      45.655839     24.573591     55.127188
  O      47.337515     22.775357     54.056241
  C      46.984302     22.670876     51.955557
  H      46.625442     21.644222     52.021439
  C      48.309755     22.920242     51.642193
  H      49.045372     22.117435     51.618191
  C      48.772853     24.233726     51.621197
  C      47.806425     25.336411     51.599031
  H      48.220943     26.342320     51.525962
  C      46.486412     25.110125     51.680427
  H      45.775717     25.939227     51.689511
  C      45.913845     23.722858     51.757222
  H      45.217975     23.681555     52.608291
  O      45.223264     23.422380     50.538714
  H      44.250684     23.259547     50.727601
  C      50.196196     24.526957     51.151595
  O      51.078518     23.631386     51.220853
  O      50.358277     25.675094     50.677523
24
Coordinates from ORCA-job neb_MEP_ALL.QMRegion E -1076.348039154370
  C      49.118297     24.288120     53.894828
  H      49.861077     23.492046     53.854354
  H      49.474172     25.275953     54.202683
  C      47.803785     23.922517     54.335464
  C      46.806601     24.984202     54.852668
  O      47.198304     26.177450     54.971178
  O      45.660979     24.572529     55.134521
  O      47.373432     22.768272     54.164875
  C      46.981579     22.659282     51.870235
  H      46.622959     21.635818     51.975107
  C      48.299349     22.913410     51.664999
  H      49.039947     22.113878     51.632820
  C      48.796803     24.253719     51.771070
  C      47.807721     25.342899     51.633354
  H      48.217032     26.349217     51.543216
  C      46.489858     25.106569     51.674979
  H      45.776404     25.934245     51.669608
  C      45.915563     23.718228     51.740967
  H      45.225741     23.669614     52.598792
  O      45.207053     23.441651     50.526481
  H      44.239080     23.265422     50.723448
  C      50.197571     24.531123     51.189853
  O      51.075286     23.629441     51.228160
  O      50.346816     25.666484     50.683173
24
Coordinates from ORCA-job neb_MEP_ALL.QMRegion E -1076.364819051845
  C      49.095647     24.295600     53.683108
  H      49.837005     23.503222     53.857657
  H      49.457466     25.253458     54.095927
  C      47.791098     23.932224     54.309557
  C      46.800730     24.996025     54.854017
  O      47.200451     26.181903     54.974451
  O      45.657112     24.577849     55.135605
  O      47.395603     22.766987     54.272397
  C      46.994615     22.653270     51.823089
  H      46.632665     21.630913     51.950474
  C      48.303287     22.912427     51.705832
  H      49.043743     22.112213     51.662047
  C      48.838844     24.279398     51.961449
  C      47.817560     25.348534     51.675467
  H      48.216102     26.355270     51.537456
  C      46.503204     25.100775     51.673701
  H      45.783808     25.924923     51.636916
  C      45.925187     23.711675     51.740430
  H      45.238467     23.662083     52.603836
  O      45.204232     23.448189     50.530601
  H      44.239813     23.261279     50.731378
  C      50.204352     24.537528     51.232312
  O      51.076533     23.628843     51.237823
  O      50.334939     25.654202     50.681675
24
Coordinates from ORCA-job neb_MEP_ALL.QMRegion E -1076.390687122225
  C      49.140000     24.255000     53.626000
  H      49.929000     23.514000     53.810000
  H      49.475000     25.253000     53.933000
  C      47.916000     23.844000     54.405000
  C      46.901000     24.915000     54.918000
  O      47.281000     26.113000     54.975000
  O      45.777000     24.489000     55.249000
  O      47.664000     22.669000     54.584000
  C      46.944000     22.696000     51.508000
  H      46.572000     21.689000     51.317000
  C      48.246000     22.912000     51.708000
  H      48.965000     22.091000     51.697000
  C      48.810000     24.255000     52.076000
  C      47.815000     25.359000     51.825000
  H      48.213000     26.373000     51.870000
  C      46.513000     25.142000     51.625000
  H      45.824000     25.985000     51.527000
  C      45.896000     23.774000     51.542000
  H      45.266000     23.630000     52.441000
  O      45.077000     23.681000     50.377000
  H      44.141000     23.433000     50.632000
  C      50.148000     24.515000     51.296000
  O      51.030000     23.616000     51.293000
  O      50.247000     25.626000     50.732000
24
Coordinates from ORCA-job neb_MEP_ALL.QMRegion E -1076.356373477625
  C      49.040000     24.209000     54.467000
  H      49.766000     23.472000     54.125000
  H      49.396000     25.142000     54.903000
  C      47.723000     24.016000     54.354000
  C      46.711000     25.020000     54.873000
  O      47.091000     26.215000     55.027000
  O      45.563000     24.591000     55.133000
  O      47.197000     22.866000     53.798000
  C      47.053000     22.831000     52.334000
  H      46.659000     21.825000     52.135000
  C      48.409000     23.007000     51.724000
  H      49.123000     22.186000     51.795000
  C      48.806000     24.204000     51.255000
  C      47.873000     25.339000     51.259000
  H      48.301000     26.312000     51.008000
  C      46.579000     25.198000     51.589000
  H      45.913000     26.064000     51.631000
  C      45.982000     23.839000     51.855000
  H      45.244000     23.917000     52.668000
  O      45.358000     23.362000     50.662000
  H      44.380000     23.230000     50.816000
  C      50.237000     24.468000     50.805000
  O      51.139000     23.629000     51.081000
  O      50.411000     25.556000     50.208000
24
Coordinates from ORCA-job neb_MEP_ALL.QMRegion E -1076.359552197446
  C      49.048308     24.207247     54.421193
  H      49.770806     23.476793     54.059245
  H      49.405826     25.145734     54.839589
  C      47.728638     24.007889     54.337427
  C      46.722794     25.009365     54.867786
  O      47.104090     26.203116     55.021561
  O      45.575776     24.582294     55.133171
  O      47.196026     22.851680     53.788831
  C      47.041990     22.811220     52.324803
  H      46.647954     21.804859     52.135124
  C      48.393132     22.991528     51.708159
  H      49.106424     22.168174     51.758482
  C      48.793782     24.200579     51.272968
  C      47.858954     25.334125     51.298470
  H      48.286839     26.314204     51.079225
  C      46.561156     25.182790     51.612051
  H      45.892999     26.045741     51.663229
  C      45.968127     23.819646     51.852427
  H      45.226974     23.885693     52.663067
  O      45.350521     23.353213     50.652286
  H      44.372233     23.223382     50.802140
  C      50.227114     24.478939     50.843888
  O      51.127939     23.629298     51.089180
  O      50.405601     25.591576     50.294959
24
Coordinates from ORCA-job neb_MEP_ALL.QMRegion E -1076.362361759270
  C      49.055984     24.207134     54.371341
  H      49.776161     23.483384     53.991927
  H      49.416175     25.153196     54.771474
  C      47.736151     23.997692     54.316627
  C      46.736035     24.998762     54.859987
  O      47.119457     26.191839     55.015205
  O      45.590175     24.572731     55.132479
  O      47.198497     22.840315     53.778174
  C      47.030481     22.790181     52.314175
  H      46.638863     21.781075     52.133192
  C      48.376852     22.976749     51.689510
  H      49.091068     22.152558     51.721360
  C      48.778962     24.197855     51.290538
  C      47.842162     25.328992     51.339935
  H      48.270905     26.315477     51.157125
  C      46.541499     25.165945     51.634338
  H      45.868765     26.024604     51.697943
  C      45.953309     23.796483     51.849360
  H      45.209871     23.849100     52.658338
  O      45.340612     23.341643     50.641823
  H      44.360941     23.215874     50.788631
  C      50.216078     24.490330     50.886112
  O      51.115586     23.630260     51.097818
  O      50.398372     25.627609     50.391960
24
Coordinates from ORCA-job neb_MEP_ALL.QMRegion E -1076.365745822163
  C      49.072392     24.210348     54.284354
  H      49.792801     23.490884     53.896952
  H      49.434392     25.181895     54.622766
  C      47.753392     23.979398     54.280444
  C      46.762449     24.983453     54.842451
  O      47.149292     26.175487     55.000089
  O      45.617685     24.560874     55.127298
  O      47.207718     22.819433     53.757238
  C      47.016499     22.755048     52.291225
  H      46.632402     21.740791     52.119073
  C      48.355304     22.956983     51.661349
  H      49.071756     22.133716     51.659153
  C      48.761929     24.198981     51.339725
  C      47.819800     25.324432     51.423010
  H      48.245726     26.321131     51.301648
  C      46.511704     25.139569     51.665797
  H      45.825875     25.988278     51.728468
  C      45.931719     23.760534     51.837277
  H      45.189945     23.787572     52.647565
  O      45.316205     23.338832     50.618443
  H      44.334448     23.217025     50.765243
  C      50.201702     24.506524     50.967064
  O      51.097804     23.632186     51.130245
  O      50.388127     25.669072     50.538991
24
Coordinates from ORCA-job neb_MEP_ALL.QMRegion E -1076.356745325148
  C      49.102883     24.235140     54.154972
  H      49.835270     23.503858     53.818452
  H      49.455334     25.249069     54.346138
  C      47.787565     23.959960     54.252737
  C      46.802476     24.971501     54.819079
  O      47.191557     26.163535     54.975974
  O      45.657562     24.556181     55.119328
  O      47.246783     22.791650     53.788997
  C      47.006167     22.707859     52.197128
  H      46.640185     21.683433     52.079146
  C      48.337534     22.936918     51.637211
  H      49.057940     22.121385     51.591966
  C      48.757182     24.208647     51.472982
  C      47.803517     25.324462     51.565238
  H      48.219425     26.332357     51.519743
  C      46.484750     25.109728     51.695812
  H      45.775269     25.940519     51.704143
  C      45.912789     23.723793     51.803788
  H      45.186035     23.705263     52.626392
  O      45.265210     23.380492     50.576139
  H      44.282654     23.252190     50.734597
  C      50.192450     24.521703     51.098483
  O      51.084244     23.637267     51.215775
  O      50.373029     25.688123     50.680255
24
Coordinates from ORCA-job neb_MEP_ALL.QMRegion E -1076.345684631107
  C      49.112663     24.254897     54.132243
  H      49.841333     23.502149     53.837059
  H      49.466257     25.266971     54.330064
  C      47.797483     23.946257     54.303320
  C      46.803223     24.979573     54.836813
  O      47.186237     26.176459     54.975705
  O      45.653775     24.568609     55.122410
  O      47.288388     22.781584     53.905489
  C      46.995317     22.690456     52.091271
  H      46.630293     21.659898     52.055213
  C      48.326659     22.930876     51.633868
  H      49.052182     22.119530     51.606814
  C      48.763887     24.218404     51.529681
  C      47.806397     25.330698     51.575458
  H      48.223151     26.336886     51.510975
  C      46.486795     25.112710     51.685702
  H      45.777798     25.943268     51.699236
  C      45.913395     23.726659     51.780523
  H      45.205276     23.696994     52.618427
  O      45.245668     23.400469     50.557509
  H      44.267293     23.254122     50.732247
  C      50.195142     24.523362     51.119231
  O      51.082566     23.633835     51.212961
  O      50.365640     25.680327     50.670530
24
Coordinates from ORCA-job neb_MEP_ALL.QMRegion E -1076.342543916020
  C      49.122738     24.273661     54.056026
  H      49.854800     23.496717     53.847457
  H      49.474596     25.280156     54.276764
  C      47.804091     23.932075     54.335322
  C      46.805160     24.983503     54.847104
  O      47.190365     26.180162     54.972579
  O      45.655918     24.573480     55.127173
  O      47.337463     22.775239     54.055602
  C      46.984239     22.670848     51.955940
  H      46.625461     21.644097     52.021208
  C      48.309798     22.920242     51.642231
  H      49.045345     22.117427     51.618118
  C      48.772692     24.233595     51.620554
  C      47.806257     25.336259     51.598952
  H      48.220683     26.342253     51.526003
  C      46.486233     25.109969     51.680563
  H      45.775505     25.939031     51.689687
  C      45.913712     23.722736     51.757255
  H      45.217793     23.681194     52.608224
  O      45.223191     23.422318     50.538656
  H      44.250580     23.259557     50.727493
  C      50.196080     24.526915     51.151388
  O      51.078385     23.631341     51.220788
  O      50.358265     25.675132     50.677580
24
Coordinates from ORCA-job neb_MEP_ALL.QMRegion E -1076.348010113561
  C      49.117898     24.288003     53.895670
  H      49.861797     23.490895     53.854921
  H      49.473832     25.276685     54.203326
  C      47.802597     23.923187     54.335608
  C      46.806961     24.983531     54.852360
  O      47.197670     26.176668     54.971342
  O      45.661356     24.573135     55.134503
  O      47.373221     22.768566     54.163851
  C      46.981288     22.659152     51.870218
  H      46.623228     21.635787     51.975397
  C      48.299177     22.913560     51.665198
  H      49.040311     22.113867     51.633317
  C      48.797025     24.253998     51.770964
  C      47.807682     25.342930     51.632704
  H      48.216917     26.349099     51.542728
  C      46.489767     25.106500     51.675245
  H      45.776023     25.934498     51.669385
  C      45.915943     23.717819     51.742230
  H      45.225080     23.669601     52.599439
  O      45.207608     23.441072     50.526302
  H      44.239495     23.265368     50.723846
  C      50.197628     24.530909     51.189179
  O      51.075445     23.629378     51.228205
  O      50.346877     25.666372     50.682874
24
Coordinates from ORCA-job neb_MEP_ALL.QMRegion E -1076.365607034446
  C      49.094535     24.294253     53.674352
  H      49.835759     23.505224     53.855053
  H      49.455965     25.252873     54.081508
  C      47.794002     23.934307     54.309137
  C      46.802436     24.995833     54.853427
  O      47.203402     26.180747     54.975650
  O      45.659750     24.576530     55.138722
  O      47.401750     22.760529     54.287603
  C      46.994102     22.653916     51.815612
  H      46.632648     21.630766     51.934791
  C      48.302667     22.912600     51.708911
  H      49.043010     22.111737     51.665357
  C      48.840766     24.280153     51.970270
  C      47.818159     25.349279     51.683427
  H      48.215159     26.356989     51.545083
  C      46.504270     25.099862     51.675036
  H      45.785254     25.923857     51.632483
  C      45.925124     23.711487     51.736574
  H      45.240151     23.659288     52.600539
  O      45.200727     23.453870     50.527579
  H      44.236942     23.264061     50.729701
  C      50.202179     24.537139     51.235946
  O      51.075412     23.629598     51.240277
  O      50.332819     25.653199     50.684736
24
Coordinates from ORCA-job neb_MEP_ALL.QMRegion E -1076.390687122225
  C      49.140000     24.255000     53.626000
  H      49.929000     23.514000     53.810000
  H      49.475000     25.253000     53.933000
  C      47.916000     23.844000     54.405000
  C      46.901000     24.915000     54.918000
  O      47.281000     26.113000     54.975000
  O      45.777000     24.489000     55.249000
  O      47.664000     22.669000     54.584000
  C      46.944000     22.696000     51.508000
  H      46.572000     21.689000     51.317000
  C      48.246000     22.912000     51.708000
  H      48.965000     22.091000     51.697000
  C      48.810000     24.255000     52.076000
  C      47.815000     25.359000     51.825000
  H      48.213000     26.373000     51.870000
  C      46.513000     25.142000     51.625000
  H      45.824000     25.985000     51.527000
  C      45.896000     23.774000     51.542000
  H      45.266000     23.630000     52.441000
  O      45.077000     23.681000     50.377000
  H      44.141000     23.433000     50.632000
  C      50.148000     24.515000     51.296000
  O      51.030000     23.616000     51.293000
  O      50.247000     25.626000     50.732000
24
Coordinates from ORCA-job neb_MEP_ALL.QMRegion E -1076.356373477625
  C      49.040000     24.209000     54.467000
  H      49.766000     23.472000     54.125000
  H      49.396000     25.142000     54.903000
  C      47.723000     24.016000     54.354000
  C      46.711000     25.020000     54.873000
  O      47.091000     26.215000     55.027000
  O      45.563000     24.591000     55.133000
  O      47.197000     22.866000     53.798000
  C      47.053000     22.831000     52.334000
  H      46.659000     21.825000     52.135000
  C      48.409000     23.007000     51.724000
  H      49.123000     22.186000     51.795000
  C      48.806000     24.204000     51.255000
  C      47.873000     25.339000     51.259000
  H      48.301000     26.312000     51.008000
  C      46.579000     25.198000     51.589000
  H      45.913000     26.064000     51.631000
  C      45.982000     23.839000     51.855000
  H      45.244000     23.917000     52.668000
  O      45.358000     23.362000     50.662000
  H      44.380000     23.230000     50.816000
  C      50.237000     24.468000     50.805000
  O      51.139000     23.629000     51.081000
  O      50.411000     25.556000     50.208000
24
Coordinates from ORCA-job neb_MEP_ALL.QMRegion E -1076.359561169160
  C      49.047841     24.206476     54.422186
  H      49.770903     23.476164     54.060743
  H      49.405855     25.145414     54.841671
  C      47.728342     24.005709     54.336824
  C      46.722714     25.009454     54.868113
  O      47.104220     26.203449     55.021831
  O      45.575223     24.581826     55.133525
  O      47.196786     22.853118     53.789728
  C      47.041908     22.811566     52.324932
  H      46.647899     21.804868     52.134833
  C      48.393059     22.991805     51.708205
  H      49.106695     22.168201     51.758834
  C      48.793716     24.200698     51.272254
  C      47.859001     25.334157     51.297536
  H      48.286503     26.313883     51.077638
  C      46.561315     25.182945     51.611746
  H      45.892970     26.045978     51.662940
  C      45.968089     23.819466     51.852557
  H      45.227012     23.885863     52.663082
  O      45.350615     23.353373     50.652235
  H      44.372321     23.223535     50.802180
  C      50.227186     24.478835     50.843234
  O      51.127904     23.629039     51.088537
  O      50.405795     25.591552     50.294675
24
Coordinates from ORCA-job neb_MEP_ALL.QMRegion E -1076.362450916336
  C      49.055809     24.206079     54.372060
  H      49.776516     23.482535     53.993169
  H      49.416150     25.152242     54.773767
  C      47.736063     23.995655     54.316244
  C      46.736219     24.998451     54.860316
  O      47.119814     26.191785     55.015545
  O      45.590010     24.571921     55.133055
  O      47.199161     22.840988     53.778674
  C      47.030474     22.789901     52.314036
  H      46.638651     21.780605     52.132864
  C      48.376428     22.976634     51.689091
  H      49.090865     22.152666     51.721250
  C      48.778479     24.197613     51.289623
  C      47.841507     25.328752     51.338996
  H      48.269840     26.315129     51.155608
  C      46.540987     25.165721     51.634375
  H      45.868148     26.024320     51.698224
  C      45.952768     23.795861     51.849242
  H      45.209373     23.848382     52.658296
  O      45.340546     23.341505     50.641672
  H      44.360960     23.215898     50.788324
  C      50.215857     24.490441     50.885845
  O      51.115106     23.629717     51.096687
  O      50.398562     25.628433     50.393618
24
Coordinates from ORCA-job neb_MEP_ALL.QMRegion E -1076.365871376709
  C      49.071398     24.207459     54.288706
  H      49.792155     23.490014     53.898631
  H      49.432200     25.177578     54.632445
  C      47.751979     23.980227     54.276884
  C      46.761859     24.982739     54.841034
  O      47.149277     26.174017     55.000845
  O      45.617477     24.559019     55.127803
  O      47.204968     22.822015     53.756409
  C      47.017046     22.756630     52.292417
  H      46.632835     21.743025     52.121877
  C      48.355853     22.957320     51.661819
  H      49.072117     22.134053     51.659319
  C      48.760871     24.197311     51.332217
  C      47.819067     25.323754     51.418455
  H      48.245219     26.320646     51.297130
  C      46.511700     25.139597     51.666617
  H      45.825763     25.988087     51.729289
  C      45.931323     23.760671     51.839510
  H      45.187548     23.789024     52.648973
  O      45.318919     23.335838     50.621307
  H      44.337263     23.216708     50.765909
  C      50.201671     24.506335     50.962360
  O      51.098128     23.631902     51.128376
  O      50.389612     25.669863     50.538682
24
Coordinates from ORCA-job neb_MEP_ALL.QMRegion E -1076.356709368867
  C      49.100238     24.235009     54.156129
  H      49.831929     23.500272     53.822877
  H      49.450270     25.241592     54.381512
  C      47.784670     23.961422     54.261731
  C      46.797712     24.975046     54.820917
  O      47.186091     26.167784     54.977580
  O      45.654825     24.556743     55.118484
  O      47.245017     22.793714     53.810619
  C      47.004252     22.709744     52.185324
  H      46.636797     21.684628     52.083699
  C      48.335945     22.937761     51.631575
  H      49.057895     22.121922     51.596818
  C      48.757722     24.209264     51.459670
  C      47.803606     25.323806     51.548698
  H      48.221599     26.330080     51.504229
  C      46.486054     25.112525     51.694301
  H      45.779852     25.944364     51.713191
  C      45.912477     23.728689     51.804987
  H      45.186130     23.713008     52.628874
  O      45.271672     23.370970     50.579563
  H      44.290991     23.248049     50.739843
  C      50.193844     24.521853     51.086441
  O      51.084908     23.637783     51.205269
  O      50.374951     25.689552     50.670552
24
Coordinates from ORCA-job neb_MEP_ALL.QMRegion E -1076.346623032015
  C      49.111943     24.254197     54.130410
  H      49.841927     23.502358     53.837094
  H      49.465546     25.265863     54.331361
  C      47.797233     23.946476     54.301095
  C      46.803394     24.978787     54.836530
  O      47.186799     26.175619     54.975559
  O      45.654096     24.567927     55.122467
  O      47.286727     22.781019     53.898103
  C      46.996364     22.690962     52.100190
  H      46.630655     21.661043     52.054506
  C      48.327018     22.930972     51.634768
  H      49.052046     22.119416     51.606447
  C      48.763593     24.218096     51.529813
  C      47.805921     25.330438     51.575612
  H      48.222236     26.336670     51.511868
  C      46.486334     25.112250     51.686233
  H      45.777348     25.942563     51.700152
  C      45.912999     23.725876     51.781007
  H      45.204293     23.696239     52.618407
  O      45.245981     23.399729     50.558014
  H      44.267525     23.253757     50.732103
  C      50.194669     24.523611     51.118653
  O      51.082317     23.633711     51.212924
  O      50.365739     25.680887     50.671837
24
Coordinates from ORCA-job neb_MEP_ALL.QMRegion E -1076.342548150250
  C      49.122974     24.273432     54.058059
  H      49.855369     23.497093     53.848239
  H      49.474366     25.280121     54.278590
  C      47.804318     23.931816     54.335449
  C      46.805372     24.983246     54.847138
  O      47.190470     26.179938     54.972547
  O      45.656052     24.573242     55.127168
  O      47.337383     22.775028     54.054456
  C      46.984161     22.670719     51.956622
  H      46.625494     21.643854     52.020717
  C      48.309803     22.920254     51.642208
  H      49.045317     22.117362     51.617990
  C      48.772308     24.233346     51.619342
  C      47.805895     25.336017     51.598825
  H      48.220117     26.342048     51.526115
  C      46.485879     25.109669     51.680840
  H      45.775058     25.938617     51.690071
  C      45.913418     23.722377     51.757235
  H      45.217396     23.680444     52.608108
  O      45.223021     23.422195     50.538551
  H      44.250353     23.259585     50.727266
  C      50.195834     24.526844     51.151039
  O      51.078146     23.631225     51.220636
  O      50.358241     25.675224     50.677700
24
Coordinates from ORCA-job neb_MEP_ALL.QMRegion E -1076.347938836695
  C      49.118661     24.287642     53.897014
  H      49.861209     23.490883     53.856349
  H      49.472884     25.276532     54.204019
  C      47.803352     23.922952     54.334783
  C      46.806235     24.983683     54.852465
  O      47.198121     26.176894     54.971429
  O      45.660523     24.572530     55.134635
  O      47.372329     22.768723     54.162695
  C      46.982111     22.658961     51.870888
  H      46.623495     21.635300     51.975554
  C      48.299557     22.913577     51.665395
  H      49.040287     22.114400     51.634304
  C      48.796834     24.253693     51.771258
  C      47.807465     25.342700     51.632101
  H      48.216673     26.349271     51.541686
  C      46.489472     25.106580     51.675862
  H      45.775715     25.934215     51.669029
  C      45.915234     23.717821     51.742628
  H      45.224266     23.669285     52.600365
  O      45.208277     23.440302     50.527140
  H      44.240433     23.265284     50.724257
  C      50.197673     24.530882     51.188599
  O      51.075709     23.629084     51.228161
  O      50.346968     25.666139     50.682155
24
Coordinates from ORCA-job neb_MEP_ALL.QMRegion E -1076.367214040520
  C      49.093095     24.292939     53.660275
  H      49.835809     23.506203     53.850770
  H      49.454093     25.254775     54.057512
  C      47.792327     23.919727     54.311646
  C      46.806705     24.994809     54.853978
  O      47.207977     26.178097     54.977173
  O      45.664990     24.574775     55.143711
  O      47.418919     22.766094     54.312054
  C      46.994227     22.654468     51.802205
  H      46.632059     21.629691     51.905270
  C      48.301550     22.913042     51.713222
  H      49.041447     22.111038     51.671639
  C      48.840446     24.279854     51.983074
  C      47.818637     25.350082     51.695670
  H      48.213403     26.359747     51.560638
  C      46.506850     25.099413     51.676880
  H      45.787462     25.922417     51.624769
  C      45.924373     23.711671     51.729268
  H      45.242297     23.653880     52.595254
  O      45.194412     23.464513     50.521558
  H      44.231954     23.269807     50.726555
  C      50.200169     24.537248     51.242097
  O      51.073524     23.629590     51.245006
  O      50.328467     25.652612     50.689922
24
Coordinates from ORCA-job neb_MEP_ALL.QMRegion E -1076.390687122225
  C      49.140000     24.255000     53.626000
  H      49.929000     23.514000     53.810000
  H      49.475000     25.253000     53.933000
  C      47.916000     23.844000     54.405000
  C      46.901000     24.915000     54.918000
  O      47.281000     26.113000     54.975000
  O      45.777000     24.489000     55.249000
  O      47.664000     22.669000     54.584000
  C      46.944000     22.696000     51.508000
  H      46.572000     21.689000     51.317000
  C      48.246000     22.912000     51.708000
  H      48.965000     22.091000     51.697000
  C      48.810000     24.255000     52.076000
  C      47.815000     25.359000     51.825000
  H      48.213000     26.373000     51.870000
  C      46.513000     25.142000     51.625000
  H      45.824000     25.985000     51.527000
  C      45.896000     23.774000     51.542000
  H      45.266000     23.630000     52.441000
  O      45.077000     23.681000     50.377000
  H      44.141000     23.433000     50.632000
  C      50.148000     24.515000     51.296000
  O      51.030000     23.616000     51.293000
  O      50.247000     25.626000     50.732000
24
Coordinates from ORCA-job neb_MEP_ALL.QMRegion E -1076.356373477625
  C      49.040000     24.209000     54.467000
  H      49.766000     23.472000     54.125000
  H      49.396000     25.142000     54.903000
  C      47.723000     24.016000     54.354000
  C      46.711000     25.020000     54.873000
  O      47.091000     26.215000     55.027000
  O      45.563000     24.591000     55.133000
  O      47.197000     22.866000     53.798000
  C      47.053000     22.831000     52.334000
  H      46.659000     21.825000     52.135000
  C      48.409000     23.007000     51.724000
  H      49.123000     22.186000     51.795000
  C      48.806000     24.204000     51.255000
  C      47.873000     25.339000     51.259000
  H      48.301000     26.312000     51.008000
  C      46.579000     25.198000     51.589000
  H      45.913000     26.064000     51.631000
  C      45.982000     23.839000     51.855000
  H      45.244000     23.917000     52.668000
  O      45.358000     23.362000     50.662000
  H      44.380000     23.230000     50.816000
  C      50.237000     24.468000     50.805000
  O      51.139000     23.629000     51.081000
  O      50.411000     25.556000     50.208000
24
Coordinates from ORCA-job neb_MEP_ALL.QMRegion E -1076.359622085712
  C      49.047511     24.205952     54.422970
  H      49.770989     23.475698     54.061887
  H      49.405770     25.144950     54.843159
  C      47.728363     24.005027     54.336881
  C      46.722461     25.009287     54.868276
  O      47.104309     26.203526     55.022029
  O      45.575154     24.581600     55.133744
  O      47.197026     22.853524     53.790038
  C      47.041879     22.811735     52.325017
  H      46.647886     21.804924     52.134667
  C      48.393048     22.991946     51.708173
  H      49.106836     22.168291     51.759090
  C      48.793731     24.200747     51.271767
  C      47.858977     25.334117     51.296798
  H      48.286253     26.313682     51.076439
  C      46.561434     25.183063     51.611566
  H      45.892934     26.046129     51.662729
  C      45.968064     23.819468     51.852613
  H      45.227019     23.885978     52.663117
  O      45.350666     23.353442     50.652178
  H      44.372377     23.223643     50.802203
  C      50.227309     24.478698     50.842797
  O      51.127786     23.628855     51.088035
  O      50.405911     25.591614     50.294468
24
Coordinates from ORCA-job neb_MEP_ALL.QMRegion E -1076.362643515088
  C      49.055683     24.205338     54.372763
  H      49.776819     23.481852     53.994149
  H      49.416049     25.151321     54.775509
  C      47.736214     23.994833     54.316315
  C      46.736062     24.998078     54.860429
  O      47.120105     26.191492     55.015815
  O      45.590208     24.571413     55.133488
  O      47.199397     22.841018     53.778871
  C      47.030426     22.789676     52.313855
  H      46.638526     21.780318     52.132663
  C      48.376176     22.976507     51.688745
  H      49.090702     22.152789     51.721177
  C      48.778217     24.197445     51.288934
  C      47.840990     25.328480     51.338210
  H      48.269033     26.314912     51.154376
  C      46.540655     25.165548     51.634428
  H      45.867625     26.024126     51.698427
  C      45.952387     23.795453     51.849193
  H      45.208977     23.847849     52.658309
  O      45.340494     23.341325     50.641468
  H      44.360933     23.215905     50.788100
  C      50.215829     24.490361     50.885671
  O      51.114592     23.629335     51.095811
  O      50.398624     25.629152     50.394849
24
Coordinates from ORCA-job neb_MEP_ALL.QMRegion E -1076.365952369553
  C      49.070167     24.205327     54.293056
  H      49.791191     23.489113     53.901048
  H      49.430088     25.173014     54.642990
  C      47.750843     23.981370     54.275583
  C      46.760504     24.982279     54.840332
  O      47.148819     26.173306     55.001702
  O      45.617151     24.557824     55.128199
  O      47.203023     22.824117     53.757358
  C      47.017377     22.758430     52.292627
  H      46.632971     21.745044     52.124222
  C      48.356347     22.957532     51.662093
  H      49.072450     22.134647     51.660349
  C      48.760208     24.196388     51.325527
  C      47.818655     25.323038     51.413153
  H      48.245062     26.319971     51.291121
  C      46.512040     25.140031     51.666786
  H      45.826375     25.988487     51.730312
  C      45.931266     23.761389     51.841325
  H      45.186063     23.791043     52.650171
  O      45.321448     23.333062     50.623782
  H      44.339928     23.216004     50.766837
  C      50.202163     24.505301     50.957539
  O      51.098049     23.631996     51.125807
  O      50.390740     25.670376     50.536609
24
Coordinates from ORCA-job neb_MEP_ALL.QMRegion E -1076.356572380395
  C      49.099090     24.236642     54.157032
  H      49.829895     23.498373     53.827096
  H      49.448883     25.239148     54.401693
  C      47.784493     23.960430     54.271750
  C      46.796444     24.978167     54.824282
  O      47.181757     26.171737     54.978331
  O      45.651540     24.558741     55.118316
  O      47.246605     22.792717     53.823884
  C      47.002784     22.709673     52.178501
  H      46.633466     21.682703     52.083874
  C      48.334663     22.937847     51.627981
  H      49.056961     22.122228     51.600863
  C      48.758063     24.209869     51.455947
  C      47.803979     25.324333     51.539938
  H      48.223166     26.329427     51.492978
  C      46.487205     25.114741     51.691652
  H      45.782502     25.947496     51.718699
  C      45.912877     23.730864     51.803688
  H      45.188322     23.716742     52.629334
  O      45.273501     23.367454     50.579394
  H      44.293766     23.245166     50.742353
  C      50.194887     24.522813     51.080884
  O      51.085214     23.637378     51.198018
  O      50.374969     25.689317     50.663495
24
Coordinates from ORCA-job neb_MEP_ALL.QMRegion E -1076.346373101010
  C      49.111778     24.254962     54.125144
  H      49.843255     23.502105     53.837556
  H      49.465451     25.265730     54.329180
  C      47.797539     23.945879     54.301035
  C      46.803815     24.978495     54.836673
  O      47.187402     26.175137     54.975277
  O      45.654412     24.567640     55.122797
  O      47.288206     22.780322     53.901055
  C      46.996246     22.690375     52.098645
  H      46.630621     21.660839     52.052093
  C      48.326620     22.930856     51.636035
  H      49.051617     22.119211     51.606792
  C      48.763843     24.218511     51.534675
  C      47.805406     25.330501     51.577120
  H      48.221428     26.336897     51.513306
  C      46.486052     25.111713     51.686275
  H      45.776820     25.941858     51.700161
  C      45.912819     23.725256     51.780366
  H      45.204208     23.694863     52.617715
  O      45.245079     23.400332     50.557275
  H      44.266721     23.253862     50.731684
  C      50.194580     24.523574     51.120372
  O      51.081702     23.633737     51.213171
  O      50.365387     25.681191     50.672947
24
Coordinates from ORCA-job neb_MEP_ALL.QMRegion E -1076.342559512324
  C      49.123201     24.273249     54.059508
  H      49.855803     23.497379     53.848846
  H      49.474196     25.280115     54.279968
  C      47.804482     23.931646     54.335569
  C      46.805485     24.983007     54.847164
  O      47.190559     26.179772     54.972528
  O      45.656191     24.573076     55.127171
  O      47.337333     22.774811     54.053717
  C      46.984076     22.670595     51.957025
  H      46.625514     21.643648     52.020323
  C      48.309826     22.920211     51.642132
  H      49.045282     22.117319     51.617912
  C      48.772012     24.233207     51.618537
  C      47.805589     25.335814     51.598767
  H      48.219688     26.341908     51.526221
  C      46.485592     25.109416     51.681046
  H      45.774709     25.938295     51.690374
  C      45.913203     23.722081     51.757223
  H      45.217100     23.679864     52.608007
  O      45.222823     23.422092     50.538451
  H      44.250193     23.259617     50.727087
  C      50.195678     24.526767     51.150827
  O      51.077940     23.631164     51.220509
  O      50.358213     25.675282     50.677802
24
Coordinates from ORCA-job neb_MEP_ALL.QMRegion E -1076.347837605262
  C      49.118739     24.287681     53.897605
  H      49.860995     23.490990     53.857416
  H      49.472294     25.276091     54.204399
  C      47.803500     23.922715     54.334489
  C      46.805930     24.983960     54.852521
  O      47.198308     26.176885     54.971493
  O      45.660310     24.572127     55.134657
  O      47.372026     22.768793     54.162184
  C      46.982272     22.658763     51.871813
  H      46.623732     21.635074     51.975371
  C      48.299976     22.913703     51.665306
  H      49.040345     22.114624     51.635019
  C      48.796870     24.253577     51.771710
  C      47.807387     25.342579     51.632038
  H      48.216389     26.349310     51.540955
  C      46.489296     25.106474     51.676259
  H      45.775453     25.933992     51.668802
  C      45.914948     23.717706     51.742835
  H      45.224007     23.668929     52.600779
  O      45.208453     23.439921     50.527401
  H      44.240821     23.265173     50.724520
  C      50.197826     24.530513     51.188388
  O      51.075585     23.629076     51.228167
  O      50.346944     25.666095     50.681662
24
Coordinates from ORCA-job neb_MEP_ALL.QMRegion E -1076.370076478311
  C      49.092710     24.291279     53.653444
  H      49.836606     23.506334     53.847969
  H      49.452916     25.257308     54.043396
  C      47.798211     23.925653     54.313660
  C      46.808311     24.991583     54.855871
  O      47.211389     26.176943     54.977638
  O      45.668675     24.574172     55.146686
  O      47.424708     22.754656     54.327031
  C      46.992255     22.653991     51.793311
  H      46.631535     21.628888     51.885001
  C      48.302008     22.912839     51.714847
  H      49.040235     22.110805     51.675910
  C      48.839926     24.279619     51.989516
  C      47.819921     25.350644     51.702054
  H      48.212243     26.361208     51.572153
  C      46.506552     25.099348     51.677671
  H      45.788750     25.921837     51.620019
  C      45.923991     23.711986     51.724312
  H      45.243285     23.650178     52.591868
  O      45.190308     23.471784     50.517443
  H      44.228807     23.274123     50.724319
  C      50.198517     24.536726     51.245725
  O      51.072121     23.629845     51.248098
  O      50.326049     25.652814     50.693249
24
Coordinates from ORCA-job neb_MEP_ALL.QMRegion E -1076.390687122225
  C      49.140000     24.255000     53.626000
  H      49.929000     23.514000     53.810000
  H      49.475000     25.253000     53.933000
  C      47.916000     23.844000     54.405000
  C      46.901000     24.915000     54.918000
  O      47.281000     26.113000     54.975000
  O      45.777000     24.489000     55.249000
  O      47.664000     22.669000     54.584000
  C      46.944000     22.696000     51.508000
  H      46.572000     21.689000     51.317000
  C      48.246000     22.912000     51.708000
  H      48.965000     22.091000     51.697000
  C      48.810000     24.255000     52.076000
  C      47.815000     25.359000     51.825000
  H      48.213000     26.373000     51.870000
  C      46.513000     25.142000     51.625000
  H      45.824000     25.985000     51.527000
  C      45.896000     23.774000     51.542000
  H      45.266000     23.630000     52.441000
  O      45.077000     23.681000     50.377000
  H      44.141000     23.433000     50.632000
  C      50.148000     24.515000     51.296000
  O      51.030000     23.616000     51.293000
  O      50.247000     25.626000     50.732000
24
Coordinates from ORCA-job neb_MEP_ALL.QMRegion E -1076.356373477625
  C      49.040000     24.209000     54.467000
  H      49.766000     23.472000     54.125000
  H      49.396000     25.142000     54.903000
  C      47.723000     24.016000     54.354000
  C      46.711000     25.020000     54.873000
  O      47.091000     26.215000     55.027000
  O      45.563000     24.591000     55.133000
  O      47.197000     22.866000     53.798000
  C      47.053000     22.831000     52.334000
  H      46.659000     21.825000     52.135000
  C      48.409000     23.007000     51.724000
  H      49.123000     22.186000     51.795000
  C      48.806000     24.204000     51.255000
  C      47.873000     25.339000     51.259000
  H      48.301000     26.312000     51.008000
  C      46.579000     25.198000     51.589000
  H      45.913000     26.064000     51.631000
  C      45.982000     23.839000     51.855000
  H      45.244000     23.917000     52.668000
  O      45.358000     23.362000     50.662000
  H      44.380000     23.230000     50.816000
  C      50.237000     24.468000     50.805000
  O      51.139000     23.629000     51.081000
  O      50.411000     25.556000     50.208000
24
Coordinates from ORCA-job neb_MEP_ALL.QMRegion E -1076.359673534326
  C      49.047200     24.205794     54.423048
  H      49.771030     23.475605     54.062018
  H      49.405822     25.144931     54.843377
  C      47.728448     24.004748     54.336817
  C      46.722405     25.009272     54.868302
  O      47.104384     26.203592     55.022052
  O      45.575152     24.581485     55.133759
  O      47.197132     22.853715     53.790159
  C      47.041799     22.811799     52.325118
  H      46.647878     21.804890     52.134613
  C      48.393014     22.991983     51.708065
  H      49.106907     22.168228     51.759118
  C      48.793767     24.200864     51.271735
  C      47.859007     25.334123     51.296638
  H      48.286167     26.313560     51.076327
  C      46.561526     25.183122     51.611582
  H      45.892894     26.046131     51.662715
  C      45.968033     23.819461     51.852610
  H      45.227039     23.885966     52.663106
  O      45.350661     23.353412     50.652134
  H      44.372351     23.223644     50.802196
  C      50.227337     24.478693     50.842797
  O      51.127737     23.628818     51.087958
  O      50.405884     25.591645     50.294495
24
Coordinates from ORCA-job neb_MEP_ALL.QMRegion E -1076.362816114008
  C      49.055529     24.205136     54.373080
  H      49.776832     23.481750     53.994383
  H      49.416042     25.151118     54.775857
  C      47.736358     23.994712     54.316162
  C      46.735993     24.997966     54.860351
  O      47.120178     26.191349     55.015865
  O      45.590180     24.571332     55.133608
  O      47.199454     22.841145     53.779391
  C      47.030505     22.789715     52.313407
  H      46.638543     21.780395     52.132657
  C      48.376162     22.976435     51.688782
  H      49.090676     22.152890     51.721192
  C      48.778259     24.197307     51.288850
  C      47.840971     25.328403     51.337977
  H      48.268936     26.314940     51.154055
  C      46.540659     25.165546     51.634480
  H      45.867530     26.024110     51.698411
  C      45.952232     23.795368     51.849089
  H      45.208912     23.847834     52.658338
  O      45.340476     23.341263     50.641547
  H      44.360973     23.215900     50.788055
  C      50.215895     24.490367     50.885617
  O      51.114465     23.629236     51.095686
  O      50.398580     25.629263     50.394941
24
Coordinates from ORCA-job neb_MEP_ALL.QMRegion E -1076.366348313113
  C      49.069651     24.205174     54.294533
  H      49.790392     23.488817     53.902818
  H      49.429289     25.170814     54.647864
  C      47.750635     23.982003     54.277345
  C      46.759791     24.982517     54.840790
  O      47.148093     26.173675     55.002090
  O      45.616540     24.557955     55.128324
  O      47.203382     22.824540     53.760503
  C      47.017565     22.759173     52.290639
  H      46.632693     21.745575     52.124600
  C      48.356338     22.957568     51.661963
  H      49.072384     22.135322     51.661550
  C      48.760247     24.196151     51.324007
  C      47.818718     25.322780     51.410352
  H      48.245288     26.319577     51.287353
  C      46.512370     25.140542     51.666241
  H      45.827334     25.989130     51.730958
  C      45.931364     23.762199     51.841224
  H      45.186375     23.792301     52.650377
  O      45.322148     23.332258     50.624590
  H      44.340896     23.215359     50.767375
  C      50.202384     24.504924     50.955522
  O      51.098016     23.631911     51.124153
  O      50.390858     25.670119     50.534269
24
Coordinates from ORCA-job neb_MEP_ALL.QMRegion E -1076.356187451336
  C      49.100541     24.238787     54.158459
  H      49.830141     23.499588     53.828285
  H      49.452215     25.243411     54.394176
  C      47.786842     23.957232     54.276122
  C      46.797778     24.978018     54.827537
  O      47.181446     26.173303     54.977812
  O      45.651304     24.561480     55.118477
  O      47.249429     22.788913     53.814048
  C      47.003437     22.707162     52.187370
  H      46.632298     21.678950     52.079729
  C      48.334572     22.937419     51.628640
  H      49.055910     22.121855     51.601383
  C      48.758526     24.210472     51.462827
  C      47.804403     25.325540     51.544601
  H      48.223129     26.330839     51.492875
  C      46.487090     25.115102     51.689579
  H      45.781599     25.947717     51.717348
  C      45.913203     23.729610     51.800619
  H      45.191326     23.714022     52.627486
  O      45.269585     23.372004     50.575991
  H      44.289314     23.245223     50.740456
  C      50.194730     24.522683     51.085750
  O      51.084725     23.636585     51.198389
  O      50.373084     25.688312     50.663229
24
Coordinates from ORCA-job neb_MEP_ALL.QMRegion E -1076.346797835786
  C      49.112664     24.257121     54.117589
  H      49.844872     23.501451     53.838433
  H      49.466282     25.267138     54.323371
  C      47.798209     23.944362     54.304029
  C      46.804178     24.978785     54.837390
  O      47.187833     26.175540     54.974943
  O      45.654738     24.568105     55.123282
  O      47.293319     22.779830     53.916594
  C      46.994973     22.688446     52.083788
  H      46.630081     21.659002     52.048462
  C      48.325134     22.930010     51.637174
  H      49.050884     22.119091     51.607936
  C      48.764663     24.219994     51.543718
  C      47.805318     25.331098     51.579705
  H      48.221081     26.337498     51.514829
  C      46.485952     25.111488     51.685679
  H      45.776516     25.941362     51.698965
  C      45.912882     23.725085     51.778154
  H      45.205320     23.693261     52.616535
  O      45.242883     23.402509     50.555289
  H      44.264952     23.254553     50.731063
  C      50.194781     24.524002     51.124089
  O      51.081272     23.633503     51.213780
  O      50.364517     25.680653     50.673469
24
Coordinates from ORCA-job neb_MEP_ALL.QMRegion E -1076.342581027796
  C      49.123260     24.273235     54.059610
  H      49.855865     23.497401     53.848935
  H      49.474180     25.280128     54.280152
  C      47.804499     23.931606     54.335593
  C      46.805465     24.982930     54.847162
  O      47.190577     26.179756     54.972534
  O      45.656219     24.573059     55.127186
  O      47.337345     22.774763     54.053774
  C      46.984071     22.670534     51.956946
  H      46.625511     21.643603     52.020261
  C      48.309807     22.920180     51.642037
  H      49.045280     22.117303     51.617922
  C      48.771974     24.233211     51.618555
  C      47.805518     25.335795     51.598803
  H      48.219624     26.341886     51.526262
  C      46.485530     25.109363     51.681068
  H      45.774650     25.938242     51.690434
  C      45.913169     23.721993     51.757202
  H      45.217060     23.679782     52.607991
  O      45.222782     23.422066     50.538425
  H      44.250147     23.259628     50.727064
  C      50.195663     24.526745     51.150870
  O      51.077912     23.631166     51.220479
  O      50.358204     25.675289     50.677826
24
Coordinates from ORCA-job neb_MEP_ALL.QMRegion E -1076.347848492286
  C      49.118647     24.287887     53.896830
  H      49.860741     23.491666     53.857590
  H      49.472340     25.275450     54.204070
  C      47.803778     23.922248     54.334563
  C      46.805843     24.984287     54.852645
  O      47.198596     26.177255     54.971461
  O      45.660309     24.571771     55.134655
  O      47.372328     22.768645     54.162921
  C      46.982374     22.658770     51.872177
  H      46.623704     21.635037     51.974885
  C      48.300081     22.913703     51.665190
  H      49.040254     22.114575     51.635050
  C      48.796894     24.253520     51.772300
  C      47.807390     25.342537     51.632685
  H      48.216249     26.349336     51.540976
  C      46.489342     25.106340     51.676215
  H      45.775521     25.933735     51.668820
  C      45.914812     23.717768     51.742246
  H      45.224470     23.668680     52.600391
  O      45.208066     23.440227     50.527375
  H      44.240488     23.265129     50.724374
  C      50.197809     24.530581     51.188854
  O      51.075388     23.629085     51.228174
  O      50.346809     25.666050     50.681705
24
Coordinates from ORCA-job neb_MEP_ALL.QMRegion E -1076.372418247613
  C      49.094183     24.291820     53.658992
  H      49.838108     23.504926     53.848500
  H      49.453463     25.259047     54.047966
  C      47.797862     23.921513     54.315437
  C      46.808368     24.990470     54.857546
  O      47.210858     26.176978     54.976805
  O      45.668152     24.574476     55.145912
  O      47.424632     22.758734     54.322058
  C      46.991171     22.653190     51.794624
  H      46.631122     21.628499     51.886155
  C      48.302464     22.912603     51.712731
  H      49.040291     22.110923     51.675534
  C      48.838229     24.278573     51.984246
  C      47.819512     25.350224     51.698575
  H      48.212465     26.360611     51.572798
  C      46.505495     25.099951     51.676815
  H      45.788053     25.922719     51.621217
  C      45.923647     23.712284     51.724759
  H      45.242465     23.650362     52.592419
  O      45.190909     23.471323     50.517574
  H      44.229393     23.274484     50.724323
  C      50.199141     24.536746     51.244410
  O      51.072083     23.629688     51.247745
  O      50.326603     25.653441     50.692813
24
Coordinates from ORCA-job neb_MEP_ALL.QMRegion E -1076.390687122225
  C      49.140000     24.255000     53.626000
  H      49.929000     23.514000     53.810000
  H      49.475000     25.253000     53.933000
  C      47.916000     23.844000     54.405000
  C      46.901000     24.915000     54.918000
  O      47.281000     26.113000     54.975000
  O      45.777000     24.489000     55.249000
  O      47.664000     22.669000     54.584000
  C      46.944000     22.696000     51.508000
  H      46.572000     21.689000     51.317000
  C      48.246000     22.912000     51.708000
  H      48.965000     22.091000     51.697000
  C      48.810000     24.255000     52.076000
  C      47.815000     25.359000     51.825000
  H      48.213000     26.373000     51.870000
  C      46.513000     25.142000     51.625000
  H      45.824000     25.985000     51.527000
  C      45.896000     23.774000     51.542000
  H      45.266000     23.630000     52.441000
  O      45.077000     23.681000     50.377000
  H      44.141000     23.433000     50.632000
  C      50.148000     24.515000     51.296000
  O      51.030000     23.616000     51.293000
  O      50.247000     25.626000     50.732000
24
Coordinates from ORCA-job neb_MEP_ALL.QMRegion E -1076.356373477625
  C      49.040000     24.209000     54.467000
  H      49.766000     23.472000     54.125000
  H      49.396000     25.142000     54.903000
  C      47.723000     24.016000     54.354000
  C      46.711000     25.020000     54.873000
  O      47.091000     26.215000     55.027000
  O      45.563000     24.591000     55.133000
  O      47.197000     22.866000     53.798000
  C      47.053000     22.831000     52.334000
  H      46.659000     21.825000     52.135000
  C      48.409000     23.007000     51.724000
  H      49.123000     22.186000     51.795000
  C      48.806000     24.204000     51.255000
  C      47.873000     25.339000     51.259000
  H      48.301000     26.312000     51.008000
  C      46.579000     25.198000     51.589000
  H      45.913000     26.064000     51.631000
  C      45.982000     23.839000     51.855000
  H      45.244000     23.917000     52.668000
  O      45.358000     23.362000     50.662000
  H      44.380000     23.230000     50.816000
  C      50.237000     24.468000     50.805000
  O      51.139000     23.629000     51.081000
  O      50.411000     25.556000     50.208000
24
Coordinates from ORCA-job neb_MEP_ALL.QMRegion E -1076.359681850132
  C      49.047044     24.205626     54.423245
  H      49.771034     23.475488     54.062275
  H      49.405814     25.144678     54.843671
  C      47.728426     24.004684     54.336929
  C      46.722383     25.009223     54.868278
  O      47.104469     26.203540     55.022083
  O      45.575217     24.581311     55.133786
  O      47.197152     22.853723     53.790224
  C      47.041764     22.811833     52.325173
  H      46.647877     21.804884     52.134556
  C      48.392987     22.991972     51.707885
  H      49.106930     22.168241     51.759146
  C      48.793887     24.200905     51.271725
  C      47.859006     25.334058     51.296372
  H      48.286058     26.313467     51.076110
  C      46.561585     25.183196     51.611642
  H      45.892835     26.046108     51.662696
  C      45.968004     23.819528     51.852580
  H      45.227039     23.885950     52.663102
  O      45.350639     23.353334     50.652069
  H      44.372302     23.223636     50.802172
  C      50.227351     24.478734     50.842825
  O      51.127644     23.628718     51.087827
  O      50.405844     25.591751     50.294565
24
Coordinates from ORCA-job neb_MEP_ALL.QMRegion E -1076.362839547121
  C      49.055478     24.204803     54.373771
  H      49.776855     23.481515     53.994934
  H      49.416012     25.150700     54.776601
  C      47.736376     23.994717     54.316187
  C      46.735879     24.997819     54.860118
  O      47.120321     26.191045     55.015971
  O      45.590126     24.571139     55.133842
  O      47.199418     22.841158     53.779763
  C      47.030531     22.789819     52.313143
  H      46.638584     21.780498     52.132636
  C      48.376207     22.976444     51.688754
  H      49.090745     22.152973     51.721293
  C      48.778413     24.197228     51.288682
  C      47.840971     25.328276     51.337473
  H      48.268749     26.314894     51.153343
  C      46.540724     25.165579     51.634518
  H      45.867387     26.024079     51.698333
  C      45.952120     23.795363     51.849019
  H      45.208835     23.847833     52.658423
  O      45.340455     23.341089     50.641510
  H      44.360944     23.215873     50.788011
  C      50.215943     24.490383     50.885469
  O      51.114292     23.628999     51.095457
  O      50.398466     25.629396     50.395019
24
Coordinates from ORCA-job neb_MEP_ALL.QMRegion E -1076.366390045180
  C      49.068348     24.204650     54.299068
  H      49.788331     23.487851     53.907506
  H      49.427703     25.166043     54.661260
  C      47.749509     23.982988     54.281781
  C      46.757908     24.983506     54.842323
  O      47.146023     26.174899     55.003173
  O      45.614636     24.558350     55.128643
  O      47.203608     22.825380     53.764524
  C      47.017822     22.761103     52.290046
  H      46.632018     21.747242     52.125664
  C      48.356499     22.958357     51.661666
  H      49.072677     22.136564     51.664944
  C      48.760583     24.195839     51.319535
  C      47.819028     25.322369     51.402981
  H      48.246020     26.318378     51.276935
  C      46.513575     25.141990     51.664449
  H      45.829957     25.991212     51.732588
  C      45.932134     23.764279     51.841632
  H      45.187390     23.795831     52.650960
  O      45.324093     23.330209     50.626135
  H      44.343131     23.213550     50.768939
  C      50.202670     24.504129     50.949949
  O      51.098292     23.631450     51.119740
  O      50.391142     25.669173     50.527543
24
Coordinates from ORCA-job neb_MEP_ALL.QMRegion E -1076.356529687096
  C      49.103971     24.243614     54.157075
  H      49.832382     23.502523     53.831297
  H      49.459905     25.253852     54.371691
  C      47.792334     23.951501     54.285080
  C      46.800915     24.977447     54.833874
  O      47.182142     26.174934     54.976354
  O      45.651369     24.566717     55.119431
  O      47.259217     22.781398     53.806377
  C      47.003609     22.701135     52.191997
  H      46.630462     21.671208     52.068801
  C      48.333684     22.936464     51.632403
  H      49.053668     22.120749     51.602750
  C      48.759743     24.211891     51.484454
  C      47.805387     25.328344     51.557265
  H      48.222854     26.334453     51.495132
  C      46.486564     25.114766     51.685581
  H      45.779352     25.947230     51.712258
  C      45.914060     23.726665     51.793132
  H      45.197877     23.706888     52.622673
  O      45.259621     23.383813     50.568007
  H      44.278444     23.246525     50.735539
  C      50.193947     24.522653     51.098144
  O      51.083608     23.635001     51.201108
  O      50.368901     25.685331     50.664226
24
Coordinates from ORCA-job neb_MEP_ALL.QMRegion E -1076.345798305324
  C      49.114674     24.260867     54.104380
  H      49.847616     23.500428     53.839981
  H      49.467893     25.270049     54.312329
  C      47.799499     23.941358     54.309846
  C      46.804839     24.979473     54.838719
  O      47.188572     26.176304     54.974321
  O      45.655405     24.569018     55.124158
  O      47.302993     22.779037     53.946308
  C      46.992452     22.684793     52.054729
  H      46.629006     21.655190     52.041886
  C      48.322216     22.928336     51.638946
  H      49.049593     22.118853     51.610119
  C      48.766236     24.222934     51.560261
  C      47.805215     25.332203     51.584605
  H      48.220454     26.338608     51.517703
  C      46.485733     25.111100     51.684649
  H      45.775875     25.940494     51.696652
  C      45.912923     23.724831     51.773951
  H      45.207404     23.690296     52.614427
  O      45.238761     23.406520     50.551601
  H      44.261706     23.255882     50.729914
  C      50.195157     24.524929     51.131035
  O      51.080527     23.633044     51.214979
  O      50.362823     25.679451     50.674503
24
Coordinates from ORCA-job neb_MEP_ALL.QMRegion E -1076.342583597313
  C      49.123337     24.273239     54.059730
  H      49.855991     23.497415     53.849094
  H      49.474156     25.280146     54.280479
  C      47.804534     23.931497     54.335634
  C      46.805490     24.982875     54.847157
  O      47.190589     26.179655     54.972539
  O      45.656219     24.573000     55.127233
  O      47.337392     22.774686     54.053974
  C      46.984072     22.670408     51.956711
  H      46.625498     21.643491     52.020152
  C      48.309749     22.920131     51.641843
  H      49.045284     22.117265     51.617944
  C      48.771921     24.233199     51.618666
  C      47.805375     25.335760     51.598898
  H      48.219505     26.341854     51.526355
  C      46.485398     25.109242     51.681107
  H      45.774533     25.938137     51.690557
  C      45.913112     23.721837     51.757163
  H      45.216996     23.679626     52.607954
  O      45.222670     23.422000     50.538369
  H      44.250067     23.259652     50.727021
  C      50.195616     24.526762     51.150969
  O      51.077878     23.631150     51.220427
  O      50.358175     25.675271     50.677895
24
Coordinates from ORCA-job neb_MEP_ALL.QMRegion E -1076.347902595617
  C      49.117983     24.287866     53.896695
  H      49.860593     23.492852     53.857709
  H      49.472654     25.274585     54.204289
  C      47.803688     23.922009     54.335092
  C      46.806168     24.984472     54.852683
  O      47.198683     26.177653     54.971440
  O      45.660667     24.571500     55.134533
  O      47.372815     22.768257     54.163359
  C      46.982539     22.658975     51.873635
  H      46.623657     21.635103     51.974306
  C      48.300083     22.913672     51.664708
  H      49.040210     22.114360     51.634846
  C      48.796833     24.253390     51.772095
  C      47.807435     25.342392     51.633636
  H      48.215961     26.349217     51.541011
  C      46.489436     25.106061     51.676123
  H      45.775583     25.933330     51.669113
  C      45.914882     23.717691     51.741468
  H      45.225346     23.668277     52.599661
  O      45.207319     23.440696     50.526934
  H      44.239666     23.264959     50.724139
  C      50.197646     24.530633     51.189193
  O      51.075042     23.629050     51.228232
  O      50.346617     25.666160     50.681908
24
Coordinates from ORCA-job neb_MEP_ALL.QMRegion E -1076.372104790978
  C      49.097856     24.293188     53.672560
  H      49.841353     23.502183     53.850154
  H      49.454904     25.262298     54.061098
  C      47.798165     23.916115     54.318768
  C      46.808022     24.988404     54.860611
  O      47.209255     26.177103     54.975013
  O      45.666675     24.575024     55.143998
  O      47.421934     22.764310     54.308610
  C      46.989704     22.652228     51.798995
  H      46.629969     21.627438     51.891661
  C      48.301985     22.911811     51.707385
  H      49.040799     22.110932     51.673773
  C      48.835388     24.276611     51.971986
  C      47.818142     25.348980     51.689679
  H      48.213191     26.359177     51.572669
  C      46.503109     25.101025     51.674829
  H      45.786048     25.925001     51.624911
  C      45.922671     23.712708     51.726483
  H      45.240592     23.651404     52.593739
  O      45.192687     23.469243     50.518293
  H      44.231031     23.274759     50.724512
  C      50.199643     24.536583     51.240439
  O      51.072339     23.629702     51.246339
  O      50.328708     25.654589     50.691550
24
Coordinates from ORCA-job neb_MEP_ALL.QMRegion E -1076.390687122225
  C      49.140000     24.255000     53.626000
  H      49.929000     23.514000     53.810000
  H      49.475000     25.253000     53.933000
  C      47.916000     23.844000     54.405000
  C      46.901000     24.915000     54.918000
  O      47.281000     26.113000     54.975000
  O      45.777000     24.489000     55.249000
  O      47.664000     22.669000     54.584000
  C      46.944000     22.696000     51.508000
  H      46.572000     21.689000     51.317000
  C      48.246000     22.912000     51.708000
  H      48.965000     22.091000     51.697000
  C      48.810000     24.255000     52.076000
  C      47.815000     25.359000     51.825000
  H      48.213000     26.373000     51.870000
  C      46.513000     25.142000     51.625000
  H      45.824000     25.985000     51.527000
  C      45.896000     23.774000     51.542000
  H      45.266000     23.630000     52.441000
  O      45.077000     23.681000     50.377000
  H      44.141000     23.433000     50.632000
  C      50.148000     24.515000     51.296000
  O      51.030000     23.616000     51.293000
  O      50.247000     25.626000     50.732000
24
Coordinates from ORCA-job neb_MEP_ALL.QMRegion E -1076.356373477625
  C      49.040000     24.209000     54.467000
  H      49.766000     23.472000     54.125000
  H      49.396000     25.142000     54.903000
  C      47.723000     24.016000     54.354000
  C      46.711000     25.020000     54.873000
  O      47.091000     26.215000     55.027000
  O      45.563000     24.591000     55.133000
  O      47.197000     22.866000     53.798000
  C      47.053000     22.831000     52.334000
  H      46.659000     21.825000     52.135000
  C      48.409000     23.007000     51.724000
  H      49.123000     22.186000     51.795000
  C      48.806000     24.204000     51.255000
  C      47.873000     25.339000     51.259000
  H      48.301000     26.312000     51.008000
  C      46.579000     25.198000     51.589000
  H      45.913000     26.064000     51.631000
  C      45.982000     23.839000     51.855000
  H      45.244000     23.917000     52.668000
  O      45.358000     23.362000     50.662000
  H      44.380000     23.230000     50.816000
  C      50.237000     24.468000     50.805000
  O      51.139000     23.629000     51.081000
  O      50.411000     25.556000     50.208000
24
Coordinates from ORCA-job neb_MEP_ALL.QMRegion E -1076.359701327994
  C      49.047259     24.205523     54.423824
  H      49.771034     23.475190     54.062931
  H      49.405652     25.144188     54.844423
  C      47.728510     24.005250     54.337283
  C      46.722468     25.009031     54.868486
  O      47.104272     26.203245     55.022129
  O      45.575289     24.581441     55.133867
  O      47.196806     22.853025     53.789770
  C      47.041865     22.811799     52.325074
  H      46.647926     21.805055     52.134600
  C      48.393085     22.991974     51.708012
  H      49.106886     22.168405     51.759249
  C      48.793705     24.200768     51.271453
  C      47.858809     25.334018     51.296135
  H      48.286011     26.313513     51.075370
  C      46.561423     25.183115     51.611471
  H      45.892959     26.046072     51.662584
  C      45.968077     23.819707     51.852606
  H      45.227004     23.886004     52.663072
  O      45.350686     23.353406     50.652224
  H      44.372340     23.223677     50.802126
  C      50.227272     24.478699     50.842617
  O      51.127683     23.628695     51.087486
  O      50.406062     25.591737     50.294541
24
Coordinates from ORCA-job neb_MEP_ALL.QMRegion E -1076.362885291949
  C      49.055605     24.204444     54.374493
  H      49.776907     23.481080     53.995902
  H      49.415882     25.149985     54.777888
  C      47.736432     23.994923     54.316435
  C      46.736074     24.997361     54.860682
  O      47.120134     26.190835     55.016010
  O      45.590286     24.571184     55.133933
  O      47.199201     22.840486     53.779074
  C      47.030343     22.789771     52.313288
  H      46.638646     21.780505     52.132631
  C      48.376189     22.976486     51.688758
  H      49.090809     22.152975     51.721404
  C      48.777969     24.197249     51.288179
  C      47.840568     25.328233     51.337025
  H      48.268375     26.314712     51.152231
  C      46.540405     25.165390     51.634281
  H      45.867399     26.023868     51.698296
  C      45.952249     23.795443     51.849246
  H      45.208759     23.847620     52.658252
  O      45.340502     23.341056     50.641625
  H      44.360872     23.215842     50.787853
  C      50.215654     24.490224     50.885342
  O      51.114252     23.629004     51.094772
  O      50.398866     25.629532     50.395405
24
Coordinates from ORCA-job neb_MEP_ALL.QMRegion E -1076.366453000395
  C      49.068341     24.204275     54.299362
  H      49.788555     23.487081     53.907982
  H      49.427968     25.166021     54.662926
  C      47.749529     23.981813     54.282064
  C      46.758270     24.983492     54.843319
  O      47.145734     26.175200     55.003090
  O      45.614724     24.558566     55.128540
  O      47.203413     22.824441     53.761242
  C      47.017463     22.760525     52.293168
  H      46.631933     21.746912     52.125448
  C      48.356045     22.958478     51.660980
  H      49.072721     22.136314     51.664734
  C      48.760176     24.195939     51.318995
  C      47.818576     25.322319     51.402617
  H      48.245438     26.318119     51.276227
  C      46.513198     25.141645     51.664018
  H      45.829579     25.991159     51.733052
  C      45.932313     23.763704     51.841856
  H      45.187518     23.795263     52.650676
  O      45.323987     23.330018     50.625510
  H      44.342757     23.213385     50.768810
  C      50.202408     24.504362     50.950208
  O      51.098062     23.631237     51.118990
  O      50.391251     25.669324     50.528304
24
Coordinates from ORCA-job neb_MEP_ALL.QMRegion E -1076.355276511285
  C      49.103446     24.242285     54.158378
  H      49.832785     23.502866     53.831558
  H      49.458298     25.251242     54.375307
  C      47.790169     23.953810     54.279991
  C      46.800087     24.976348     54.831996
  O      47.183200     26.172548     54.976669
  O      45.651377     24.564727     55.120014
  O      47.258564     22.784295     53.812276
  C      47.003388     22.702673     52.185755
  H      46.631818     21.675532     52.070427
  C      48.333958     22.936381     51.636074
  H      49.054124     22.120907     51.603026
  C      48.759374     24.211335     51.482176
  C      47.805082     25.327766     51.555749
  H      48.222946     26.334261     51.494075
  C      46.486777     25.113863     51.686664
  H      45.779947     25.946865     51.712271
  C      45.914390     23.726676     51.795538
  H      45.195829     23.708326     52.623121
  O      45.261362     23.382082     50.570577
  H      44.280235     23.246543     50.735789
  C      50.193375     24.522114     51.094881
  O      51.083960     23.635696     51.201018
  O      50.369980     25.685427     50.664293
24
Coordinates from ORCA-job neb_MEP_ALL.QMRegion E -1076.344345360628
  C      49.114863     24.259449     54.109232
  H      49.846873     23.500961     53.839307
  H      49.467401     25.269754     54.314596
  C      47.799143     23.941560     54.308382
  C      46.804765     24.979148     54.838116
  O      47.188521     26.175979     54.974470
  O      45.655599     24.568664     55.123992
  O      47.300653     22.779244     53.939375
  C      46.992827     22.685354     52.059800
  H      46.629276     21.655571     52.043572
  C      48.322694     22.928594     51.638273
  H      49.049912     22.118917     51.609663
  C      48.765790     24.222462     51.555617
  C      47.805099     25.331823     51.584066
  H      48.220207     26.338278     51.517568
  C      46.485444     25.111077     51.685263
  H      45.775599     25.940477     51.697265
  C      45.912670     23.724771     51.775100
  H      45.206446     23.690646     52.615106
  O      45.239781     23.405179     50.552634
  H      44.262586     23.255576     50.730112
  C      50.194974     24.524579     51.129917
  O      51.080639     23.633111     51.214787
  O      50.363029     25.679831     50.674723
24
Coordinates from ORCA-job neb_MEP_ALL.QMRegion E -1076.342586963791
  C      49.123405     24.273144     54.060440
  H      49.856251     23.497562     53.849453
  H      49.474046     25.280089     54.281261
  C      47.804625     23.931389     54.335714
  C      46.805549     24.982741     54.847207
  O      47.190649     26.179541     54.972514
  O      45.656308     24.572881     55.127231
  O      47.337424     22.774582     54.053635
  C      46.983998     22.670321     51.956801
  H      46.625510     21.643314     52.019927
  C      48.309757     22.920108     51.641857
  H      49.045263     22.117250     51.617881
  C      48.771778     24.233105     51.618305
  C      47.805235     25.335608     51.598897
  H      48.219231     26.341774     51.526450
  C      46.485244     25.109084     51.681230
  H      45.774288     25.937932     51.690747
  C      45.912973     23.721692     51.757147
  H      45.216835     23.679265     52.607890
  O      45.222612     23.421908     50.538300
  H      44.249903     23.259666     50.726927
  C      50.195525     24.526726     51.150848
  O      51.077745     23.631101     51.220386
  O      50.358124     25.675325     50.677989
24
Coordinates from ORCA-job neb_MEP_ALL.QMRegion E -1076.347906796514
  C      49.118112     24.287612     53.899010
  H      49.861106     23.492128     53.857967
  H      49.472576     25.275484     54.205849
  C      47.803267     23.922166     54.335184
  C      46.806277     24.983919     54.852532
  O      47.198199     26.177129     54.971513
  O      45.660690     24.572010     55.134518
  O      47.372152     22.768402     54.161709
  C      46.982196     22.658938     51.873493
  H      46.623867     21.635145     51.975033
  C      48.300073     22.913681     51.665316
  H      49.040427     22.114346     51.634700
  C      48.796386     24.253309     51.769847
  C      47.807174     25.342363     51.632997
  H      48.215824     26.348941     51.540760
  C      46.489244     25.105929     51.676209
  H      45.775413     25.933279     51.669334
  C      45.915165     23.717443     51.742413
  H      45.224760     23.668233     52.599915
  O      45.207867     23.440144     50.527471
  H      44.239908     23.264876     50.724154
  C      50.197580     24.530691     51.188872
  O      51.075163     23.629049     51.227976
  O      50.346781     25.665997     50.681729
24
Coordinates from ORCA-job neb_MEP_ALL.QMRegion E -1076.370464827780
  C      49.097382     24.292409     53.673579
  H      49.842248     23.503644     53.849467
  H      49.454826     25.261344     54.059238
  C      47.798951     23.917593     54.319080
  C      46.809737     24.989195     54.859842
  O      47.210660     26.175898     54.975445
  O      45.668045     24.572726     55.145466
  O      47.424624     22.760753     54.311260
  C      46.989019     22.652674     51.796668
  H      46.629251     21.627424     51.885555
  C      48.301375     22.911555     51.708118
  H      49.040122     22.110615     51.673950
  C      48.835398     24.276609     51.971305
  C      47.817395     25.349134     51.692652
  H      48.212797     26.359446     51.576012
  C      46.503072     25.100579     51.674735
  H      45.786197     25.924910     51.624538
  C      45.922373     23.712685     51.724742
  H      45.240857     23.650481     52.591809
  O      45.191109     23.471367     50.516897
  H      44.229552     23.276240     50.723314
  C      50.198854     24.536344     51.240899
  O      51.071984     23.629493     51.246800
  O      50.327803     25.654473     50.692697
24
Coordinates from ORCA-job neb_MEP_ALL.QMRegion E -1076.390687122225
  C      49.140000     24.255000     53.626000
  H      49.929000     23.514000     53.810000
  H      49.475000     25.253000     53.933000
  C      47.916000     23.844000     54.405000
  C      46.901000     24.915000     54.918000
  O      47.281000     26.113000     54.975000
  O      45.777000     24.489000     55.249000
  O      47.664000     22.669000     54.584000
  C      46.944000     22.696000     51.508000
  H      46.572000     21.689000     51.317000
  C      48.246000     22.912000     51.708000
  H      48.965000     22.091000     51.697000
  C      48.810000     24.255000     52.076000
  C      47.815000     25.359000     51.825000
  H      48.213000     26.373000     51.870000
  C      46.513000     25.142000     51.625000
  H      45.824000     25.985000     51.527000
  C      45.896000     23.774000     51.542000
  H      45.266000     23.630000     52.441000
  O      45.077000     23.681000     50.377000
  H      44.141000     23.433000     50.632000
  C      50.148000     24.515000     51.296000
  O      51.030000     23.616000     51.293000
  O      50.247000     25.626000     50.732000
24
Coordinates from ORCA-job neb_MEP_ALL.QMRegion E -1076.356373477625
  C      49.040000     24.209000     54.467000
  H      49.766000     23.472000     54.125000
  H      49.396000     25.142000     54.903000
  C      47.723000     24.016000     54.354000
  C      46.711000     25.020000     54.873000
  O      47.091000     26.215000     55.027000
  O      45.563000     24.591000     55.133000
  O      47.197000     22.866000     53.798000
  C      47.053000     22.831000     52.334000
  H      46.659000     21.825000     52.135000
  C      48.409000     23.007000     51.724000
  H      49.123000     22.186000     51.795000
  C      48.806000     24.204000     51.255000
  C      47.873000     25.339000     51.259000
  H      48.301000     26.312000     51.008000
  C      46.579000     25.198000     51.589000
  H      45.913000     26.064000     51.631000
  C      45.982000     23.839000     51.855000
  H      45.244000     23.917000     52.668000
  O      45.358000     23.362000     50.662000
  H      44.380000     23.230000     50.816000
  C      50.237000     24.468000     50.805000
  O      51.139000     23.629000     51.081000
  O      50.411000     25.556000     50.208000
24
Coordinates from ORCA-job neb_MEP_ALL.QMRegion E -1076.359729896829
  C      49.047574     24.205187     54.424791
  H      49.771012     23.474643     54.064087
  H      49.405480     25.143489     54.845837
  C      47.728437     24.005456     54.337525
  C      46.722601     25.008731     54.868902
  O      47.104009     26.202931     55.022223
  O      45.575293     24.581555     55.134016
  O      47.196486     22.852358     53.789264
  C      47.041969     22.811827     52.324966
  H      46.647982     21.805290     52.134610
  C      48.393189     22.992036     51.708216
  H      49.106893     22.168588     51.759426
  C      48.793377     24.200637     51.270956
  C      47.858515     25.334023     51.295702
  H      48.285875     26.313482     51.074095
  C      46.561201     25.183003     51.611150
  H      45.893153     26.046016     51.662396
  C      45.968173     23.819891     51.852682
  H      45.226967     23.886087     52.662996
  O      45.350744     23.353531     50.652472
  H      44.372407     23.223742     50.802042
  C      50.227147     24.478619     50.842277
  O      51.127735     23.628680     51.086878
  O      50.406432     25.591718     50.294562
24
Coordinates from ORCA-job neb_MEP_ALL.QMRegion E -1076.362969960192
  C      49.055793     24.203725     54.375947
  H      49.776948     23.480271     53.997815
  H      49.415685     25.148717     54.780398
  C      47.736366     23.994729     54.316582
  C      46.736551     24.996818     54.861742
  O      47.119761     26.190406     55.016069
  O      45.590331     24.571158     55.134137
  O      47.199023     22.839744     53.778316
  C      47.030159     22.789786     52.313353
  H      46.638754     21.780567     52.132589
  C      48.376132     22.976569     51.688879
  H      49.090966     22.153035     51.721682
  C      48.777177     24.197214     51.287276
  C      47.839848     25.328183     51.336125
  H      48.267743     26.314386     51.150033
  C      46.539988     25.165088     51.633805
  H      45.867448     26.023541     51.698149
  C      45.952391     23.795523     51.849520
  H      45.208644     23.847339     52.657972
  O      45.340585     23.341021     50.641980
  H      44.360823     23.215794     50.787581
  C      50.215249     24.490215     50.884920
  O      51.114206     23.628961     51.093552
  O      50.399542     25.629501     50.396009
24
Coordinates from ORCA-job neb_MEP_ALL.QMRegion E -1076.366568961518
  C      49.068809     24.203998     54.298995
  H      49.789125     23.485846     53.908599
  H      49.428776     25.166370     54.663881
  C      47.749920     23.979407     54.283021
  C      46.759288     24.983280     54.845284
  O      47.145368     26.175776     55.002746
  O      45.614933     24.559264     55.128368
  O      47.204071     22.822354     53.757241
  C      47.016915     22.759034     52.296385
  H      46.631651     21.745696     52.124374
  C      48.354936     22.958184     51.659823
  H      49.072423     22.136067     51.664043
  C      48.759378     24.196137     51.319697
  C      47.817624     25.322262     51.402993
  H      48.244241     26.317886     51.275982
  C      46.512224     25.140852     51.663168
  H      45.828737     25.990783     51.733806
  C      45.932422     23.762311     51.841422
  H      45.188014     23.793614     52.649810
  O      45.323079     23.330271     50.624052
  H      44.341547     23.213192     50.768224
  C      50.201860     24.504837     50.951808
  O      51.097423     23.630842     51.117971
  O      50.391208     25.669708     50.530411
24
Coordinates from ORCA-job neb_MEP_ALL.QMRegion E -1076.355239342996
  C      49.102572     24.239597     54.161417
  H      49.834070     23.504105     53.831128
  H      49.456278     25.248072     54.376061
  C      47.787312     23.957694     54.269371
  C      46.799277     24.973822     54.827826
  O      47.186076     26.167687     54.977166
  O      45.652051     24.560782     55.121247
  O      47.256288     22.788521     53.814936
  C      47.003678     22.705848     52.180992
  H      46.634630     21.682209     52.072750
  C      48.335639     22.936665     51.642650
  H      49.055097     22.120921     51.602747
  C      48.758702     24.210249     51.479252
  C      47.804842     25.326813     51.555821
  H      48.222441     26.333874     51.494974
  C      46.486568     25.112175     51.689272
  H      45.780209     25.945119     51.710712
  C      45.914495     23.726420     51.799449
  H      45.191807     23.709462     52.623947
  O      45.263633     23.380198     50.574663
  H      44.282238     23.247290     50.735482
  C      50.192329     24.521043     51.091443
  O      51.084378     23.636633     51.202617
  O      50.371322     25.685508     50.666075
24
Coordinates from ORCA-job neb_MEP_ALL.QMRegion E -1076.344703643787
  C      49.114918     24.257344     54.118186
  H      49.845823     23.501655     53.838118
  H      49.466652     25.269442     54.318283
  C      47.798952     23.941900     54.306448
  C      46.804828     24.978754     54.837153
  O      47.188384     26.175490     54.974678
  O      45.655762     24.568093     55.123720
  O      47.297014     22.779542     53.929116
  C      46.993159     22.686018     52.066483
  H      46.629686     21.655911     52.046459
  C      48.323555     22.929182     51.636641
  H      49.050423     22.119066     51.608957
  C      48.764737     24.221301     51.547871
  C      47.804804     25.331268     51.583181
  H      48.219790     26.337731     51.517397
  C      46.485042     25.111049     51.686346
  H      45.775069     25.940469     51.698238
  C      45.912186     23.724652     51.776831
  H      45.204946     23.691156     52.616265
  O      45.241360     23.402998     50.554211
  H      44.263971     23.255103     50.730443
  C      50.194740     24.524381     51.127940
  O      51.080897     23.633107     51.214565
  O      50.363327     25.680204     50.675169
24
Coordinates from ORCA-job neb_MEP_ALL.QMRegion E -1076.342593700642
  C      49.123562     24.272982     54.061599
  H      49.856699     23.497820     53.850100
  H      49.473851     25.279975     54.282638
  C      47.804753     23.931180     54.335871
  C      46.805686     24.982475     54.847286
  O      47.190754     26.179354     54.972474
  O      45.656424     24.572654     55.127245
  O      47.337511     22.774397     54.053138
  C      46.983877     22.670123     51.956860
  H      46.625535     21.642993     52.019522
  C      48.309728     22.920042     51.641874
  H      49.045229     22.117220     51.617771
  C      48.771563     24.232944     51.617754
  C      47.804974     25.335353     51.598928
  H      48.218730     26.341623     51.526643
  C      46.484952     25.108811     51.681447
  H      45.773846     25.937548     51.691095
  C      45.912743     23.721408     51.757112
  H      45.216551     23.678613     52.607774
  O      45.222361     23.421714     50.538173
  H      44.249676     23.259700     50.726748
  C      50.195336     24.526664     51.150677
  O      51.077518     23.631011     51.220315
  O      50.358026     25.675426     50.678171
24
Coordinates from ORCA-job neb_MEP_ALL.QMRegion E -1076.347773520050
  C      49.118713     24.287410     53.903170
  H      49.861848     23.491101     53.858369
  H      49.472410     25.276809     54.208529
  C      47.803080     23.922251     54.335262
  C      46.806320     24.983211     54.852389
  O      47.197639     26.176432     54.971567
  O      45.660398     24.572597     55.134554
  O      47.370910     22.768440     54.159110
  C      46.981844     22.658794     51.872976
  H      46.624157     21.635125     51.976237
  C      48.300063     22.913610     51.666380
  H      49.040679     22.114370     51.634341
  C      48.795435     24.253062     51.765946
  C      47.806699     25.342208     51.631957
  H      48.215576     26.348543     51.540468
  C      46.488851     25.105686     51.676355
  H      45.775144     25.933059     51.669800
  C      45.915392     23.717148     51.743709
  H      45.223799     23.668075     52.600272
  O      45.208546     23.439226     50.528519
  H      44.240382     23.264778     50.724064
  C      50.197526     24.530607     51.188502
  O      51.075258     23.629127     51.227521
  O      50.347068     25.665897     50.681447
24
Coordinates from ORCA-job neb_MEP_ALL.QMRegion E -1076.370936748702
  C      49.096760     24.291300     53.678971
  H      49.844677     23.505786     53.849125
  H      49.455323     25.259737     54.061269
  C      47.800001     23.919326     54.319629
  C      46.810741     24.988460     54.858597
  O      47.212843     26.175110     54.976063
  O      45.671218     24.569304     55.147145
  O      47.427643     22.756294     54.310862
  C      46.988391     22.653296     51.794627
  H      46.627723     21.627596     51.878930
  C      48.299750     22.911192     51.708442
  H      49.039008     22.110012     51.672854
  C      48.834369     24.276021     51.966867
  C      47.816020     25.349181     51.695730
  H      48.212206     26.359360     51.579988
  C      46.502333     25.100124     51.674293
  H      45.786004     25.924926     51.625566
  C      45.921602     23.712754     51.722432
  H      45.240647     23.649650     52.589054
  O      45.189090     23.473530     50.515045
  H      44.227490     23.278224     50.721415
  C      50.198025     24.535829     51.240351
  O      51.071536     23.628923     51.246724
  O      50.326804     25.654658     50.693877
24
Coordinates from ORCA-job neb_MEP_ALL.QMRegion E -1076.390687122225
  C      49.140000     24.255000     53.626000
  H      49.929000     23.514000     53.810000
  H      49.475000     25.253000     53.933000
  C      47.916000     23.844000     54.405000
  C      46.901000     24.915000     54.918000
  O      47.281000     26.113000     54.975000
  O      45.777000     24.489000     55.249000
  O      47.664000     22.669000     54.584000
  C      46.944000     22.696000     51.508000
  H      46.572000     21.689000     51.317000
  C      48.246000     22.912000     51.708000
  H      48.965000     22.091000     51.697000
  C      48.810000     24.255000     52.076000
  C      47.815000     25.359000     51.825000
  H      48.213000     26.373000     51.870000
  C      46.513000     25.142000     51.625000
  H      45.824000     25.985000     51.527000
  C      45.896000     23.774000     51.542000
  H      45.266000     23.630000     52.441000
  O      45.077000     23.681000     50.377000
  H      44.141000     23.433000     50.632000
  C      50.148000     24.515000     51.296000
  O      51.030000     23.616000     51.293000
  O      50.247000     25.626000     50.732000
24
Coordinates from ORCA-job neb_MEP_ALL.QMRegion E -1076.356373477625
  C      49.040000     24.209000     54.467000
  H      49.766000     23.472000     54.125000
  H      49.396000     25.142000     54.903000
  C      47.723000     24.016000     54.354000
  C      46.711000     25.020000     54.873000
  O      47.091000     26.215000     55.027000
  O      45.563000     24.591000     55.133000
  O      47.197000     22.866000     53.798000
  C      47.053000     22.831000     52.334000
  H      46.659000     21.825000     52.135000
  C      48.409000     23.007000     51.724000
  H      49.123000     22.186000     51.795000
  C      48.806000     24.204000     51.255000
  C      47.873000     25.339000     51.259000
  H      48.301000     26.312000     51.008000
  C      46.579000     25.198000     51.589000
  H      45.913000     26.064000     51.631000
  C      45.982000     23.839000     51.855000
  H      45.244000     23.917000     52.668000
  O      45.358000     23.362000     50.662000
  H      44.380000     23.230000     50.816000
  C      50.237000     24.468000     50.805000
  O      51.139000     23.629000     51.081000
  O      50.411000     25.556000     50.208000
24
Coordinates from ORCA-job neb_MEP_ALL.QMRegion E -1076.359780723332
  C      49.047427     24.204661     54.425461
  H      49.771007     23.474154     54.065014
  H      49.405480     25.143051     54.847072
  C      47.728339     24.004638     54.337381
  C      46.722580     25.008588     54.869118
  O      47.104036     26.202922     55.022344
  O      45.575139     24.581357     55.134187
  O      47.196663     22.852670     53.789413
  C      47.041961     22.811948     52.324930
  H      46.647963     21.805352     52.134475
  C      48.393162     22.992142     51.708253
  H      49.106989     22.168635     51.759558
  C      48.793274     24.200654     51.270589
  C      47.858419     25.334041     51.295234
  H      48.285673     26.313317     51.073134
  C      46.561188     25.183007     51.610941
  H      45.893161     26.046048     51.662263
  C      45.968158     23.819817     51.852736
  H      45.226950     23.886143     52.662964
  O      45.350773     23.353567     50.652507
  H      44.372412     23.223784     50.802000
  C      50.227136     24.478585     50.842035
  O      51.127684     23.628586     51.086435
  O      50.406593     25.591811     50.294681
24
Coordinates from ORCA-job neb_MEP_ALL.QMRegion E -1076.363115584080
  C      49.055629     24.202914     54.377375
  H      49.777020     23.479450     53.999664
  H      49.415599     25.147703     54.782865
  C      47.736258     23.993881     54.316687
  C      46.736453     24.996463     54.862203
  O      47.119774     26.190267     55.016267
  O      45.590265     24.570849     55.134456
  O      47.199161     22.839877     53.778292
  C      47.030240     22.789884     52.313433
  H      46.638797     21.780632     52.132437
  C      48.376131     22.976662     51.688955
  H      49.091138     22.153214     51.722060
  C      48.776901     24.197163     51.286545
  C      47.839521     25.328089     51.335044
  H      48.267217     26.314088     51.147881
  C      46.539844     25.165027     51.633440
  H      45.867369     26.023441     51.697894
  C      45.952328     23.795439     51.849546
  H      45.208549     23.847287     52.657945
  O      45.340621     23.340899     50.642133
  H      44.360837     23.215768     50.787459
  C      50.215235     24.490037     50.884442
  O      51.113989     23.628754     51.092627
  O      50.399848     25.629656     50.396186
24
Coordinates from ORCA-job neb_MEP_ALL.QMRegion E -1076.366703486403
  C      49.069133     24.203771     54.299813
  H      49.789108     23.484858     53.910253
  H      49.429271     25.165456     54.666682
  C      47.750350     23.977898     54.285133
  C      46.759567     24.983074     54.846884
  O      47.144916     26.176148     55.002706
  O      45.614498     24.560007     55.128559
  O      47.205626     22.820978     53.758258
  C      47.016763     22.758144     52.295169
  H      46.631112     21.744824     52.123301
  C      48.354127     22.957816     51.659390
  H      49.071934     22.136427     51.664222
  C      48.758780     24.196033     51.320395
  C      47.816922     25.322178     51.402073
  H      48.243429     26.317661     51.273441
  C      46.511602     25.140513     51.661998
  H      45.828767     25.990780     51.734710
  C      45.932444     23.761577     51.840420
  H      45.188731     23.792899     52.649116
  O      45.322304     23.330357     50.623237
  H      44.340810     23.212567     50.767857
  C      50.201434     24.504931     50.952072
  O      51.096813     23.630330     51.116288
  O      50.390957     25.669823     50.530742
24
Coordinates from ORCA-job neb_MEP_ALL.QMRegion E -1076.355510768886
  C      49.103466     24.239225     54.161506
  H      49.836548     23.505695     53.830642
  H      49.457285     25.250265     54.364473
  C      47.787937     23.958651     54.264880
  C      46.799860     24.972034     54.825005
  O      47.189180     26.164695     54.977268
  O      45.653832     24.558622     55.122470
  O      47.256044     22.788033     53.811604
  C      47.004052     22.706751     52.181073
  H      46.636197     21.682161     52.070809
  C      48.337829     22.937365     51.645761
  H      49.055605     22.120167     51.602499
  C      48.759246     24.210681     51.484619
  C      47.804566     25.326512     51.561830
  H      48.221067     26.334006     51.500164
  C      46.486368     25.111231     51.691302
  H      45.778699     25.942374     51.706401
  C      45.913310     23.726381     51.799210
  H      45.190232     23.706656     52.623774
  O      45.261930     23.382672     50.574249
  H      44.280025     23.249276     50.733774
  C      50.191988     24.520490     51.095752
  O      51.083920     23.636321     51.206494
  O      50.370327     25.684793     50.669534
24
Coordinates from ORCA-job neb_MEP_ALL.QMRegion E -1076.345216374496
  C      49.115381     24.256895     54.122134
  H      49.845794     23.501842     53.837848
  H      49.466482     25.269790     54.319019
  C      47.799181     23.941633     54.307146
  C      46.804960     24.978630     54.837103
  O      47.188425     26.175477     54.974568
  O      45.655921     24.567967     55.123584
  O      47.296894     22.779557     53.929387
  C      46.992725     22.685550     52.064157
  H      46.629708     21.655128     52.047079
  C      48.323400     22.928955     51.635084
  H      49.050506     22.119209     51.608892
  C      48.764061     24.220983     51.546060
  C      47.804464     25.331071     51.583183
  H      48.219423     26.337610     51.517860
  C      46.484742     25.110954     51.686965
  H      45.774542     25.940308     51.698509
  C      45.911791     23.724338     51.776795
  H      45.204657     23.690787     52.616569
  O      45.241370     23.402480     50.554192
  H      44.264033     23.255050     50.730454
  C      50.194722     24.524194     51.127591
  O      51.080801     23.633155     51.214778
  O      50.363377     25.680397     50.675608
24
Coordinates from ORCA-job neb_MEP_ALL.QMRegion E -1076.342611798260
  C      49.123706     24.272879     54.062349
  H      49.857062     23.497989     53.850640
  H      49.473703     25.279888     54.283743
  C      47.804863     23.930959     54.336011
  C      46.805846     24.982340     54.847345
  O      47.190810     26.179114     54.972443
  O      45.656463     24.572442     55.127300
  O      47.337618     22.774195     54.052999
  C      46.983779     22.669887     51.956687
  H      46.625555     21.642704     52.019170
  C      48.309658     22.919955     51.641814
  H      49.045213     22.117172     51.617695
  C      48.771391     24.232832     51.617534
  C      47.804698     25.335176     51.599023
  H      48.218309     26.341490     51.526856
  C      46.484688     25.108552     51.681617
  H      45.773476     25.937198     51.691408
  C      45.912540     23.721090     51.757017
  H      45.216334     23.678060     52.607674
  O      45.222192     23.421546     50.538059
  H      44.249403     23.259727     50.726612
  C      50.195163     24.526693     51.150631
  O      51.077356     23.630930     51.220248
  O      50.357926     25.675446     50.678368
24
Coordinates from ORCA-job neb_MEP_ALL.QMRegion E -1076.347542349348
  C      49.119295     24.287344     53.906924
  H      49.862132     23.491144     53.858586
  H      49.472335     25.277105     54.210635
  C      47.803445     23.922063     54.335425
  C      46.806166     24.983008     54.852449
  O      47.197664     26.176345     54.971488
  O      45.660095     24.572492     55.134538
  O      47.370240     22.768298     54.157567
  C      46.981892     22.658579     51.873334
  H      46.624212     21.634972     51.976848
  C      48.300264     22.913511     51.666353
  H      49.040677     22.114409     51.633951
  C      48.794652     24.252564     51.763133
  C      47.806438     25.341878     51.631330
  H      48.215308     26.348362     51.540458
  C      46.488515     25.105458     51.676559
  H      45.774859     25.932720     51.670387
  C      45.915101     23.716983     51.743812
  H      45.223451     23.667741     52.600420
  O      45.208618     23.438744     50.528747
  H      44.240346     23.264695     50.723971
  C      50.197351     24.530556     51.187887
  O      51.075200     23.629057     51.227410
  O      50.347185     25.666089     50.681570
24
Coordinates from ORCA-job neb_MEP_ALL.QMRegion E -1076.370912149942
  C      49.098523     24.291582     53.690340
  H      49.848186     23.505679     53.850859
  H      49.456984     25.259899     54.074711
  C      47.801712     23.919831     54.320738
  C      46.811747     24.987475     54.858228
  O      47.212090     26.173862     54.975639
  O      45.671296     24.567641     55.147195
  O      47.424513     22.754578     54.299153
  C      46.987312     22.653066     51.797564
  H      46.626034     21.627846     51.882724
  C      48.298685     22.910724     51.705392
  H      49.038292     22.109713     51.669259
  C      48.831692     24.274464     51.957599
  C      47.814556     25.348285     51.691641
  H      48.212103     26.358276     51.579465
  C      46.500568     25.100601     51.673522
  H      45.784418     25.925835     51.629950
  C      45.920410     23.712974     51.722457
  H      45.238837     23.650619     52.588582
  O      45.189337     23.471746     50.514789
  H      44.227321     23.278535     50.720526
  C      50.197631     24.535177     51.236528
  O      51.071598     23.628640     51.244753
  O      50.328052     25.655366     50.693136
24
Coordinates from ORCA-job neb_MEP_ALL.QMRegion E -1076.390687122225
  C      49.140000     24.255000     53.626000
  H      49.929000     23.514000     53.810000
  H      49.475000     25.253000     53.933000
  C      47.916000     23.844000     54.405000
  C      46.901000     24.915000     54.918000
  O      47.281000     26.113000     54.975000
  O      45.777000     24.489000     55.249000
  O      47.664000     22.669000     54.584000
  C      46.944000     22.696000     51.508000
  H      46.572000     21.689000     51.317000
  C      48.246000     22.912000     51.708000
  H      48.965000     22.091000     51.697000
  C      48.810000     24.255000     52.076000
  C      47.815000     25.359000     51.825000
  H      48.213000     26.373000     51.870000
  C      46.513000     25.142000     51.625000
  H      45.824000     25.985000     51.527000
  C      45.896000     23.774000     51.542000
  H      45.266000     23.630000     52.441000
  O      45.077000     23.681000     50.377000
  H      44.141000     23.433000     50.632000
  C      50.148000     24.515000     51.296000
  O      51.030000     23.616000     51.293000
  O      50.247000     25.626000     50.732000
24
Coordinates from ORCA-job neb_MEP_ALL.QMRegion E -1076.356373477625
  C      49.040000     24.209000     54.467000
  H      49.766000     23.472000     54.125000
  H      49.396000     25.142000     54.903000
  C      47.723000     24.016000     54.354000
  C      46.711000     25.020000     54.873000
  O      47.091000     26.215000     55.027000
  O      45.563000     24.591000     55.133000
  O      47.197000     22.866000     53.798000
  C      47.053000     22.831000     52.334000
  H      46.659000     21.825000     52.135000
  C      48.409000     23.007000     51.724000
  H      49.123000     22.186000     51.795000
  C      48.806000     24.204000     51.255000
  C      47.873000     25.339000     51.259000
  H      48.301000     26.312000     51.008000
  C      46.579000     25.198000     51.589000
  H      45.913000     26.064000     51.631000
  C      45.982000     23.839000     51.855000
  H      45.244000     23.917000     52.668000
  O      45.358000     23.362000     50.662000
  H      44.380000     23.230000     50.816000
  C      50.237000     24.468000     50.805000
  O      51.139000     23.629000     51.081000
  O      50.411000     25.556000     50.208000
24
Coordinates from ORCA-job neb_MEP_ALL.QMRegion E -1076.359831423810
  C      49.046968     24.202764     54.428434
  H      49.771082     23.472027     54.068967
  H      49.405180     25.140659     54.852123
  C      47.728295     24.003146     54.337919
  C      46.722409     25.007944     54.869710
  O      47.104096     26.202314     55.022850
  O      45.574851     24.580616     55.134913
  O      47.196789     22.852689     53.789399
  C      47.041932     22.812252     52.324849
  H      46.647926     21.805659     52.133957
  C      48.393218     22.992528     51.708232
  H      49.107283     22.168987     51.760145
  C      48.792992     24.200680     51.269133
  C      47.858069     25.333892     51.293124
  H      48.284840     26.312734     51.069036
  C      46.561142     25.183053     51.610176
  H      45.893109     26.046227     51.661675
  C      45.968113     23.819791     51.852827
  H      45.226836     23.886387     52.662962
  O      45.350833     23.353604     50.652513
  H      44.372455     23.223970     50.801871
  C      50.227171     24.478474     50.840956
  O      51.127435     23.628002     51.084643
  O      50.407146     25.592351     50.295111
24
Coordinates from ORCA-job neb_MEP_ALL.QMRegion E -1076.363238735889
  C      49.055169     24.199635     54.383376
  H      49.777420     23.475907     54.007448
  H      49.414991     25.143034     54.793180
  C      47.736044     23.991825     54.318203
  C      46.736232     24.995263     54.863441
  O      47.119845     26.189072     55.017196
  O      45.589917     24.569385     55.136015
  O      47.199284     22.839487     53.778052
  C      47.030526     22.790052     52.313581
  H      46.638977     21.780930     52.131807
  C      48.376258     22.977072     51.689032
  H      49.091740     22.154131     51.723672
  C      48.776163     24.196817     51.283529
  C      47.838312     25.327447     51.330323
  H      48.265002     26.312960     51.138818
  C      46.539233     25.164756     51.632037
  H      45.866796     26.023194     51.696818
  C      45.952020     23.795129     51.849665
  H      45.208092     23.847083     52.658010
  O      45.340758     23.340212     50.642376
  H      44.360863     23.215674     50.787069
  C      50.215018     24.489735     50.882245
  O      51.113239     23.627307     51.088942
  O      50.400845     25.630460     50.397016
24
Coordinates from ORCA-job neb_MEP_ALL.QMRegion E -1076.366837055477
  C      49.070757     24.202347     54.303313
  H      49.789597     23.481296     53.916106
  H      49.431210     25.161596     54.675398
  C      47.752425     23.973335     54.292195
  C      46.760488     24.981665     54.851333
  O      47.144465     26.175872     55.002517
  O      45.613478     24.561864     55.129698
  O      47.211223     22.815590     53.762922
  C      47.016100     22.754543     52.288589
  H      46.629189     21.741052     52.119079
  C      48.351580     22.956486     51.658041
  H      49.070098     22.137337     51.664092
  C      48.756473     24.195725     51.323503
  C      47.814027     25.321639     51.399608
  H      48.239790     26.316980     51.265140
  C      46.508958     25.138654     51.658343
  H      45.828040     25.989842     51.737739
  C      45.931817     23.758871     51.836528
  H      45.190708     23.789184     52.646540
  O      45.318957     23.330514     50.620018
  H      44.337619     23.210475     50.765929
  C      50.199577     24.505027     50.953506
  O      51.094097     23.628355     51.110654
  O      50.389789     25.670614     50.534148
24
Coordinates from ORCA-job neb_MEP_ALL.QMRegion E -1076.355259790704
  C      49.107434     24.238161     54.161224
  H      49.844717     23.510192     53.828822
  H      49.459499     25.257472     54.327563
  C      47.788918     23.959073     54.251578
  C      46.802855     24.967441     54.815640
  O      47.198259     26.155942     54.977728
  O      45.660174     24.550942     55.125929
  O      47.253051     22.787021     53.795528
  C      47.005342     22.707858     52.186582
  H      46.641701     21.681664     52.065211
  C      48.343779     22.938995     51.651889
  H      49.057955     22.117831     51.602046
  C      48.762335     24.213126     51.499312
  C      47.804037     25.325080     51.580821
  H      48.215766     26.333439     51.519148
  C      46.484829     25.108336     51.699044
  H      45.772599     25.933732     51.692254
  C      45.908619     23.726309     51.799400
  H      45.184305     23.697285     52.624084
  O      45.256920     23.389415     50.572301
  H      44.274062     23.256145     50.729137
  C      50.191114     24.520387     51.110683
  O      51.082845     23.634248     51.219675
  O      50.367405     25.683082     50.681506
24
Coordinates from ORCA-job neb_MEP_ALL.QMRegion E -1076.345256625021
  C      49.117644     24.254903     54.134744
  H      49.845747     23.502940     53.837980
  H      49.465779     25.270679     54.323468
  C      47.799434     23.940395     54.310150
  C      46.805432     24.978229     54.837566
  O      47.188559     26.175220     54.973952
  O      45.656329     24.567506     55.122962
  O      47.296898     22.779585     53.930014
  C      46.991670     22.683802     52.058141
  H      46.629811     21.652481     52.048691
  C      48.321941     22.927613     51.629455
  H      49.050950     22.119510     51.608286
  C      48.762036     24.220228     51.539650
  C      47.803125     25.330184     51.582611
  H      48.217917     26.337047     51.519606
  C      46.483084     25.110203     51.689103
  H      45.772606     25.939423     51.700048
  C      45.910470     23.722908     51.776348
  H      45.203999     23.688881     52.617246
  O      45.240834     23.400871     50.553588
  H      44.263771     23.254742     50.730343
  C      50.193822     24.523876     51.125877
  O      51.080469     23.633142     51.215470
  O      50.363769     25.681161     50.677302
24
Coordinates from ORCA-job neb_MEP_ALL.QMRegion E -1076.342618999431
  C      49.124307     24.272434     54.065486
  H      49.858610     23.498670     53.852924
  H      49.473100     25.279561     54.288400
  C      47.805364     23.929999     54.336600
  C      46.806051     24.981310     54.847629
  O      47.191158     26.178404     54.972353
  O      45.656967     24.571700     55.127473
  O      47.338063     22.773327     54.052481
  C      46.983358     22.668910     51.955982
  H      46.625640     21.641472     52.017646
  C      48.309415     22.919549     51.641547
  H      49.045130     22.116966     51.617379
  C      48.770573     24.232430     51.616659
  C      47.803534     25.334390     51.599433
  H      48.216547     26.340965     51.527769
  C      46.483522     25.107385     51.682326
  H      45.771925     25.935711     51.692731
  C      45.911714     23.719727     51.756662
  H      45.215451     23.675702     52.607220
  O      45.221174     23.420821     50.537548
  H      44.248410     23.259852     50.726016
  C      50.194551     24.526449     51.150575
  O      51.076551     23.630751     51.219937
  O      50.357535     25.675721     50.679113
24
Coordinates from ORCA-job neb_MEP_ALL.QMRegion E -1076.347368124050
  C      49.121202     24.286417     53.922543
  H      49.863305     23.491640     53.859666
  H      49.472062     25.278247     54.219333
  C      47.804471     23.921389     54.336486
  C      46.805723     24.982410     54.852550
  O      47.197729     26.175845     54.971184
  O      45.659273     24.571827     55.134388
  O      47.368122     22.767975     54.151401
  C      46.981647     22.657866     51.875869
  H      46.624393     21.634081     51.978977
  C      48.300998     22.913341     51.665142
  H      49.040927     22.114374     51.632643
  C      48.792063     24.250607     51.751804
  C      47.805284     25.340588     51.628846
  H      48.214117     26.347548     51.540362
  C      46.487220     25.104509     51.677497
  H      45.773409     25.931504     51.672792
  C      45.913943     23.715928     51.744094
  H      45.222266     23.666227     52.601049
  O      45.208498     23.436791     50.528946
  H      44.240172     23.264353     50.723779
  C      50.196621     24.530077     51.185203
  O      51.074764     23.628866     51.227064
  O      50.347582     25.666917     50.682154
24
Coordinates from ORCA-job neb_MEP_ALL.QMRegion E -1076.369529500807
  C      49.107945     24.293062     53.733949
  H      49.861209     23.504664     53.857856
  H      49.463197     25.260838     54.127629
  C      47.807248     23.916763     54.324715
  C      46.813371     24.981050     54.857993
  O      47.209379     26.169912     54.973774
  O      45.672605     24.562611     55.146952
  O      47.411810     22.751846     54.252933
  C      46.982106     22.652562     51.808639
  H      46.619417     21.628453     51.898793
  C      48.295314     22.908666     51.693269
  H      49.035127     22.108864     51.654607
  C      48.822145     24.268918     51.922833
  C      47.809028     25.344888     51.675280
  H      48.211381     26.354170     51.576648
  C      46.493949     25.102127     51.671533
  H      45.777901     25.929140     51.647258
  C      45.915555     23.713718     51.723086
  H      45.231303     23.654387     52.586969
  O      45.190405     23.464138     50.513432
  H      44.226527     23.279266     50.717150
  C      50.195803     24.532841     51.221976
  O      51.071401     23.627586     51.236616
  O      50.332692     25.657663     50.690162
24
Coordinates from ORCA-job neb_MEP_ALL.QMRegion E -1076.390687122225
  C      49.140000     24.255000     53.626000
  H      49.929000     23.514000     53.810000
  H      49.475000     25.253000     53.933000
  C      47.916000     23.844000     54.405000
  C      46.901000     24.915000     54.918000
  O      47.281000     26.113000     54.975000
  O      45.777000     24.489000     55.249000
  O      47.664000     22.669000     54.584000
  C      46.944000     22.696000     51.508000
  H      46.572000     21.689000     51.317000
  C      48.246000     22.912000     51.708000
  H      48.965000     22.091000     51.697000
  C      48.810000     24.255000     52.076000
  C      47.815000     25.359000     51.825000
  H      48.213000     26.373000     51.870000
  C      46.513000     25.142000     51.625000
  H      45.824000     25.985000     51.527000
  C      45.896000     23.774000     51.542000
  H      45.266000     23.630000     52.441000
  O      45.077000     23.681000     50.377000
  H      44.141000     23.433000     50.632000
  C      50.148000     24.515000     51.296000
  O      51.030000     23.616000     51.293000
  O      50.247000     25.626000     50.732000
24
Coordinates from ORCA-job neb_MEP_ALL.QMRegion E -1076.356373477625
  C      49.040000     24.209000     54.467000
  H      49.766000     23.472000     54.125000
  H      49.396000     25.142000     54.903000
  C      47.723000     24.016000     54.354000
  C      46.711000     25.020000     54.873000
  O      47.091000     26.215000     55.027000
  O      45.563000     24.591000     55.133000
  O      47.197000     22.866000     53.798000
  C      47.053000     22.831000     52.334000
  H      46.659000     21.825000     52.135000
  C      48.409000     23.007000     51.724000
  H      49.123000     22.186000     51.795000
  C      48.806000     24.204000     51.255000
  C      47.873000     25.339000     51.259000
  H      48.301000     26.312000     51.008000
  C      46.579000     25.198000     51.589000
  H      45.913000     26.064000     51.631000
  C      45.982000     23.839000     51.855000
  H      45.244000     23.917000     52.668000
  O      45.358000     23.362000     50.662000
  H      44.380000     23.230000     50.816000
  C      50.237000     24.468000     50.805000
  O      51.139000     23.629000     51.081000
  O      50.411000     25.556000     50.208000
24
Coordinates from ORCA-job neb_MEP_ALL.QMRegion E -1076.360044166500
  C      49.047145     24.202754     54.428525
  H      49.771074     23.471973     54.069103
  H      49.405086     25.140402     54.852201
  C      47.728178     24.003528     54.338235
  C      46.722287     25.007869     54.869581
  O      47.104163     26.202207     55.022875
  O      45.574995     24.580563     55.134919
  O      47.196708     22.852477     53.789375
  C      47.041944     22.812211     52.324902
  H      46.647923     21.805625     52.133905
  C      48.393248     22.992488     51.708120
  H      49.107261     22.169062     51.760172
  C      48.793170     24.200669     51.269147
  C      47.858094     25.333806     51.292969
  H      48.284814     26.312739     51.068951
  C      46.561168     25.183121     51.610238
  H      45.893050     26.046241     51.661640
  C      45.968077     23.819901     51.852759
  H      45.226840     23.886391     52.663013
  O      45.350822     23.353527     50.652400
  H      44.372431     23.223971     50.801902
  C      50.227239     24.478471     50.840955
  O      51.127361     23.627920     51.084643
  O      50.407082     25.592466     50.295108
24
Coordinates from ORCA-job neb_MEP_ALL.QMRegion E -1076.363755226244
  C      49.055314     24.199590     54.383587
  H      49.777457     23.475729     54.007692
  H      49.414888     25.142724     54.793458
  C      47.736002     23.992119     54.318572
  C      46.735996     24.995318     54.863128
  O      47.119930     26.188847     55.017288
  O      45.590028     24.569293     55.136129
  O      47.199202     22.839317     53.778281
  C      47.030509     22.790048     52.313493
  H      46.638968     21.780892     52.131746
  C      48.376320     22.977078     51.688912
  H      49.091746     22.154231     51.723754
  C      48.776465     24.196795     51.283490
  C      47.838307     25.327298     51.330080
  H      48.264957     26.312976     51.138557
  C      46.539373     25.164798     51.632058
  H      45.866640     26.023295     51.696739
  C      45.951974     23.795120     51.849637
  H      45.208074     23.847117     52.658133
  O      45.340746     23.340067     50.642139
  H      44.360847     23.215670     50.787150
  C      50.215245     24.489754     50.882135
  O      51.113063     23.627172     51.088943
  O      50.400650     25.630541     50.397045
24
Coordinates from ORCA-job neb_MEP_ALL.QMRegion E -1076.367280061051
  C      49.071022     24.201978     54.303500
  H      49.790034     23.481669     53.915533
  H      49.431277     25.161636     54.673366
  C      47.752313     23.974085     54.290967
  C      46.760250     24.981118     54.849729
  O      47.145646     26.174834     55.002565
  O      45.614018     24.560799     55.129958
  O      47.210643     22.816027     53.762712
  C      47.016044     22.754750     52.288325
  H      46.629417     21.740861     52.119096
  C      48.352231     22.956467     51.658309
  H      49.070309     22.136873     51.663577
  C      48.756848     24.196134     51.323704
  C      47.814123     25.321504     51.400540
  H      48.239519     26.317014     51.266637
  C      46.508918     25.138542     51.659250
  H      45.827454     25.989094     51.737129
  C      45.931313     23.759047     51.836653
  H      45.189990     23.788627     52.646786
  O      45.318813     23.330377     50.620024
  H      44.337401     23.210796     50.765624
  C      50.199521     24.504580     50.953919
  O      51.093882     23.628442     51.111583
  O      50.389650     25.670977     50.535465
24
Coordinates from ORCA-job neb_MEP_ALL.QMRegion E -1076.354541773729
  C      49.105814     24.238124     54.160976
  H      49.843603     23.508956     53.828859
  H      49.458473     25.256502     54.333384
  C      47.790135     23.957634     54.254414
  C      46.802684     24.967920     54.817874
  O      47.196061     26.158774     54.977574
  O      45.660076     24.552383     55.124653
  O      47.251269     22.786755     53.790149
  C      47.005762     22.707290     52.193355
  H      46.640986     21.680900     52.066509
  C      48.342277     22.938602     51.647872
  H      49.057928     22.118592     51.602193
  C      48.761864     24.212135     51.495231
  C      47.803879     25.324928     51.577809
  H      48.216044     26.333239     51.518068
  C      46.484497     25.108969     51.698342
  H      45.772599     25.935413     51.694357
  C      45.909130     23.725256     51.800074
  H      45.184765     23.698417     52.624481
  O      45.258289     23.387900     50.572328
  H      44.275421     23.255332     50.730416
  C      50.192361     24.520130     51.109531
  O      51.082569     23.634813     51.218077
  O      50.368459     25.684634     50.680080
24
Coordinates from ORCA-job neb_MEP_ALL.QMRegion E -1076.345356848232
  C      49.116635     24.255623     54.131402
  H      49.846433     23.502638     53.838911
  H      49.465896     25.270210     54.323968
  C      47.800140     23.940313     54.310371
  C      46.805427     24.978179     54.838019
  O      47.188608     26.175264     54.973881
  O      45.656009     24.567608     55.123072
  O      47.297707     22.779399     53.931512
  C      46.991699     22.683614     52.058896
  H      46.629778     21.652767     52.047652
  C      48.321930     22.927895     51.630258
  H      49.050829     22.119322     51.608097
  C      48.762162     24.220028     51.541528
  C      47.802796     25.330238     51.582527
  H      48.217872     26.337056     51.519598
  C      46.483297     25.109900     51.688578
  H      45.772679     25.939250     51.700270
  C      45.910703     23.722756     51.775932
  H      45.204478     23.688399     52.616670
  O      45.240188     23.401501     50.553094
  H      44.263167     23.254760     50.730135
  C      50.193903     24.524009     51.126180
  O      51.080060     23.633261     51.215295
  O      50.363698     25.681047     50.677185
24
Coordinates from ORCA-job neb_MEP_ALL.QMRegion E -1076.342680867238
  C      49.124359     24.272444     54.065474
  H      49.858632     23.498650     53.852974
  H      49.473097     25.279563     54.288481
  C      47.805323     23.929933     54.336626
  C      46.806328     24.981472     54.847577
  O      47.191104     26.178266     54.972351
  O      45.656760     24.571611     55.127553
  O      47.338079     22.773269     54.052583
  C      46.983391     22.668856     51.955931
  H      46.625642     21.641433     52.017587
  C      48.309372     22.919539     51.641521
  H      49.045136     22.116938     51.617375
  C      48.770556     24.232421     51.616734
  C      47.803464     25.334387     51.599469
  H      48.216515     26.340961     51.527818
  C      46.483468     25.107309     51.682326
  H      45.771900     25.935654     51.692768
  C      45.911687     23.719656     51.756632
  H      45.215457     23.675628     52.607197
  O      45.221169     23.420814     50.537517
  H      44.248330     23.259843     50.726014
  C      50.194443     24.526642     51.150600
  O      51.076621     23.630671     51.219930
  O      50.357512     25.675617     50.679177
24
Coordinates from ORCA-job neb_MEP_ALL.QMRegion E -1076.346702409537
  C      49.120812     24.286393     53.922638
  H      49.863395     23.491920     53.859798
  H      49.472088     25.277841     54.219274
  C      47.804262     23.921540     54.336885
  C      46.806004     24.982398     54.852421
  O      47.197736     26.175998     54.971212
  O      45.659557     24.571636     55.134344
  O      47.368609     22.767871     54.151744
  C      46.981673     22.657946     51.876644
  H      46.624332     21.633891     51.978543
  C      48.300742     22.913396     51.664333
  H      49.041021     22.114260     51.632802
  C      48.792243     24.250638     51.751947
  C      47.805390     25.340565     51.629138
  H      48.214009     26.347511     51.540407
  C      46.487110     25.104432     51.677509
  H      45.773259     25.931502     51.672845
  C      45.913866     23.715786     51.743772
  H      45.222591     23.666036     52.600863
  O      45.208248     23.436945     50.528422
  H      44.239878     23.264338     50.723839
  C      50.196643     24.529827     51.185325
  O      51.074597     23.628930     51.227120
  O      50.347515     25.667081     50.682203
24
Coordinates from ORCA-job neb_MEP_ALL.QMRegion E -1076.363673693940
  C      49.109104     24.293267     53.734369
  H      49.860224     23.503902     53.857979
  H      49.462868     25.261058     54.127066
  C      47.803825     23.908214     54.323737
  C      46.811938     24.979867     54.858851
  O      47.209370     26.170917     54.973507
  O      45.672448     24.563819     55.146304
  O      47.413271     22.760694     54.253339
  C      46.981868     22.652351     51.808983
  H      46.619820     21.628268     51.901053
  C      48.295934     22.909514     51.693331
  H      49.035372     22.108899     51.654456
  C      48.822813     24.269044     51.922572
  C      47.810102     25.345259     51.675078
  H      48.211160     26.354182     51.575046
  C      46.493499     25.101923     51.672265
  H      45.777957     25.928641     51.647061
  C      45.915547     23.713606     51.723931
  H      45.231107     23.654437     52.587708
  O      45.190768     23.463277     50.513777
  H      44.226966     23.278413     50.717614
  C      50.196356     24.532745     51.222894
  O      51.070848     23.627774     51.236360
  O      50.332372     25.657497     50.689719
24
Coordinates from ORCA-job neb_MEP_ALL.QMRegion E -1076.390687122225
  C      49.140000     24.255000     53.626000
  H      49.929000     23.514000     53.810000
  H      49.475000     25.253000     53.933000
  C      47.916000     23.844000     54.405000
  C      46.901000     24.915000     54.918000
  O      47.281000     26.113000     54.975000
  O      45.777000     24.489000     55.249000
  O      47.664000     22.669000     54.584000
  C      46.944000     22.696000     51.508000
  H      46.572000     21.689000     51.317000
  C      48.246000     22.912000     51.708000
  H      48.965000     22.091000     51.697000
  C      48.810000     24.255000     52.076000
  C      47.815000     25.359000     51.825000
  H      48.213000     26.373000     51.870000
  C      46.513000     25.142000     51.625000
  H      45.824000     25.985000     51.527000
  C      45.896000     23.774000     51.542000
  H      45.266000     23.630000     52.441000
  O      45.077000     23.681000     50.377000
  H      44.141000     23.433000     50.632000
  C      50.148000     24.515000     51.296000
  O      51.030000     23.616000     51.293000
  O      50.247000     25.626000     50.732000
24
Coordinates from ORCA-job neb_MEP_ALL.QMRegion E -1076.356373477625
  C      49.040000     24.209000     54.467000
  H      49.766000     23.472000     54.125000
  H      49.396000     25.142000     54.903000
  C      47.723000     24.016000     54.354000
  C      46.711000     25.020000     54.873000
  O      47.091000     26.215000     55.027000
  O      45.563000     24.591000     55.133000
  O      47.197000     22.866000     53.798000
  C      47.053000     22.831000     52.334000
  H      46.659000     21.825000     52.135000
  C      48.409000     23.007000     51.724000
  H      49.123000     22.186000     51.795000
  C      48.806000     24.204000     51.255000
  C      47.873000     25.339000     51.259000
  H      48.301000     26.312000     51.008000
  C      46.579000     25.198000     51.589000
  H      45.913000     26.064000     51.631000
  C      45.982000     23.839000     51.855000
  H      45.244000     23.917000     52.668000
  O      45.358000     23.362000     50.662000
  H      44.380000     23.230000     50.816000
  C      50.237000     24.468000     50.805000
  O      51.139000     23.629000     51.081000
  O      50.411000     25.556000     50.208000
24
Coordinates from ORCA-job neb_MEP_ALL.QMRegion E -1076.360054088697
  C      49.047135     24.202715     54.428585
  H      49.771078     23.471916     54.069196
  H      49.405053     25.140274     54.852286
  C      47.728179     24.003645     54.338367
  C      46.722268     25.007883     54.869518
  O      47.104197     26.202140     55.022887
  O      45.575009     24.580501     55.134934
  O      47.196691     22.852422     53.789404
  C      47.041946     22.812198     52.324926
  H      46.647920     21.805604     52.133865
  C      48.393257     22.992485     51.708057
  H      49.107261     22.169096     51.760193
  C      48.793259     24.200656     51.269153
  C      47.858113     25.333764     51.292868
  H      48.284794     26.312731     51.068886
  C      46.561192     25.183159     51.610265
  H      45.893014     26.046255     51.661613
  C      45.968060     23.819946     51.852726
  H      45.226846     23.886397     52.663036
  O      45.350811     23.353485     50.652339
  H      44.372420     23.223971     50.801919
  C      50.227273     24.478501     50.840940
  O      51.127331     23.627864     51.084638
  O      50.407049     25.592514     50.295117
24
Coordinates from ORCA-job neb_MEP_ALL.QMRegion E -1076.363778782327
  C      49.055332     24.199515     54.383734
  H      49.777477     23.475598     54.007880
  H      49.414845     25.142554     54.793688
  C      47.736002     23.992208     54.318750
  C      46.735904     24.995344     54.862957
  O      47.119983     26.188756     55.017346
  O      45.590024     24.569218     55.136209
  O      47.199177     22.839268     53.778431
  C      47.030506     22.790045     52.313461
  H      46.638966     21.780872     52.131702
  C      48.376355     22.977102     51.688848
  H      49.091765     22.154284     51.723818
  C      48.776623     24.196777     51.283459
  C      47.838367     25.327234     51.329899
  H      48.264916     26.312960     51.138362
  C      46.539393     25.164828     51.632069
  H      45.866568     26.023338     51.696675
  C      45.951950     23.795118     51.849609
  H      45.208070     23.847141     52.658201
  O      45.340741     23.339983     50.642019
  H      44.360841     23.215665     50.787196
  C      50.215318     24.489771     50.882073
  O      51.113008     23.627062     51.088935
  O      50.400565     25.630613     50.397041
24
Coordinates from ORCA-job neb_MEP_ALL.QMRegion E -1076.367318974327
  C      49.070989     24.201611     54.303931
  H      49.790205     23.481817     53.915408
  H      49.431278     25.161501     54.672888
  C      47.752216     23.974495     54.290190
  C      46.760118     24.980897     54.848853
  O      47.146215     26.174166     55.002638
  O      45.614206     24.560128     55.130126
  O      47.210156     22.816420     53.762438
  C      47.016057     22.754958     52.288445
  H      46.629568     21.740940     52.119244
  C      48.352640     22.956610     51.658495
  H      49.070502     22.136612     51.663407
  C      48.757032     24.196162     51.323457
  C      47.814187     25.321438     51.400736
  H      48.239407     26.317005     51.267020
  C      46.508986     25.138513     51.659730
  H      45.827180     25.988776     51.736803
  C      45.931068     23.759180     51.836855
  H      45.189531     23.788490     52.646996
  O      45.318873     23.330174     50.620163
  H      44.337410     23.210911     50.765516
  C      50.199483     24.504542     50.953782
  O      51.093866     23.628382     51.111958
  O      50.389630     25.671045     50.535988
24
Coordinates from ORCA-job neb_MEP_ALL.QMRegion E -1076.355274104270
  C      49.105595     24.238183     54.160401
  H      49.842735     23.508203     53.829035
  H      49.457834     25.255963     54.337306
  C      47.790321     23.956583     54.256926
  C      46.803083     24.968818     54.819484
  O      47.194433     26.160403     54.977350
  O      45.659579     24.553381     55.123889
  O      47.250875     22.786528     53.789027
  C      47.005766     22.706586     52.195474
  H      46.640371     21.680122     52.067178
  C      48.341067     22.938210     51.645197
  H      49.057792     22.119082     51.602288
  C      48.761512     24.211669     51.492997
  C      47.803709     25.324906     51.575811
  H      48.216277     26.333160     51.517265
  C      46.484308     25.109278     51.697705
  H      45.772659     25.936542     51.695914
  C      45.909518     23.724730     51.800154
  H      45.185321     23.699045     52.624606
  O      45.258896     23.386999     50.572200
  H      44.276241     23.254750     50.731209
  C      50.192686     24.520961     51.108534
  O      51.082799     23.634803     51.216991
  O      50.369003     25.684991     50.679321
24
Coordinates from ORCA-job neb_MEP_ALL.QMRegion E -1076.345289891073
  C      49.116453     24.256016     54.129374
  H      49.846751     23.502546     53.839507
  H      49.465938     25.269899     54.324343
  C      47.800176     23.940279     54.310497
  C      46.805424     24.978133     54.838265
  O      47.188615     26.175252     54.973857
  O      45.655887     24.567671     55.123131
  O      47.298140     22.779222     53.932222
  C      46.991797     22.683629     52.059494
  H      46.629747     21.652896     52.047053
  C      48.321915     22.927849     51.630823
  H      49.050725     22.119250     51.607961
  C      48.762275     24.220122     51.542545
  C      47.802767     25.330238     51.582464
  H      48.217830     26.337039     51.519574
  C      46.483259     25.109746     51.688265
  H      45.772749     25.939099     51.700422
  C      45.910823     23.722643     51.775693
  H      45.204734     23.688119     52.616337
  O      45.239890     23.401864     50.552840
  H      44.262777     23.254767     50.730014
  C      50.193826     24.524111     51.126368
  O      51.079911     23.633245     51.215179
  O      50.363647     25.681012     50.677095
24
Coordinates from ORCA-job neb_MEP_ALL.QMRegion E -1076.342682591814
  C      49.124372     24.272438     54.065467
  H      49.858652     23.498635     53.853010
  H      49.473097     25.279565     54.288539
  C      47.805332     23.929898     54.336639
  C      46.806276     24.981403     54.847581
  O      47.191116     26.178278     54.972357
  O      45.656801     24.571616     55.127564
  O      47.338091     22.773234     54.052656
  C      46.983393     22.668820     51.955890
  H      46.625645     21.641402     52.017545
  C      48.309365     22.919519     51.641504
  H      49.045134     22.116925     51.617372
  C      48.770535     24.232430     51.616788
  C      47.803420     25.334377     51.599496
  H      48.216488     26.340957     51.527854
  C      46.483429     25.107262     51.682328
  H      45.771879     25.935611     51.692794
  C      45.911676     23.719604     51.756616
  H      45.215459     23.675574     52.607183
  O      45.221118     23.420800     50.537497
  H      44.248305     23.259839     50.726008
  C      50.194440     24.526604     51.150653
  O      51.076596     23.630692     51.219921
  O      50.357502     25.675634     50.679190
24
Coordinates from ORCA-job neb_MEP_ALL.QMRegion E -1076.346717618851
  C      49.120613     24.286327     53.922809
  H      49.863420     23.492121     53.859888
  H      49.472113     25.277617     54.219304
  C      47.804211     23.921608     54.337105
  C      46.806119     24.982435     54.852381
  O      47.197735     26.176058     54.971217
  O      45.659752     24.571522     55.134303
  O      47.368870     22.767787     54.151899
  C      46.981644     22.657954     51.877136
  H      46.624304     21.633797     51.978293
  C      48.300681     22.913419     51.663855
  H      49.041037     22.114228     51.632880
  C      48.792284     24.250604     51.751915
  C      47.805380     25.340531     51.629305
  H      48.213943     26.347493     51.540438
  C      46.487093     25.104390     51.677513
  H      45.773164     25.931487     51.672899
  C      45.913820     23.715717     51.743569
  H      45.222771     23.665909     52.600744
  O      45.208062     23.437019     50.528140
  H      44.239722     23.264330     50.723856
  C      50.196604     24.529886     51.185324
  O      51.074568     23.628884     51.227155
  O      50.347467     25.667069     50.682288
24
Coordinates from ORCA-job neb_MEP_ALL.QMRegion E -1076.363590625950
  C      49.109253     24.293075     53.734340
  H      49.859779     23.503328     53.858110
  H      49.462629     25.261247     54.126800
  C      47.804498     23.910855     54.323468
  C      46.812051     24.980155     54.859203
  O      47.209118     26.170637     54.973255
  O      45.671488     24.564247     55.146116
  O      47.411525     22.758711     54.253393
  C      46.982215     22.652391     51.809111
  H      46.620090     21.628107     51.902572
  C      48.295825     22.909683     51.693354
  H      49.035514     22.108986     51.654372
  C      48.823425     24.269391     51.922774
  C      47.810187     25.345238     51.674965
  H      48.211079     26.354313     51.573947
  C      46.493846     25.101832     51.672729
  H      45.777917     25.928376     51.646941
  C      45.915537     23.713465     51.724434
  H      45.230950     23.654456     52.588203
  O      45.191044     23.462719     50.514056
  H      44.227215     23.277833     50.717919
  C      50.196404     24.532999     51.223287
  O      51.070790     23.627640     51.236236
  O      50.332245     25.657346     50.689493
24
Coordinates from ORCA-job neb_MEP_ALL.QMRegion E -1076.390687122225
  C      49.140000     24.255000     53.626000
  H      49.929000     23.514000     53.810000
  H      49.475000     25.253000     53.933000
  C      47.916000     23.844000     54.405000
  C      46.901000     24.915000     54.918000
  O      47.281000     26.113000     54.975000
  O      45.777000     24.489000     55.249000
  O      47.664000     22.669000     54.584000
  C      46.944000     22.696000     51.508000
  H      46.572000     21.689000     51.317000
  C      48.246000     22.912000     51.708000
  H      48.965000     22.091000     51.697000
  C      48.810000     24.255000     52.076000
  C      47.815000     25.359000     51.825000
  H      48.213000     26.373000     51.870000
  C      46.513000     25.142000     51.625000
  H      45.824000     25.985000     51.527000
  C      45.896000     23.774000     51.542000
  H      45.266000     23.630000     52.441000
  O      45.077000     23.681000     50.377000
  H      44.141000     23.433000     50.632000
  C      50.148000     24.515000     51.296000
  O      51.030000     23.616000     51.293000
  O      50.247000     25.626000     50.732000
24
Coordinates from ORCA-job neb_MEP_ALL.QMRegion E -1076.356373477625
  C      49.040000     24.209000     54.467000
  H      49.766000     23.472000     54.125000
  H      49.396000     25.142000     54.903000
  C      47.723000     24.016000     54.354000
  C      46.711000     25.020000     54.873000
  O      47.091000     26.215000     55.027000
  O      45.563000     24.591000     55.133000
  O      47.197000     22.866000     53.798000
  C      47.053000     22.831000     52.334000
  H      46.659000     21.825000     52.135000
  C      48.409000     23.007000     51.724000
  H      49.123000     22.186000     51.795000
  C      48.806000     24.204000     51.255000
  C      47.873000     25.339000     51.259000
  H      48.301000     26.312000     51.008000
  C      46.579000     25.198000     51.589000
  H      45.913000     26.064000     51.631000
  C      45.982000     23.839000     51.855000
  H      45.244000     23.917000     52.668000
  O      45.358000     23.362000     50.662000
  H      44.380000     23.230000     50.816000
  C      50.237000     24.468000     50.805000
  O      51.139000     23.629000     51.081000
  O      50.411000     25.556000     50.208000
24
Coordinates from ORCA-job neb_MEP_ALL.QMRegion E -1076.360060735030
  C      49.047053     24.202505     54.428844
  H      49.771080     23.471659     54.069614
  H      49.404955     25.139791     54.852702
  C      47.728163     24.003866     54.338760
  C      46.722185     25.007912     54.869323
  O      47.104334     26.201948     55.022943
  O      45.575033     24.580249     55.134994
  O      47.196686     22.852336     53.789582
  C      47.041942     22.812178     52.324999
  H      46.647914     21.805532     52.133697
  C      48.393272     22.992485     51.707838
  H      49.107288     22.169210     51.760283
  C      48.793558     24.200626     51.269153
  C      47.858190     25.333614     51.292465
  H      48.284707     26.312684     51.068590
  C      46.561299     25.183300     51.610338
  H      45.892878     26.046316     51.661498
  C      45.968002     23.820076     51.852614
  H      45.226874     23.886423     52.663108
  O      45.350774     23.353337     50.652129
  H      44.372375     23.223970     50.801980
  C      50.227408     24.478608     50.840892
  O      51.127224     23.627669     51.084593
  O      50.406954     25.592705     50.295166
24
Coordinates from ORCA-job neb_MEP_ALL.QMRegion E -1076.363794192520
  C      49.055356     24.199129     54.384380
  H      49.777541     23.475025     54.008731
  H      49.414711     25.141880     54.794736
  C      47.735976     23.992353     54.319342
  C      46.735570     24.995395     54.862388
  O      47.120179     26.188476     55.017569
  O      45.589962     24.568917     55.136514
  O      47.199118     22.839158     53.779004
  C      47.030516     22.790042     52.313387
  H      46.638968     21.780799     52.131514
  C      48.376475     22.977194     51.688639
  H      49.091869     22.154484     51.724096
  C      48.777169     24.196730     51.283303
  C      47.838570     25.327000     51.329156
  H      48.264737     26.312865     51.137490
  C      46.539486     25.164944     51.632060
  H      45.866310     26.023476     51.696390
  C      45.951851     23.795108     51.849494
  H      45.208071     23.847236     52.658435
  O      45.340725     23.339657     50.641618
  H      44.360825     23.215634     50.787362
  C      50.215555     24.489818     50.881841
  O      51.112840     23.626645     51.088855
  O      50.400305     25.630912     50.397024
24
Coordinates from ORCA-job neb_MEP_ALL.QMRegion E -1076.367357200593
  C      49.070618     24.199883     54.306437
  H      49.790618     23.482204     53.915538
  H      49.431134     25.160456     54.672924
  C      47.751553     23.976009     54.287066
  C      46.759417     24.980016     54.845690
  O      47.148121     26.171639     55.003060
  O      45.614783     24.557513     55.130766
  O      47.207926     22.818271     53.761086
  C      47.016225     22.756052     52.289490
  H      46.630218     21.741750     52.120165
  C      48.354265     22.957204     51.659385
  H      49.071373     22.135730     51.663110
  C      48.757689     24.196064     51.321482
  C      47.814475     25.321128     51.400558
  H      48.239096     26.316902     51.267150
  C      46.509424     25.138528     51.661433
  H      45.826336     25.987834     51.735611
  C      45.930269     23.759753     51.837981
  H      45.187669     23.788467     52.647967
  O      45.319489     23.329085     50.621069
  H      44.337808     23.211165     50.765287
  C      50.199498     24.504252     50.952463
  O      51.093871     23.628135     51.112884
  O      50.389787     25.671316     50.537182
24
Coordinates from ORCA-job neb_MEP_ALL.QMRegion E -1076.355598263201
  C      49.104975     24.238703     54.157315
  H      49.839342     23.505006     53.829981
  H      49.455483     25.254033     54.353412
  C      47.791233     23.952498     54.268372
  C      46.804151     24.972293     54.826397
  O      47.187972     26.167331     54.976289
  O      45.657527     24.557961     55.120806
  O      47.251129     22.785388     53.790518
  C      47.005167     22.703232     52.198285
  H      46.637485     21.676222     52.069385
  C      48.335835     22.936378     51.634550
  H      49.056946     22.120993     51.602580
  C      48.759787     24.210356     51.485213
  C      47.802863     25.324964     51.567731
  H      48.217309     26.332962     51.513739
  C      46.483567     25.110397     51.694669
  H      45.773143     25.940986     51.702674
  C      45.911099     23.722950     51.799546
  H      45.188239     23.701261     52.624724
  O      45.260832     23.383658     50.571320
  H      44.279115     23.252259     50.734266
  C      50.193899     24.523357     51.104718
  O      51.083423     23.635206     51.212318
  O      50.371028     25.686635     50.676036
24
Coordinates from ORCA-job neb_MEP_ALL.QMRegion E -1076.345304383489
  C      49.115893     24.257499     54.121350
  H      49.848002     23.502210     53.841889
  H      49.466130     25.268742     54.325835
  C      47.800200     23.940220     54.310941
  C      46.805408     24.977959     54.839172
  O      47.188637     26.175142     54.973806
  O      45.655482     24.567901     55.123400
  O      47.299814     22.778374     53.935053
  C      46.992257     22.683721     52.061615
  H      46.629613     21.653359     52.044673
  C      48.321859     22.927625     51.633241
  H      49.050285     22.118969     51.607421
  C      48.762785     24.220582     51.546630
  C      47.802666     25.330203     51.582295
  H      48.217631     26.336979     51.519464
  C      46.483124     25.109158     51.687001
  H      45.772994     25.938461     51.701024
  C      45.911249     23.722190     51.774758
  H      45.205665     23.686993     52.615041
  O      45.238646     23.403256     50.551895
  H      44.261299     23.254829     50.729513
  C      50.193461     24.524420     51.127208
  O      51.079352     23.633153     51.214696
  O      50.363404     25.680932     50.676701
24
Coordinates from ORCA-job neb_MEP_ALL.QMRegion E -1076.342685005306
  C      49.124412     24.272408     54.065463
  H      49.858739     23.498572     53.853167
  H      49.473091     25.279561     54.288800
  C      47.805374     23.929748     54.336697
  C      46.806144     24.981210     54.847601
  O      47.191146     26.178250     54.972368
  O      45.656916     24.571601     55.127624
  O      47.338144     22.773083     54.052954
  C      46.983391     22.668659     51.955708
  H      46.625661     21.641260     52.017367
  C      48.309338     22.919438     51.641437
  H      49.045128     22.116875     51.617352
  C      48.770444     24.232455     51.617011
  C      47.803247     25.334331     51.599612
  H      48.216358     26.340930     51.528016
  C      46.483269     25.107062     51.682338
  H      45.771771     25.935424     51.692912
  C      45.911621     23.719378     51.756538
  H      45.215461     23.675329     52.607129
  O      45.220937     23.420735     50.537417
  H      44.248168     23.259818     50.725986
  C      50.194407     24.526524     51.150845
  O      51.076505     23.630750     51.219893
  O      50.357443     25.675665     50.679274
24
Coordinates from ORCA-job neb_MEP_ALL.QMRegion E -1076.346722609913
  C      49.119947     24.286016     53.923865
  H      49.863484     23.492937     53.860263
  H      49.472223     25.276793     54.219628
  C      47.804164     23.921796     54.337924
  C      46.806511     24.982580     54.852281
  O      47.197730     26.176298     54.971218
  O      45.660482     24.571075     55.134133
  O      47.369790     22.767413     54.152323
  C      46.981565     22.657960     51.879069
  H      46.624201     21.633445     51.977381
  C      48.300501     22.913471     51.662065
  H      49.041041     22.114159     51.633113
  C      48.792251     24.250373     51.751380
  C      47.805288     25.340375     51.629913
  H      48.213665     26.347400     51.540577
  C      46.486981     25.104234     51.677528
  H      45.772801     25.931372     51.673173
  C      45.913631     23.715473     51.742772
  H      45.223419     23.665390     52.600261
  O      45.207381     23.437266     50.527144
  H      44.239094     23.264289     50.723882
  C      50.196483     24.529997     51.185301
  O      51.074422     23.628753     51.227269
  O      50.347315     25.667118     50.682604
24
Coordinates from ORCA-job neb_MEP_ALL.QMRegion E -1076.363693346764
  C      49.109505     24.292534     53.734598
  H      49.858012     23.500831     53.858734
  H      49.461780     25.261944     54.125838
  C      47.804712     23.915297     54.322606
  C      46.811482     24.980837     54.860325
  O      47.208281     26.170246     54.972444
  O      45.668563     24.566193     55.145127
  O      47.406575     22.756774     54.253501
  C      46.983042     22.652333     51.810290
  H      46.621393     21.627683     51.909025
  C      48.296297     22.910422     51.693226
  H      49.035962     22.109537     51.654016
  C      48.825244     24.270458     51.923316
  C      47.810742     25.345310     51.674474
  H      48.210698     26.354783     51.569227
  C      46.494986     25.101355     51.674577
  H      45.777815     25.927229     51.646505
  C      45.915627     23.712820     51.726507
  H      45.230392     23.654496     52.590240
  O      45.192182     23.460399     50.515381
  H      44.228314     23.275348     50.719192
  C      50.196842     24.533765     51.224551
  O      51.070535     23.627212     51.235819
  O      50.331859     25.656932     50.688548
24
Coordinates from ORCA-job neb_MEP_ALL.QMRegion E -1076.390687122225
  C      49.140000     24.255000     53.626000
  H      49.929000     23.514000     53.810000
  H      49.475000     25.253000     53.933000
  C      47.916000     23.844000     54.405000
  C      46.901000     24.915000     54.918000
  O      47.281000     26.113000     54.975000
  O      45.777000     24.489000     55.249000
  O      47.664000     22.669000     54.584000
  C      46.944000     22.696000     51.508000
  H      46.572000     21.689000     51.317000
  C      48.246000     22.912000     51.708000
  H      48.965000     22.091000     51.697000
  C      48.810000     24.255000     52.076000
  C      47.815000     25.359000     51.825000
  H      48.213000     26.373000     51.870000
  C      46.513000     25.142000     51.625000
  H      45.824000     25.985000     51.527000
  C      45.896000     23.774000     51.542000
  H      45.266000     23.630000     52.441000
  O      45.077000     23.681000     50.377000
  H      44.141000     23.433000     50.632000
  C      50.148000     24.515000     51.296000
  O      51.030000     23.616000     51.293000
  O      50.247000     25.626000     50.732000
