24
Coordinates from ORCA-job neb_initial_path.QMRegion E   0.000000000000
  C      49.040000     24.209000     54.467000
  H      49.766000     23.472000     54.125000
  H      49.396000     25.142000     54.903000
  C      47.723000     24.016000     54.354000
  C      46.711000     25.020000     54.873000
  O      47.091000     26.215000     55.027000
  O      45.563000     24.591000     55.133000
  O      47.197000     22.866000     53.798000
  C      47.053000     22.831000     52.334000
  H      46.659000     21.825000     52.135000
  C      48.409000     23.007000     51.724000
  H      49.123000     22.186000     51.795000
  C      48.806000     24.204000     51.255000
  C      47.873000     25.339000     51.259000
  H      48.301000     26.312000     51.008000
  C      46.579000     25.198000     51.589000
  H      45.913000     26.064000     51.631000
  C      45.982000     23.839000     51.855000
  H      45.244000     23.917000     52.668000
  O      45.358000     23.362000     50.662000
  H      44.380000     23.230000     50.816000
  C      50.237000     24.468000     50.805000
  O      51.139000     23.629000     51.081000
  O      50.411000     25.556000     50.208000
24
Coordinates from ORCA-job neb_initial_path.QMRegion E   0.000000000000
  C      49.051918     24.213039     54.394545
  H      49.778362     23.477487     54.050224
  H      49.409103     25.168264     54.774789
  C      47.732098     24.006495     54.326891
  C      46.728807     25.010536     54.859782
  O      47.112363     26.203835     55.015808
  O      45.583033     24.582708     55.131345
  O      47.196166     22.848277     53.787652
  C      47.042106     22.805696     52.319561
  H      46.652718     21.796326     52.126466
  C      48.395784     22.990925     51.711482
  H      49.109994     22.166957     51.756496
  C      48.800024     24.207804     51.303635
  C      47.863161     25.338795     51.326885
  H      48.287960     26.321584     51.116580
  C      46.560721     25.180637     51.615863
  H      45.884637     26.038170     51.642529
  C      45.967033     23.816935     51.847882
  H      45.230458     23.876467     52.662562
  O      45.342625     23.363367     50.647039
  H      44.364169     23.233426     50.799748
  C      50.229073     24.480737     50.869874
  O      51.130105     23.631165     51.114027
  O      50.403108     25.587007     50.307522
24
Coordinates from ORCA-job neb_initial_path.QMRegion E   0.000000000000
  C      49.062961     24.217557     54.326040
  H      49.789915     23.483356     53.980726
  H      49.421029     25.193063     54.647934
  C      47.742556     23.997798     54.299570
  C      46.746677     25.000207     54.846072
  O      47.133728     26.191982     55.005285
  O      45.602535     24.574614     55.129975
  O      47.199932     22.833586     53.784357
  C      47.032172     22.781906     52.295602
  H      46.648681     21.768840     52.117087
  C      48.383340     22.976423     51.699208
  H      49.097681     22.152235     51.718997
  C      48.791960     24.209897     51.351023
  C      47.852127     25.338083     51.393989
  H      48.274898     26.329739     51.223738
  C      46.543219     25.163606     51.639728
  H      45.857308     26.013308     51.652594
  C      45.953572     23.794256     51.840713
  H      45.217806     23.835958     52.657003
  O      45.326528     23.365830     50.632665
  H      44.347097     23.237335     50.784633
  C      50.221365     24.492176     50.933355
  O      51.121221     23.633251     51.146170
  O      50.395023     25.615458     50.406369
24
Coordinates from ORCA-job neb_initial_path.QMRegion E   0.000000000000
  C      49.074121     24.223010     54.261173
  H      49.801500     23.488768     53.917855
  H      49.432809     25.217391     54.521639
  C      47.754510     23.986503     54.276387
  C      46.764953     24.990390     54.835356
  O      47.154116     26.181670     54.994947
  O      45.621186     24.568580     55.128321
  O      47.208760     22.819110     53.777866
  C      47.023837     22.757702     52.273715
  H      46.645870     21.742234     52.105519
  C      48.370313     22.963542     51.686672
  H      49.085704     22.140686     51.682155
  C      48.783575     24.211695     51.400470
  C      47.840438     25.336973     51.460317
  H      48.260520     26.335843     51.327765
  C      46.526195     25.146959     51.660103
  H      45.831524     25.990061     51.660772
  C      45.941855     23.771631     51.832077
  H      45.208036     23.795863     52.649759
  O      45.308745     23.371511     50.616790
  H      44.328120     23.241741     50.769549
  C      50.213592     24.502824     50.996944
  O      51.111626     23.634978     51.177202
  O      50.387408     25.640523     50.502147
24
Coordinates from ORCA-job neb_initial_path.QMRegion E   0.000000000000
  C      49.088925     24.237097     54.178496
  H      49.816671     23.491919     53.860994
  H      49.447702     25.246871     54.377174
  C      47.773333     23.969057     54.273158
  C      46.786013     24.983433     54.830939
  O      47.174131     26.176772     54.983561
  O      45.640255     24.567716     55.126340
  O      47.233489     22.796997     53.792336
  C      47.013902     22.726314     52.228972
  H      46.640544     21.703794     52.081832
  C      48.352881     22.950366     51.666735
  H      49.070791     22.130953     51.646407
  C      48.776780     24.216941     51.477989
  C      47.826596     25.337041     51.534702
  H      48.243290     26.341265     51.436122
  C      46.508088     25.130625     51.676136
  H      45.804847     25.966650     51.666827
  C      45.929230     23.749122     51.812308
  H      45.206310     23.748749     52.637555
  O      45.281723     23.386149     50.591362
  H      44.301222     23.247418     50.752564
  C      50.205650     24.514451     51.073953
  O      51.099384     23.635115     51.208984
  O      50.376216     25.661060     50.598569
24
Coordinates from ORCA-job neb_initial_path.QMRegion E   0.000000000000
  C      49.098966     24.251211     54.117221
  H      49.827487     23.490359     53.842814
  H      49.456972     25.263471     54.299711
  C      47.785366     23.954603     54.291374
  C      46.796424     24.983268     54.834204
  O      47.183068     26.178420     54.978304
  O      45.648554     24.571210     55.126833
  O      47.267627     22.786471     53.876564
  C      47.003587     22.703938     52.133021
  H      46.635165     21.675338     52.060424
  C      48.338038     22.940867     51.654242
  H      49.061415     22.126967     51.634409
  C      48.776068     24.224102     51.546667
  C      47.819389     25.338988     51.573943
  H      48.234337     26.344479     51.486031
  C      46.499776     25.123490     51.680618
  H      45.792724     25.955731     51.668402
  C      45.923080     23.739508     51.792970
  H      45.212409     23.721918     52.629010
  O      45.260896     23.400129     50.572265
  H      44.283149     23.250648     50.744284
  C      50.203009     24.520485     51.119407
  O      51.091855     23.633787     51.223610
  O      50.367816     25.666211     50.640305
24
Coordinates from ORCA-job neb_initial_path.QMRegion E   0.000000000000
  C      49.108445     24.268379     54.013937
  H      49.841660     23.484304     53.837107
  H      49.464020     25.274586     54.226549
  C      47.790710     23.936999     54.309521
  C      46.801561     24.985292     54.838253
  O      47.192756     26.178828     54.974396
  O      45.655188     24.574464     55.130291
  O      47.314833     22.783160     54.020828
  C      46.992369     22.679841     51.985094
  H      46.631331     21.653433     52.034089
  C      48.316284     22.927012     51.652494
  H      49.051686     22.123712     51.631234
  C      48.782098     24.238808     51.650729
  C      47.813254     25.342863     51.609654
  H      48.225627     26.348884     51.524252
  C      46.493739     25.116465     51.682405
  H      45.783847     25.946000     51.668307
  C      45.920288     23.729904     51.772740
  H      45.218869     23.698195     52.620024
  O      45.239133     23.415295     50.553747
  H      44.266742     23.253436     50.738182
  C      50.201779     24.526716     51.164276
  O      51.084513     23.632074     51.234500
  O      50.358578     25.667224     50.670758
24
Coordinates from ORCA-job neb_initial_path.QMRegion E   0.000000000000
  C      49.107192     24.283729     53.780128
  H      49.853584     23.485901     53.840442
  H      49.463571     25.263024     54.129275
  C      47.792381     23.918766     54.303800
  C      46.809394     24.981795     54.848906
  O      47.210536     26.170056     54.972633
  O      45.669322     24.566260     55.144385
  O      47.365498     22.771393     54.159454
  C      46.984278     22.662223     51.855171
  H      46.623226     21.639711     51.960104
  C      48.297324     22.915873     51.672222
  H      49.039476     22.116956     51.637931
  C      48.814417     24.265035     51.864190
  C      47.811862     25.349675     51.662856
  H      48.217828     26.357298     51.570940
  C      46.495525     25.110554     51.679455
  H      45.782147     25.938445     51.649819
  C      45.918545     23.722982     51.746626
  H      45.223934     23.678066     52.602603
  O      45.212391     23.445681     50.530198
  H      44.246501     23.266906     50.727052
  C      50.199254     24.532817     51.215902
  O      51.075889     23.629847     51.244223
  O      50.340575     25.660869     50.691958
24
Coordinates from ORCA-job neb_initial_path.QMRegion E   0.000000000000
  C      49.115274     24.275111     53.643518
  H      49.882955     23.504059     53.824473
  H      49.465379     25.255838     54.001586
  C      47.839481     23.884533     54.335229
  C      46.852499     24.952512     54.878923
  O      47.249006     26.142345     54.974961
  O      45.722981     24.529493     55.195499
  O      47.501245     22.716424     54.362808
  C      46.963865     22.672054     51.689320
  H      46.595843     21.648283     51.661559
  C      48.277989     22.914629     51.703367
  H      49.008150     22.105317     51.670925
  C      48.827819     24.271121     52.016580
  C      47.817959     25.358458     51.754757
  H      48.216466     26.372487     51.712470
  C      46.506179     25.121751     51.660168
  H      45.803471     25.954694     51.586689
  C      45.909048     23.742407     51.657475
  H      45.240170     23.654467     52.533247
  O      45.147461     23.556333     50.458867
  H      44.195179     23.341323     50.684569
  C      50.179047     24.527427     51.264686
  O      51.056367     23.624051     51.268782
  O      50.296347     25.644598     50.714513
24
Coordinates from ORCA-job neb_initial_path.QMRegion E   0.000000000000
  C      49.140000     24.255000     53.626000
  H      49.929000     23.514000     53.810000
  H      49.475000     25.253000     53.933000
  C      47.916000     23.844000     54.405000
  C      46.901000     24.915000     54.918000
  O      47.281000     26.113000     54.975000
  O      45.777000     24.489000     55.249000
  O      47.664000     22.669000     54.584000
  C      46.944000     22.696000     51.508000
  H      46.572000     21.689000     51.317000
  C      48.246000     22.912000     51.708000
  H      48.965000     22.091000     51.697000
  C      48.810000     24.255000     52.076000
  C      47.815000     25.359000     51.825000
  H      48.213000     26.373000     51.870000
  C      46.513000     25.142000     51.625000
  H      45.824000     25.985000     51.527000
  C      45.896000     23.774000     51.542000
  H      45.266000     23.630000     52.441000
  O      45.077000     23.681000     50.377000
  H      44.141000     23.433000     50.632000
  C      50.148000     24.515000     51.296000
  O      51.030000     23.616000     51.293000
  O      50.247000     25.626000     50.732000
