24
Coordinates from ORCA-job neb_MEP.QMRegion E -1076.356373477625
  C      49.040000     24.209000     54.467000
  H      49.766000     23.472000     54.125000
  H      49.396000     25.142000     54.903000
  C      47.723000     24.016000     54.354000
  C      46.711000     25.020000     54.873000
  O      47.091000     26.215000     55.027000
  O      45.563000     24.591000     55.133000
  O      47.197000     22.866000     53.798000
  C      47.053000     22.831000     52.334000
  H      46.659000     21.825000     52.135000
  C      48.409000     23.007000     51.724000
  H      49.123000     22.186000     51.795000
  C      48.806000     24.204000     51.255000
  C      47.873000     25.339000     51.259000
  H      48.301000     26.312000     51.008000
  C      46.579000     25.198000     51.589000
  H      45.913000     26.064000     51.631000
  C      45.982000     23.839000     51.855000
  H      45.244000     23.917000     52.668000
  O      45.358000     23.362000     50.662000
  H      44.380000     23.230000     50.816000
  C      50.237000     24.468000     50.805000
  O      51.139000     23.629000     51.081000
  O      50.411000     25.556000     50.208000
24
Coordinates from ORCA-job neb_MEP.QMRegion E -1076.360060735030
  C      49.047053     24.202505     54.428844
  H      49.771080     23.471659     54.069614
  H      49.404955     25.139791     54.852702
  C      47.728163     24.003866     54.338760
  C      46.722185     25.007912     54.869323
  O      47.104334     26.201948     55.022943
  O      45.575033     24.580249     55.134994
  O      47.196686     22.852336     53.789582
  C      47.041942     22.812178     52.324999
  H      46.647914     21.805532     52.133697
  C      48.393272     22.992485     51.707838
  H      49.107288     22.169210     51.760283
  C      48.793558     24.200626     51.269153
  C      47.858190     25.333614     51.292465
  H      48.284707     26.312684     51.068590
  C      46.561299     25.183300     51.610338
  H      45.892878     26.046316     51.661498
  C      45.968002     23.820076     51.852614
  H      45.226874     23.886423     52.663108
  O      45.350774     23.353337     50.652129
  H      44.372375     23.223970     50.801980
  C      50.227408     24.478608     50.840892
  O      51.127224     23.627669     51.084593
  O      50.406954     25.592705     50.295166
24
Coordinates from ORCA-job neb_MEP.QMRegion E -1076.363794192520
  C      49.055356     24.199129     54.384380
  H      49.777541     23.475025     54.008731
  H      49.414711     25.141880     54.794736
  C      47.735976     23.992353     54.319342
  C      46.735570     24.995395     54.862388
  O      47.120179     26.188476     55.017569
  O      45.589962     24.568917     55.136514
  O      47.199118     22.839158     53.779004
  C      47.030516     22.790042     52.313387
  H      46.638968     21.780799     52.131514
  C      48.376475     22.977194     51.688639
  H      49.091869     22.154484     51.724096
  C      48.777169     24.196730     51.283303
  C      47.838570     25.327000     51.329156
  H      48.264737     26.312865     51.137490
  C      46.539486     25.164944     51.632060
  H      45.866310     26.023476     51.696390
  C      45.951851     23.795108     51.849494
  H      45.208071     23.847236     52.658435
  O      45.340725     23.339657     50.641618
  H      44.360825     23.215634     50.787362
  C      50.215555     24.489818     50.881841
  O      51.112840     23.626645     51.088855
  O      50.400305     25.630912     50.397024
24
Coordinates from ORCA-job neb_MEP.QMRegion E -1076.367357200593
  C      49.070618     24.199883     54.306437
  H      49.790618     23.482204     53.915538
  H      49.431134     25.160456     54.672924
  C      47.751553     23.976009     54.287066
  C      46.759417     24.980016     54.845690
  O      47.148121     26.171639     55.003060
  O      45.614783     24.557513     55.130766
  O      47.207926     22.818271     53.761086
  C      47.016225     22.756052     52.289490
  H      46.630218     21.741750     52.120165
  C      48.354265     22.957204     51.659385
  H      49.071373     22.135730     51.663110
  C      48.757689     24.196064     51.321482
  C      47.814475     25.321128     51.400558
  H      48.239096     26.316902     51.267150
  C      46.509424     25.138528     51.661433
  H      45.826336     25.987834     51.735611
  C      45.930269     23.759753     51.837981
  H      45.187669     23.788467     52.647967
  O      45.319489     23.329085     50.621069
  H      44.337808     23.211165     50.765287
  C      50.199498     24.504252     50.952463
  O      51.093871     23.628135     51.112884
  O      50.389787     25.671316     50.537182
24
Coordinates from ORCA-job neb_MEP.QMRegion E -1076.355598263201
  C      49.104975     24.238703     54.157315
  H      49.839342     23.505006     53.829981
  H      49.455483     25.254033     54.353412
  C      47.791233     23.952498     54.268372
  C      46.804151     24.972293     54.826397
  O      47.187972     26.167331     54.976289
  O      45.657527     24.557961     55.120806
  O      47.251129     22.785388     53.790518
  C      47.005167     22.703232     52.198285
  H      46.637485     21.676222     52.069385
  C      48.335835     22.936378     51.634550
  H      49.056946     22.120993     51.602580
  C      48.759787     24.210356     51.485213
  C      47.802863     25.324964     51.567731
  H      48.217309     26.332962     51.513739
  C      46.483567     25.110397     51.694669
  H      45.773143     25.940986     51.702674
  C      45.911099     23.722950     51.799546
  H      45.188239     23.701261     52.624724
  O      45.260832     23.383658     50.571320
  H      44.279115     23.252259     50.734266
  C      50.193899     24.523357     51.104718
  O      51.083423     23.635206     51.212318
  O      50.371028     25.686635     50.676036
24
Coordinates from ORCA-job neb_MEP.QMRegion E -1076.345304383489
  C      49.115893     24.257499     54.121350
  H      49.848002     23.502210     53.841889
  H      49.466130     25.268742     54.325835
  C      47.800200     23.940220     54.310941
  C      46.805408     24.977959     54.839172
  O      47.188637     26.175142     54.973806
  O      45.655482     24.567901     55.123400
  O      47.299814     22.778374     53.935053
  C      46.992257     22.683721     52.061615
  H      46.629613     21.653359     52.044673
  C      48.321859     22.927625     51.633241
  H      49.050285     22.118969     51.607421
  C      48.762785     24.220582     51.546630
  C      47.802666     25.330203     51.582295
  H      48.217631     26.336979     51.519464
  C      46.483124     25.109158     51.687001
  H      45.772994     25.938461     51.701024
  C      45.911249     23.722190     51.774758
  H      45.205665     23.686993     52.615041
  O      45.238646     23.403256     50.551895
  H      44.261299     23.254829     50.729513
  C      50.193461     24.524420     51.127208
  O      51.079352     23.633153     51.214696
  O      50.363404     25.680932     50.676701
24
Coordinates from ORCA-job neb_MEP.QMRegion E -1076.342685005306
  C      49.124412     24.272408     54.065463
  H      49.858739     23.498572     53.853167
  H      49.473091     25.279561     54.288800
  C      47.805374     23.929748     54.336697
  C      46.806144     24.981210     54.847601
  O      47.191146     26.178250     54.972368
  O      45.656916     24.571601     55.127624
  O      47.338144     22.773083     54.052954
  C      46.983391     22.668659     51.955708
  H      46.625661     21.641260     52.017367
  C      48.309338     22.919438     51.641437
  H      49.045128     22.116875     51.617352
  C      48.770444     24.232455     51.617011
  C      47.803247     25.334331     51.599612
  H      48.216358     26.340930     51.528016
  C      46.483269     25.107062     51.682338
  H      45.771771     25.935424     51.692912
  C      45.911621     23.719378     51.756538
  H      45.215461     23.675329     52.607129
  O      45.220937     23.420735     50.537417
  H      44.248168     23.259818     50.725986
  C      50.194407     24.526524     51.150845
  O      51.076505     23.630750     51.219893
  O      50.357443     25.675665     50.679274
24
Coordinates from ORCA-job neb_MEP.QMRegion E -1076.346722609913
  C      49.119947     24.286016     53.923865
  H      49.863484     23.492937     53.860263
  H      49.472223     25.276793     54.219628
  C      47.804164     23.921796     54.337924
  C      46.806511     24.982580     54.852281
  O      47.197730     26.176298     54.971218
  O      45.660482     24.571075     55.134133
  O      47.369790     22.767413     54.152323
  C      46.981565     22.657960     51.879069
  H      46.624201     21.633445     51.977381
  C      48.300501     22.913471     51.662065
  H      49.041041     22.114159     51.633113
  C      48.792251     24.250373     51.751380
  C      47.805288     25.340375     51.629913
  H      48.213665     26.347400     51.540577
  C      46.486981     25.104234     51.677528
  H      45.772801     25.931372     51.673173
  C      45.913631     23.715473     51.742772
  H      45.223419     23.665390     52.600261
  O      45.207381     23.437266     50.527144
  H      44.239094     23.264289     50.723882
  C      50.196483     24.529997     51.185301
  O      51.074422     23.628753     51.227269
  O      50.347315     25.667118     50.682604
24
Coordinates from ORCA-job neb_MEP.QMRegion E -1076.363693346764
  C      49.109505     24.292534     53.734598
  H      49.858012     23.500831     53.858734
  H      49.461780     25.261944     54.125838
  C      47.804712     23.915297     54.322606
  C      46.811482     24.980837     54.860325
  O      47.208281     26.170246     54.972444
  O      45.668563     24.566193     55.145127
  O      47.406575     22.756774     54.253501
  C      46.983042     22.652333     51.810290
  H      46.621393     21.627683     51.909025
  C      48.296297     22.910422     51.693226
  H      49.035962     22.109537     51.654016
  C      48.825244     24.270458     51.923316
  C      47.810742     25.345310     51.674474
  H      48.210698     26.354783     51.569227
  C      46.494986     25.101355     51.674577
  H      45.777815     25.927229     51.646505
  C      45.915627     23.712820     51.726507
  H      45.230392     23.654496     52.590240
  O      45.192182     23.460399     50.515381
  H      44.228314     23.275348     50.719192
  C      50.196842     24.533765     51.224551
  O      51.070535     23.627212     51.235819
  O      50.331859     25.656932     50.688548
24
Coordinates from ORCA-job neb_MEP.QMRegion E -1076.390687122225
  C      49.140000     24.255000     53.626000
  H      49.929000     23.514000     53.810000
  H      49.475000     25.253000     53.933000
  C      47.916000     23.844000     54.405000
  C      46.901000     24.915000     54.918000
  O      47.281000     26.113000     54.975000
  O      45.777000     24.489000     55.249000
  O      47.664000     22.669000     54.584000
  C      46.944000     22.696000     51.508000
  H      46.572000     21.689000     51.317000
  C      48.246000     22.912000     51.708000
  H      48.965000     22.091000     51.697000
  C      48.810000     24.255000     52.076000
  C      47.815000     25.359000     51.825000
  H      48.213000     26.373000     51.870000
  C      46.513000     25.142000     51.625000
  H      45.824000     25.985000     51.527000
  C      45.896000     23.774000     51.542000
  H      45.266000     23.630000     52.441000
  O      45.077000     23.681000     50.377000
  H      44.141000     23.433000     50.632000
  C      50.148000     24.515000     51.296000
  O      51.030000     23.616000     51.293000
  O      50.247000     25.626000     50.732000
