24
Coordinates from ORCA-job neb_NEB-CI_converged.QMRegion
  C          49.12441227440694     24.27240830074454     54.06546261085222
  H          49.85873897271718     23.49857214929054     53.85316675896186
  H          49.47309086361348     25.27956073922277     54.28879985392177
  C          47.80537411095752     23.92974755622938     54.33669732505822
  C          46.80614432781190     24.98121017403459     54.84760093776251
  O          47.19114639361337     26.17825015710995     54.97236771433317
  O          45.65691647565573     24.57160118585753     55.12762363713125
  O          47.33814364317952     22.77308326989061     54.05295424549237
  C          46.98339118132014     22.66865880575790     51.95570792481060
  H          46.62566086796834     21.64126025005989     52.01736659573346
  C          48.30933766782725     22.91943787553848     51.64143690479543
  H          49.04512833588624     22.11687451266083     51.61735196078569
  C          48.77044441822069     24.23245533052253     51.61701126043864
  C          47.80324674917987     25.33433113835117     51.59961210925971
  H          48.21635775604680     26.34092959508102     51.52801601405608
  C          46.48326861316831     25.10706152072650     51.68233778887591
  H          45.77177128171309     25.93542395463721     51.69291201631375
  C          45.91162082803431     23.71937845031967     51.75653817141507
  H          45.21546074317653     23.67532896524009     52.60712898767613
  O          45.22093673806641     23.42073470491309     50.53741731223938
  H          44.24816826476388     23.25981799456903     50.72598563208880
  C          50.19440730944355     24.52652365136790     51.15084530682531
  O          51.07650503142068     23.63075043007592     51.21989300279765
  O          50.35744304409627     25.67566525553013     50.67927382939592
