24
Coordinates from ORCA-job neb_initial_path.QMRegion E   0.000000000000
  C      44.548000     20.393000     37.290000
  H      44.921000     19.659000     36.575000
  H      45.141000     21.280000     37.513000
  C      43.362000     20.252000     37.894000
  C      42.843000     21.307000     38.861000
  O      43.561000     22.317000     39.046000
  O      41.729000     21.090000     39.413000
  O      42.560000     19.150000     37.687000
  C      41.689000     19.080000     36.495000
  H      41.347000     18.036000     36.492000
  C      42.523000     19.394000     35.292000
  H      43.230000     18.641000     34.940000
  C      42.555000     20.645000     34.792000
  C      41.619000     21.654000     35.301000
  H      41.739000     22.662000     34.909000
  C      40.667000     21.365000     36.203000
  H      39.992000     22.151000     36.553000
  C      40.441000     19.968000     36.709000
  H      40.300000     20.009000     37.799000
  O      39.300000     19.403000     36.075000
  H      38.572000     19.274000     36.758000
  C      43.591000     21.118000     33.781000
  O      44.695000     20.512000     33.694000
  O      43.298000     22.166000     33.151000
24
Coordinates from ORCA-job neb_initial_path.QMRegion E   0.000000000000
  C      44.490200     20.442600     37.189800
  H      44.897600     19.704200     36.506200
  H      45.051600     21.351800     37.379200
  C      43.359800     20.255800     37.873400
  C      42.848400     21.310400     38.849200
  O      43.570000     22.318200     39.033400
  O      41.740600     21.090200     39.411200
  O      42.605200     19.145400     37.705800
  C      41.653600     19.052800     36.438000
  H      41.339600     18.006400     36.471200
  C      42.505000     19.375800     35.281400
  H      43.201400     18.623200     34.910800
  C      42.599200     20.648200     34.854600
  C      41.651400     21.653200     35.352000
  H      41.780800     22.666400     34.979200
  C      40.675200     21.352400     36.218000
  H      39.989800     22.133400     36.557200
  C      40.434400     19.951000     36.700800
  H      40.310600     19.972600     37.792200
  O      39.275400     19.417800     36.077000
  H      38.554800     19.284200     36.767400
  C      43.613800     21.115200     33.818800
  O      44.715600     20.511200     33.713000
  O      43.300000     22.149600     33.179000
24
Coordinates from ORCA-job neb_initial_path.QMRegion E   0.000000000000
  C      44.432400     20.492200     37.089600
  H      44.874200     19.749400     36.437400
  H      44.962200     21.423600     37.245400
  C      43.357600     20.259600     37.852800
  C      42.853800     21.313800     38.837400
  O      43.579000     22.319400     39.020800
  O      41.752200     21.090400     39.409400
  O      42.650400     19.140800     37.724600
  C      41.618200     19.025600     36.381000
  H      41.332200     17.976800     36.450400
  C      42.487000     19.357600     35.270800
  H      43.172800     18.605400     34.881600
  C      42.643400     20.651400     34.917200
  C      41.683800     21.652400     35.403000
  H      41.822600     22.670800     35.049400
  C      40.683400     21.339800     36.233000
  H      39.987600     22.115800     36.561400
  C      40.427800     19.934000     36.692600
  H      40.321200     19.936200     37.785400
  O      39.250800     19.432600     36.079000
  H      38.537600     19.294400     36.776800
  C      43.636600     21.112400     33.856600
  O      44.736200     20.510400     33.732000
  O      43.302000     22.133200     33.207000
24
Coordinates from ORCA-job neb_initial_path.QMRegion E   0.000000000000
  C      44.374600     20.541800     36.989400
  H      44.850800     19.794600     36.368600
  H      44.872800     21.495400     37.111600
  C      43.355400     20.263400     37.832200
  C      42.859200     21.317200     38.825600
  O      43.588000     22.320600     39.008200
  O      41.763800     21.090600     39.407600
  O      42.695600     19.136200     37.743400
  C      41.582800     18.998400     36.324000
  H      41.324800     17.947200     36.429600
  C      42.469000     19.339400     35.260200
  H      43.144200     18.587600     34.852400
  C      42.687600     20.654600     34.979800
  C      41.716200     21.651600     35.454000
  H      41.864400     22.675200     35.119600
  C      40.691600     21.327200     36.248000
  H      39.985400     22.098200     36.565600
  C      40.421200     19.917000     36.684400
  H      40.331800     19.899800     37.778600
  O      39.226200     19.447400     36.081000
  H      38.520400     19.304600     36.786200
  C      43.659400     21.109600     33.894400
  O      44.756800     20.509600     33.751000
  O      43.304000     22.116800     33.235000
24
Coordinates from ORCA-job neb_initial_path.QMRegion E   0.000000000000
  C      44.316800     20.591400     36.889200
  H      44.827400     19.839800     36.299800
  H      44.783400     21.567200     36.977800
  C      43.353200     20.267200     37.811600
  C      42.864600     21.320600     38.813800
  O      43.597000     22.321800     38.995600
  O      41.775400     21.090800     39.405800
  O      42.740800     19.131600     37.762200
  C      41.547400     18.971200     36.267000
  H      41.317400     17.917600     36.408800
  C      42.451000     19.321200     35.249600
  H      43.115600     18.569800     34.823200
  C      42.731800     20.657800     35.042400
  C      41.748600     21.650800     35.505000
  H      41.906200     22.679600     35.189800
  C      40.699800     21.314600     36.263000
  H      39.983200     22.080600     36.569800
  C      40.414600     19.900000     36.676200
  H      40.342400     19.863400     37.771800
  O      39.201600     19.462200     36.083000
  H      38.503200     19.314800     36.795600
  C      43.682200     21.106800     33.932200
  O      44.777400     20.508800     33.770000
  O      43.306000     22.100400     33.263000
24
Coordinates from ORCA-job neb_initial_path.QMRegion E   0.000000000000
  C      44.259000     20.641000     36.789000
  H      44.804000     19.885000     36.231000
  H      44.694000     21.639000     36.844000
  C      43.351000     20.271000     37.791000
  C      42.870000     21.324000     38.802000
  O      43.606000     22.323000     38.983000
  O      41.787000     21.091000     39.404000
  O      42.786000     19.127000     37.781000
  C      41.512000     18.944000     36.210000
  H      41.310000     17.888000     36.388000
  C      42.433000     19.303000     35.239000
  H      43.087000     18.552000     34.794000
  C      42.776000     20.661000     35.105000
  C      41.781000     21.650000     35.556000
  H      41.948000     22.684000     35.260000
  C      40.708000     21.302000     36.278000
  H      39.981000     22.063000     36.574000
  C      40.408000     19.883000     36.668000
  H      40.353000     19.827000     37.765000
  O      39.177000     19.477000     36.085000
  H      38.486000     19.325000     36.805000
  C      43.705000     21.104000     33.970000
  O      44.798000     20.508000     33.789000
  O      43.308000     22.084000     33.291000
24
Coordinates from ORCA-job neb_initial_path.QMRegion E   0.000000000000
  C      44.195750     20.646750     36.720000
  H      44.800000     19.900000     36.231250
  H      44.631750     21.644500     36.792750
  C      43.361750     20.261750     37.798000
  C      42.883750     21.320750     38.808000
  O      43.621500     22.319250     38.976250
  O      41.805500     21.085500     39.415000
  O      42.901500     19.109500     37.859000
  C      41.438000     18.943250     36.116750
  H      41.203750     17.892000     36.259000
  C      42.417000     19.295750     35.241250
  H      43.066750     18.542500     34.792500
  C      42.817750     20.662500     35.163000
  C      41.797500     21.652750     35.574500
  H      41.970750     22.686250     35.282250
  C      40.703750     21.309250     36.260500
  H      39.973750     22.073500     36.538000
  C      40.380250     19.891000     36.633250
  H      40.361500     19.812000     37.729500
  O      39.122750     19.527250     36.092500
  H      38.453500     19.370000     36.828750
  C      43.709500     21.096500     33.988250
  O      44.805250     20.507000     33.798500
  O      43.295250     22.062750     33.303000
24
Coordinates from ORCA-job neb_initial_path.QMRegion E   0.000000000000
  C      44.132500     20.652500     36.651000
  H      44.796000     19.915000     36.231500
  H      44.569500     21.650000     36.741500
  C      43.372500     20.252500     37.805000
  C      42.897500     21.317500     38.814000
  O      43.637000     22.315500     38.969500
  O      41.824000     21.080000     39.426000
  O      43.017000     19.092000     37.937000
  C      41.364000     18.942500     36.023500
  H      41.097500     17.896000     36.130000
  C      42.401000     19.288500     35.243500
  H      43.046500     18.533000     34.791000
  C      42.859500     20.664000     35.221000
  C      41.814000     21.655500     35.593000
  H      41.993500     22.688500     35.304500
  C      40.699500     21.316500     36.243000
  H      39.966500     22.084000     36.502000
  C      40.352500     19.899000     36.598500
  H      40.370000     19.797000     37.694000
  O      39.068500     19.577500     36.100000
  H      38.421000     19.415000     36.852500
  C      43.714000     21.089000     34.006500
  O      44.812500     20.506000     33.808000
  O      43.282500     22.041500     33.315000
24
Coordinates from ORCA-job neb_initial_path.QMRegion E   0.000000000000
  C      44.069250     20.658250     36.582000
  H      44.792000     19.930000     36.231750
  H      44.507250     21.655500     36.690250
  C      43.383250     20.243250     37.812000
  C      42.911250     21.314250     38.820000
  O      43.652500     22.311750     38.962750
  O      41.842500     21.074500     39.437000
  O      43.132500     19.074500     38.015000
  C      41.290000     18.941750     35.930250
  H      40.991250     17.900000     36.001000
  C      42.385000     19.281250     35.245750
  H      43.026250     18.523500     34.789500
  C      42.901250     20.665500     35.279000
  C      41.830500     21.658250     35.611500
  H      42.016250     22.690750     35.326750
  C      40.695250     21.323750     36.225500
  H      39.959250     22.094500     36.466000
  C      40.324750     19.907000     36.563750
  H      40.378500     19.782000     37.658500
  O      39.014250     19.627750     36.107500
  H      38.388500     19.460000     36.876250
  C      43.718500     21.081500     34.024750
  O      44.819750     20.505000     33.817500
  O      43.269750     22.020250     33.327000
24
Coordinates from ORCA-job neb_initial_path.QMRegion E   0.000000000000
  C      44.006000     20.664000     36.513000
  H      44.788000     19.945000     36.232000
  H      44.445000     21.661000     36.639000
  C      43.394000     20.234000     37.819000
  C      42.925000     21.311000     38.826000
  O      43.668000     22.308000     38.956000
  O      41.861000     21.069000     39.448000
  O      43.248000     19.057000     38.093000
  C      41.216000     18.941000     35.837000
  H      40.885000     17.904000     35.872000
  C      42.369000     19.274000     35.248000
  H      43.006000     18.514000     34.788000
  C      42.943000     20.667000     35.337000
  C      41.847000     21.661000     35.630000
  H      42.039000     22.693000     35.349000
  C      40.691000     21.331000     36.208000
  H      39.952000     22.105000     36.430000
  C      40.297000     19.915000     36.529000
  H      40.387000     19.767000     37.623000
  O      38.960000     19.678000     36.115000
  H      38.356000     19.505000     36.900000
  C      43.723000     21.074000     34.043000
  O      44.827000     20.504000     33.827000
  O      43.257000     21.999000     33.339000
