24
Coordinates from ORCA-job neb_MEP_ALL.QMRegion E -1076.506452458426
  C      44.548000     20.393000     37.290000
  H      44.921000     19.659000     36.575000
  H      45.141000     21.280000     37.513000
  C      43.362000     20.252000     37.894000
  C      42.843000     21.307000     38.861000
  O      43.561000     22.317000     39.046000
  O      41.729000     21.090000     39.413000
  O      42.560000     19.150000     37.687000
  C      41.689000     19.080000     36.495000
  H      41.347000     18.036000     36.492000
  C      42.523000     19.394000     35.292000
  H      43.230000     18.641000     34.940000
  C      42.555000     20.645000     34.792000
  C      41.619000     21.654000     35.301000
  H      41.739000     22.662000     34.909000
  C      40.667000     21.365000     36.203000
  H      39.992000     22.151000     36.553000
  C      40.441000     19.968000     36.709000
  H      40.300000     20.009000     37.799000
  O      39.300000     19.403000     36.075000
  H      38.572000     19.274000     36.758000
  C      43.591000     21.118000     33.781000
  O      44.695000     20.512000     33.694000
  O      43.298000     22.166000     33.151000
24
Coordinates from ORCA-job neb_MEP_ALL.QMRegion E -1076.503170772316
  C      44.496788     20.448873     37.185949
  H      44.894564     19.706387     36.498449
  H      45.047670     21.359839     37.369840
  C      43.357103     20.260611     37.873580
  C      42.851558     21.310573     38.847268
  O      43.569592     22.318788     39.033105
  O      41.739457     21.090295     39.411893
  O      42.586755     19.133638     37.692151
  C      41.662892     19.052334     36.453523
  H      41.339459     18.002921     36.471343
  C      42.506921     19.372811     35.278660
  H      43.198893     18.621083     34.908448
  C      42.597729     20.651889     34.850969
  C      41.657456     21.654230     35.354796
  H      41.784006     22.667025     34.984252
  C      40.673691     21.352076     36.220990
  H      39.989271     22.131929     36.557586
  C      40.433448     19.949578     36.699725
  H      40.311786     19.969981     37.792853
  O      39.273087     19.418661     36.077087
  H      38.553437     19.284938     36.768141
  C      43.615394     21.114092     33.824022
  O      44.717703     20.511026     33.714203
  O      43.300037     22.149884     33.179790
24
Coordinates from ORCA-job neb_MEP_ALL.QMRegion E -1076.494791116773
  C      44.442891     20.500845     37.089472
  H      44.870211     19.750807     36.427496
  H      44.958871     21.433669     37.235249
  C      43.356751     20.267858     37.853096
  C      42.857931     21.313690     38.834120
  O      43.578423     22.320556     39.020930
  O      41.750178     21.090513     39.410601
  O      42.626006     19.122364     37.710731
  C      41.628094     19.025206     36.399130
  H      41.332241     17.972015     36.451398
  C      42.490466     19.354805     35.266027
  H      43.169897     18.602719     34.878805
  C      42.637966     20.655902     34.909153
  C      41.692577     21.653830     35.405904
  H      41.826108     22.671622     35.054702
  C      40.680691     21.339148     36.237252
  H      39.986820     22.114188     36.561821
  C      40.426614     19.933157     36.691411
  H      40.322820     19.933455     37.786468
  O      39.248027     19.433151     36.078348
  H      38.535936     19.295130     36.777833
  C      43.639241     21.111295     33.863162
  O      44.738667     20.509852     33.733136
  O      43.301535     22.133682     33.207646
24
Coordinates from ORCA-job neb_MEP_ALL.QMRegion E -1076.486579177336
  C      44.386133     20.549490     36.995033
  H      44.847226     19.794482     36.360246
  H      44.871627     21.503710     37.104780
  C      43.356917     20.272221     37.832013
  C      42.862976     21.317181     38.821856
  O      43.587319     22.321775     39.008816
  O      41.761322     21.090641     39.409104
  O      42.675340     19.117918     37.735659
  C      41.588809     18.998003     36.336643
  H      41.325212     17.943028     36.431388
  C      42.472463     19.338427     35.255208
  H      43.142038     18.585376     34.850201
  C      42.678864     20.657526     34.969232
  C      41.724849     21.653046     35.455771
  H      41.866742     22.675802     35.123000
  C      40.688442     21.326633     36.251994
  H      39.984689     22.097040     36.565858
  C      40.420330     19.917029     36.683278
  H      40.333205     19.898029     37.779873
  O      39.224016     19.447374     36.080020
  H      38.519125     19.305023     36.787083
  C      43.662248     21.108728     33.900112
  O      44.758680     20.508941     33.751367
  O      43.303154     22.117427     33.235113
24
Coordinates from ORCA-job neb_MEP_ALL.QMRegion E -1076.481991575323
  C      44.325830     20.595755     36.897314
  H      44.825485     19.838521     36.295434
  H      44.784337     21.571173     36.976015
  C      43.355072     20.272767     37.811196
  C      42.866959     21.320961     38.810849
  O      43.596443     22.322441     38.996381
  O      41.773230     21.090690     39.407193
  O      42.731968     19.120595     37.762558
  C      41.547870     18.970714     36.269745
  H      41.318008     17.915346     36.410699
  C      42.452754     19.321645     35.246667
  H      43.114776     18.568643     34.822187
  C      42.723400     20.658525     35.033318
  C      41.754128     21.652027     35.505201
  H      41.906762     22.679661     35.190618
  C      40.697364     21.314517     36.265429
  H      39.982846     22.080124     36.569898
  C      40.414324     19.900628     36.675333
  H      40.343076     19.862974     37.772927
  O      39.200602     19.461656     36.082159
  H      38.502630     19.314856     36.796084
  C      43.684024     21.106392     33.935166
  O      44.778369     20.508269     33.769634
  O      43.305207     22.100985     33.262676
24
Coordinates from ORCA-job neb_MEP_ALL.QMRegion E -1076.481673609241
  C      44.257290     20.642870     36.787515
  H      44.803391     19.886466     36.228086
  H      44.690925     21.641034     36.839770
  C      43.350950     20.271062     37.789668
  C      42.871039     21.324963     38.800691
  O      43.606245     22.322719     38.982719
  O      41.786565     21.090686     39.404656
  O      42.793872     19.127839     37.788938
  C      41.505239     18.941923     36.200274
  H      41.309649     17.886764     36.387474
  C      42.431696     19.303038     35.238823
  H      43.085959     18.551168     34.792766
  C      42.776164     20.659989     35.105927
  C      41.782086     21.650943     35.557714
  H      41.949142     22.683539     35.262702
  C      40.708230     21.302152     36.278706
  H      39.981075     22.062196     36.574334
  C      40.407944     19.882690     36.666844
  H      40.353266     19.825647     37.765194
  O      39.176015     19.477146     36.084965
  H      38.485082     19.325470     36.805595
  C      43.705177     21.104256     33.970653
  O      44.799328     20.507798     33.789566
  O      43.308041     22.083364     33.292247
24
Coordinates from ORCA-job neb_MEP_ALL.QMRegion E -1076.489767939423
  C      44.196057     20.659191     36.707706
  H      44.805173     19.893004     36.229461
  H      44.635824     21.643852     36.794877
  C      43.357881     20.260489     37.803844
  C      42.882330     21.322766     38.808770
  O      43.620868     22.319397     38.976598
  O      41.804576     21.085480     39.414136
  O      42.896193     19.105379     37.863214
  C      41.432705     18.937822     36.107567
  H      41.211835     17.888527     36.270564
  C      42.415405     19.290214     35.244168
  H      43.068066     18.542652     34.792702
  C      42.827126     20.671484     35.169789
  C      41.796736     21.653969     35.571830
  H      41.969166     22.685507     35.280818
  C      40.702181     21.308770     36.262378
  H      39.974200     22.072893     36.540939
  C      40.385903     19.892439     36.637209
  H      40.360449     19.813496     37.734219
  O      39.124556     19.522421     36.089800
  H      38.455091     19.366531     36.827760
  C      43.710228     21.097028     33.987257
  O      44.805174     20.506760     33.797312
  O      43.295796     22.064695     33.301731
24
Coordinates from ORCA-job neb_MEP_ALL.QMRegion E -1076.502996288457
  C      44.126172     20.668303     36.628942
  H      44.803638     19.905826     36.230381
  H      44.575884     21.649158     36.744939
  C      43.369545     20.257081     37.810600
  C      42.895208     21.319732     38.815736
  O      43.635980     22.315692     38.969841
  O      41.823034     21.080059     39.424146
  O      43.002931     19.080067     37.938234
  C      41.361256     18.935646     36.021465
  H      41.109093     17.891375     36.146226
  C      42.401940     19.282736     35.244845
  H      43.048452     18.533397     34.791378
  C      42.877239     20.675209     35.235262
  C      41.812522     21.656753     35.589337
  H      41.991194     22.687840     35.302203
  C      40.697536     21.315529     36.245582
  H      39.967079     22.083156     36.506335
  C      40.359633     19.900342     36.604132
  H      40.368712     19.799045     37.700791
  O      39.071458     19.570820     36.096503
  H      38.423740     19.409672     36.850730
  C      43.714648     21.089462     34.005126
  O      44.812089     20.505868     33.806324
  O      43.283552     22.044647     33.312772
24
Coordinates from ORCA-job neb_MEP_ALL.QMRegion E -1076.518389872898
  C      44.055422     20.669290     36.557540
  H      44.797783     19.924381     36.231690
  H      44.509643     21.655013     36.690825
  C      43.381990     20.250503     37.814259
  C      42.910168     21.315610     38.821552
  O      43.652474     22.311658     38.962632
  O      41.842760     21.074364     39.435795
  O      43.125506     19.060869     38.019138
  C      41.285527     18.936560     35.928624
  H      40.995500     17.896819     36.007592
  C      42.387254     19.278224     35.245277
  H      43.026839     18.523481     34.789815
  C      42.920975     20.672904     35.297667
  C      41.830229     21.659421     35.609654
  H      42.015491     22.690568     35.326022
  C      40.693425     21.323214     36.226744
  H      39.959362     22.094457     36.467791
  C      40.328511     19.908289     36.566364
  H      40.378018     19.782785     37.662416
  O      39.014229     19.625077     36.105243
  H      38.389287     19.457765     36.875987
  C      43.719195     21.081288     34.024496
  O      44.819478     20.505193     33.816547
  O      43.270061     22.022071     33.325558
24
Coordinates from ORCA-job neb_MEP_ALL.QMRegion E -1076.526823241864
  C      44.006000     20.664000     36.513000
  H      44.788000     19.945000     36.232000
  H      44.445000     21.661000     36.639000
  C      43.394000     20.234000     37.819000
  C      42.925000     21.311000     38.826000
  O      43.668000     22.308000     38.956000
  O      41.861000     21.069000     39.448000
  O      43.248000     19.057000     38.093000
  C      41.216000     18.941000     35.837000
  H      40.885000     17.904000     35.872000
  C      42.369000     19.274000     35.248000
  H      43.006000     18.514000     34.788000
  C      42.943000     20.667000     35.337000
  C      41.847000     21.661000     35.630000
  H      42.039000     22.693000     35.349000
  C      40.691000     21.331000     36.208000
  H      39.952000     22.105000     36.430000
  C      40.297000     19.915000     36.529000
  H      40.387000     19.767000     37.623000
  O      38.960000     19.678000     36.115000
  H      38.356000     19.505000     36.900000
  C      43.723000     21.074000     34.043000
  O      44.827000     20.504000     33.827000
  O      43.257000     21.999000     33.339000
24
Coordinates from ORCA-job neb_MEP_ALL.QMRegion E -1076.506452458426
  C      44.548000     20.393000     37.290000
  H      44.921000     19.659000     36.575000
  H      45.141000     21.280000     37.513000
  C      43.362000     20.252000     37.894000
  C      42.843000     21.307000     38.861000
  O      43.561000     22.317000     39.046000
  O      41.729000     21.090000     39.413000
  O      42.560000     19.150000     37.687000
  C      41.689000     19.080000     36.495000
  H      41.347000     18.036000     36.492000
  C      42.523000     19.394000     35.292000
  H      43.230000     18.641000     34.940000
  C      42.555000     20.645000     34.792000
  C      41.619000     21.654000     35.301000
  H      41.739000     22.662000     34.909000
  C      40.667000     21.365000     36.203000
  H      39.992000     22.151000     36.553000
  C      40.441000     19.968000     36.709000
  H      40.300000     20.009000     37.799000
  O      39.300000     19.403000     36.075000
  H      38.572000     19.274000     36.758000
  C      43.591000     21.118000     33.781000
  O      44.695000     20.512000     33.694000
  O      43.298000     22.166000     33.151000
24
Coordinates from ORCA-job neb_MEP_ALL.QMRegion E -1076.504780124008
  C      44.497568     20.451605     37.184745
  H      44.891687     19.708969     36.491160
  H      45.045150     21.368777     37.361369
  C      43.356349     20.261735     37.869793
  C      42.851194     21.310103     38.847045
  O      43.569811     22.319532     39.032662
  O      41.740376     21.090683     39.411578
  O      42.573224     19.127592     37.680616
  C      41.670875     19.050754     36.466594
  H      41.339497     18.000790     36.471493
  C      42.507914     19.373534     35.276757
  H      43.197229     18.618386     34.905713
  C      42.596413     20.651237     34.848358
  C      41.660584     21.654960     35.359158
  H      41.787203     22.668094     34.988919
  C      40.674736     21.351664     36.221972
  H      39.988388     22.130991     36.558192
  C      40.432715     19.948130     36.699684
  H      40.312689     19.967642     37.793247
  O      39.271366     19.419351     36.076992
  H      38.552121     19.285605     36.768911
  C      43.616542     21.114802     33.826874
  O      44.719523     20.510884     33.715769
  O      43.300765     22.149092     33.181326
24
Coordinates from ORCA-job neb_MEP_ALL.QMRegion E -1076.497364301491
  C      44.446811     20.504122     37.091149
  H      44.865926     19.753772     36.418266
  H      44.956628     21.445678     37.225172
  C      43.356157     20.269528     37.848742
  C      42.857555     21.313133     38.833480
  O      43.578482     22.321725     39.020672
  O      41.751290     21.091041     39.410120
  O      42.607507     19.113190     37.696700
  C      41.638484     19.023502     36.416283
  H      41.332328     17.968670     36.452147
  C      42.492283     19.356480     35.262719
  H      43.167891     18.599208     34.875243
  C      42.633664     20.654674     34.902585
  C      41.696430     21.654702     35.411772
  H      41.829982     22.673061     35.060107
  C      40.682332     21.338818     36.238399
  H      39.985545     22.113138     36.562596
  C      40.425321     19.931814     36.691388
  H      40.324175     19.930759     37.787084
  O      39.245755     19.433702     36.077795
  H      38.534276     19.295870     36.778824
  C      43.640901     21.112537     33.866693
  O      44.740981     20.509405     33.734981
  O      43.302237     22.132635     33.209558
24
Coordinates from ORCA-job neb_MEP_ALL.QMRegion E -1076.488245844266
  C      44.393463     20.551741     37.001153
  H      44.842988     19.796437     36.352789
  H      44.871188     21.514028     37.097748
  C      43.356709     20.273546     37.828868
  C      42.862556     21.316734     38.820854
  O      43.587112     22.323028     39.009035
  O      41.762121     21.091157     39.408673
  O      42.660080     19.109367     37.726116
  C      41.596526     18.996829     36.349764
  H      41.325546     17.939837     36.432848
  C      42.474386     19.340383     35.251621
  H      43.140503     18.582578     34.847309
  C      42.671677     20.656066     34.959504
  C      41.727892     21.653721     35.460735
  H      41.869586     22.677025     35.126647
  C      40.690138     21.326736     36.252738
  H      39.983481     22.096385     36.566496
  C      40.418994     19.916403     36.683181
  H      40.334490     19.896184     37.780574
  O      39.222140     19.447443     36.079268
  H      38.517840     19.305484     36.787883
  C      43.663709     21.110059     33.902886
  O      44.760535     20.508372     33.752523
  O      43.303571     22.116503     33.236615
24
Coordinates from ORCA-job neb_MEP_ALL.QMRegion E -1076.482480706394
  C      44.333426     20.596609     36.904910
  H      44.822803     19.838974     36.291587
  H      44.785445     21.576741     36.973703
  C      43.355167     20.273107     37.810000
  C      42.866366     21.320864     38.809831
  O      43.596205     22.323312     38.996901
  O      41.773545     21.091030     39.407028
  O      42.726155     19.115962     37.761359
  C      41.549475     18.969939     36.273184
  H      41.318502     17.913401     36.412292
  C      42.453673     19.322789     35.244257
  H      43.114052     18.567316     34.820777
  C      42.716193     20.657484     35.024476
  C      41.755630     21.652410     35.507741
  H      41.907849     22.680279     35.191765
  C      40.698488     21.314994     36.265665
  H      39.982110     22.079970     36.570292
  C      40.413531     19.900692     36.675033
  H      40.343832     19.862340     37.773506
  O      39.199536     19.461268     36.081547
  H      38.502018     19.314974     36.796501
  C      43.684908     21.107230     33.936398
  O      44.779309     20.507847     33.769870
  O      43.305269     22.100519     33.263378
24
Coordinates from ORCA-job neb_MEP_ALL.QMRegion E -1076.482161560290
  C      44.256591     20.643851     36.785703
  H      44.802930     19.887716     36.226289
  H      44.688874     21.642372     36.837087
  C      43.350946     20.271492     37.789524
  C      42.870622     21.325350     38.800194
  O      43.606721     22.322865     38.982597
  O      41.787046     21.090637     39.404682
  O      42.801248     19.128215     37.796590
  C      41.498955     18.940323     36.191338
  H      41.309295     17.885748     36.387007
  C      42.430513     19.302028     35.238578
  H      43.085086     18.550783     34.792012
  C      42.776299     20.660146     35.106567
  C      41.782570     21.651142     35.558912
  H      41.949911     22.683451     35.264492
  C      40.708623     21.302342     36.279041
  H      39.981083     22.061718     36.574727
  C      40.407798     19.882407     36.665933
  H      40.353540     19.824654     37.765088
  O      39.174980     19.477191     36.085035
  H      38.484462     19.325828     36.805974
  C      43.705640     21.103829     33.971019
  O      44.799898     20.507932     33.789983
  O      43.307962     22.083208     33.292952
24
Coordinates from ORCA-job neb_MEP_ALL.QMRegion E -1076.491141850888
  C      44.192756     20.663357     36.697131
  H      44.808690     19.888976     36.229076
  H      44.641074     21.645902     36.796960
  C      43.355524     20.257858     37.805634
  C      42.880774     21.323788     38.809794
  O      43.620466     22.319945     38.976897
  O      41.803176     21.085825     39.413620
  O      42.893402     19.105708     37.867299
  C      41.427640     18.933720     36.100149
  H      41.219596     17.884641     36.281920
  C      42.415548     19.288622     35.245837
  H      43.069544     18.542470     34.792865
  C      42.835454     20.676076     35.177575
  C      41.794827     21.654709     35.570545
  H      41.967476     22.685529     35.279204
  C      40.702729     21.308670     36.263137
  H      39.974376     22.072371     36.543984
  C      40.389592     19.892135     36.640016
  H      40.359607     19.814768     37.738568
  O      39.127281     19.518150     36.088291
  H      38.456856     19.363049     36.826382
  C      43.710899     21.098588     33.986113
  O      44.805210     20.506439     33.795886
  O      43.296560     22.066019     33.300672
24
Coordinates from ORCA-job neb_MEP_ALL.QMRegion E -1076.506003571684
  C      44.118651     20.674658     36.610291
  H      44.808328     19.900576     36.230946
  H      44.583536     21.650608     36.748419
  C      43.364667     20.251172     37.812610
  C      42.893569     21.321048     38.817292
  O      43.635139     22.316462     38.970319
  O      41.820912     21.080415     39.422969
  O      42.993530     19.081952     37.937487
  C      41.361088     18.931522     36.019627
  H      41.120668     17.885755     36.163046
  C      42.402965     19.281091     35.247294
  H      43.051100     18.533098     34.791463
  C      42.892358     20.681955     35.248869
  C      41.810111     21.657324     35.587416
  H      41.988572     22.687947     35.299495
  C      40.698209     21.315016     36.246877
  H      39.967336     22.082337     36.510832
  C      40.364675     19.899687     36.609022
  H      40.367498     19.801044     37.707372
  O      39.076011     19.564458     36.094205
  H      38.426738     19.404112     36.848454
  C      43.715378     21.091719     34.003485
  O      44.811862     20.505523     33.804157
  O      43.284837     22.046649     33.311063
24
Coordinates from ORCA-job neb_MEP_ALL.QMRegion E -1076.521331234773
  C      44.043148     20.674595     36.536304
  H      44.800503     19.922176     36.232697
  H      44.511404     21.655344     36.690346
  C      43.378138     20.244339     37.815673
  C      42.910058     21.316465     38.822924
  O      43.652839     22.312018     38.962596
  O      41.842423     21.074312     39.435232
  O      43.123754     19.062145     38.021299
  C      41.283811     18.934238     35.924739
  H      40.998029     17.892663     36.012733
  C      42.387558     19.277199     35.247265
  H      43.027850     18.522683     34.789733
  C      42.937613     20.678215     35.314271
  C      41.829914     21.659805     35.609650
  H      42.014875     22.690988     35.325318
  C      40.693653     21.323189     36.226749
  H      39.959094     22.094597     36.469102
  C      40.330435     19.908272     36.568320
  H      40.377672     19.783408     37.665650
  O      39.014489     19.623324     36.103890
  H      38.389760     19.456060     36.875704
  C      43.719998     21.082672     34.024551
  O      44.819635     20.505091     33.815259
  O      43.270300     22.022368     33.325005
24
Coordinates from ORCA-job neb_MEP_ALL.QMRegion E -1076.526823241864
  C      44.006000     20.664000     36.513000
  H      44.788000     19.945000     36.232000
  H      44.445000     21.661000     36.639000
  C      43.394000     20.234000     37.819000
  C      42.925000     21.311000     38.826000
  O      43.668000     22.308000     38.956000
  O      41.861000     21.069000     39.448000
  O      43.248000     19.057000     38.093000
  C      41.216000     18.941000     35.837000
  H      40.885000     17.904000     35.872000
  C      42.369000     19.274000     35.248000
  H      43.006000     18.514000     34.788000
  C      42.943000     20.667000     35.337000
  C      41.847000     21.661000     35.630000
  H      42.039000     22.693000     35.349000
  C      40.691000     21.331000     36.208000
  H      39.952000     22.105000     36.430000
  C      40.297000     19.915000     36.529000
  H      40.387000     19.767000     37.623000
  O      38.960000     19.678000     36.115000
  H      38.356000     19.505000     36.900000
  C      43.723000     21.074000     34.043000
  O      44.827000     20.504000     33.827000
  O      43.257000     21.999000     33.339000
24
Coordinates from ORCA-job neb_MEP_ALL.QMRegion E -1076.506452458426
  C      44.548000     20.393000     37.290000
  H      44.921000     19.659000     36.575000
  H      45.141000     21.280000     37.513000
  C      43.362000     20.252000     37.894000
  C      42.843000     21.307000     38.861000
  O      43.561000     22.317000     39.046000
  O      41.729000     21.090000     39.413000
  O      42.560000     19.150000     37.687000
  C      41.689000     19.080000     36.495000
  H      41.347000     18.036000     36.492000
  C      42.523000     19.394000     35.292000
  H      43.230000     18.641000     34.940000
  C      42.555000     20.645000     34.792000
  C      41.619000     21.654000     35.301000
  H      41.739000     22.662000     34.909000
  C      40.667000     21.365000     36.203000
  H      39.992000     22.151000     36.553000
  C      40.441000     19.968000     36.709000
  H      40.300000     20.009000     37.799000
  O      39.300000     19.403000     36.075000
  H      38.572000     19.274000     36.758000
  C      43.591000     21.118000     33.781000
  O      44.695000     20.512000     33.694000
  O      43.298000     22.166000     33.151000
24
Coordinates from ORCA-job neb_MEP_ALL.QMRegion E -1076.505932502565
  C      44.497304     20.453243     37.183550
  H      44.882315     19.719208     36.471672
  H      45.039100     21.393292     37.339000
  C      43.349518     20.257490     37.854614
  C      42.850135     21.309840     38.846416
  O      43.569385     22.318517     39.030532
  O      41.742842     21.090924     39.410924
  O      42.547273     19.123834     37.654532
  C      41.688860     19.045553     36.495242
  H      41.340579     17.998181     36.472419
  C      42.510206     19.374913     35.275973
  H      43.192855     18.610997     34.897160
  C      42.591224     20.646579     34.840034
  C      41.667675     21.656939     35.370654
  H      41.796556     22.671647     35.002160
  C      40.678439     21.349968     36.225010
  H      39.986152     22.128368     36.560023
  C      40.432558     19.943344     36.701834
  H      40.313894     19.962006     37.794537
  O      39.268504     19.420776     36.076913
  H      38.548708     19.287365     36.770831
  C      43.619874     21.115726     33.830626
  O      44.723222     20.511945     33.721640
  O      43.304155     22.148189     33.185488
24
Coordinates from ORCA-job neb_MEP_ALL.QMRegion E -1076.500353041067
  C      44.452353     20.506080     37.095985
  H      44.850676     19.768874     36.391206
  H      44.947786     21.481904     37.192982
  C      43.348984     20.263966     37.829862
  C      42.856595     21.313144     38.831987
  O      43.577413     22.321179     39.018103
  O      41.755116     21.091574     39.408449
  O      42.564654     19.105300     37.653493
  C      41.669660     19.017437     36.463666
  H      41.333487     17.962441     36.454003
  C      42.495289     19.359012     35.258713
  H      43.161262     18.589173     34.862711
  C      42.621931     20.647246     34.884694
  C      41.705925     21.657573     35.428613
  H      41.843160     22.677530     35.078932
  C      40.687663     21.337250     36.243115
  H      39.982523     22.109201     36.565137
  C      40.423523     19.925662     36.693562
  H      40.326754     19.922871     37.788554
  O      39.240920     19.435536     36.077254
  H      38.529264     19.298270     36.781382
  C      43.645597     21.113766     33.872015
  O      44.746284     20.510460     33.743291
  O      43.306548     22.131353     33.215761
24
Coordinates from ORCA-job neb_MEP_ALL.QMRegion E -1076.491024714784
  C      44.407806     20.551256     37.017503
  H      44.827295     19.809884     36.329411
  H      44.865574     21.547459     37.071265
  C      43.352614     20.267776     37.814420
  C      42.861809     21.317069     38.818806
  O      43.585232     22.323352     39.007533
  O      41.765479     21.092001     39.406559
  O      42.622715     19.102056     37.690311
  C      41.623507     18.992404     36.390194
  H      41.326920     17.932245     36.436132
  C      42.476616     19.343352     35.244653
  H      43.134539     18.574280     34.836094
  C      42.653554     20.647773     34.933765
  C      41.735359     21.656647     35.475431
  H      41.880767     22.680561     35.142315
  C      40.695092     21.326477     36.257024
  H      39.980845     22.093055     36.568800
  C      40.415958     19.911946     36.684308
  H      40.337648     19.889636     37.781598
  O      39.217487     19.448566     36.078418
  H      38.513312     19.307350     36.790117
  C      43.667594     21.111111     33.906733
  O      44.764845     20.509114     33.759563
  O      43.307200     22.115478     33.242217
24
Coordinates from ORCA-job neb_MEP_ALL.QMRegion E -1076.483520082985
  C      44.351802     20.594294     36.925650
  H      44.812377     19.845942     36.278657
  H      44.785445     21.596572     36.961998
  C      43.354447     20.268280     37.804838
  C      42.865246     21.322018     38.807881
  O      43.594394     22.323949     38.996878
  O      41.775339     21.091924     39.405548
  O      42.714117     19.113123     37.753018
  C      41.556431     18.966887     36.284005
  H      41.319894     17.907730     36.415964
  C      42.453305     19.323788     35.237973
  H      43.110650     18.563171     34.814660
  C      42.697800     20.651994     35.000585
  C      41.759005     21.654478     35.515280
  H      41.913372     22.682098     35.199096
  C      40.701394     21.315816     36.268114
  H      39.980594     22.078496     36.571912
  C      40.410952     19.898997     36.674367
  H      40.346331     19.859093     37.773751
  O      39.196140     19.461200     36.080693
  H      38.499330     19.315773     36.797837
  C      43.686921     21.107815     33.937551
  O      44.781373     20.508159     33.773286
  O      43.307125     22.100082     33.266479
24
Coordinates from ORCA-job neb_MEP_ALL.QMRegion E -1076.482584423971
  C      44.257105     20.645125     36.781389
  H      44.802851     19.889347     36.224299
  H      44.687028     21.643710     36.834980
  C      43.351898     20.273295     37.792585
  C      42.869515     21.327634     38.799882
  O      43.607355     22.323085     38.982692
  O      41.788048     21.090654     39.404580
  O      42.822274     19.127674     37.819802
  C      41.481313     18.936268     36.166958
  H      41.308190     17.883574     36.385932
  C      42.427132     19.298103     35.237537
  H      43.083690     18.550410     34.791197
  C      42.776191     20.662044     35.107119
  C      41.783032     21.651138     35.559386
  H      41.950510     22.683726     35.266558
  C      40.708788     21.302595     36.279679
  H      39.981139     22.061336     36.576117
  C      40.406871     19.881875     36.663254
  H      40.354512     19.822907     37.763844
  O      39.172103     19.477090     36.085154
  H      38.483225     19.326363     36.806722
  C      43.705625     21.103028     33.970565
  O      44.800529     20.508329     33.790288
  O      43.307856     22.083322     33.293626
24
Coordinates from ORCA-job neb_MEP_ALL.QMRegion E -1076.492052940501
  C      44.176181     20.664260     36.666801
  H      44.815716     19.883591     36.230990
  H      44.656949     21.651051     36.802707
  C      43.351893     20.253869     37.802811
  C      42.877837     21.325512     38.812352
  O      43.618521     22.321002     38.977652
  O      41.797446     21.087755     39.412964
  O      42.889747     19.111470     37.880903
  C      41.416138     18.924793     36.081228
  H      41.243758     17.872455     36.316738
  C      42.418085     19.288908     35.248993
  H      43.074237     18.542019     34.793847
  C      42.859413     20.682928     35.204263
  C      41.791765     21.656581     35.568279
  H      41.961422     22.687090     35.273712
  C      40.704838     21.307925     36.265742
  H      39.975077     22.069867     36.553624
  C      40.395645     19.886839     36.645803
  H      40.357893     19.817916     37.750004
  O      39.137758     19.506271     36.087040
  H      38.463048     19.351740     36.820752
  C      43.714261     21.103482     33.984332
  O      44.804883     20.506120     33.790403
  O      43.298806     22.069593     33.297265
24
Coordinates from ORCA-job neb_MEP_ALL.QMRegion E -1076.508106486192
  C      44.092108     20.677470     36.561235
  H      44.815680     19.894261     36.235989
  H      44.606077     21.652348     36.758009
  C      43.354193     20.245365     37.804801
  C      42.891143     21.321796     38.821392
  O      43.632008     22.318239     38.971555
  O      41.812211     21.082724     39.420924
  O      42.967828     19.087863     37.937407
  C      41.363689     18.922683     36.015590
  H      41.157533     17.868534     36.215963
  C      42.410343     19.282918     35.255275
  H      43.059538     18.532486     34.792530
  C      42.933471     20.694871     35.290062
  C      41.808111     21.658954     35.584618
  H      41.978992     22.689623     35.290085
  C      40.701100     21.313082     36.251046
  H      39.968230     22.078684     36.524520
  C      40.375493     19.892754     36.621342
  H      40.364141     19.806934     37.726364
  O      39.093820     19.545685     36.091244
  H      38.436925     19.386143     36.839555
  C      43.720080     21.099549     34.001245
  O      44.810936     20.504947     33.795364
  O      43.288069     22.051666     33.305765
24
Coordinates from ORCA-job neb_MEP_ALL.QMRegion E -1076.523104649342
  C      44.013871     20.677901     36.488954
  H      44.800567     19.924560     36.237323
  H      44.512905     21.653655     36.685581
  C      43.368838     20.239238     37.807221
  C      42.912910     21.316010     38.826343
  O      43.654240     22.312949     38.962151
  O      41.840026     21.074909     39.435120
  O      43.121902     19.060608     38.031241
  C      41.278955     18.930028     35.912568
  H      41.003631     17.880286     36.025477
  C      42.393096     19.279318     35.255478
  H      43.030583     18.520386     34.789964
  C      42.974510     20.689720     35.352974
  C      41.835052     21.660981     35.613692
  H      42.012636     22.692969     35.323192
  C      40.695168     21.323091     36.226396
  H      39.958104     22.094517     36.471531
  C      40.332821     19.905064     36.571874
  H      40.376957     19.784908     37.673938
  O      39.016773     19.619773     36.102851
  H      38.390834     19.451590     36.874127
  C      43.725204     21.087899     34.028152
  O      44.820301     20.504870     33.809677
  O      43.269601     22.021183     33.324258
24
Coordinates from ORCA-job neb_MEP_ALL.QMRegion E -1076.526823241864
  C      44.006000     20.664000     36.513000
  H      44.788000     19.945000     36.232000
  H      44.445000     21.661000     36.639000
  C      43.394000     20.234000     37.819000
  C      42.925000     21.311000     38.826000
  O      43.668000     22.308000     38.956000
  O      41.861000     21.069000     39.448000
  O      43.248000     19.057000     38.093000
  C      41.216000     18.941000     35.837000
  H      40.885000     17.904000     35.872000
  C      42.369000     19.274000     35.248000
  H      43.006000     18.514000     34.788000
  C      42.943000     20.667000     35.337000
  C      41.847000     21.661000     35.630000
  H      42.039000     22.693000     35.349000
  C      40.691000     21.331000     36.208000
  H      39.952000     22.105000     36.430000
  C      40.297000     19.915000     36.529000
  H      40.387000     19.767000     37.623000
  O      38.960000     19.678000     36.115000
  H      38.356000     19.505000     36.900000
  C      43.723000     21.074000     34.043000
  O      44.827000     20.504000     33.827000
  O      43.257000     21.999000     33.339000
24
Coordinates from ORCA-job neb_MEP_ALL.QMRegion E -1076.506452458426
  C      44.548000     20.393000     37.290000
  H      44.921000     19.659000     36.575000
  H      45.141000     21.280000     37.513000
  C      43.362000     20.252000     37.894000
  C      42.843000     21.307000     38.861000
  O      43.561000     22.317000     39.046000
  O      41.729000     21.090000     39.413000
  O      42.560000     19.150000     37.687000
  C      41.689000     19.080000     36.495000
  H      41.347000     18.036000     36.492000
  C      42.523000     19.394000     35.292000
  H      43.230000     18.641000     34.940000
  C      42.555000     20.645000     34.792000
  C      41.619000     21.654000     35.301000
  H      41.739000     22.662000     34.909000
  C      40.667000     21.365000     36.203000
  H      39.992000     22.151000     36.553000
  C      40.441000     19.968000     36.709000
  H      40.300000     20.009000     37.799000
  O      39.300000     19.403000     36.075000
  H      38.572000     19.274000     36.758000
  C      43.591000     21.118000     33.781000
  O      44.695000     20.512000     33.694000
  O      43.298000     22.166000     33.151000
24
Coordinates from ORCA-job neb_MEP_ALL.QMRegion E -1076.505763323001
  C      44.494123     20.450339     37.185640
  H      44.880611     19.723319     36.470490
  H      45.036625     21.389157     37.338916
  C      43.347263     20.255628     37.850710
  C      42.847710     21.306314     38.843708
  O      43.570195     22.316542     39.029447
  O      41.742688     21.089723     39.411594
  O      42.567161     19.137178     37.672129
  C      41.675722     19.045837     36.473886
  H      41.342133     18.001528     36.473581
  C      42.509864     19.372070     35.280600
  H      43.192022     18.611648     34.895820
  C      42.589644     20.643551     34.840172
  C      41.666300     21.655969     35.369050
  H      41.797960     22.672417     35.003891
  C      40.679235     21.348904     36.226641
  H      39.986909     22.127653     36.560469
  C      40.435025     19.942650     36.703670
  H      40.311835     19.962842     37.795778
  O      39.270984     19.419893     36.078248
  H      38.549466     19.287446     36.770063
  C      43.617196     21.114624     33.825676
  O      44.723739     20.512984     33.723844
  O      43.306409     22.150350     33.185286
24
Coordinates from ORCA-job neb_MEP_ALL.QMRegion E -1076.503156524825
  C      44.449229     20.502279     37.097574
  H      44.847046     19.776600     36.388772
  H      44.942662     21.477315     37.190624
  C      43.343698     20.260004     37.824072
  C      42.853644     21.308468     38.829379
  O      43.578354     22.318562     39.015978
  O      41.755472     21.089959     39.408530
  O      42.580235     19.124281     37.659485
  C      41.663548     19.017200     36.451066
  H      41.336156     17.968119     36.455439
  C      42.493875     19.353823     35.265451
  H      43.159436     18.589927     34.859709
  C      42.620497     20.643294     34.884589
  C      41.703681     21.655684     35.426917
  H      41.846131     22.678615     35.083227
  C      40.689149     21.335667     36.245327
  H      39.983443     22.108152     36.566161
  C      40.427362     19.923380     36.696298
  H      40.324021     19.923359     37.789779
  O      39.244211     19.434909     36.079508
  H      38.529762     19.298580     36.780341
  C      43.640406     21.111568     33.864841
  O      44.747432     20.512263     33.747215
  O      43.310621     22.134842     33.215755
24
Coordinates from ORCA-job neb_MEP_ALL.QMRegion E -1076.496349758858
  C      44.403760     20.550974     37.013414
  H      44.822234     19.820575     36.323971
  H      44.855079     21.546440     37.061636
  C      43.348864     20.265241     37.810462
  C      42.860132     21.312940     38.816748
  O      43.586268     22.321859     39.004769
  O      41.766479     21.090823     39.405721
  O      42.628009     19.117673     37.680824
  C      41.626982     18.991872     36.391027
  H      41.328713     17.934990     36.435949
  C      42.472920     19.336647     35.248252
  H      43.130969     18.574264     34.831406
  C      42.655335     20.644684     34.937056
  C      41.733738     21.654082     35.476205
  H      41.886130     22.681846     35.150802
  C      40.697024     21.324530     36.259655
  H      39.981574     22.091289     36.570408
  C      40.418510     19.908552     36.686052
  H      40.336336     19.887581     37.781296
  O      39.218709     19.449315     36.080788
  H      38.512313     19.308300     36.789828
  C      43.662529     21.108329     33.901486
  O      44.767084     20.510781     33.764761
  O      43.311411     22.118377     33.243779
24
Coordinates from ORCA-job neb_MEP_ALL.QMRegion E -1076.485410970094
  C      44.350011     20.594638     36.923309
  H      44.809261     19.852901     36.274860
  H      44.778856     21.596530     36.955551
  C      43.355714     20.268992     37.804950
  C      42.864723     21.319609     38.807505
  O      43.594919     22.324278     38.995212
  O      41.775819     21.091716     39.404440
  O      42.716670     19.120081     37.746787
  C      41.558128     18.966059     36.285034
  H      41.320349     17.907828     36.415166
  C      42.449611     19.319425     35.237699
  H      43.108231     18.562907     34.811549
  C      42.699817     20.649953     35.003210
  C      41.757031     21.652609     35.515377
  H      41.917117     22.683221     35.204874
  C      40.702484     21.314602     36.269681
  H      39.981058     22.077512     36.573361
  C      40.411451     19.896635     36.674464
  H      40.346577     19.856983     37.772145
  O      39.195637     19.462335     36.082115
  H      38.498075     19.316459     36.797954
  C      43.683301     21.105706     33.934248
  O      44.782443     20.509278     33.776921
  O      43.309831     22.102208     33.267304
24
Coordinates from ORCA-job neb_MEP_ALL.QMRegion E -1076.483839382109
  C      44.260438     20.643003     36.786373
  H      44.804715     19.885886     36.228154
  H      44.693962     21.641115     36.843128
  C      43.354272     20.271921     37.796133
  C      42.868368     21.327762     38.801553
  O      43.607122     22.324753     38.983824
  O      41.787511     21.091363     39.404186
  O      42.821952     19.126670     37.821152
  C      41.483281     18.936699     36.170641
  H      41.307985     17.884466     36.386432
  C      42.427021     19.298847     35.236746
  H      43.085693     18.550708     34.792724
  C      42.774040     20.661746     35.103410
  C      41.780349     21.650963     35.555964
  H      41.948135     22.684354     35.262070
  C      40.708409     21.302706     36.278375
  H      39.981186     22.062734     36.576712
  C      40.405876     19.881982     36.662539
  H      40.355108     19.824249     37.762438
  O      39.171713     19.476846     36.084797
  H      38.483698     19.325529     36.806410
  C      43.704442     21.103402     33.968441
  O      44.798514     20.508497     33.789065
  O      43.307903     22.084634     33.291214
24
Coordinates from ORCA-job neb_MEP_ALL.QMRegion E -1076.494086580186
  C      44.171402     20.661879     36.665190
  H      44.812613     19.889382     36.234002
  H      44.654521     21.641674     36.801426
  C      43.352071     20.259457     37.797378
  C      42.877614     21.324266     38.811388
  O      43.617791     22.320739     38.978095
  O      41.797877     21.088973     39.412140
  O      42.895712     19.115898     37.884174
  C      41.422061     18.924723     36.086303
  H      41.248928     17.874630     36.320207
  C      42.419572     19.290345     35.247526
  H      43.074927     18.543162     34.795201
  C      42.861207     20.679910     35.207612
  C      41.794626     21.655379     35.572197
  H      41.959382     22.688626     35.272111
  C      40.706471     21.306106     36.266106
  H      39.975374     22.068071     36.555414
  C      40.391963     19.883048     36.644247
  H      40.359272     19.816753     37.747620
  O      39.139949     19.505343     36.089518
  H      38.464710     19.348781     36.818738
  C      43.714696     21.104642     33.986644
  O      44.805381     20.506567     33.788054
  O      43.299082     22.068154     33.298156
24
Coordinates from ORCA-job neb_MEP_ALL.QMRegion E -1076.510664445831
  C      44.092892     20.671782     36.568926
  H      44.807974     19.903328     36.239148
  H      44.601594     21.639841     36.754022
  C      43.348528     20.242803     37.794709
  C      42.891276     21.319778     38.820066
  O      43.631166     22.317085     38.972180
  O      41.812868     21.084331     39.420349
  O      42.975233     19.103426     37.938985
  C      41.369275     18.922623     36.018499
  H      41.165452     17.870139     36.223094
  C      42.415892     19.287375     35.257001
  H      43.060775     18.534282     34.794881
  C      42.929714     20.690606     35.287841
  C      41.814218     21.658253     35.592164
  H      41.975865     22.691287     35.287301
  C      40.704826     21.311181     36.251150
  H      39.968443     22.076280     36.525707
  C      40.372902     19.888161     36.620787
  H      40.364878     19.806774     37.725622
  O      39.098894     19.543596     36.094721
  H      38.439403     19.382092     36.836480
  C      43.723246     21.102218     34.005210
  O      44.811588     20.505312     33.791246
  O      43.287489     22.049079     33.307163
24
Coordinates from ORCA-job neb_MEP_ALL.QMRegion E -1076.521834799958
  C      44.034135     20.671062     36.520567
  H      44.791204     19.933556     36.238048
  H      44.505376     21.646369     36.678664
  C      43.363498     20.229716     37.800472
  C      42.913239     21.313958     38.824779
  O      43.655204     22.311867     38.962258
  O      41.842670     21.075977     39.435001
  O      43.131950     19.077575     38.030942
  C      41.281828     18.932021     35.911098
  H      41.002496     17.881261     36.022339
  C      42.396891     19.282700     35.259593
  H      43.030503     18.521637     34.791584
  C      42.949740     20.685356     35.326539
  C      41.840740     21.661614     35.622030
  H      42.012298     22.693888     35.323162
  C      40.698985     21.322388     36.225355
  H      39.958032     22.093508     36.469195
  C      40.329844     19.902494     36.569953
  H      40.377681     19.784268     37.671845
  O      39.017533     19.621404     36.105933
  H      38.390326     19.451780     36.873417
  C      43.728582     21.090187     34.031788
  O      44.821341     20.504872     33.807412
  O      43.267861     22.017540     33.326957
24
Coordinates from ORCA-job neb_MEP_ALL.QMRegion E -1076.526823241864
  C      44.006000     20.664000     36.513000
  H      44.788000     19.945000     36.232000
  H      44.445000     21.661000     36.639000
  C      43.394000     20.234000     37.819000
  C      42.925000     21.311000     38.826000
  O      43.668000     22.308000     38.956000
  O      41.861000     21.069000     39.448000
  O      43.248000     19.057000     38.093000
  C      41.216000     18.941000     35.837000
  H      40.885000     17.904000     35.872000
  C      42.369000     19.274000     35.248000
  H      43.006000     18.514000     34.788000
  C      42.943000     20.667000     35.337000
  C      41.847000     21.661000     35.630000
  H      42.039000     22.693000     35.349000
  C      40.691000     21.331000     36.208000
  H      39.952000     22.105000     36.430000
  C      40.297000     19.915000     36.529000
  H      40.387000     19.767000     37.623000
  O      38.960000     19.678000     36.115000
  H      38.356000     19.505000     36.900000
  C      43.723000     21.074000     34.043000
  O      44.827000     20.504000     33.827000
  O      43.257000     21.999000     33.339000
24
Coordinates from ORCA-job neb_MEP_ALL.QMRegion E -1076.506452458426
  C      44.548000     20.393000     37.290000
  H      44.921000     19.659000     36.575000
  H      45.141000     21.280000     37.513000
  C      43.362000     20.252000     37.894000
  C      42.843000     21.307000     38.861000
  O      43.561000     22.317000     39.046000
  O      41.729000     21.090000     39.413000
  O      42.560000     19.150000     37.687000
  C      41.689000     19.080000     36.495000
  H      41.347000     18.036000     36.492000
  C      42.523000     19.394000     35.292000
  H      43.230000     18.641000     34.940000
  C      42.555000     20.645000     34.792000
  C      41.619000     21.654000     35.301000
  H      41.739000     22.662000     34.909000
  C      40.667000     21.365000     36.203000
  H      39.992000     22.151000     36.553000
  C      40.441000     19.968000     36.709000
  H      40.300000     20.009000     37.799000
  O      39.300000     19.403000     36.075000
  H      38.572000     19.274000     36.758000
  C      43.591000     21.118000     33.781000
  O      44.695000     20.512000     33.694000
  O      43.298000     22.166000     33.151000
24
Coordinates from ORCA-job neb_MEP_ALL.QMRegion E -1076.506972642128
  C      44.493468     20.449494     37.186052
  H      44.878962     19.726809     36.468888
  H      45.033959     21.385538     37.338520
  C      43.346436     20.257386     37.849866
  C      42.847670     21.305351     38.841137
  O      43.569755     22.313492     39.028247
  O      41.741846     21.088286     39.412306
  O      42.576956     19.143739     37.681321
  C      41.669121     19.047379     36.462231
  H      41.343223     18.002820     36.474805
  C      42.509576     19.370249     35.282235
  H      43.191091     18.611910     34.894715
  C      42.588249     20.641203     34.840075
  C      41.665098     21.654867     35.367830
  H      41.799380     22.672839     35.005796
  C      40.680234     21.348270     36.227955
  H      39.987672     22.126802     36.561069
  C      40.436144     19.942541     36.704644
  H      40.310448     19.963232     37.796945
  O      39.272893     19.419067     36.079417
  H      38.550146     19.287567     36.769472
  C      43.615872     21.113009     33.822360
  O      44.723397     20.514148     33.725711
  O      43.307979     22.152258     33.184928
24
Coordinates from ORCA-job neb_MEP_ALL.QMRegion E -1076.503831494292
  C      44.446799     20.501314     37.097660
  H      44.843693     19.783263     36.384750
  H      44.936843     21.473913     37.187249
  C      43.341380     20.261345     37.820573
  C      42.853757     21.306670     38.826303
  O      43.577940     22.314469     39.013639
  O      41.754594     21.087946     39.409074
  O      42.588735     19.134963     37.662574
  C      41.659951     19.018606     36.443186
  H      41.338338     17.971057     36.457032
  C      42.492963     19.350850     35.268057
  H      43.157314     18.590003     34.856778
  C      42.618806     20.639162     34.884874
  C      41.702568     21.653974     35.425616
  H      41.849291     22.679127     35.088187
  C      40.690424     21.334116     36.247716
  H      39.984457     22.106735     36.567379
  C      40.429737     19.921950     36.698024
  H      40.322018     19.923150     37.791141
  O      39.246891     19.434254     36.081414
  H      38.530151     19.299011     36.779646
  C      43.637919     21.108637     33.860168
  O      44.747230     20.514264     33.750763
  O      43.313560     22.137928     33.215604
24
Coordinates from ORCA-job neb_MEP_ALL.QMRegion E -1076.496366840846
  C      44.399184     20.552324     37.010195
  H      44.817973     19.829303     36.317185
  H      44.845340     21.546521     37.052470
  C      43.348091     20.267453     37.806579
  C      42.860895     21.311447     38.814502
  O      43.586126     22.318855     39.001918
  O      41.766268     21.089213     39.405449
  O      42.629764     19.125965     37.673389
  C      41.629122     18.991822     36.392139
  H      41.330514     17.936609     36.436304
  C      42.470590     19.333443     35.248957
  H      43.127553     18.573514     34.826842
  C      42.655722     20.640399     34.939817
  C      41.733807     21.652333     35.476547
  H      41.891131     22.682310     35.159197
  C      40.697961     21.322316     36.262704
  H      39.982446     22.089355     36.572084
  C      40.420428     19.906164     36.687250
  H      40.335321     19.885373     37.781512
  O      39.219857     19.449765     36.082624
  H      38.511420     19.309249     36.789820
  C      43.660413     21.105036     33.898418
  O      44.767621     20.512688     33.769331
  O      43.314436     22.121029     33.244759
24
Coordinates from ORCA-job neb_MEP_ALL.QMRegion E -1076.485287541262
  C      44.348428     20.595940     36.921710
  H      44.806801     19.858316     36.270670
  H      44.773351     21.597024     36.949996
  C      43.357226     20.270850     37.804710
  C      42.865800     21.319300     38.807159
  O      43.594573     22.323480     38.993623
  O      41.775591     21.091162     39.403703
  O      42.717551     19.123692     37.741748
  C      41.559205     18.965222     36.286486
  H      41.320865     17.907675     36.414787
  C      42.447200     19.317230     35.236569
  H      43.106064     18.562229     34.808557
  C      42.700234     20.647400     35.004873
  C      41.756576     21.651503     35.514851
  H      41.920333     22.683616     35.210228
  C      40.702589     21.313162     36.271514
  H      39.981635     22.076486     36.574806
  C      40.411878     19.895003     36.674397
  H      40.346809     19.855002     37.771125
  O      39.195320     19.463183     36.083029
  H      38.496901     19.317076     36.798258
  C      43.681485     21.103691     33.932134
  O      44.782523     20.510421     33.779961
  O      43.311785     22.104059     33.267688
24
Coordinates from ORCA-job neb_MEP_ALL.QMRegion E -1076.483744279066
  C      44.263642     20.641344     36.790796
  H      44.806257     19.883031     36.231652
  H      44.699948     21.638504     36.850264
  C      43.356455     20.270912     37.799298
  C      42.868809     21.328545     38.802754
  O      43.606319     22.325630     38.984732
  O      41.786337     21.091901     39.404181
  O      42.822089     19.125768     37.822598
  C      41.484863     18.937366     36.173086
  H      41.307707     17.884956     36.386836
  C      42.426837     19.298998     35.236349
  H      43.087290     18.551053     34.794073
  C      42.771912     20.661693     35.100303
  C      41.778498     21.651098     35.552539
  H      41.946001     22.684645     35.258245
  C      40.707380     21.302895     36.277477
  H      39.981456     22.063740     36.577204
  C      40.405255     19.882080     36.661723
  H      40.355603     19.825341     37.761235
  O      39.171500     19.476735     36.084237
  H      38.483776     19.324792     36.806346
  C      43.703011     21.104010     33.966357
  O      44.797066     20.508472     33.787959
  O      43.307997     22.085697     33.289214
24
Coordinates from ORCA-job neb_MEP_ALL.QMRegion E -1076.494498521180
  C      44.167653     20.660758     36.663915
  H      44.810726     19.892749     36.236240
  H      44.653434     21.634349     36.801024
  C      43.351427     20.263693     37.794792
  C      42.877732     21.324678     38.810035
  O      43.617124     22.320451     38.978642
  O      41.797735     21.089548     39.411428
  O      42.900047     19.119048     37.886586
  C      41.427748     18.925471     36.091046
  H      41.254398     17.875919     36.324266
  C      42.420215     19.290606     35.247099
  H      43.076152     18.544027     34.796284
  C      42.862668     20.678824     35.209184
  C      41.796966     21.655164     35.574919
  H      41.957306     22.688904     35.270718
  C      40.707138     21.304229     36.266933
  H      39.975985     22.066156     36.557102
  C      40.391062     19.880598     36.643598
  H      40.360392     19.815718     37.745871
  O      39.141811     19.503722     36.090016
  H      38.465891     19.345597     36.817538
  C      43.715683     21.104655     33.988215
  O      44.805277     20.507150     33.786296
  O      43.299010     22.067616     33.298776
24
Coordinates from ORCA-job neb_MEP_ALL.QMRegion E -1076.511040501643
  C      44.090688     20.668296     36.573111
  H      44.803211     19.908777     36.241256
  H      44.598314     21.630099     36.751013
  C      43.347728     20.254748     37.787657
  C      42.891411     21.319258     38.817665
  O      43.630672     22.315742     38.972697
  O      41.812939     21.085111     39.420135
  O      42.977006     19.102517     37.942314
  C      41.375009     18.923143     36.021119
  H      41.173438     17.871224     36.229921
  C      42.418923     19.288924     35.258889
  H      43.062448     18.536011     34.797076
  C      42.928911     20.689066     35.286704
  C      41.819366     21.658799     35.597897
  H      41.973082     22.691668     35.285222
  C      40.706818     21.309074     36.252377
  H      39.969253     22.073494     36.526663
  C      40.372947     19.885132     36.620723
  H      40.365645     19.806437     37.725070
  O      39.102740     19.541084     36.096119
  H      38.441354     19.377979     36.834408
  C      43.725671     21.103295     34.008136
  O      44.812297     20.505781     33.788133
  O      43.286899     22.047657     33.308472
24
Coordinates from ORCA-job neb_MEP_ALL.QMRegion E -1076.523795195491
  C      44.040581     20.665877     36.538395
  H      44.787060     19.937655     36.237880
  H      44.500867     21.643249     36.674199
  C      43.364327     20.242631     37.794991
  C      42.913937     21.313201     38.821811
  O      43.655924     22.310011     38.962105
  O      41.843819     21.076385     39.435803
  O      43.135533     19.071351     38.034316
  C      41.283285     18.932491     35.911153
  H      41.002589     17.882703     36.020014
  C      42.399239     19.283826     35.261190
  H      43.030686     18.523189     34.793389
  C      42.937867     20.681963     35.312854
  C      41.844286     21.663379     35.627149
  H      42.012096     22.694237     35.323522
  C      40.700505     21.321639     36.225837
  H      39.958717     22.092068     36.467182
  C      40.328882     19.901205     36.568276
  H      40.378357     19.783651     37.670061
  O      39.017852     19.622437     36.107587
  H      38.389771     19.451628     36.873234
  C      43.730055     21.090529     34.033511
  O      44.822446     20.505139     33.806284
  O      43.266704     22.016150     33.328566
24
Coordinates from ORCA-job neb_MEP_ALL.QMRegion E -1076.526823241864
  C      44.006000     20.664000     36.513000
  H      44.788000     19.945000     36.232000
  H      44.445000     21.661000     36.639000
  C      43.394000     20.234000     37.819000
  C      42.925000     21.311000     38.826000
  O      43.668000     22.308000     38.956000
  O      41.861000     21.069000     39.448000
  O      43.248000     19.057000     38.093000
  C      41.216000     18.941000     35.837000
  H      40.885000     17.904000     35.872000
  C      42.369000     19.274000     35.248000
  H      43.006000     18.514000     34.788000
  C      42.943000     20.667000     35.337000
  C      41.847000     21.661000     35.630000
  H      42.039000     22.693000     35.349000
  C      40.691000     21.331000     36.208000
  H      39.952000     22.105000     36.430000
  C      40.297000     19.915000     36.529000
  H      40.387000     19.767000     37.623000
  O      38.960000     19.678000     36.115000
  H      38.356000     19.505000     36.900000
  C      43.723000     21.074000     34.043000
  O      44.827000     20.504000     33.827000
  O      43.257000     21.999000     33.339000
24
Coordinates from ORCA-job neb_MEP_ALL.QMRegion E -1076.506452458426
  C      44.548000     20.393000     37.290000
  H      44.921000     19.659000     36.575000
  H      45.141000     21.280000     37.513000
  C      43.362000     20.252000     37.894000
  C      42.843000     21.307000     38.861000
  O      43.561000     22.317000     39.046000
  O      41.729000     21.090000     39.413000
  O      42.560000     19.150000     37.687000
  C      41.689000     19.080000     36.495000
  H      41.347000     18.036000     36.492000
  C      42.523000     19.394000     35.292000
  H      43.230000     18.641000     34.940000
  C      42.555000     20.645000     34.792000
  C      41.619000     21.654000     35.301000
  H      41.739000     22.662000     34.909000
  C      40.667000     21.365000     36.203000
  H      39.992000     22.151000     36.553000
  C      40.441000     19.968000     36.709000
  H      40.300000     20.009000     37.799000
  O      39.300000     19.403000     36.075000
  H      38.572000     19.274000     36.758000
  C      43.591000     21.118000     33.781000
  O      44.695000     20.512000     33.694000
  O      43.298000     22.166000     33.151000
24
Coordinates from ORCA-job neb_MEP_ALL.QMRegion E -1076.506905566892
  C      44.497114     20.452436     37.183834
  H      44.877861     19.727897     36.466322
  H      45.032994     21.384290     37.338858
  C      43.350650     20.266762     37.855249
  C      42.847749     21.307501     38.840982
  O      43.568712     22.311743     39.027581
  O      41.741965     21.086933     39.411549
  O      42.562334     19.133679     37.670894
  C      41.677564     19.049973     36.474798
  H      41.343518     18.000262     36.476381
  C      42.509232     19.371212     35.276335
  H      43.190385     18.610941     34.894346
  C      42.587338     20.641518     34.837739
  C      41.664483     21.653698     35.366817
  H      41.800473     22.671953     35.007577
  C      40.681114     21.348880     36.228440
  H      39.988587     22.125877     36.562204
  C      40.434044     19.944322     36.703974
  H      40.310852     19.962824     37.797684
  O      39.273270     19.418105     36.079767
  H      38.550882     19.287669     36.769361
  C      43.615735     21.112605     33.822881
  O      44.722162     20.514516     33.726236
  O      43.307963     22.152221     33.184556
24
Coordinates from ORCA-job neb_MEP_ALL.QMRegion E -1076.504493675496
  C      44.446952     20.506603     37.093046
  H      44.840860     19.787102     36.376565
  H      44.930733     21.475170     37.182120
  C      43.346008     20.275413     37.822937
  C      42.854260     21.308142     38.824378
  O      43.577124     22.311255     39.011687
  O      41.754456     21.085670     39.408539
  O      42.577539     19.123371     37.657439
  C      41.663346     19.022428     36.449461
  H      41.339630     17.967889     36.459319
  C      42.492957     19.352018     35.260219
  H      43.154570     18.588007     34.853915
  C      42.616900     20.637548     34.883217
  C      41.703579     21.652096     35.425994
  H      41.852967     22.677941     35.094645
  C      40.691771     21.333218     36.249715
  H      39.985805     22.104496     36.569469
  C      40.428115     19.923179     36.697947
  H      40.322060     19.921246     37.792703
  O      39.247671     19.433084     36.082049
  H      38.530651     19.299733     36.779839
  C      43.638846     21.107738     33.861785
  O      44.745869     20.514976     33.752827
  O      43.313923     22.137638     33.216173
24
Coordinates from ORCA-job neb_MEP_ALL.QMRegion E -1076.497384223109
  C      44.396226     20.558224     37.005024
  H      44.814877     19.833995     36.306369
  H      44.837135     21.551576     37.043298
  C      43.350578     20.278947     37.804288
  C      42.861813     21.312902     38.813005
  O      43.585845     22.316286     38.999731
  O      41.766412     21.087151     39.404741
  O      42.623345     19.115956     37.671589
  C      41.628182     18.992681     36.393947
  H      41.332254     17.934860     36.437989
  C      42.471075     19.335442     35.242685
  H      43.123882     18.570789     34.822171
  C      42.653463     20.637611     34.938553
  C      41.736447     21.650863     35.478603
  H      41.895922     22.680967     35.167989
  C      40.698851     21.320326     36.265004
  H      39.983521     22.086917     36.574470
  C      40.420000     19.906188     36.687632
  H      40.335345     19.882287     37.783008
  O      39.219915     19.449218     36.082985
  H      38.511032     19.310386     36.790541
  C      43.662343     21.104470     33.901487
  O      44.766743     20.513245     33.771916
  O      43.314834     22.120224     33.246009
24
Coordinates from ORCA-job neb_MEP_ALL.QMRegion E -1076.485696267891
  C      44.347687     20.599200     36.920626
  H      44.805665     19.860317     36.265212
  H      44.770632     21.600245     36.946206
  C      43.358024     20.274204     37.803445
  C      42.866942     21.321007     38.807262
  O      43.594138     22.322974     38.992967
  O      41.775485     21.090311     39.402961
  O      42.714675     19.119281     37.739957
  C      41.559334     18.964790     36.288690
  H      41.321426     17.906410     36.415528
  C      42.447675     19.318774     35.233721
  H      43.104160     18.560508     34.805639
  C      42.696972     20.645564     35.002555
  C      41.758006     21.650831     35.515014
  H      41.922570     22.682535     35.214675
  C      40.702566     21.311951     36.272265
  H      39.982330     22.075357     36.576624
  C      40.411747     19.894998     36.674336
  H      40.347087     19.853090     37.771678
  O      39.194721     19.463094     36.082802
  H      38.496201     19.317639     36.798887
  C      43.682457     21.103971     33.933492
  O      44.781643     20.510556     33.781137
  O      43.311992     22.103819     33.267765
24
Coordinates from ORCA-job neb_MEP_ALL.QMRegion E -1076.483750315379
  C      44.266356     20.640778     36.793740
  H      44.806985     19.881826     36.234166
  H      44.703553     21.636080     36.854610
  C      43.358382     20.270799     37.801304
  C      42.870311     21.328937     38.803641
  O      43.605243     22.326100     38.985330
  O      41.785336     21.092532     39.404110
  O      42.824126     19.125313     37.824886
  C      41.484545     18.937818     36.171938
  H      41.307258     17.884610     36.386892
  C      42.426903     19.298260     35.236764
  H      43.087779     18.551393     34.794909
  C      42.769800     20.662016     35.098716
  C      41.777548     21.651434     35.550125
  H      41.944568     22.684319     35.256103
  C      40.706082     21.303407     36.276629
  H      39.982042     22.063905     36.577633
  C      40.405648     19.882325     36.660678
  H      40.355890     19.825616     37.760481
  O      39.170957     19.476822     36.083623
  H      38.483113     19.324377     36.806566
  C      43.701931     21.104356     33.964721
  O      44.796421     20.508315     33.787190
  O      43.307938     22.086503     33.288001
24
Coordinates from ORCA-job neb_MEP_ALL.QMRegion E -1076.494745553889
  C      44.167178     20.662075     36.663911
  H      44.812235     19.888895     36.236757
  H      44.657251     21.633786     36.803876
  C      43.349272     20.263772     37.799815
  C      42.876465     21.328295     38.808782
  O      43.617464     22.321534     38.979652
  O      41.796817     21.088873     39.410389
  O      42.899346     19.118383     37.886972
  C      41.431547     18.926912     36.095753
  H      41.261119     17.875349     36.330325
  C      42.420286     19.289012     35.248702
  H      43.078967     18.544139     34.796832
  C      42.862636     20.682230     35.205861
  C      41.795922     21.656392     35.574592
  H      41.955049     22.686424     35.269412
  C      40.706911     21.302962     36.267965
  H      39.977225     22.064113     36.558751
  C      40.397448     19.881781     36.645311
  H      40.360732     19.815090     37.746316
  O      39.142840     19.499855     36.085806
  H      38.466363     19.341669     36.817898
  C      43.715849     21.103913     33.986584
  O      44.804972     20.507029     33.785934
  O      43.298598     22.068752     33.299122
24
Coordinates from ORCA-job neb_MEP_ALL.QMRegion E -1076.511482923660
  C      44.082433     20.671860     36.566581
  H      44.805856     19.903917     36.240980
  H      44.599101     21.629174     36.750268
  C      43.344655     20.258928     37.795666
  C      42.888226     21.323415     38.813651
  O      43.632273     22.315619     38.973463
  O      41.813343     21.083948     39.419401
  O      42.977609     19.100813     37.944027
  C      41.379101     18.923495     36.026122
  H      41.182722     17.871375     36.236654
  C      42.418332     19.285215     35.259127
  H      43.065804     18.537278     34.798940
  C      42.934466     20.693593     35.288646
  C      41.819213     21.661045     35.599744
  H      41.971253     22.689387     35.284851
  C      40.707225     21.307008     36.255258
  H      39.971234     22.069808     36.527405
  C      40.380020     19.886079     36.622296
  H      40.366730     19.805343     37.725165
  O      39.103686     19.536952     36.091830
  H      38.442354     19.373195     36.834704
  C      43.725868     21.101305     34.007072
  O      44.813369     20.506254     33.788034
  O      43.286593     22.048689     33.310276
24
Coordinates from ORCA-job neb_MEP_ALL.QMRegion E -1076.523745749168
  C      44.019782     20.669562     36.520893
  H      44.794865     19.929327     36.236003
  H      44.502669     21.649790     36.674337
  C      43.366050     20.244830     37.807441
  C      42.910841     21.316210     38.817813
  O      43.657785     22.308161     38.961738
  O      41.844664     21.075413     39.436595
  O      43.136293     19.068737     38.034754
  C      41.282307     18.930529     35.913952
  H      41.005023     17.884277     36.019154
  C      42.395821     19.279424     35.257132
  H      43.032337     18.524583     34.795304
  C      42.954219     20.681931     35.329584
  C      41.840939     21.665404     35.624807
  H      42.012678     22.694261     35.324906
  C      40.698834     21.321135     36.228791
  H      39.960547     22.090117     36.466052
  C      40.332588     19.902920     36.567880
  H      40.379193     19.782883     37.668588
  O      39.016472     19.622282     36.105337
  H      38.389074     19.450834     36.874576
  C      43.727411     21.086629     34.029734
  O      44.823336     20.506258     33.808438
  O      43.267210     22.019450     33.328289
24
Coordinates from ORCA-job neb_MEP_ALL.QMRegion E -1076.526823241864
  C      44.006000     20.664000     36.513000
  H      44.788000     19.945000     36.232000
  H      44.445000     21.661000     36.639000
  C      43.394000     20.234000     37.819000
  C      42.925000     21.311000     38.826000
  O      43.668000     22.308000     38.956000
  O      41.861000     21.069000     39.448000
  O      43.248000     19.057000     38.093000
  C      41.216000     18.941000     35.837000
  H      40.885000     17.904000     35.872000
  C      42.369000     19.274000     35.248000
  H      43.006000     18.514000     34.788000
  C      42.943000     20.667000     35.337000
  C      41.847000     21.661000     35.630000
  H      42.039000     22.693000     35.349000
  C      40.691000     21.331000     36.208000
  H      39.952000     22.105000     36.430000
  C      40.297000     19.915000     36.529000
  H      40.387000     19.767000     37.623000
  O      38.960000     19.678000     36.115000
  H      38.356000     19.505000     36.900000
  C      43.723000     21.074000     34.043000
  O      44.827000     20.504000     33.827000
  O      43.257000     21.999000     33.339000
24
Coordinates from ORCA-job neb_MEP_ALL.QMRegion E -1076.506452458426
  C      44.548000     20.393000     37.290000
  H      44.921000     19.659000     36.575000
  H      45.141000     21.280000     37.513000
  C      43.362000     20.252000     37.894000
  C      42.843000     21.307000     38.861000
  O      43.561000     22.317000     39.046000
  O      41.729000     21.090000     39.413000
  O      42.560000     19.150000     37.687000
  C      41.689000     19.080000     36.495000
  H      41.347000     18.036000     36.492000
  C      42.523000     19.394000     35.292000
  H      43.230000     18.641000     34.940000
  C      42.555000     20.645000     34.792000
  C      41.619000     21.654000     35.301000
  H      41.739000     22.662000     34.909000
  C      40.667000     21.365000     36.203000
  H      39.992000     22.151000     36.553000
  C      40.441000     19.968000     36.709000
  H      40.300000     20.009000     37.799000
  O      39.300000     19.403000     36.075000
  H      38.572000     19.274000     36.758000
  C      43.591000     21.118000     33.781000
  O      44.695000     20.512000     33.694000
  O      43.298000     22.166000     33.151000
24
Coordinates from ORCA-job neb_MEP_ALL.QMRegion E -1076.507084893397
  C      44.497354     20.453413     37.182840
  H      44.876621     19.729272     36.463436
  H      45.033077     21.384887     37.338951
  C      43.351972     20.269017     37.856477
  C      42.846153     21.307816     38.841409
  O      43.569018     22.312299     39.027364
  O      41.742327     21.085914     39.410763
  O      42.555215     19.130955     37.664376
  C      41.682776     19.050348     36.483301
  H      41.344157     17.999759     36.477657
  C      42.508371     19.371569     35.273041
  H      43.189826     18.609813     34.893481
  C      42.586449     20.641770     34.834934
  C      41.664149     21.652855     35.366023
  H      41.801711     22.671237     35.009494
  C      40.681658     21.349137     36.228956
  H      39.989404     22.125297     36.563423
  C      40.433222     19.945159     36.704264
  H      40.310965     19.962560     37.798126
  O      39.273721     19.417242     36.079799
  H      38.551464     19.287743     36.769381
  C      43.614693     21.113058     33.822963
  O      44.721920     20.514440     33.726874
  O      43.308180     22.152086     33.184353
24
Coordinates from ORCA-job neb_MEP_ALL.QMRegion E -1076.504058252316
  C      44.445884     20.509585     37.088264
  H      44.837581     19.791581     36.368884
  H      44.925933     21.478551     37.176914
  C      43.345745     20.280166     37.822355
  C      42.852199     21.307980     38.823621
  O      43.577846     22.310938     39.010444
  O      41.755301     21.083852     39.407512
  O      42.572632     19.120085     37.653688
  C      41.665850     19.022996     36.454078
  H      41.341158     17.967051     36.461171
  C      42.491666     19.351463     35.255739
  H      43.152117     18.585809     34.850581
  C      42.615707     20.637480     34.880058
  C      41.704127     21.650224     35.427053
  H      41.856731     22.676973     35.100992
  C      40.693148     21.332558     36.251293
  H      39.987084     22.102639     36.571695
  C      40.427305     19.923601     36.698805
  H      40.321951     19.919511     37.793847
  O      39.248166     19.431972     36.082433
  H      38.531144     19.300412     36.780047
  C      43.637826     21.108195     33.862945
  O      44.746164     20.514833     33.754881
  O      43.314566     22.137077     33.216999
24
Coordinates from ORCA-job neb_MEP_ALL.QMRegion E -1076.496776250863
  C      44.394549     20.562030     36.999089
  H      44.811215     19.839487     36.297101
  H      44.830205     21.557325     37.034929
  C      43.348497     20.282659     37.801597
  C      42.860519     21.312583     38.811931
  O      43.586789     22.316225     38.998381
  O      41.767380     21.085571     39.403700
  O      42.620046     19.112759     37.668525
  C      41.629397     18.992670     36.396516
  H      41.333808     17.933966     36.439387
  C      42.470201     19.334389     35.239165
  H      43.120447     18.568378     34.817525
  C      42.651897     20.637396     34.935481
  C      41.737683     21.648792     35.481282
  H      41.900561     22.680042     35.176081
  C      40.700397     21.319101     36.266529
  H      39.984593     22.084775     36.576940
  C      40.419550     19.905610     36.688609
  H      40.335288     19.879553     37.784178
  O      39.219725     19.448633     36.083408
  H      38.510869     19.311434     36.791052
  C      43.661958     21.105009     33.903657
  O      44.767450     20.512991     33.774373
  O      43.315547     22.119315     33.247425
24
Coordinates from ORCA-job neb_MEP_ALL.QMRegion E -1076.485515069930
  C      44.347336     20.600991     36.919094
  H      44.804047     19.863141     36.260599
  H      44.768157     21.603681     36.942601
  C      43.357587     20.275031     37.802146
  C      42.866652     21.320851     38.807111
  O      43.594547     22.323927     38.992745
  O      41.775863     21.089872     39.402129
  O      42.713060     19.117762     37.737598
  C      41.560624     18.964527     36.290752
  H      41.321902     17.905344     36.416141
  C      42.447273     19.318301     35.231931
  H      43.102188     18.559166     34.802832
  C      42.694614     20.645037     34.999547
  C      41.758129     21.649572     35.515983
  H      41.924856     22.681903     35.218815
  C      40.703264     21.311308     36.272473
  H      39.983041     22.074286     36.578475
  C      40.411413     19.894524     36.674544
  H      40.347343     19.851305     37.771982
  O      39.193980     19.463016     36.082824
  H      38.495644     19.318192     36.799333
  C      43.682111     21.104508     33.934433
  O      44.781635     20.510345     33.782283
  O      43.312366     22.103582     33.268033
24
Coordinates from ORCA-job neb_MEP_ALL.QMRegion E -1076.483722724049
  C      44.269020     20.639876     36.797056
  H      44.807727     19.880575     36.236564
  H      44.707415     21.634091     36.859033
  C      43.360249     20.270509     37.803246
  C      42.870419     21.328661     38.804870
  O      43.604710     22.327174     38.986049
  O      41.785083     21.093246     39.403604
  O      42.825935     19.124959     37.826941
  C      41.484063     18.937677     36.171445
  H      41.306869     17.884650     36.386946
  C      42.427220     19.298307     35.236923
  H      43.088377     18.551574     34.795658
  C      42.767678     20.661973     35.096622
  C      41.775967     21.651454     35.548168
  H      41.943194     22.684249     35.253878
  C      40.705567     21.303763     36.275383
  H      39.982343     22.064327     36.578187
  C      40.405692     19.882670     36.659792
  H      40.356196     19.825921     37.759665
  O      39.170317     19.476865     36.083297
  H      38.482656     19.324033     36.806599
  C      43.701088     21.104490     33.963270
  O      44.795425     20.508336     33.786454
  O      43.307836     22.087364     33.286719
24
Coordinates from ORCA-job neb_MEP_ALL.QMRegion E -1076.494238893871
  C      44.167007     20.661895     36.664372
  H      44.812778     19.886328     36.238055
  H      44.660902     21.632978     36.806670
  C      43.348694     20.264256     37.802212
  C      42.874892     21.330428     38.808546
  O      43.617669     22.322931     38.980536
  O      41.795983     21.088997     39.409412
  O      42.899005     19.118129     37.888176
  C      41.434801     18.926924     36.099944
  H      41.267325     17.875455     36.335968
  C      42.421682     19.289121     35.249469
  H      43.081360     18.544387     34.797629
  C      42.862105     20.683489     35.203938
  C      41.794714     21.656343     35.574263
  H      41.952887     22.685309     35.267778
  C      40.707565     21.302292     36.268425
  H      39.978073     22.062414     36.560464
  C      40.400833     19.881868     36.646198
  H      40.361059     19.814547     37.746870
  O      39.144729     19.496628     36.083766
  H      38.467494     19.338149     36.817236
  C      43.715411     21.104152     33.985062
  O      44.805028     20.506693     33.785255
  O      43.298499     22.069675     33.299138
24
Coordinates from ORCA-job neb_MEP_ALL.QMRegion E -1076.511625507623
  C      44.077123     20.672577     36.561618
  H      44.806021     19.901464     36.241826
  H      44.599835     21.628213     36.749437
  C      43.341815     20.259608     37.799306
  C      42.885572     21.326895     38.811726
  O      43.633410     22.315878     38.973946
  O      41.812986     21.083580     39.418770
  O      42.979023     19.102656     37.946200
  C      41.383187     18.923227     36.030933
  H      41.191832     17.871416     36.243788
  C      42.419234     19.284725     35.259526
  H      43.069378     18.537913     34.800552
  C      42.937891     20.695808     35.290605
  C      41.818992     21.661369     35.601680
  H      41.969372     22.688468     35.284117
  C      40.709179     21.305543     36.257142
  H      39.972489     22.066637     36.528555
  C      40.384384     19.885720     36.623454
  H      40.367731     19.804257     37.725640
  O      39.106082     19.533144     36.089344
  H      38.444018     19.368523     36.834007
  C      43.725921     21.100843     34.006248
  O      44.814507     20.506389     33.787556
  O      43.286533     22.049263     33.311775
24
Coordinates from ORCA-job neb_MEP_ALL.QMRegion E -1076.524616120215
  C      44.009799     20.671327     36.509031
  H      44.797359     19.925925     36.235934
  H      44.502155     21.652599     36.673293
  C      43.366480     20.244048     37.813639
  C      42.908772     21.318330     38.816597
  O      43.659433     22.307155     38.961093
  O      41.844974     21.075027     39.437092
  O      43.138152     19.069111     38.036160
  C      41.282769     18.930241     35.915132
  H      41.006690     17.884403     36.018581
  C      42.393028     19.277816     35.255540
  H      43.034420     18.524831     34.796593
  C      42.962931     20.682131     35.340270
  C      41.839229     21.664992     35.624031
  H      42.013148     22.695060     35.325931
  C      40.699536     21.320770     36.230108
  H      39.961179     22.088944     36.465243
  C      40.334275     19.903408     36.567753
  H      40.379992     19.782099     37.667418
  O      39.015867     19.622304     36.104239
  H      38.388818     19.450175     36.875232
  C      43.725793     21.084946     34.027697
  O      44.824149     20.506992     33.809511
  O      43.267638     22.020735     33.328729
24
Coordinates from ORCA-job neb_MEP_ALL.QMRegion E -1076.526823241864
  C      44.006000     20.664000     36.513000
  H      44.788000     19.945000     36.232000
  H      44.445000     21.661000     36.639000
  C      43.394000     20.234000     37.819000
  C      42.925000     21.311000     38.826000
  O      43.668000     22.308000     38.956000
  O      41.861000     21.069000     39.448000
  O      43.248000     19.057000     38.093000
  C      41.216000     18.941000     35.837000
  H      40.885000     17.904000     35.872000
  C      42.369000     19.274000     35.248000
  H      43.006000     18.514000     34.788000
  C      42.943000     20.667000     35.337000
  C      41.847000     21.661000     35.630000
  H      42.039000     22.693000     35.349000
  C      40.691000     21.331000     36.208000
  H      39.952000     22.105000     36.430000
  C      40.297000     19.915000     36.529000
  H      40.387000     19.767000     37.623000
  O      38.960000     19.678000     36.115000
  H      38.356000     19.505000     36.900000
  C      43.723000     21.074000     34.043000
  O      44.827000     20.504000     33.827000
  O      43.257000     21.999000     33.339000
24
Coordinates from ORCA-job neb_MEP_ALL.QMRegion E -1076.506452458426
  C      44.548000     20.393000     37.290000
  H      44.921000     19.659000     36.575000
  H      45.141000     21.280000     37.513000
  C      43.362000     20.252000     37.894000
  C      42.843000     21.307000     38.861000
  O      43.561000     22.317000     39.046000
  O      41.729000     21.090000     39.413000
  O      42.560000     19.150000     37.687000
  C      41.689000     19.080000     36.495000
  H      41.347000     18.036000     36.492000
  C      42.523000     19.394000     35.292000
  H      43.230000     18.641000     34.940000
  C      42.555000     20.645000     34.792000
  C      41.619000     21.654000     35.301000
  H      41.739000     22.662000     34.909000
  C      40.667000     21.365000     36.203000
  H      39.992000     22.151000     36.553000
  C      40.441000     19.968000     36.709000
  H      40.300000     20.009000     37.799000
  O      39.300000     19.403000     36.075000
  H      38.572000     19.274000     36.758000
  C      43.591000     21.118000     33.781000
  O      44.695000     20.512000     33.694000
  O      43.298000     22.166000     33.151000
24
Coordinates from ORCA-job neb_MEP_ALL.QMRegion E -1076.507038009897
  C      44.494765     20.453853     37.181317
  H      44.871938     19.734627     36.453498
  H      45.035128     21.388050     37.340199
  C      43.350672     20.266688     37.854618
  C      42.843603     21.308937     38.842518
  O      43.569353     22.314436     39.026951
  O      41.741254     21.082548     39.409512
  O      42.545721     19.133064     37.652739
  C      41.692389     19.049636     36.500242
  H      41.347054     18.001509     36.482112
  C      42.504885     19.371377     35.267111
  H      43.187978     18.606188     34.889826
  C      42.582083     20.641300     34.824846
  C      41.662895     21.650364     35.363375
  H      41.805943     22.669388     35.015694
  C      40.683205     21.349103     36.230464
  H      39.992164     22.124337     36.568006
  C      40.433322     19.945773     36.706909
  H      40.310348     19.962424     37.799616
  O      39.276041     19.414273     36.079620
  H      38.553462     19.287788     36.769465
  C      43.611919     21.113940     33.821753
  O      44.720796     20.514540     33.729345
  O      43.308956     22.152972     33.182874
24
Coordinates from ORCA-job neb_MEP_ALL.QMRegion E -1076.504598638131
  C      44.437381     20.516910     37.073214
  H      44.825240     19.808370     36.341784
  H      44.910848     21.493595     37.158329
  C      43.339843     20.283064     37.813360
  C      42.848192     21.308723     38.820864
  O      43.579540     22.310760     39.006793
  O      41.755849     21.077819     39.405506
  O      42.566278     19.121469     37.644190
  C      41.672053     19.021030     36.464589
  H      41.346795     17.967417     36.467291
  C      42.485301     19.348119     35.245809
  H      43.143493     18.577911     34.837805
  C      42.610981     20.636039     34.868571
  C      41.706220     21.644711     35.431007
  H      41.870133     22.673988     35.123440
  C      40.697092     21.329731     36.256995
  H      39.991626     22.097115     36.580099
  C      40.426646     19.922534     36.703056
  H      40.320964     19.913852     37.797553
  O      39.249866     19.428282     36.083550
  H      38.532752     19.302624     36.780823
  C      43.635515     21.108644     33.865558
  O      44.746830     20.514733     33.762604
  O      43.316665     22.136941     33.219007
24
Coordinates from ORCA-job neb_MEP_ALL.QMRegion E -1076.497568910473
  C      44.384924     20.572596     36.980081
  H      44.797676     19.860018     36.265545
  H      44.806915     21.578981     37.005537
  C      43.339807     20.285218     37.788146
  C      42.858344     21.312525     38.807355
  O      43.589105     22.316315     38.994344
  O      41.769099     21.080618     39.401444
  O      42.614128     19.112216     37.656453
  C      41.635844     18.990476     36.404536
  H      41.338823     17.931949     36.443720
  C      42.464805     19.329518     35.230513
  H      43.108428     18.560031     34.800718
  C      42.646573     20.635171     34.925328
  C      41.741998     21.642782     35.490010
  H      41.916754     22.677049     35.204360
  C      40.704378     21.314662     36.272747
  H      39.988732     22.077727     36.586001
  C      40.418472     19.902012     36.692266
  H      40.334907     19.870251     37.787776
  O      39.218840     19.446853     36.085067
  H      38.510201     19.314947     36.792760
  C      43.661371     21.105310     33.909228
  O      44.769514     20.512602     33.783531
  O      43.317922     22.118147     33.251545
24
Coordinates from ORCA-job neb_MEP_ALL.QMRegion E -1076.485932989034
  C      44.344811     20.606130     36.912718
  H      44.797779     19.874431     36.245258
  H      44.758865     21.615543     36.929470
  C      43.355830     20.275052     37.796770
  C      42.867088     21.320673     38.805686
  O      43.595143     22.326369     38.991995
  O      41.776590     21.088718     39.399946
  O      42.710478     19.116759     37.729427
  C      41.565517     18.962744     36.296283
  H      41.323418     17.902243     36.417757
  C      42.444427     19.315116     35.226931
  H      43.095049     18.554802     34.792946
  C      42.688128     20.642842     34.990460
  C      41.758579     21.645950     35.519105
  H      41.932945     22.679997     35.233436
  C      40.704415     21.308803     36.274219
  H      39.985883     22.070500     36.585088
  C      40.410198     19.891939     36.675092
  H      40.348191     19.845026     37.772492
  O      39.191392     19.463030     36.083343
  H      38.493538     19.320124     36.800810
  C      43.680867     21.105089     33.936558
  O      44.781556     20.510007     33.786684
  O      43.313612     22.103691     33.268921
24
Coordinates from ORCA-job neb_MEP_ALL.QMRegion E -1076.483775001595
  C      44.279131     20.636333     36.810114
  H      44.810342     19.876009     36.244626
  H      44.721741     21.627957     36.874953
  C      43.366547     20.269324     37.810214
  C      42.871405     21.328669     38.808827
  O      43.602656     22.330508     38.988647
  O      41.783734     21.095295     39.401976
  O      42.831357     19.123365     37.833346
  C      41.482859     18.937087     36.170853
  H      41.305628     17.885001     36.387341
  C      42.428348     19.299087     35.237307
  H      43.090649     18.551981     34.798059
  C      42.759686     20.661533     35.087495
  C      41.770778     21.651501     35.540920
  H      41.938396     22.684141     35.245971
  C      40.703476     21.304538     36.271355
  H      39.983209     22.065986     36.580334
  C      40.405056     19.883758     36.656865
  H      40.357321     19.827090     37.756689
  O      39.168346     19.477029     36.082426
  H      38.481234     19.322937     36.806546
  C      43.697744     21.105260     33.958332
  O      44.791709     20.508402     33.783838
  O      43.307563     22.090147     33.282306
24
Coordinates from ORCA-job neb_MEP_ALL.QMRegion E -1076.493888354351
  C      44.168498     20.659676     36.667901
  H      44.812825     19.879582     36.244248
  H      44.673206     21.628442     36.816615
  C      43.349236     20.266010     37.806191
  C      42.871382     21.335966     38.808930
  O      43.616819     22.327275     38.983380
  O      41.792105     21.091053     39.406761
  O      42.898972     19.118956     37.893892
  C      41.446809     18.926067     36.111907
  H      41.287848     17.876190     36.355111
  C      42.427357     19.290916     35.251792
  H      43.089039     18.545752     34.801022
  C      42.859258     20.684393     35.199168
  C      41.791818     21.655043     35.571607
  H      41.945302     22.683485     35.261340
  C      40.709535     21.300190     36.269911
  H      39.980343     22.057251     36.566575
  C      40.406959     19.879802     36.648207
  H      40.362153     19.812976     37.748717
  O      39.153161     19.486691     36.080506
  H      38.472593     19.326602     36.813032
  C      43.714411     21.105180     33.980551
  O      44.804214     20.506163     33.782284
  O      43.298493     22.073284     33.297736
24
Coordinates from ORCA-job neb_MEP_ALL.QMRegion E -1076.511688139318
  C      44.065184     20.671160     36.549448
  H      44.801986     19.896871     36.246729
  H      44.601885     21.623456     36.746368
  C      43.335431     20.264718     37.801540
  C      42.878554     21.336534     38.808599
  O      43.635850     22.317851     38.975228
  O      41.809367     21.084608     39.417228
  O      42.982621     19.107363     37.956511
  C      41.399217     18.921962     36.046168
  H      41.224004     17.870786     36.270400
  C      42.424951     19.287014     35.261923
  H      43.082022     18.539775     34.806268
  C      42.945507     20.699489     35.296422
  C      41.820984     21.660645     35.606533
  H      41.962325     22.686987     35.281000
  C      40.715910     21.300642     36.263414
  H      39.975703     22.056302     36.533506
  C      40.394481     19.881529     36.627165
  H      40.370954     19.800501     37.728262
  O      39.117788     19.520217     36.084460
  H      38.451562     19.352092     36.829096
  C      43.727301     21.100865     34.004789
  O      44.817298     20.506938     33.785079
  O      43.286478     22.051410     33.315316
24
Coordinates from ORCA-job neb_MEP_ALL.QMRegion E -1076.523954111071
  C      43.997883     20.673792     36.486909
  H      44.796358     19.922918     36.238154
  H      44.495248     21.655063     36.666464
  C      43.366981     20.243607     37.819448
  C      42.905397     21.323054     38.816846
  O      43.664412     22.305489     38.958438
  O      41.844101     21.075232     39.439000
  O      43.146152     19.069251     38.045065
  C      41.283763     18.930282     35.917255
  H      41.011075     17.882983     36.016624
  C      42.389400     19.277552     35.253370
  H      43.041473     18.524617     34.800711
  C      42.974221     20.682895     35.358914
  C      41.840035     21.662283     35.623540
  H      42.014301     22.697461     35.329441
  C      40.703034     21.319113     36.233030
  H      39.961591     22.085874     36.462586
  C      40.336379     19.902918     36.567306
  H      40.382754     19.779135     37.664265
  O      39.015458     19.622936     36.102936
  H      38.388784     19.448258     36.876065
  C      43.723801     21.082231     34.025930
  O      44.825987     20.509100     33.810984
  O      43.268125     22.021905     33.330923
24
Coordinates from ORCA-job neb_MEP_ALL.QMRegion E -1076.526823241864
  C      44.006000     20.664000     36.513000
  H      44.788000     19.945000     36.232000
  H      44.445000     21.661000     36.639000
  C      43.394000     20.234000     37.819000
  C      42.925000     21.311000     38.826000
  O      43.668000     22.308000     38.956000
  O      41.861000     21.069000     39.448000
  O      43.248000     19.057000     38.093000
  C      41.216000     18.941000     35.837000
  H      40.885000     17.904000     35.872000
  C      42.369000     19.274000     35.248000
  H      43.006000     18.514000     34.788000
  C      42.943000     20.667000     35.337000
  C      41.847000     21.661000     35.630000
  H      42.039000     22.693000     35.349000
  C      40.691000     21.331000     36.208000
  H      39.952000     22.105000     36.430000
  C      40.297000     19.915000     36.529000
  H      40.387000     19.767000     37.623000
  O      38.960000     19.678000     36.115000
  H      38.356000     19.505000     36.900000
  C      43.723000     21.074000     34.043000
  O      44.827000     20.504000     33.827000
  O      43.257000     21.999000     33.339000
24
Coordinates from ORCA-job neb_MEP_ALL.QMRegion E -1076.506452458426
  C      44.548000     20.393000     37.290000
  H      44.921000     19.659000     36.575000
  H      45.141000     21.280000     37.513000
  C      43.362000     20.252000     37.894000
  C      42.843000     21.307000     38.861000
  O      43.561000     22.317000     39.046000
  O      41.729000     21.090000     39.413000
  O      42.560000     19.150000     37.687000
  C      41.689000     19.080000     36.495000
  H      41.347000     18.036000     36.492000
  C      42.523000     19.394000     35.292000
  H      43.230000     18.641000     34.940000
  C      42.555000     20.645000     34.792000
  C      41.619000     21.654000     35.301000
  H      41.739000     22.662000     34.909000
  C      40.667000     21.365000     36.203000
  H      39.992000     22.151000     36.553000
  C      40.441000     19.968000     36.709000
  H      40.300000     20.009000     37.799000
  O      39.300000     19.403000     36.075000
  H      38.572000     19.274000     36.758000
  C      43.591000     21.118000     33.781000
  O      44.695000     20.512000     33.694000
  O      43.298000     22.166000     33.151000
24
Coordinates from ORCA-job neb_MEP_ALL.QMRegion E -1076.506244330333
  C      44.492428     20.455983     37.177966
  H      44.864389     19.743994     36.439784
  H      45.034278     21.388993     37.340332
  C      43.345495     20.264836     37.849555
  C      42.842825     21.306799     38.841550
  O      43.567222     22.314885     39.026510
  O      41.740429     21.080353     39.408894
  O      42.553108     19.141061     37.659007
  C      41.688618     19.051513     36.494117
  H      41.350987     18.004165     36.488613
  C      42.501434     19.368332     35.265040
  H      43.183368     18.603233     34.884344
  C      42.573659     20.635439     34.816107
  C      41.661424     21.647538     35.361226
  H      41.811963     22.668873     35.023973
  C      40.685003     21.346849     36.232755
  H      39.996269     22.124019     36.574734
  C      40.436412     19.943004     36.710135
  H      40.308006     19.962802     37.802802
  O      39.280036     19.410722     36.080700
  H      38.556141     19.287652     36.769052
  C      43.610158     21.114241     33.817019
  O      44.719160     20.515530     33.733070
  O      43.310247     22.155322     33.180777
24
Coordinates from ORCA-job neb_MEP_ALL.QMRegion E -1076.504396466707
  C      44.424525     20.528644     37.053806
  H      44.807614     19.832245     36.305944
  H      44.889287     21.510954     37.133469
  C      43.331450     20.283496     37.797813
  C      42.846675     21.306522     38.814573
  O      43.578653     22.310011     39.003196
  O      41.756347     21.072963     39.404467
  O      42.568873     19.130027     37.639487
  C      41.673818     19.020723     36.464084
  H      41.353493     17.967248     36.475615
  C      42.477633     19.341747     35.237732
  H      43.129602     18.569638     34.820689
  C      42.601003     20.626670     34.859240
  C      41.709345     21.639213     35.436387
  H      41.887715     22.671883     35.152555
  C      40.701336     21.323753     36.264868
  H      39.997847     22.092084     36.592758
  C      40.428940     19.915980     36.707932
  H      40.318592     19.907169     37.803034
  O      39.252761     19.423976     36.085762
  H      38.534445     19.304939     36.781743
  C      43.634968     21.108259     33.863804
  O      44.746875     20.515713     33.773114
  O      43.319587     22.138801     33.220815
24
Coordinates from ORCA-job neb_MEP_ALL.QMRegion E -1076.497704522357
  C      44.371888     20.586246     36.960319
  H      44.779748     19.887127     36.227650
  H      44.777928     21.600572     36.972391
  C      43.333403     20.288874     37.769461
  C      42.857251     21.310362     38.799629
  O      43.588792     22.314203     38.989903
  O      41.771629     21.076617     39.399422
  O      42.606839     19.116555     37.638199
  C      41.645400     18.988190     36.414089
  H      41.345230     17.930384     36.449950
  C      42.458309     19.323587     35.221272
  H      43.092042     18.551423     34.779903
  C      42.636248     20.624826     34.915559
  C      41.746058     21.636628     35.498661
  H      41.936172     22.674403     35.238175
  C      40.708204     21.307507     36.281398
  H      39.994390     22.070962     36.599158
  C      40.419527     19.894656     36.696505
  H      40.333496     19.859988     37.792454
  O      39.219251     19.444236     36.087715
  H      38.509384     19.318546     36.794700
  C      43.660407     21.104120     33.908958
  O      44.770793     20.513405     33.795374
  O      43.321566     22.119602     33.255173
24
Coordinates from ORCA-job neb_MEP_ALL.QMRegion E -1076.486171482672
  C      44.339942     20.614301     36.904628
  H      44.790432     19.888580     36.227690
  H      44.746466     21.626146     36.914327
  C      43.357936     20.277941     37.790080
  C      42.867891     21.320364     38.803617
  O      43.594394     22.327006     38.990837
  O      41.778447     21.088429     39.397294
  O      42.710964     19.116470     37.722007
  C      41.568180     18.959028     36.298581
  H      41.325129     17.899382     36.418934
  C      42.440258     19.311863     35.221005
  H      43.086128     18.549962     34.781258
  C      42.681708     20.636602     34.984745
  C      41.758715     21.642525     35.521815
  H      41.942170     22.678649     35.250301
  C      40.704663     21.304144     36.277247
  H      39.989313     22.066881     36.594030
  C      40.409537     19.887345     36.674791
  H      40.349102     19.837497     37.772027
  O      39.188346     19.463258     36.084610
  H      38.490478     19.322239     36.802580
  C      43.679076     21.104392     33.935218
  O      44.780972     20.510430     33.792113
  O      43.315162     22.104916     33.270012
24
Coordinates from ORCA-job neb_MEP_ALL.QMRegion E -1076.483759183288
  C      44.294758     20.631950     36.829833
  H      44.813340     19.870441     36.253722
  H      44.740908     21.621582     36.895494
  C      43.373995     20.267700     37.819184
  C      42.872931     21.329310     38.812803
  O      43.600318     22.334624     38.992321
  O      41.781534     21.097093     39.400053
  O      42.835834     19.120431     37.839202
  C      41.483092     18.938070     36.171864
  H      41.303987     17.884933     36.388131
  C      42.429353     19.299154     35.237536
  H      43.093226     18.552476     34.800562
  C      42.747633     20.661158     35.072163
  C      41.765026     21.651374     35.531009
  H      41.932622     22.684074     35.236226
  C      40.699877     21.305307     36.267160
  H      39.984368     22.067916     36.583350
  C      40.403216     19.884262     36.653420
  H      40.358780     19.828685     37.752935
  O      39.165861     19.477304     36.081525
  H      38.479496     19.322019     36.806418
  C      43.693168     21.106179     33.952131
  O      44.786619     20.508436     33.780679
  O      43.307084     22.093690     33.276817
24
Coordinates from ORCA-job neb_MEP_ALL.QMRegion E -1076.492345191771
  C      44.175356     20.658018     36.676088
  H      44.811545     19.872656     36.253848
  H      44.687622     21.618812     36.829532
  C      43.352247     20.268988     37.809474
  C      42.869903     21.339106     38.810235
  O      43.613261     22.331872     38.986977
  O      41.787437     21.096115     39.403876
  O      42.901699     19.121861     37.902989
  C      41.460455     18.925954     36.121614
  H      41.310561     17.876346     36.376747
  C      42.433986     19.290352     35.254951
  H      43.097767     18.548583     34.806417
  C      42.856322     20.684592     35.193267
  C      41.789190     21.654017     35.566125
  H      41.935957     22.682595     35.252151
  C      40.710516     21.296430     36.271096
  H      39.981936     22.052736     36.574006
  C      40.410522     19.874702     36.650442
  H      40.363479     19.811584     37.750012
  O      39.164024     19.476217     36.079292
  H      38.479527     19.313677     36.806445
  C      43.712541     21.107629     33.976336
  O      44.801695     20.506539     33.777300
  O      43.299522     22.076735     33.294708
24
Coordinates from ORCA-job neb_MEP_ALL.QMRegion E -1076.510919726746
  C      44.062743     20.670204     36.547472
  H      44.793095     19.892587     36.254280
  H      44.604144     21.613622     36.743200
  C      43.328903     20.267431     37.796716
  C      42.873803     21.342981     38.807191
  O      43.634683     22.322040     38.977445
  O      41.803178     21.091022     39.415407
  O      42.987292     19.119185     37.970407
  C      41.422263     18.919982     36.062668
  H      41.266134     17.869095     36.307097
  C      42.436500     19.288297     35.265965
  H      43.096847     18.544356     34.815139
  C      42.948879     20.700510     35.296237
  C      41.824858     21.659705     35.609033
  H      41.952679     22.685764     35.276219
  C      40.723244     21.293677     36.270265
  H      39.978018     22.044914     36.541627
  C      40.403043     19.872537     36.633318
  H      40.374207     19.795795     37.733304
  O      39.136743     19.503506     36.082517
  H      38.463977     19.330811     36.819096
  C      43.730098     21.103528     34.004935
  O      44.818056     20.508202     33.780692
  O      43.287392     22.054285     33.316648
24
Coordinates from ORCA-job neb_MEP_ALL.QMRegion E -1076.521420495641
  C      44.008075     20.671352     36.496839
  H      44.787750     19.926066     36.240977
  H      44.482615     21.653032     36.653763
  C      43.365146     20.241830     37.812504
  C      42.905969     21.322930     38.818239
  O      43.668685     22.306059     38.956121
  O      41.843032     21.078992     39.441247
  O      43.160131     19.074882     38.058142
  C      41.285727     18.929235     35.915789
  H      41.015566     17.880417     36.014404
  C      42.393500     19.279431     35.255678
  H      43.048237     18.525830     34.807113
  C      42.962891     20.682199     35.345964
  C      41.845568     21.662801     35.627988
  H      42.015191     22.697020     35.334471
  C      40.708139     21.317328     36.234018
  H      39.961211     22.082268     36.459016
  C      40.335371     19.900358     36.566483
  H      40.386093     19.774720     37.662798
  O      39.016579     19.624249     36.104220
  H      38.389916     19.446233     36.875165
  C      43.725552     21.083464     34.030540
  O      44.827008     20.510455     33.810505
  O      43.267103     22.019616     33.334231
24
Coordinates from ORCA-job neb_MEP_ALL.QMRegion E -1076.526823241864
  C      44.006000     20.664000     36.513000
  H      44.788000     19.945000     36.232000
  H      44.445000     21.661000     36.639000
  C      43.394000     20.234000     37.819000
  C      42.925000     21.311000     38.826000
  O      43.668000     22.308000     38.956000
  O      41.861000     21.069000     39.448000
  O      43.248000     19.057000     38.093000
  C      41.216000     18.941000     35.837000
  H      40.885000     17.904000     35.872000
  C      42.369000     19.274000     35.248000
  H      43.006000     18.514000     34.788000
  C      42.943000     20.667000     35.337000
  C      41.847000     21.661000     35.630000
  H      42.039000     22.693000     35.349000
  C      40.691000     21.331000     36.208000
  H      39.952000     22.105000     36.430000
  C      40.297000     19.915000     36.529000
  H      40.387000     19.767000     37.623000
  O      38.960000     19.678000     36.115000
  H      38.356000     19.505000     36.900000
  C      43.723000     21.074000     34.043000
  O      44.827000     20.504000     33.827000
  O      43.257000     21.999000     33.339000
24
Coordinates from ORCA-job neb_MEP_ALL.QMRegion E -1076.506452458426
  C      44.548000     20.393000     37.290000
  H      44.921000     19.659000     36.575000
  H      45.141000     21.280000     37.513000
  C      43.362000     20.252000     37.894000
  C      42.843000     21.307000     38.861000
  O      43.561000     22.317000     39.046000
  O      41.729000     21.090000     39.413000
  O      42.560000     19.150000     37.687000
  C      41.689000     19.080000     36.495000
  H      41.347000     18.036000     36.492000
  C      42.523000     19.394000     35.292000
  H      43.230000     18.641000     34.940000
  C      42.555000     20.645000     34.792000
  C      41.619000     21.654000     35.301000
  H      41.739000     22.662000     34.909000
  C      40.667000     21.365000     36.203000
  H      39.992000     22.151000     36.553000
  C      40.441000     19.968000     36.709000
  H      40.300000     20.009000     37.799000
  O      39.300000     19.403000     36.075000
  H      38.572000     19.274000     36.758000
  C      43.591000     21.118000     33.781000
  O      44.695000     20.512000     33.694000
  O      43.298000     22.166000     33.151000
24
Coordinates from ORCA-job neb_MEP_ALL.QMRegion E -1076.507461190026
  C      44.481228     20.458343     37.172891
  H      44.853682     19.758460     36.421497
  H      45.030508     21.392280     37.336954
  C      43.350286     20.268979     37.840176
  C      42.844922     21.305420     38.838604
  O      43.562273     22.312235     39.025962
  O      41.738821     21.079155     39.409774
  O      42.562552     19.148174     37.665934
  C      41.683098     19.049786     36.481772
  H      41.355092     18.006336     36.495997
  C      42.496417     19.360325     35.265391
  H      43.175210     18.599962     34.876942
  C      42.566474     20.631388     34.807359
  C      41.659600     21.643622     35.361989
  H      41.820044     22.669551     35.034718
  C      40.685796     21.344327     36.236455
  H      40.003419     22.122780     36.583974
  C      40.438202     19.940501     36.712992
  H      40.305790     19.962110     37.805771
  O      39.284490     19.406447     36.082677
  H      38.558776     19.287147     36.768738
  C      43.604197     21.111873     33.812784
  O      44.719914     20.516715     33.736700
  O      43.311672     22.158465     33.178636
24
Coordinates from ORCA-job neb_MEP_ALL.QMRegion E -1076.504541703873
  C      44.405949     20.540921     37.025564
  H      44.783845     19.865377     36.264802
  H      44.861884     21.533642     37.102311
  C      43.326959     20.285982     37.778559
  C      42.846916     21.305220     38.808078
  O      43.573245     22.305776     38.999137
  O      41.760108     21.070495     39.402505
  O      42.579787     19.142495     37.636971
  C      41.669653     19.010758     36.452747
  H      41.360682     17.967752     36.484473
  C      42.465715     19.324003     35.235343
  H      43.109946     18.560995     34.799675
  C      42.593659     20.623914     34.847318
  C      41.710738     21.630900     35.447621
  H      41.908719     22.671819     35.185982
  C      40.705080     21.317716     36.273780
  H      40.007436     22.087067     36.610490
  C      40.431813     19.906997     36.712978
  H      40.316421     19.898604     37.807475
  O      39.255110     19.418600     36.088887
  H      38.535560     19.306614     36.783068
  C      43.626640     21.103570     33.862948
  O      44.751072     20.516832     33.783298
  O      43.322986     22.142884     33.221892
24
Coordinates from ORCA-job neb_MEP_ALL.QMRegion E -1076.497502542830
  C      44.363732     20.595772     36.937187
  H      44.757605     19.920048     36.192179
  H      44.750639     21.618699     36.946225
  C      43.322936     20.290424     37.752012
  C      42.857272     21.307370     38.790717
  O      43.585704     22.309375     38.985320
  O      41.774198     21.072594     39.397198
  O      42.602684     19.129664     37.616836
  C      41.656279     18.983440     36.422972
  H      41.353042     17.931429     36.458389
  C      42.447669     19.305062     35.218099
  H      43.073528     18.544010     34.757556
  C      42.625563     20.623660     34.897254
  C      41.745774     21.627144     35.506159
  H      41.955006     22.672408     35.270151
  C      40.711349     21.301561     36.290802
  H      40.002892     22.065459     36.616918
  C      40.422592     19.884939     36.702332
  H      40.330790     19.851518     37.796904
  O      39.222071     19.438787     36.091354
  H      38.509914     19.320749     36.795956
  C      43.650199     21.097270     33.904413
  O      44.772992     20.515354     33.805707
  O      43.325881     22.126103     33.255064
24
Coordinates from ORCA-job neb_MEP_ALL.QMRegion E -1076.486077987925
  C      44.340748     20.618501     36.893456
  H      44.783491     19.902845     36.216984
  H      44.738788     21.633808     36.905842
  C      43.355947     20.275905     37.789849
  C      42.871518     21.319538     38.799401
  O      43.593991     22.328283     38.990773
  O      41.777470     21.087957     39.396125
  O      42.720885     19.122336     37.719182
  C      41.567992     18.956603     36.294216
  H      41.325672     17.895578     36.418891
  C      42.433759     19.299536     35.218439
  H      43.077845     18.547170     34.771944
  C      42.678990     20.639119     34.978460
  C      41.755663     21.637370     35.523819
  H      41.948261     22.678462     35.261728
  C      40.704506     21.301731     36.278968
  H      39.993345     22.063945     36.603913
  C      40.408397     19.881127     36.673829
  H      40.350160     19.831078     37.769392
  O      39.185314     19.462970     36.085654
  H      38.486884     19.323570     36.804397
  C      43.672861     21.100190     33.932909
  O      44.781241     20.511004     33.794412
  O      43.315497     22.108402     33.269142
24
Coordinates from ORCA-job neb_MEP_ALL.QMRegion E -1076.483634003012
  C      44.313402     20.627135     36.853204
  H      44.816348     19.865582     36.262275
  H      44.762154     21.617410     36.916388
  C      43.382672     20.265208     37.828347
  C      42.874121     21.331559     38.816823
  O      43.597861     22.337543     38.996407
  O      41.780103     21.098469     39.397490
  O      42.841750     19.117615     37.845634
  C      41.480254     18.935483     36.172934
  H      41.301897     17.886347     36.387494
  C      42.431259     19.302512     35.235688
  H      43.095721     18.552201     34.802548
  C      42.733703     20.657499     35.054839
  C      41.756817     21.650927     35.522098
  H      41.927070     22.684401     35.226393
  C      40.698303     21.305241     36.261864
  H      39.984901     22.070158     36.587047
  C      40.400145     19.885059     36.649049
  H      40.360649     19.829669     37.748621
  O      39.162701     19.477903     36.079800
  H      38.476391     19.321924     36.807034
  C      43.687640     21.107863     33.944884
  O      44.781631     20.507877     33.777390
  O      43.306263     22.096935     33.271812
24
Coordinates from ORCA-job neb_MEP_ALL.QMRegion E -1076.490458801174
  C      44.188194     20.651453     36.693228
  H      44.810023     19.866375     36.265903
  H      44.706435     21.610211     36.846026
  C      43.359871     20.272709     37.813619
  C      42.870272     21.340323     38.813919
  O      43.607893     22.335326     38.990600
  O      41.783565     21.102284     39.400482
  O      42.907863     19.125934     37.913157
  C      41.466258     18.920076     36.129792
  H      41.328428     17.878440     36.392976
  C      42.443080     19.294792     35.255997
  H      43.107648     18.549832     34.812332
  C      42.849359     20.682121     35.184638
  C      41.783063     21.650221     35.559898
  H      41.926755     22.684253     35.240197
  C      40.711164     21.294670     36.268969
  H      39.982895     22.049848     36.580402
  C      40.411926     19.869288     36.649991
  H      40.364977     19.810626     37.751108
  O      39.174232     19.468039     36.078414
  H      38.485324     19.303090     36.800145
  C      43.712853     21.107910     33.973406
  O      44.796379     20.508083     33.770992
  O      43.299797     22.082199     33.287981
24
Coordinates from ORCA-job neb_MEP_ALL.QMRegion E -1076.509334125468
  C      44.071645     20.661200     36.560563
  H      44.783487     19.886200     36.263960
  H      44.615175     21.607329     36.748016
  C      43.337687     20.304910     37.789486
  C      42.872224     21.346103     38.808987
  O      43.626280     22.325626     38.980054
  O      41.796746     21.102885     39.411380
  O      42.979713     19.102379     37.987434
  C      41.445938     18.913437     36.079792
  H      41.313279     17.867980     36.349616
  C      42.450294     19.291720     35.273201
  H      43.115790     18.547355     34.824132
  C      42.945528     20.699861     35.285739
  C      41.822394     21.654195     35.606369
  H      41.941765     22.686320     35.268308
  C      40.728924     21.287264     36.274265
  H      39.979526     22.034765     36.553214
  C      40.413900     19.860903     36.640281
  H      40.376141     19.790785     37.742503
  O      39.162425     19.483968     36.080762
  H      38.479348     19.306961     36.805964
  C      43.730201     21.110332     34.003382
  O      44.816999     20.509184     33.774396
  O      43.290943     22.058752     33.313157
24
Coordinates from ORCA-job neb_MEP_ALL.QMRegion E -1076.524055923745
  C      44.005940     20.661889     36.508855
  H      44.781240     19.928535     36.243382
  H      44.473432     21.654560     36.642258
  C      43.367973     20.267121     37.802166
  C      42.910968     21.324340     38.817445
  O      43.666621     22.302589     38.954694
  O      41.845305     21.085662     39.441637
  O      43.171609     19.060414     38.074679
  C      41.291444     18.928357     35.912078
  H      41.023416     17.876142     36.016506
  C      42.399400     19.280641     35.261141
  H      43.056011     18.527602     34.814976
  C      42.957690     20.679376     35.332636
  C      41.849356     21.661631     35.633857
  H      42.016303     22.697781     35.339219
  C      40.710428     21.315737     36.234263
  H      39.961486     22.077715     36.456684
  C      40.336419     19.895339     36.564810
  H      40.389273     19.769271     37.664516
  O      39.020597     19.624717     36.105658
  H      38.392349     19.442694     36.872956
  C      43.728616     21.087272     34.034195
  O      44.827283     20.510584     33.810258
  O      43.265769     22.018076     33.336486
24
Coordinates from ORCA-job neb_MEP_ALL.QMRegion E -1076.526823241864
  C      44.006000     20.664000     36.513000
  H      44.788000     19.945000     36.232000
  H      44.445000     21.661000     36.639000
  C      43.394000     20.234000     37.819000
  C      42.925000     21.311000     38.826000
  O      43.668000     22.308000     38.956000
  O      41.861000     21.069000     39.448000
  O      43.248000     19.057000     38.093000
  C      41.216000     18.941000     35.837000
  H      40.885000     17.904000     35.872000
  C      42.369000     19.274000     35.248000
  H      43.006000     18.514000     34.788000
  C      42.943000     20.667000     35.337000
  C      41.847000     21.661000     35.630000
  H      42.039000     22.693000     35.349000
  C      40.691000     21.331000     36.208000
  H      39.952000     22.105000     36.430000
  C      40.297000     19.915000     36.529000
  H      40.387000     19.767000     37.623000
  O      38.960000     19.678000     36.115000
  H      38.356000     19.505000     36.900000
  C      43.723000     21.074000     34.043000
  O      44.827000     20.504000     33.827000
  O      43.257000     21.999000     33.339000
24
Coordinates from ORCA-job neb_MEP_ALL.QMRegion E -1076.506452458426
  C      44.548000     20.393000     37.290000
  H      44.921000     19.659000     36.575000
  H      45.141000     21.280000     37.513000
  C      43.362000     20.252000     37.894000
  C      42.843000     21.307000     38.861000
  O      43.561000     22.317000     39.046000
  O      41.729000     21.090000     39.413000
  O      42.560000     19.150000     37.687000
  C      41.689000     19.080000     36.495000
  H      41.347000     18.036000     36.492000
  C      42.523000     19.394000     35.292000
  H      43.230000     18.641000     34.940000
  C      42.555000     20.645000     34.792000
  C      41.619000     21.654000     35.301000
  H      41.739000     22.662000     34.909000
  C      40.667000     21.365000     36.203000
  H      39.992000     22.151000     36.553000
  C      40.441000     19.968000     36.709000
  H      40.300000     20.009000     37.799000
  O      39.300000     19.403000     36.075000
  H      38.572000     19.274000     36.758000
  C      43.591000     21.118000     33.781000
  O      44.695000     20.512000     33.694000
  O      43.298000     22.166000     33.151000
24
Coordinates from ORCA-job neb_MEP_ALL.QMRegion E -1076.506807875496
  C      44.487015     20.461360     37.167644
  H      44.852380     19.760151     36.420403
  H      45.028097     21.392252     37.334796
  C      43.344219     20.268163     37.842946
  C      42.843728     21.304460     38.838552
  O      43.562904     22.313071     39.026120
  O      41.740275     21.079269     39.409028
  O      42.563990     19.148155     37.666083
  C      41.682240     19.050109     36.481151
  H      41.354696     18.004974     36.495917
  C      42.496322     19.362309     35.264121
  H      43.174422     18.599289     34.876095
  C      42.566054     20.628719     34.809738
  C      41.660322     21.644360     35.362595
  H      41.820560     22.669330     35.035973
  C      40.685925     21.343620     36.236823
  H      40.003716     22.122917     36.584795
  C      40.438261     19.939880     36.712633
  H      40.306037     19.961492     37.805646
  O      39.283788     19.406388     36.082853
  H      38.558608     19.287117     36.768799
  C      43.606140     21.111532     33.812223
  O      44.718497     20.517465     33.737012
  O      43.311434     22.157694     33.179349
24
Coordinates from ORCA-job neb_MEP_ALL.QMRegion E -1076.502652633159
  C      44.407210     20.543633     37.025913
  H      44.783815     19.864883     36.264308
  H      44.862159     21.531885     37.103580
  C      43.327231     20.286859     37.779643
  C      42.847776     21.304115     38.807004
  O      43.573711     22.307110     38.999745
  O      41.758912     21.070461     39.403128
  O      42.579566     19.141148     37.636973
  C      41.669532     19.012832     36.453037
  H      41.359872     17.965370     36.484919
  C      42.466190     19.330225     35.232986
  H      43.109909     18.560368     34.799597
  C      42.591183     20.616585     34.851168
  C      41.712172     21.633569     35.445450
  H      41.907749     22.670903     35.185336
  C      40.703612     21.316476     36.274973
  H      40.008054     22.087789     36.611477
  C      40.431814     19.906629     36.712100
  H      40.316566     19.898867     37.807380
  O      39.255130     19.418217     36.089065
  H      38.535664     19.306106     36.782990
  C      43.630032     21.103681     33.860113
  O      44.747492     20.518244     33.782964
  O      43.322531     22.142045     33.222018
24
Coordinates from ORCA-job neb_MEP_ALL.QMRegion E -1076.496491503153
  C      44.360171     20.596731     36.941938
  H      44.758640     19.918242     36.191675
  H      44.752099     21.616893     36.948769
  C      43.327815     20.292552     37.750071
  C      42.857207     21.306967     38.790748
  O      43.585725     22.309417     38.985419
  O      41.773639     21.072618     39.397398
  O      42.603706     19.129012     37.619055
  C      41.654220     18.983663     36.421305
  H      41.352780     17.930631     36.458940
  C      42.448344     19.313433     35.215807
  H      43.074047     18.543284     34.757667
  C      42.622921     20.614324     34.900989
  C      41.746609     21.630048     35.503615
  H      41.953575     22.671397     35.268818
  C      40.709978     21.300202     36.291816
  H      40.003365     22.066230     36.617779
  C      40.422722     19.885269     36.701597
  H      40.330742     19.852072     37.796931
  O      39.222439     19.438152     36.091536
  H      38.510221     19.320213     36.795814
  C      43.652492     21.098603     33.900805
  O      44.769913     20.516280     33.805144
  O      43.325648     22.125125     33.255076
24
Coordinates from ORCA-job neb_MEP_ALL.QMRegion E -1076.484690992825
  C      44.338302     20.619170     36.898247
  H      44.785139     19.900352     36.217246
  H      44.740588     21.632270     36.908065
  C      43.360368     20.278025     37.787984
  C      42.869794     21.320176     38.801178
  O      43.593710     22.327201     38.990562
  O      41.778839     21.088271     39.395250
  O      42.720942     19.120899     37.721027
  C      41.565901     18.954977     36.292954
  H      41.325717     17.896334     36.418902
  C      42.434419     19.305671     35.217650
  H      43.079035     18.546504     34.772403
  C      42.677882     20.633375     34.980771
  C      41.756760     21.639981     35.521627
  H      41.946818     22.677730     35.260130
  C      40.702910     21.300483     36.279922
  H      39.993305     22.064497     36.603897
  C      40.408716     19.882189     36.673212
  H      40.350085     19.831606     37.769427
  O      39.185070     19.462542     36.085926
  H      38.487244     19.323339     36.804065
  C      43.674241     21.101543     33.930597
  O      44.779434     20.511407     33.793851
  O      43.315317     22.107443     33.269352
24
Coordinates from ORCA-job neb_MEP_ALL.QMRegion E -1076.481636492885
  C      44.313900     20.627537     36.852976
  H      44.816449     19.865737     36.262246
  H      44.762057     21.617572     36.915933
  C      43.382776     20.265856     37.828609
  C      42.874548     21.331227     38.816129
  O      43.598252     22.337838     38.996590
  O      41.779586     21.098311     39.397805
  O      42.842072     19.117016     37.846064
  C      41.480836     18.937336     36.171075
  H      41.301609     17.885168     36.387297
  C      42.430149     19.300358     35.236572
  H      43.095654     18.552447     34.802664
  C      42.734092     20.659141     35.055106
  C      41.758713     21.651239     35.521185
  H      41.926994     22.684122     35.226544
  C      40.696453     21.305296     36.263139
  H      39.985211     22.069565     36.586752
  C      40.400254     19.884535     36.648954
  H      40.360686     19.829559     37.748467
  O      39.161580     19.477899     36.080339
  H      38.476663     19.322156     36.806637
  C      43.688126     21.107001     33.945340
  O      44.781431     20.508079     33.777315
  O      43.305941     22.097195     33.271842
24
Coordinates from ORCA-job neb_MEP_ALL.QMRegion E -1076.485782848165
  C      44.190026     20.653395     36.694817
  H      44.810642     19.865852     36.265656
  H      44.706286     21.609793     36.845987
  C      43.360232     20.272475     37.814736
  C      42.871074     21.339889     38.813499
  O      43.608196     22.335537     38.990780
  O      41.783346     21.101902     39.400867
  O      42.908404     19.125263     37.913149
  C      41.467596     18.923241     36.125824
  H      41.325918     17.876526     36.391117
  C      42.440282     19.291995     35.257721
  H      43.107325     18.549969     34.812452
  C      42.848950     20.682803     35.184116
  C      41.784898     21.652364     35.558149
  H      41.927001     22.683235     35.240430
  C      40.708968     21.293787     36.269644
  H      39.982762     22.050312     36.579700
  C      40.411494     19.869568     36.650154
  H      40.365016     19.810815     37.750407
  O      39.172223     19.468848     36.078648
  H      38.485037     19.304285     36.800241
  C      43.710746     21.110514     33.972479
  O      44.797528     20.507242     33.770830
  O      43.300407     22.080304     33.289133
24
Coordinates from ORCA-job neb_MEP_ALL.QMRegion E -1076.501512405523
  C      44.066853     20.666140     36.553811
  H      44.782858     19.885785     36.264023
  H      44.610236     21.606773     36.742342
  C      43.329145     20.278646     37.794539
  C      42.871876     21.346185     38.808673
  O      43.628191     22.327246     38.980281
  O      41.797565     21.103063     39.411791
  O      42.991850     19.126963     37.986477
  C      41.444312     18.913837     36.076167
  H      41.311066     17.866658     36.345875
  C      42.451599     19.289965     35.273451
  H      43.115982     18.547722     34.825375
  C      42.949941     20.700515     35.292126
  C      41.825767     21.656537     35.606814
  H      41.942704     22.685489     35.270150
  C      40.727535     21.286029     36.274981
  H      39.979254     22.034392     36.551487
  C      40.414025     19.860560     36.640330
  H      40.376796     19.789636     37.741726
  O      39.161058     19.485196     36.080955
  H      38.479300     19.307881     36.805985
  C      43.733135     21.109346     34.004847
  O      44.816692     20.510097     33.774922
  O      43.290129     22.058311     33.313527
24
Coordinates from ORCA-job neb_MEP_ALL.QMRegion E -1076.521771469192
  C      44.010422     20.665146     36.511064
  H      44.780925     19.927896     36.243924
  H      44.475093     21.651771     36.643624
  C      43.363427     20.246765     37.806949
  C      42.907922     21.322436     38.817136
  O      43.668000     22.306551     38.956078
  O      41.845412     21.086070     39.440331
  O      43.172013     19.080473     38.068572
  C      41.292117     18.926756     35.915514
  H      41.028478     17.876435     36.022163
  C      42.403003     19.280799     35.260237
  H      43.056766     18.527950     34.815404
  C      42.954812     20.679723     35.330437
  C      41.849918     21.662401     35.632810
  H      42.015070     22.696764     35.338272
  C      40.709912     21.314248     36.234797
  H      39.961447     22.077381     36.458586
  C      40.338020     19.894817     36.566594
  H      40.389098     19.769403     37.665689
  O      39.023028     19.622217     36.105080
  H      38.393995     19.440458     36.871667
  C      43.729481     21.087394     34.034041
  O      44.826999     20.510474     33.809539
  O      43.265944     22.019038     33.335601
24
Coordinates from ORCA-job neb_MEP_ALL.QMRegion E -1076.526823241864
  C      44.006000     20.664000     36.513000
  H      44.788000     19.945000     36.232000
  H      44.445000     21.661000     36.639000
  C      43.394000     20.234000     37.819000
  C      42.925000     21.311000     38.826000
  O      43.668000     22.308000     38.956000
  O      41.861000     21.069000     39.448000
  O      43.248000     19.057000     38.093000
  C      41.216000     18.941000     35.837000
  H      40.885000     17.904000     35.872000
  C      42.369000     19.274000     35.248000
  H      43.006000     18.514000     34.788000
  C      42.943000     20.667000     35.337000
  C      41.847000     21.661000     35.630000
  H      42.039000     22.693000     35.349000
  C      40.691000     21.331000     36.208000
  H      39.952000     22.105000     36.430000
  C      40.297000     19.915000     36.529000
  H      40.387000     19.767000     37.623000
  O      38.960000     19.678000     36.115000
  H      38.356000     19.505000     36.900000
  C      43.723000     21.074000     34.043000
  O      44.827000     20.504000     33.827000
  O      43.257000     21.999000     33.339000
24
Coordinates from ORCA-job neb_MEP_ALL.QMRegion E -1076.506452458426
  C      44.548000     20.393000     37.290000
  H      44.921000     19.659000     36.575000
  H      45.141000     21.280000     37.513000
  C      43.362000     20.252000     37.894000
  C      42.843000     21.307000     38.861000
  O      43.561000     22.317000     39.046000
  O      41.729000     21.090000     39.413000
  O      42.560000     19.150000     37.687000
  C      41.689000     19.080000     36.495000
  H      41.347000     18.036000     36.492000
  C      42.523000     19.394000     35.292000
  H      43.230000     18.641000     34.940000
  C      42.555000     20.645000     34.792000
  C      41.619000     21.654000     35.301000
  H      41.739000     22.662000     34.909000
  C      40.667000     21.365000     36.203000
  H      39.992000     22.151000     36.553000
  C      40.441000     19.968000     36.709000
  H      40.300000     20.009000     37.799000
  O      39.300000     19.403000     36.075000
  H      38.572000     19.274000     36.758000
  C      43.591000     21.118000     33.781000
  O      44.695000     20.512000     33.694000
  O      43.298000     22.166000     33.151000
24
Coordinates from ORCA-job neb_MEP_ALL.QMRegion E -1076.508238049146
  C      44.486259     20.462126     37.167391
  H      44.852092     19.760535     36.419522
  H      45.027716     21.392686     37.334176
  C      43.344873     20.268489     37.842481
  C      42.843885     21.304605     38.838519
  O      43.562910     22.313057     39.026172
  O      41.740256     21.079290     39.409093
  O      42.564424     19.147786     37.666216
  C      41.681774     19.050114     36.480638
  H      41.354482     18.004380     36.495899
  C      42.496231     19.362078     35.264039
  H      43.173946     18.599138     34.875824
  C      42.566067     20.628715     34.810340
  C      41.660465     21.644413     35.362998
  H      41.820672     22.669338     35.036234
  C      40.686012     21.343506     36.236822
  H      40.003994     22.123054     36.585303
  C      40.438203     19.939594     36.712483
  H      40.306172     19.961278     37.805514
  O      39.283611     19.406304     36.082822
  H      38.558456     19.286995     36.768903
  C      43.606204     21.111437     33.812128
  O      44.718352     20.517515     33.736905
  O      43.311214     22.157349     33.179574
24
Coordinates from ORCA-job neb_MEP_ALL.QMRegion E -1076.504534009398
  C      44.407181     20.544670     37.025630
  H      44.783519     19.865157     36.263818
  H      44.862080     21.531871     37.103680
  C      43.327737     20.287227     37.779798
  C      42.848002     21.304028     38.806950
  O      43.573743     22.307442     38.999915
  O      41.758848     21.070552     39.403108
  O      42.579802     19.140565     37.636793
  C      41.669350     19.013207     36.452841
  H      41.359463     17.964235     36.484958
  C      42.466078     19.329903     35.232724
  H      43.109298     18.560414     34.799499
  C      42.590862     20.616465     34.851798
  C      41.711861     21.633532     35.445771
  H      41.907543     22.670938     35.185076
  C      40.703884     21.316441     36.274730
  H      40.008409     22.088154     36.612324
  C      40.431643     19.906241     36.711831
  H      40.316752     19.898772     37.807129
  O      39.254992     19.417983     36.089037
  H      38.535527     19.305803     36.783089
  C      43.629921     21.103581     33.859557
  O      44.747046     20.518370     33.782537
  O      43.322194     22.141726     33.222045
24
Coordinates from ORCA-job neb_MEP_ALL.QMRegion E -1076.498065045098
  C      44.360558     20.597089     36.942215
  H      44.758983     19.917658     36.192518
  H      44.753140     21.615784     36.950609
  C      43.328433     20.292868     37.750998
  C      42.857322     21.307012     38.790920
  O      43.585641     22.309470     38.985581
  O      41.773535     21.072692     39.397323
  O      42.605236     19.128878     37.620740
  C      41.652824     18.983906     36.419567
  H      41.352475     17.930008     36.458966
  C      42.448306     19.313263     35.215598
  H      43.073956     18.543651     34.758194
  C      42.622688     20.614278     34.901543
  C      41.745812     21.629975     35.503258
  H      41.952718     22.671432     35.267473
  C      40.710202     21.300343     36.291361
  H      40.003600     22.066709     36.618391
  C      40.422601     19.885224     36.701299
  H      40.330822     19.852375     37.796672
  O      39.222532     19.437798     36.091437
  H      38.510234     19.319826     36.795846
  C      43.652237     21.098509     33.899956
  O      44.769243     20.516392     33.804336
  O      43.325213     22.125107     33.254679
24
Coordinates from ORCA-job neb_MEP_ALL.QMRegion E -1076.486139674941
  C      44.339045     20.619059     36.899288
  H      44.785757     19.899395     36.218381
  H      44.741909     21.631255     36.909812
  C      43.360927     20.278374     37.788608
  C      42.869819     21.320368     38.801404
  O      43.593638     22.326959     38.990683
  O      41.778751     21.088298     39.395241
  O      42.721430     19.120478     37.722081
  C      41.565018     18.955008     36.292046
  H      41.325592     17.896372     36.418813
  C      42.434652     19.305989     35.217689
  H      43.079457     18.546775     34.773074
  C      42.677801     20.633368     34.981029
  C      41.756201     21.639965     35.521301
  H      41.945943     22.677863     35.258694
  C      40.703128     21.300654     36.279492
  H      39.993187     22.064836     36.603907
  C      40.408665     19.882373     36.673018
  H      40.350069     19.831988     37.769314
  O      39.185226     19.462343     36.085751
  H      38.487232     19.323145     36.804074
  C      43.674234     21.101504     33.930146
  O      44.779037     20.511424     33.793178
  O      43.314972     22.107482     33.269050
24
Coordinates from ORCA-job neb_MEP_ALL.QMRegion E -1076.483568503354
  C      44.314319     20.627709     36.853117
  H      44.816492     19.865911     36.262130
  H      44.762062     21.617829     36.915653
  C      43.382769     20.265835     37.828621
  C      42.874558     21.331180     38.815960
  O      43.598396     22.337796     38.996640
  O      41.779592     21.098242     39.397800
  O      42.842260     19.117051     37.846096
  C      41.480672     18.937499     36.170653
  H      41.301507     17.884990     36.387063
  C      42.430002     19.300062     35.236534
  H      43.095596     18.552481     34.802664
  C      42.734140     20.659303     35.055112
  C      41.758756     21.651131     35.521360
  H      41.927050     22.684122     35.226635
  C      40.696534     21.305320     36.263179
  H      39.985159     22.069426     36.586708
  C      40.400078     19.884356     36.648875
  H      40.360718     19.829437     37.748398
  O      39.161596     19.477997     36.080163
  H      38.476401     19.322288     36.806794
  C      43.688045     21.106979     33.945391
  O      44.781531     20.508028     33.777276
  O      43.305886     22.097092     33.272024
24
Coordinates from ORCA-job neb_MEP_ALL.QMRegion E -1076.488696347857
  C      44.191528     20.653691     36.696282
  H      44.810956     19.865777     36.265610
  H      44.706671     21.610041     36.846294
  C      43.360679     20.272124     37.815374
  C      42.871284     21.339621     38.813625
  O      43.608329     22.335526     38.990846
  O      41.783547     21.101691     39.400911
  O      42.908741     19.124988     37.912956
  C      41.466541     18.923443     36.124904
  H      41.324141     17.876294     36.389400
  C      42.440141     19.291473     35.257373
  H      43.106953     18.550026     34.812563
  C      42.848152     20.682926     35.183342
  C      41.784532     21.652505     35.557976
  H      41.927278     22.683218     35.240332
  C      40.708849     21.293950     36.269101
  H      39.982526     22.050782     36.579264
  C      40.411028     19.869806     36.649851
  H      40.365060     19.810929     37.750013
  O      39.171415     19.469583     36.078493
  H      38.484432     19.305163     36.800647
  C      43.710961     21.110068     33.972498
  O      44.797178     20.507372     33.770897
  O      43.300252     22.080393     33.288907
24
Coordinates from ORCA-job neb_MEP_ALL.QMRegion E -1076.507078906655
  C      44.069436     20.666457     36.557041
  H      44.783604     19.884986     36.264185
  H      44.612052     21.607074     36.744221
  C      43.330926     20.279538     37.795210
  C      42.872594     21.346012     38.808976
  O      43.627721     22.327636     38.980479
  O      41.796930     21.103060     39.411756
  O      42.990586     19.125636     37.985693
  C      41.444308     18.914038     36.075875
  H      41.310199     17.866425     36.345442
  C      42.451471     19.289219     35.273351
  H      43.115948     18.547673     34.825378
  C      42.948173     20.700343     35.290387
  C      41.824479     21.656458     35.605574
  H      41.942656     22.685335     35.269635
  C      40.727043     21.286166     36.274253
  H      39.979074     22.034971     36.551786
  C      40.413862     19.860689     36.640502
  H      40.376592     19.789809     37.741820
  O      39.160983     19.485143     36.080852
  H      38.479386     19.308247     36.805810
  C      43.732551     21.109565     34.004144
  O      44.816395     20.509977     33.774777
  O      43.290440     22.058687     33.312685
24
Coordinates from ORCA-job neb_MEP_ALL.QMRegion E -1076.524805392542
  C      44.011336     20.665619     36.511976
  H      44.780868     19.927968     36.243987
  H      44.475220     21.651185     36.643880
  C      43.363808     20.249483     37.806295
  C      42.908836     21.322806     38.816853
  O      43.667671     22.306792     38.956229
  O      41.844800     21.085975     39.440415
  O      43.171420     19.077941     38.069006
  C      41.292715     18.926682     35.915362
  H      41.029036     17.876209     36.022957
  C      42.403168     19.280542     35.260597
  H      43.057045     18.527746     34.815437
  C      42.954244     20.680023     35.329850
  C      41.849680     21.662369     35.632740
  H      42.015019     22.696507     35.338230
  C      40.709947     21.314008     36.234490
  H      39.961304     22.077459     36.458988
  C      40.338267     19.894644     36.566910
  H      40.389068     19.769289     37.665933
  O      39.023336     19.621842     36.104964
  H      38.394279     19.440218     36.871417
  C      43.729525     21.087620     34.033996
  O      44.827090     20.510344     33.809342
  O      43.266066     22.019147     33.335357
24
Coordinates from ORCA-job neb_MEP_ALL.QMRegion E -1076.526823241864
  C      44.006000     20.664000     36.513000
  H      44.788000     19.945000     36.232000
  H      44.445000     21.661000     36.639000
  C      43.394000     20.234000     37.819000
  C      42.925000     21.311000     38.826000
  O      43.668000     22.308000     38.956000
  O      41.861000     21.069000     39.448000
  O      43.248000     19.057000     38.093000
  C      41.216000     18.941000     35.837000
  H      40.885000     17.904000     35.872000
  C      42.369000     19.274000     35.248000
  H      43.006000     18.514000     34.788000
  C      42.943000     20.667000     35.337000
  C      41.847000     21.661000     35.630000
  H      42.039000     22.693000     35.349000
  C      40.691000     21.331000     36.208000
  H      39.952000     22.105000     36.430000
  C      40.297000     19.915000     36.529000
  H      40.387000     19.767000     37.623000
  O      38.960000     19.678000     36.115000
  H      38.356000     19.505000     36.900000
  C      43.723000     21.074000     34.043000
  O      44.827000     20.504000     33.827000
  O      43.257000     21.999000     33.339000
24
Coordinates from ORCA-job neb_MEP_ALL.QMRegion E -1076.506452458426
  C      44.548000     20.393000     37.290000
  H      44.921000     19.659000     36.575000
  H      45.141000     21.280000     37.513000
  C      43.362000     20.252000     37.894000
  C      42.843000     21.307000     38.861000
  O      43.561000     22.317000     39.046000
  O      41.729000     21.090000     39.413000
  O      42.560000     19.150000     37.687000
  C      41.689000     19.080000     36.495000
  H      41.347000     18.036000     36.492000
  C      42.523000     19.394000     35.292000
  H      43.230000     18.641000     34.940000
  C      42.555000     20.645000     34.792000
  C      41.619000     21.654000     35.301000
  H      41.739000     22.662000     34.909000
  C      40.667000     21.365000     36.203000
  H      39.992000     22.151000     36.553000
  C      40.441000     19.968000     36.709000
  H      40.300000     20.009000     37.799000
  O      39.300000     19.403000     36.075000
  H      38.572000     19.274000     36.758000
  C      43.591000     21.118000     33.781000
  O      44.695000     20.512000     33.694000
  O      43.298000     22.166000     33.151000
24
Coordinates from ORCA-job neb_MEP_ALL.QMRegion E -1076.508313998323
  C      44.484320     20.465164     37.165266
  H      44.850671     19.762518     36.416099
  H      45.026125     21.394597     37.331612
  C      43.346283     20.269528     37.841266
  C      42.844305     21.305001     38.838408
  O      43.563049     22.313201     39.026466
  O      41.740426     21.079397     39.409215
  O      42.566373     19.146483     37.666553
  C      41.679975     19.049665     36.478703
  H      41.353603     18.002062     36.495806
  C      42.495675     19.361284     35.263735
  H      43.171967     18.598407     34.874631
  C      42.566289     20.628646     34.812716
  C      41.661155     21.644666     35.364629
  H      41.821127     22.669372     35.037312
  C      40.686154     21.343078     36.237005
  H      40.005280     22.123574     36.587478
  C      40.437919     19.938520     36.711838
  H      40.306765     19.960359     37.804926
  O      39.282745     19.405901     36.082748
  H      38.557864     19.286454     36.769295
  C      43.606209     21.110886     33.812037
  O      44.717915     20.517598     33.736374
  O      43.310202     22.156126     33.180321
24
Coordinates from ORCA-job neb_MEP_ALL.QMRegion E -1076.504628690846
  C      44.406957     20.548401     37.024116
  H      44.782139     19.866609     36.261883
  H      44.861961     21.532323     37.104141
  C      43.329602     20.288399     37.780410
  C      42.848855     21.303930     38.806981
  O      43.573773     22.308645     39.000586
  O      41.758803     21.070934     39.402859
  O      42.581168     19.138576     37.636035
  C      41.668399     19.013570     36.452019
  H      41.357879     17.960082     36.485084
  C      42.465267     19.328968     35.231817
  H      43.106836     18.560357     34.798919
  C      42.589778     20.615878     34.854110
  C      41.711095     21.633667     35.446676
  H      41.906608     22.670943     35.184000
  C      40.704154     21.316274     36.274349
  H      40.010168     22.089519     36.615924
  C      40.430988     19.904873     36.710692
  H      40.317545     19.898343     37.806031
  O      39.254275     19.416915     36.088958
  H      38.534990     19.304490     36.783473
  C      43.629000     21.102982     33.857693
  O      44.745426     20.518697     33.780601
  O      43.320622     22.140709     33.221870
24
Coordinates from ORCA-job neb_MEP_ALL.QMRegion E -1076.498169836983
  C      44.361821     20.598074     36.943438
  H      44.760635     19.915061     36.196446
  H      44.757924     21.611628     36.958390
  C      43.331395     20.293805     37.754961
  C      42.857779     21.307320     38.791864
  O      43.585395     22.309971     38.986386
  O      41.773129     21.073124     39.396960
  O      42.612091     19.128379     37.627981
  C      41.646808     18.984119     36.412034
  H      41.351061     17.927507     36.458815
  C      42.447705     19.312933     35.214979
  H      43.073863     18.544968     34.760432
  C      42.622239     20.614234     34.903960
  C      41.743130     21.630135     35.501268
  H      41.948863     22.671433     35.261568
  C      40.710122     21.300935     36.289970
  H      40.004751     22.068575     36.620846
  C      40.422053     19.885253     36.699859
  H      40.331296     19.853576     37.795377
  O      39.222477     19.436380     36.091073
  H      38.510267     19.318177     36.795924
  C      43.650820     21.098256     33.896869
  O      44.766708     20.516606     33.800666
  O      43.323187     22.125010     33.252926
24
Coordinates from ORCA-job neb_MEP_ALL.QMRegion E -1076.486226870200
  C      44.342339     20.618086     36.903602
  H      44.788337     19.895468     36.223416
  H      44.747769     21.627248     36.917314
  C      43.362889     20.279145     37.791326
  C      42.869697     21.320837     38.802344
  O      43.593561     22.326351     38.991323
  O      41.778388     21.088450     39.395182
  O      42.723777     19.119278     37.726460
  C      41.561517     18.955147     36.288244
  H      41.325021     17.896517     36.418391
  C      42.435428     19.307085     35.218075
  H      43.081329     18.547895     34.775913
  C      42.677585     20.633648     34.981826
  C      41.754436     21.640285     35.519418
  H      41.942146     22.678211     35.252587
  C      40.703237     21.301382     36.278168
  H      39.992861     22.066106     36.603856
  C      40.408490     19.883173     36.672203
  H      40.350015     19.833624     37.768789
  O      39.185547     19.461476     36.085224
  H      38.487358     19.322345     36.803932
  C      43.673797     21.101550     33.928348
  O      44.777581     20.511340     33.790253
  O      43.313529     22.107577     33.267794
24
Coordinates from ORCA-job neb_MEP_ALL.QMRegion E -1076.483703211158
  C      44.316004     20.628342     36.853822
  H      44.816701     19.866689     36.261590
  H      44.762122     21.619019     36.914459
  C      43.382880     20.265835     37.828554
  C      42.874592     21.331068     38.815356
  O      43.598941     22.337508     38.996816
  O      41.779680     21.097954     39.397715
  O      42.842996     19.117172     37.846156
  C      41.479849     18.937821     36.169043
  H      41.301095     17.884407     36.386013
  C      42.429480     19.299225     35.236242
  H      43.095378     18.552534     34.802608
  C      42.734254     20.659646     35.055157
  C      41.759071     21.650845     35.521985
  H      41.927290     22.684049     35.227082
  C      40.696718     21.305271     36.263477
  H      39.984933     22.068851     36.586535
  C      40.399485     19.883769     36.648521
  H      40.360840     19.828882     37.748104
  O      39.161101     19.478303     36.079827
  H      38.475576     19.322918     36.807160
  C      43.687901     21.106730     33.945630
  O      44.781783     20.507886     33.777150
  O      43.305610     22.096774     33.272710
24
Coordinates from ORCA-job neb_MEP_ALL.QMRegion E -1076.488883186760
  C      44.197981     20.654362     36.702932
  H      44.812297     19.865592     36.265458
  H      44.708645     21.611441     36.847823
  C      43.362915     20.270853     37.817845
  C      42.872296     21.338581     38.814239
  O      43.608795     22.335358     38.991115
  O      41.784332     21.100772     39.401127
  O      42.909970     19.123577     37.912024
  C      41.462202     18.924038     36.120996
  H      41.316435     17.875458     36.381973
  C      42.439163     19.290024     35.256117
  H      43.105550     18.549963     34.812851
  C      42.844474     20.682947     35.179775
  C      41.783363     21.653119     35.556855
  H      41.928446     22.683184     35.239889
  C      40.707779     21.294721     36.267118
  H      39.981636     22.052697     36.577346
  C      40.408997     19.870935     36.648327
  H      40.365232     19.811439     37.748344
  O      39.167607     19.472733     36.078173
  H      38.481967     19.309012     36.802207
  C      43.710877     21.109147     33.972280
  O      44.796296     20.507491     33.771109
  O      43.299838     22.080318     33.288249
24
Coordinates from ORCA-job neb_MEP_ALL.QMRegion E -1076.507000508692
  C      44.080519     20.667453     36.570109
  H      44.786744     19.881789     36.265016
  H      44.620174     21.608605     36.752446
  C      43.337244     20.279352     37.799054
  C      42.874548     21.345009     38.810740
  O      43.625939     22.329521     38.981442
  O      41.795171     21.103148     39.411056
  O      42.986303     19.123709     37.981466
  C      41.443699     18.914367     36.075195
  H      41.306341     17.865702     36.343375
  C      42.451230     19.286800     35.272589
  H      43.115865     18.547270     34.825294
  C      42.940705     20.699397     35.283289
  C      41.819435     21.656118     35.600034
  H      41.942394     22.684745     35.267326
  C      40.724333     21.286782     36.271476
  H      39.978403     22.037371     36.552981
  C      40.413151     19.861342     36.640913
  H      40.375746     19.790599     37.742164
  O      39.160588     19.484997     36.080407
  H      38.479637     19.309869     36.805147
  C      43.730512     21.110106     34.001158
  O      44.814758     20.509646     33.774237
  O      43.291644     22.060403     33.309046
24
Coordinates from ORCA-job neb_MEP_ALL.QMRegion E -1076.524963316436
  C      44.014728     20.667237     36.515368
  H      44.780676     19.928211     36.244322
  H      44.476182     21.649309     36.645051
  C      43.364329     20.253205     37.805419
  C      42.910635     21.323716     38.816456
  O      43.666814     22.308465     38.957004
  O      41.843610     21.085879     39.439885
  O      43.170062     19.074776     38.068971
  C      41.294656     18.926060     35.915330
  H      41.031611     17.875362     36.026457
  C      42.404564     19.279694     35.261668
  H      43.058237     18.526944     34.815647
  C      42.952100     20.681058     35.327655
  C      41.848812     21.662255     35.632239
  H      42.014761     22.695494     35.337997
  C      40.709624     21.313097     36.233470
  H      39.960874     22.077599     36.460705
  C      40.339400     19.893836     36.568058
  H      40.388977     19.768796     37.667017
  O      39.024817     19.620184     36.104435
  H      38.395505     19.439107     36.870344
  C      43.729869     21.088460     34.033646
  O      44.827249     20.509926     33.808601
  O      43.266626     22.019646     33.334312
24
Coordinates from ORCA-job neb_MEP_ALL.QMRegion E -1076.526823241864
  C      44.006000     20.664000     36.513000
  H      44.788000     19.945000     36.232000
  H      44.445000     21.661000     36.639000
  C      43.394000     20.234000     37.819000
  C      42.925000     21.311000     38.826000
  O      43.668000     22.308000     38.956000
  O      41.861000     21.069000     39.448000
  O      43.248000     19.057000     38.093000
  C      41.216000     18.941000     35.837000
  H      40.885000     17.904000     35.872000
  C      42.369000     19.274000     35.248000
  H      43.006000     18.514000     34.788000
  C      42.943000     20.667000     35.337000
  C      41.847000     21.661000     35.630000
  H      42.039000     22.693000     35.349000
  C      40.691000     21.331000     36.208000
  H      39.952000     22.105000     36.430000
  C      40.297000     19.915000     36.529000
  H      40.387000     19.767000     37.623000
  O      38.960000     19.678000     36.115000
  H      38.356000     19.505000     36.900000
  C      43.723000     21.074000     34.043000
  O      44.827000     20.504000     33.827000
  O      43.257000     21.999000     33.339000
24
Coordinates from ORCA-job neb_MEP_ALL.QMRegion E -1076.506452458426
  C      44.548000     20.393000     37.290000
  H      44.921000     19.659000     36.575000
  H      45.141000     21.280000     37.513000
  C      43.362000     20.252000     37.894000
  C      42.843000     21.307000     38.861000
  O      43.561000     22.317000     39.046000
  O      41.729000     21.090000     39.413000
  O      42.560000     19.150000     37.687000
  C      41.689000     19.080000     36.495000
  H      41.347000     18.036000     36.492000
  C      42.523000     19.394000     35.292000
  H      43.230000     18.641000     34.940000
  C      42.555000     20.645000     34.792000
  C      41.619000     21.654000     35.301000
  H      41.739000     22.662000     34.909000
  C      40.667000     21.365000     36.203000
  H      39.992000     22.151000     36.553000
  C      40.441000     19.968000     36.709000
  H      40.300000     20.009000     37.799000
  O      39.300000     19.403000     36.075000
  H      38.572000     19.274000     36.758000
  C      43.591000     21.118000     33.781000
  O      44.695000     20.512000     33.694000
  O      43.298000     22.166000     33.151000
24
Coordinates from ORCA-job neb_MEP_ALL.QMRegion E -1076.508303504694
  C      44.481096     20.470870     37.159609
  H      44.847371     19.767337     36.409155
  H      45.022939     21.399220     37.326149
  C      43.347940     20.271218     37.839313
  C      42.845037     21.305668     38.838189
  O      43.563428     22.313661     39.027123
  O      41.740994     21.079612     39.409319
  O      42.570331     19.144237     37.666560
  C      41.676812     19.047582     36.475314
  H      41.351862     17.997727     36.495562
  C      42.494060     19.359632     35.263264
  H      43.167823     18.596664     34.871970
  C      42.567204     20.628693     34.817065
  C      41.662677     21.645096     35.368070
  H      41.822143     22.669491     35.039655
  C      40.686117     21.342337     36.237757
  H      40.008182     22.124463     36.592107
  C      40.437153     19.936558     36.710535
  H      40.308040     19.958338     37.803660
  O      39.280831     19.405005     36.082632
  H      38.556621     19.285290     36.770109
  C      43.605593     21.109555     33.812594
  O      44.717451     20.517410     33.735134
  O      43.307921     22.154018     33.181493
24
Coordinates from ORCA-job neb_MEP_ALL.QMRegion E -1076.504646909505
  C      44.406159     20.554296     37.020777
  H      44.779118     19.870136     36.258353
  H      44.862645     21.534307     37.105667
  C      43.332891     20.289837     37.781425
  C      42.850353     21.304320     38.807678
  O      43.573600     22.310650     39.001889
  O      41.759146     21.071689     39.402005
  O      42.584756     19.135678     37.634532
  C      41.666196     19.011734     36.450347
  H      41.354995     17.953183     36.485306
  C      42.462772     19.327119     35.230774
  H      43.102064     18.559812     34.797478
  C      42.588241     20.615453     34.857390
  C      41.709856     21.633968     35.448003
  H      41.904456     22.670866     35.181466
  C      40.703571     21.316139     36.274329
  H      40.014272     22.092051     36.623470
  C      40.429755     19.902649     36.708554
  H      40.319146     19.897505     37.803719
  O      39.252691     19.414458     36.088765
  H      38.533974     19.301641     36.784208
  C      43.625843     21.101470     33.854887
  O      44.742649     20.518802     33.776205
  O      43.316981     22.139276     33.220819
24
Coordinates from ORCA-job neb_MEP_ALL.QMRegion E -1076.498230440824
  C      44.364307     20.598894     36.945706
  H      44.764626     19.909347     36.205723
  H      44.768824     21.604430     36.974357
  C      43.337641     20.294224     37.763714
  C      42.858857     21.308438     38.794366
  O      43.585124     22.311702     38.988410
  O      41.772327     21.074364     39.396128
  O      42.626977     19.127428     37.642911
  C      41.634444     18.982750     36.396350
  H      41.347762     17.922629     36.457675
  C      42.445426     19.312119     35.214563
  H      43.074403     18.547280     34.765211
  C      42.622916     20.615743     34.908778
  C      41.738366     21.630925     35.496868
  H      41.940382     22.671426     35.248659
  C      40.708512     21.302435     36.287531
  H      40.007220     22.072123     36.625507
  C      40.420628     19.885718     36.696543
  H      40.332672     19.855768     37.792122
  O      39.221339     19.433810     36.090228
  H      38.510031     19.314777     36.796120
  C      43.647347     21.097884     33.892059
  O      44.762154     20.516418     33.792424
  O      43.318426     22.124757     33.249173
24
Coordinates from ORCA-job neb_MEP_ALL.QMRegion E -1076.486201827709
  C      44.349622     20.614917     36.912143
  H      44.793586     19.887703     36.234395
  H      44.760523     21.619689     36.933003
  C      43.365864     20.278941     37.797261
  C      42.869490     21.321340     38.804123
  O      43.593721     22.325876     38.992933
  O      41.777360     21.088826     39.395175
  O      42.729360     19.118169     37.735349
  C      41.554889     18.955549     36.280412
  H      41.323694     17.896746     36.417349
  C      42.436480     19.308325     35.219480
  H      43.085357     18.550214     34.781803
  C      42.677573     20.635433     34.982618
  C      41.751336     21.641260     35.515046
  H      41.934183     22.678685     35.239860
  C      40.702507     21.303106     36.275908
  H      39.992417     22.068442     36.603561
  C      40.408026     19.884726     36.670569
  H      40.349967     19.836990     37.767554
  O      39.185793     19.459764     36.084294
  H      38.487730     19.320738     36.803480
  C      43.672236     21.101732     33.925101
  O      44.774922     20.510921     33.784076
  O      43.310517     22.107837     33.265123
24
Coordinates from ORCA-job neb_MEP_ALL.QMRegion E -1076.483583751686
  C      44.319182     20.629478     36.855345
  H      44.817261     19.868360     36.260433
  H      44.762346     21.621671     36.911972
  C      43.383459     20.265963     37.828208
  C      42.874630     21.330992     38.814398
  O      43.599946     22.336746     38.997105
  O      41.780026     21.097416     39.397379
  O      42.844620     19.117415     37.846295
  C      41.477715     18.937581     36.165945
  H      41.300248     17.883579     36.383644
  C      42.428651     19.298454     35.235371
  H      43.095011     18.552442     34.802405
  C      42.734434     20.659628     35.055419
  C      41.759698     21.650455     35.523265
  H      41.927796     22.683819     35.228090
  C      40.697107     21.304876     36.264095
  H      39.984383     22.067731     36.586216
  C      40.398378     19.882867     36.647702
  H      40.361090     19.827611     37.747444
  O      39.159574     19.478886     36.079475
  H      38.474030     19.324302     36.807686
  C      43.687827     21.106150     33.946153
  O      44.782109     20.507646     33.776925
  O      43.305012     22.096231     33.274021
24
Coordinates from ORCA-job neb_MEP_ALL.QMRegion E -1076.488768574120
  C      44.211264     20.654413     36.717277
  H      44.815106     19.865583     36.265233
  H      44.713444     21.615150     36.851375
  C      43.368132     20.268392     37.822323
  C      42.874463     21.336545     38.815733
  O      43.609620     22.334839     38.991659
  O      41.785915     21.098898     39.401583
  O      42.912296     19.120447     37.909924
  C      41.453187     18.924431     36.113275
  H      41.300283     17.874215     36.366322
  C      42.436764     19.288857     35.253686
  H      43.102974     18.549248     34.813075
  C      42.836332     20.681968     35.171987
  C      41.781248     21.653947     35.554223
  H      41.930858     22.683405     35.238906
  C      40.705052     21.296676     36.263339
  H      39.979941     22.056481     36.573286
  C      40.404532     19.873397     36.644582
  H      40.365582     19.812477     37.744867
  O      39.159446     19.479399     36.077940
  H      38.476796     19.317151     36.805328
  C      43.709828     21.107938     33.971596
  O      44.794982     20.507318     33.771551
  O      43.299128     22.079958     33.287076
24
Coordinates from ORCA-job neb_MEP_ALL.QMRegion E -1076.505917243768
  C      44.102292     20.668304     36.594412
  H      44.793050     19.876002     36.267054
  H      44.637219     21.612336     36.769348
  C      43.349713     20.278746     37.807336
  C      42.877688     21.343042     38.814987
  O      43.622365     22.333078     38.983471
  O      41.792778     21.103295     39.409118
  O      42.978253     19.119741     37.973021
  C      41.441449     18.914210     36.073976
  H      41.297607     17.864587     36.338119
  C      42.450617     19.283476     35.271012
  H      43.115978     18.545846     34.824908
  C      42.926715     20.697277     35.270161
  C      41.809807     21.655022     35.588880
  H      41.941861     22.683877     35.262385
  C      40.718223     21.288301     36.266120
  H      39.977066     22.042154     36.555028
  C      40.411427     19.862848     36.640845
  H      40.374131     19.792236     37.742570
  O      39.159500     19.485109     36.079395
  H      38.479612     19.313471     36.804170
  C      43.726626     21.110989     33.995247
  O      44.811260     20.509031     33.773168
  O      43.293938     22.063661     33.301913
24
Coordinates from ORCA-job neb_MEP_ALL.QMRegion E -1076.524719747938
  C      44.020019     20.668987     36.521196
  H      44.780599     19.928405     36.245111
  H      44.479673     21.647043     36.648214
  C      43.365352     20.257524     37.804793
  C      42.912422     21.325453     38.816518
  O      43.665028     22.312001     38.958670
  O      41.842340     21.086088     39.437881
  O      43.167078     19.072014     38.067599
  C      41.298713     18.924503     35.916600
  H      41.038057     17.873583     36.034859
  C      42.408020     19.278321     35.263447
  H      43.061061     18.525364     34.816202
  C      42.949040     20.682723     35.324023
  C      41.846768     21.661727     35.630826
  H      42.013963     22.693733     35.337157
  C      40.708374     21.311518     36.231974
  H      39.960390     22.077320     36.464535
  C      40.342000     19.891906     36.570107
  H      40.388822     19.767805     37.669564
  O      39.028624     19.616196     36.103187
  H      38.398280     19.436245     36.867929
  C      43.730577     21.090060     34.032449
  O      44.827192     20.509299     33.807134
  O      43.268045     22.020888     33.332059
24
Coordinates from ORCA-job neb_MEP_ALL.QMRegion E -1076.526823241864
  C      44.006000     20.664000     36.513000
  H      44.788000     19.945000     36.232000
  H      44.445000     21.661000     36.639000
  C      43.394000     20.234000     37.819000
  C      42.925000     21.311000     38.826000
  O      43.668000     22.308000     38.956000
  O      41.861000     21.069000     39.448000
  O      43.248000     19.057000     38.093000
  C      41.216000     18.941000     35.837000
  H      40.885000     17.904000     35.872000
  C      42.369000     19.274000     35.248000
  H      43.006000     18.514000     34.788000
  C      42.943000     20.667000     35.337000
  C      41.847000     21.661000     35.630000
  H      42.039000     22.693000     35.349000
  C      40.691000     21.331000     36.208000
  H      39.952000     22.105000     36.430000
  C      40.297000     19.915000     36.529000
  H      40.387000     19.767000     37.623000
  O      38.960000     19.678000     36.115000
  H      38.356000     19.505000     36.900000
  C      43.723000     21.074000     34.043000
  O      44.827000     20.504000     33.827000
  O      43.257000     21.999000     33.339000
24
Coordinates from ORCA-job neb_MEP_ALL.QMRegion E -1076.506452458426
  C      44.548000     20.393000     37.290000
  H      44.921000     19.659000     36.575000
  H      45.141000     21.280000     37.513000
  C      43.362000     20.252000     37.894000
  C      42.843000     21.307000     38.861000
  O      43.561000     22.317000     39.046000
  O      41.729000     21.090000     39.413000
  O      42.560000     19.150000     37.687000
  C      41.689000     19.080000     36.495000
  H      41.347000     18.036000     36.492000
  C      42.523000     19.394000     35.292000
  H      43.230000     18.641000     34.940000
  C      42.555000     20.645000     34.792000
  C      41.619000     21.654000     35.301000
  H      41.739000     22.662000     34.909000
  C      40.667000     21.365000     36.203000
  H      39.992000     22.151000     36.553000
  C      40.441000     19.968000     36.709000
  H      40.300000     20.009000     37.799000
  O      39.300000     19.403000     36.075000
  H      38.572000     19.274000     36.758000
  C      43.591000     21.118000     33.781000
  O      44.695000     20.512000     33.694000
  O      43.298000     22.166000     33.151000
24
Coordinates from ORCA-job neb_MEP_ALL.QMRegion E -1076.508178205403
  C      44.473877     20.483623     37.145012
  H      44.839052     19.779914     36.392489
  H      45.015575     21.411431     37.312771
  C      43.350477     20.274362     37.834953
  C      42.846688     21.307044     38.837678
  O      43.564430     22.314840     39.028652
  O      41.742602     21.080028     39.409319
  O      42.578994     19.139788     37.664948
  C      41.670786     19.040980     36.468900
  H      41.347913     17.988291     36.494926
  C      42.489438     19.355788     35.262123
  H      43.157866     18.592114     34.865258
  C      42.569903     20.628699     34.826332
  C      41.666287     21.645909     35.376360
  H      41.824750     22.669836     35.045528
  C      40.685788     21.340741     36.240150
  H      40.015391     22.126209     36.603358
  C      40.435028     19.932284     36.707642
  H      40.311074     19.953277     37.800679
  O      39.276190     19.402801     36.082422
  H      38.553570     19.282448     36.772071
  C      43.603702     21.106444     33.814869
  O      44.716478     20.516454     33.732074
  O      43.302202     22.149440     33.183799
24
Coordinates from ORCA-job neb_MEP_ALL.QMRegion E -1076.504549240565
  C      44.403856     20.565642     37.013281
  H      44.771931     19.879221     36.250477
  H      44.865869     21.540448     37.110302
  C      43.339394     20.291479     37.783119
  C      42.853602     21.305769     38.809876
  O      43.573121     22.314789     39.004894
  O      41.760222     21.073264     39.399706
  O      42.594184     19.130840     37.631151
  C      41.660931     19.004141     36.446571
  H      41.348883     17.939730     36.485832
  C      42.455631     19.323409     35.229318
  H      43.091411     18.557715     34.793571
  C      42.585298     20.614804     34.862643
  C      41.706887     21.634633     35.450415
  H      41.898946     22.670527     35.174935
  C      40.701144     21.316012     36.275115
  H      40.024565     22.097541     36.641549
  C      40.427026     19.898226     36.704131
  H      40.322722     19.895535     37.798413
  O      39.248893     19.408247     36.088259
  H      38.531676     19.294669     36.785866
  C      43.617520     21.098020     33.849465
  O      44.735892     20.518242     33.765269
  O      43.307558     22.136471     33.217498
24
Coordinates from ORCA-job neb_MEP_ALL.QMRegion E -1076.497733625266
  C      44.370533     20.598845     36.952143
  H      44.775632     19.894612     36.229780
  H      44.796779     21.590044     37.011452
  C      43.352303     20.291578     37.784746
  C      42.861832     21.311973     38.801267
  O      43.584979     22.317109     38.994001
  O      41.770359     21.078072     39.394178
  O      42.662085     19.125039     37.677168
  C      41.606278     18.976774     36.360475
  H      41.339289     17.911976     36.453201
  C      42.438985     19.311336     35.214795
  H      43.077510     18.551893     34.776915
  C      42.626899     20.620994     34.919939
  C      41.728066     21.633721     35.486631
  H      41.919408     22.671612     35.216817
  C      40.703207     21.306348     36.281728
  H      40.012464     22.079957     36.635135
  C      40.416607     19.887429     36.688263
  H      40.336622     19.860272     37.783572
  O      39.216760     19.428850     36.087875
  H      38.508599     19.306980     36.796762
  C      43.639850     21.097755     33.883539
  O      44.751944     20.514972     33.772068
  O      43.306146     22.123564     33.240611
24
Coordinates from ORCA-job neb_MEP_ALL.QMRegion E -1076.486061240790
  C      44.366757     20.605984     36.932391
  H      44.806059     19.869915     36.260702
  H      44.791562     21.603185     36.969865
  C      43.372037     20.275704     37.811052
  C      42.869278     21.322220     38.808405
  O      43.594230     22.325681     38.997118
  O      41.774638     21.089957     39.395203
  O      42.743362     19.117531     37.755882
  C      41.540371     18.956284     36.262275
  H      41.320323     17.897359     36.414510
  C      42.438144     19.310722     35.223506
  H      43.095151     18.555411     34.795493
  C      42.677964     20.640396     34.983297
  C      41.744366     21.644076     35.504366
  H      41.915492     22.679419     35.210051
  C      40.699904     21.307288     36.270893
  H      39.991539     22.073539     36.602551
  C      40.406649     19.888215     36.666757
  H      40.350022     19.844652     37.764403
  O      39.185761     19.456112     36.082227
  H      38.488522     19.317101     36.802315
  C      43.668237     21.102387     33.918012
  O      44.768650     20.509729     33.769651
  O      43.303492     22.108500     33.258826
24
Coordinates from ORCA-job neb_MEP_ALL.QMRegion E -1076.483262998981
  C      44.326252     20.631967     36.858903
  H      44.818890     19.872458     36.257659
  H      44.763035     21.628057     36.906216
  C      43.385402     20.266555     37.827185
  C      42.874889     21.330881     38.812578
  O      43.602116     22.334943     38.997712
  O      41.780928     21.096298     39.396358
  O      42.848529     19.117882     37.846447
  C      41.472425     18.936095     36.158912
  H      41.298165     17.881902     36.377750
  C      42.426865     19.297574     35.233172
  H      43.094225     18.551955     34.801743
  C      42.734666     20.658869     35.056088
  C      41.761154     21.649640     35.526217
  H      41.929029     22.683173     35.230636
  C      40.697925     21.303566     36.265483
  H      39.983003     22.065161     36.585576
  C      40.395908     19.881079     36.645656
  H      40.361661     19.824356     37.745736
  O      39.155493     19.480320     36.078979
  H      38.470400     19.327666     36.808757
  C      43.687819     21.104831     33.947431
  O      44.782621     20.507107     33.776444
  O      43.303638     22.095131     33.276905
24
Coordinates from ORCA-job neb_MEP_ALL.QMRegion E -1076.488350591899
  C      44.242186     20.652902     36.751204
  H      44.821901     19.866267     36.264786
  H      44.725584     21.624785     36.860102
  C      43.380981     20.262594     37.831571
  C      42.879635     21.331830     38.819394
  O      43.611381     22.333541     38.993021
  O      41.789477     21.094678     39.402702
  O      42.917562     19.113035     37.904844
  C      41.432500     18.924644     36.095772
  H      41.262470     17.871905     36.329509
  C      42.430500     19.288402     35.248293
  H      43.097246     18.546936     34.813056
  C      42.816600     20.678275     35.153347
  C      41.776807     21.655153     35.547807
  H      41.936441     22.684291     35.236655
  C      40.698351     21.301651     36.254974
  H      39.976076     22.064958     36.563775
  C      40.393454     19.879141     36.634945
  H      40.366410     19.814745     37.736413
  O      39.140107     19.495247     36.078025
  H      38.464353     19.336335     36.812542
  C      43.706721     21.105484     33.969721
  O      44.792212     20.506560     33.772794
  O      43.297526     22.079094     33.284658
24
Coordinates from ORCA-job neb_MEP_ALL.QMRegion E -1076.503239956315
  C      44.142494     20.670035     36.636549
  H      44.805756     19.865378     36.272750
  H      44.670841     21.621201     36.801492
  C      43.374555     20.274432     37.825765
  C      42.884589     21.339545     38.825187
  O      43.615471     22.340746     38.987876
  O      41.789346     21.103741     39.405038
  O      42.968173     19.113706     37.959160
  C      41.433789     18.912503     36.067760
  H      41.275034     17.861709     36.321228
  C      42.449891     19.278328     35.268989
  H      43.117544     18.541533     34.824804
  C      42.903872     20.693453     35.249842
  C      41.791529     21.652218     35.567017
  H      41.941463     22.682487     35.252463
  C      40.704840     21.291689     36.254444
  H      39.973594     22.051944     36.557278
  C      40.407096     19.865832     36.638599
  H      40.371441     19.794555     37.742180
  O      39.155939     19.486928     36.077019
  H      38.478423     19.322330     36.802719
  C      43.719717     21.112930     33.984305
  O      44.804450     20.507854     33.770882
  O      43.298232     22.069165     33.287745
24
Coordinates from ORCA-job neb_MEP_ALL.QMRegion E -1076.523902875904
  C      44.030867     20.671034     36.533417
  H      44.781554     19.926924     36.247544
  H      44.493722     21.643911     36.659492
  C      43.367638     20.263190     37.805694
  C      42.914022     21.329990     38.817350
  O      43.659673     22.320349     38.963118
  O      41.839172     21.087452     39.431939
  O      43.155875     19.071924     38.060633
  C      41.311711     18.920466     35.924946
  H      41.059952     17.869008     36.062209
  C      42.417157     19.275704     35.267015
  H      43.069518     18.522209     34.817963
  C      42.944391     20.685665     35.316562
  C      41.840655     21.659691     35.625895
  H      42.010184     22.690157     35.332991
  C      40.705040     21.307707     36.230280
  H      39.960150     22.074992     36.475699
  C      40.349653     19.886520     36.575683
  H      40.388299     19.765998     37.677095
  O      39.041185     19.603193     36.099456
  H      38.406694     19.426145     36.860688
  C      43.731847     21.093838     34.028128
  O      44.826197     20.508208     33.803147
  O      43.272359     22.025049     33.325992
24
Coordinates from ORCA-job neb_MEP_ALL.QMRegion E -1076.526823241864
  C      44.006000     20.664000     36.513000
  H      44.788000     19.945000     36.232000
  H      44.445000     21.661000     36.639000
  C      43.394000     20.234000     37.819000
  C      42.925000     21.311000     38.826000
  O      43.668000     22.308000     38.956000
  O      41.861000     21.069000     39.448000
  O      43.248000     19.057000     38.093000
  C      41.216000     18.941000     35.837000
  H      40.885000     17.904000     35.872000
  C      42.369000     19.274000     35.248000
  H      43.006000     18.514000     34.788000
  C      42.943000     20.667000     35.337000
  C      41.847000     21.661000     35.630000
  H      42.039000     22.693000     35.349000
  C      40.691000     21.331000     36.208000
  H      39.952000     22.105000     36.430000
  C      40.297000     19.915000     36.529000
  H      40.387000     19.767000     37.623000
  O      38.960000     19.678000     36.115000
  H      38.356000     19.505000     36.900000
  C      43.723000     21.074000     34.043000
  O      44.827000     20.504000     33.827000
  O      43.257000     21.999000     33.339000
24
Coordinates from ORCA-job neb_MEP_ALL.QMRegion E -1076.506452458426
  C      44.548000     20.393000     37.290000
  H      44.921000     19.659000     36.575000
  H      45.141000     21.280000     37.513000
  C      43.362000     20.252000     37.894000
  C      42.843000     21.307000     38.861000
  O      43.561000     22.317000     39.046000
  O      41.729000     21.090000     39.413000
  O      42.560000     19.150000     37.687000
  C      41.689000     19.080000     36.495000
  H      41.347000     18.036000     36.492000
  C      42.523000     19.394000     35.292000
  H      43.230000     18.641000     34.940000
  C      42.555000     20.645000     34.792000
  C      41.619000     21.654000     35.301000
  H      41.739000     22.662000     34.909000
  C      40.667000     21.365000     36.203000
  H      39.992000     22.151000     36.553000
  C      40.441000     19.968000     36.709000
  H      40.300000     20.009000     37.799000
  O      39.300000     19.403000     36.075000
  H      38.572000     19.274000     36.758000
  C      43.591000     21.118000     33.781000
  O      44.695000     20.512000     33.694000
  O      43.298000     22.166000     33.151000
24
Coordinates from ORCA-job neb_MEP_ALL.QMRegion E -1076.507856987445
  C      44.464133     20.501278     37.124318
  H      44.827059     19.798577     36.368626
  H      45.005200     21.429353     37.293505
  C      43.352861     20.277930     37.828727
  C      42.848963     21.308578     38.836883
  O      43.565931     22.316358     39.030594
  O      41.745067     21.080391     39.409019
  O      42.589885     19.134523     37.661032
  C      41.663950     19.031280     36.461789
  H      41.342644     17.975840     36.494063
  C      42.482488     19.350348     35.260038
  H      43.143729     18.585434     34.855435
  C      42.573551     20.628170     34.838211
  C      41.671258     21.646753     35.387875
  H      41.828645     22.670279     35.054238
  C      40.685498     21.338485     36.244121
  H      40.025598     22.128221     36.619366
  C      40.432003     19.926378     36.704006
  H      40.315135     19.945905     37.796793
  O      39.269738     19.399698     36.082300
  H      38.549201     19.278428     36.774796
  C      43.601237     21.102596     33.818442
  O      44.714666     20.514717     33.727849
  O      43.294022     22.143192     33.186749
24
Coordinates from ORCA-job neb_MEP_ALL.QMRegion E -1076.504265885152
  C      44.400747     20.580532     37.003877
  H      44.762208     19.892521     36.239288
  H      44.871045     21.549556     37.117056
  C      43.347074     20.292697     37.784556
  C      42.857961     21.307622     38.812687
  O      43.572785     22.319984     39.008937
  O      41.761621     21.075116     39.396502
  O      42.607449     19.125288     37.626745
  C      41.653777     18.993088     36.441391
  H      41.341028     17.923132     36.486522
  C      42.445235     19.318627     35.227234
  H      43.076888     18.554249     34.787587
  C      42.580980     20.613485     34.868190
  C      41.702646     21.635420     35.453007
  H      41.890958     22.669769     35.165764
  C      40.697548     21.315664     36.276870
  H      40.039165     22.104361     36.666820
  C      40.423404     19.892303     36.698718
  H      40.327305     19.892491     37.791638
  O      39.243637     19.399475     36.087674
  H      38.528408     19.284866     36.788123
  C      43.606255     21.094023     33.842568
  O      44.725500     20.516691     33.749806
  O      43.293598     22.132567     33.212626
24
Coordinates from ORCA-job neb_MEP_ALL.QMRegion E -1076.494974407943
  C      44.381869     20.597259     36.964593
  H      44.792342     19.872952     36.264832
  H      44.837952     21.570935     37.062922
  C      43.370860     20.284224     37.812996
  C      42.865964     21.316944     38.811393
  O      43.585009     22.325003     39.002383
  O      41.767585     21.083781     39.391594
  O      42.709049     19.122226     37.723618
  C      41.568693     18.967886     36.312695
  H      41.327689     17.899356     36.445957
  C      42.430964     19.311026     35.216155
  H      43.083693     18.557934     34.793608
  C      42.632272     20.629229     34.933249
  C      41.714670     21.638464     35.472144
  H      41.889670     22.671900     35.171732
  C      40.695346     21.311838     36.273478
  H      40.018548     22.090143     36.646448
  C      40.410992     19.889956     36.677073
  H      40.342075     19.866277     37.772105
  O      39.209568     19.423079     36.084417
  H      38.506074     19.296675     36.797595
  C      43.630897     21.098721     33.873354
  O      44.737793     20.512181     33.743899
  O      43.288790     22.121459     33.229345
24
Coordinates from ORCA-job neb_MEP_ALL.QMRegion E -1076.485684141363
  C      44.390596     20.593453     36.960939
  H      44.823710     19.845660     36.297197
  H      44.835247     21.580725     37.020729
  C      43.380890     20.270050     37.829964
  C      42.869257     21.323277     38.814770
  O      43.594682     22.326010     39.003213
  O      41.770904     21.091974     39.395018
  O      42.762403     19.117013     37.783674
  C      41.521400     18.957049     36.238069
  H      41.315483     17.898464     36.410178
  C      42.440241     19.314110     35.229164
  H      43.108808     18.562381     34.814225
  C      42.678155     20.647208     34.983339
  C      41.734833     21.648358     35.489165
  H      41.889881     22.680016     35.169264
  C      40.695838     21.312860     36.263912
  H      39.990281     22.080287     36.600835
  C      40.404586     19.892844     36.661346
  H      40.350297     19.854783     37.759891
  O      39.185074     19.451685     36.079472
  H      38.489352     19.312258     36.800676
  C      43.662753     21.103751     33.908377
  O      44.759637     20.507925     33.750138
  O      43.294022     22.109495     33.250171
24
Coordinates from ORCA-job neb_MEP_ALL.QMRegion E -1076.482771315452
  C      44.335805     20.635413     36.863562
  H      44.821586     19.878277     36.253930
  H      44.764219     21.636564     36.898768
  C      43.388470     20.267464     37.825833
  C      42.875613     21.330625     38.810469
  O      43.604893     22.332791     38.998559
  O      41.782081     21.094974     39.394708
  O      42.853949     19.118537     37.846221
  C      41.465420     18.933883     36.149551
  H      41.295187     17.879446     36.369451
  C      42.424480     19.296425     35.230241
  H      43.093127     18.551199     34.800676
  C      42.734659     20.657741     35.056752
  C      41.763135     21.648418     35.530061
  H      41.930693     22.682158     35.234268
  C      40.698740     21.301593     36.267292
  H      39.981145     22.061605     36.584891
  C      40.392651     19.878663     36.642775
  H      40.362398     19.819569     37.743181
  O      39.149580     19.482416     36.078566
  H      38.465340     19.332316     36.810134
  C      43.687796     21.103156     33.949150
  O      44.783019     20.506371     33.775795
  O      43.301848     22.093858     33.280580
24
Coordinates from ORCA-job neb_MEP_ALL.QMRegion E -1076.487403839614
  C      44.281182     20.651376     36.792300
  H      44.831623     19.867994     36.264679
  H      44.740731     21.637673     36.870205
  C      43.398417     20.254520     37.843405
  C      42.887175     21.325509     38.824652
  O      43.613976     22.331807     38.994883
  O      41.794581     21.089189     39.404541
  O      42.927806     19.102728     37.900542
  C      41.403080     18.924554     36.069669
  H      41.209552     17.868881     36.277128
  C      42.421638     19.287923     35.241707
  H      43.089272     18.543715     34.813272
  C      42.793028     20.673657     35.131827
  C      41.772059     21.656817     35.539851
  H      41.944266     22.685572     35.234194
  C      40.689283     21.308407     36.243566
  H      39.970446     22.076209     36.549996
  C      40.377663     19.886815     36.620741
  H      40.367757     19.817190     37.723740
  O      39.112628     19.517840     36.078761
  H      38.446608     19.363042     36.822544
  C      43.702689     21.102404     33.967957
  O      44.789039     20.505309     33.774715
  O      43.295130     22.077262     33.282284
24
Coordinates from ORCA-job neb_MEP_ALL.QMRegion E -1076.497758632357
  C      44.191899     20.672441     36.685937
  H      44.822014     19.852720     36.282802
  H      44.714439     21.631872     36.842684
  C      43.406886     20.269808     37.849391
  C      42.894165     21.335745     38.839917
  O      43.606094     22.352229     38.994397
  O      41.785275     21.105127     39.399368
  O      42.959868     19.105607     37.945495
  C      41.423804     18.909683     36.058402
  H      41.244430     17.857331     36.296872
  C      42.451266     19.272468     35.268111
  H      43.121579     18.535100     34.825877
  C      42.878512     20.689406     35.227573
  C      41.768927     21.648089     35.538951
  H      41.940349     22.680181     35.238930
  C      40.686850     21.295694     36.238802
  H      39.968470     22.064068     36.559707
  C      40.401797     19.868901     36.634686
  H      40.368322     19.796379     37.740991
  O      39.152184     19.488353     36.073345
  H      38.477405     19.333045     36.800030
  C      43.711878     21.115865     33.970885
  O      44.795764     20.506346     33.767268
  O      43.303694     22.075499     33.269261
24
Coordinates from ORCA-job neb_MEP_ALL.QMRegion E -1076.521870449721
  C      44.047716     20.673852     36.550367
  H      44.784779     19.921807     36.251973
  H      44.520943     21.640685     36.681015
  C      43.371999     20.270654     37.809081
  C      42.914291     21.335971     38.819194
  O      43.650821     22.332105     38.969985
  O      41.833097     21.090308     39.423108
  O      43.133908     19.073839     38.047688
  C      41.333619     18.914527     35.942723
  H      41.096909     17.862254     36.107776
  C      42.430496     19.272452     35.270988
  H      43.083249     18.518733     34.821069
  C      42.939368     20.688728     35.306484
  C      41.830487     21.656126     35.616139
  H      42.002359     22.685710     35.323895
  C      40.700347     21.302021     36.229686
  H      39.960388     22.070472     36.493533
  C      40.361655     19.878650     36.584710
  H      40.387261     19.764528     37.688738
  O      39.062111     19.580899     36.093209
  H      38.420395     19.408570     36.848777
  C      43.732621     21.098999     34.020336
  O      44.823802     20.506994     33.796708
  O      43.279376     22.032458     33.316260
24
Coordinates from ORCA-job neb_MEP_ALL.QMRegion E -1076.526823241864
  C      44.006000     20.664000     36.513000
  H      44.788000     19.945000     36.232000
  H      44.445000     21.661000     36.639000
  C      43.394000     20.234000     37.819000
  C      42.925000     21.311000     38.826000
  O      43.668000     22.308000     38.956000
  O      41.861000     21.069000     39.448000
  O      43.248000     19.057000     38.093000
  C      41.216000     18.941000     35.837000
  H      40.885000     17.904000     35.872000
  C      42.369000     19.274000     35.248000
  H      43.006000     18.514000     34.788000
  C      42.943000     20.667000     35.337000
  C      41.847000     21.661000     35.630000
  H      42.039000     22.693000     35.349000
  C      40.691000     21.331000     36.208000
  H      39.952000     22.105000     36.430000
  C      40.297000     19.915000     36.529000
  H      40.387000     19.767000     37.623000
  O      38.960000     19.678000     36.115000
  H      38.356000     19.505000     36.900000
  C      43.723000     21.074000     34.043000
  O      44.827000     20.504000     33.827000
  O      43.257000     21.999000     33.339000
24
Coordinates from ORCA-job neb_MEP_ALL.QMRegion E -1076.506452458426
  C      44.548000     20.393000     37.290000
  H      44.921000     19.659000     36.575000
  H      45.141000     21.280000     37.513000
  C      43.362000     20.252000     37.894000
  C      42.843000     21.307000     38.861000
  O      43.561000     22.317000     39.046000
  O      41.729000     21.090000     39.413000
  O      42.560000     19.150000     37.687000
  C      41.689000     19.080000     36.495000
  H      41.347000     18.036000     36.492000
  C      42.523000     19.394000     35.292000
  H      43.230000     18.641000     34.940000
  C      42.555000     20.645000     34.792000
  C      41.619000     21.654000     35.301000
  H      41.739000     22.662000     34.909000
  C      40.667000     21.365000     36.203000
  H      39.992000     22.151000     36.553000
  C      40.441000     19.968000     36.709000
  H      40.300000     20.009000     37.799000
  O      39.300000     19.403000     36.075000
  H      38.572000     19.274000     36.758000
  C      43.591000     21.118000     33.781000
  O      44.695000     20.512000     33.694000
  O      43.298000     22.166000     33.151000
24
Coordinates from ORCA-job neb_MEP_ALL.QMRegion E -1076.507337257231
  C      44.467778     20.499714     37.121602
  H      44.826217     19.800890     36.369052
  H      45.005143     21.430754     37.292917
  C      43.347649     20.275778     37.830427
  C      42.848271     21.307397     38.836764
  O      43.566309     22.316510     39.030284
  O      41.745958     21.080042     39.408170
  O      42.587917     19.136930     37.657974
  C      41.667067     19.029320     36.465372
  H      41.343375     17.978066     36.494069
  C      42.481341     19.351018     35.259420
  H      43.143886     18.584766     34.854737
  C      42.573764     20.627115     34.835586
  C      41.671210     21.646229     35.387385
  H      41.829079     22.670192     35.055050
  C      40.685241     21.338635     36.245567
  H      40.025736     22.127142     36.619335
  C      40.431860     19.927068     36.704800
  H      40.314754     19.945493     37.797351
  O      39.269789     19.399700     36.082704
  H      38.549240     19.278502     36.774627
  C      43.600809     21.102957     33.819959
  O      44.714631     20.513804     33.727995
  O      43.293850     22.144424     33.185687
24
Coordinates from ORCA-job neb_MEP_ALL.QMRegion E -1076.503545462181
  C      44.400560     20.575942     37.004948
  H      44.763309     19.893355     36.240794
  H      44.872777     21.551508     37.117503
  C      43.344243     20.289742     37.783408
  C      42.857226     21.308235     38.813048
  O      43.573093     22.318222     39.008342
  O      41.762072     21.074592     39.396130
  O      42.609449     19.128975     37.628907
  C      41.652739     18.988734     36.440052
  H      41.342750     17.929240     36.485860
  C      42.443778     19.321031     35.227912
  H      43.078836     18.552827     34.786786
  C      42.582263     20.612833     34.864599
  C      41.703838     21.635851     35.450581
  H      41.890377     22.669037     35.165705
  C      40.695056     21.315515     36.279371
  H      40.039342     22.102075     36.665469
  C      40.423853     19.893961     36.699998
  H      40.326597     19.891952     37.792631
  O      39.243347     19.399691     36.087900
  H      38.528364     19.285182     36.787931
  C      43.606105     21.094821     33.845583
  O      44.725220     20.514940     33.749591
  O      43.292431     22.133833     33.211593
24
Coordinates from ORCA-job neb_MEP_ALL.QMRegion E -1076.490275516930
  C      44.383681     20.593371     36.969001
  H      44.793818     19.872471     36.266292
  H      44.840676     21.574578     37.061079
  C      43.368764     20.278500     37.810363
  C      42.865824     21.317235     38.812319
  O      43.585441     22.325893     39.003183
  O      41.767563     21.084557     39.391747
  O      42.705221     19.123402     37.719814
  C      41.572897     18.964736     36.317682
  H      41.328231     17.903746     36.444398
  C      42.430660     19.313710     35.218610
  H      43.086742     18.556061     34.792989
  C      42.632838     20.630105     34.929035
  C      41.717830     21.640544     35.470918
  H      41.889545     22.671324     35.172020
  C      40.692329     21.311626     36.275007
  H      40.017451     22.088297     36.643274
  C      40.411046     19.890674     36.677564
  H      40.342159     19.865413     37.772719
  O      39.207668     19.424867     36.084478
  H      38.505470     19.297624     36.797340
  C      43.632011     21.100507     33.877202
  O      44.738786     20.510493     33.744553
  O      43.288518     22.121228     33.230081
24
Coordinates from ORCA-job neb_MEP_ALL.QMRegion E -1076.484826279192
  C      44.389160     20.592352     36.959514
  H      44.823442     19.847954     36.296045
  H      44.834626     21.583777     37.017407
  C      43.380094     20.266318     37.828832
  C      42.869368     21.322327     38.815097
  O      43.594889     22.328119     39.003706
  O      41.771065     21.092696     39.394711
  O      42.762768     19.119413     37.781813
  C      41.524412     18.956341     36.239963
  H      41.315091     17.898693     36.409230
  C      42.438950     19.313530     35.229884
  H      43.108544     18.561455     34.812887
  C      42.678587     20.647634     34.981695
  C      41.737011     21.649807     35.488366
  H      41.891558     22.678719     35.172346
  C      40.693331     21.312274     36.265305
  H      39.990619     22.078918     36.599973
  C      40.404314     19.892244     36.661208
  H      40.350786     19.853307     37.759517
  O      39.183075     19.453197     36.080139
  H      38.488998     19.312988     36.800461
  C      43.662422     21.104763     33.909837
  O      44.760137     20.507445     33.751810
  O      43.294972     22.109388     33.250877
24
Coordinates from ORCA-job neb_MEP_ALL.QMRegion E -1076.482497144076
  C      44.334133     20.635031     36.862609
  H      44.822326     19.878250     36.254273
  H      44.764515     21.635901     36.899729
  C      43.389514     20.267916     37.825709
  C      42.876140     21.330785     38.811598
  O      43.604254     22.333187     38.998416
  O      41.782093     21.095457     39.394261
  O      42.854111     19.118294     37.845983
  C      41.465540     18.932498     36.150494
  H      41.295110     17.879817     36.369275
  C      42.424971     19.297860     35.230349
  H      43.093331     18.550793     34.800408
  C      42.734413     20.656766     35.056968
  C      41.763337     21.648854     35.529290
  H      41.930561     22.681845     35.234429
  C      40.697834     21.300956     36.267258
  H      39.981248     22.061826     36.585182
  C      40.393334     19.879343     36.642670
  H      40.362306     19.819181     37.742921
  O      39.148290     19.482388     36.079782
  H      38.466002     19.332224     36.809357
  C      43.688349     21.103180     33.949176
  O      44.782175     20.506582     33.775935
  O      43.302015     22.094541     33.279722
24
Coordinates from ORCA-job neb_MEP_ALL.QMRegion E -1076.486296874810
  C      44.276098     20.649475     36.785722
  H      44.831843     19.869683     36.265864
  H      44.739784     21.637561     36.869027
  C      43.398761     20.254908     37.840978
  C      42.887725     21.325877     38.825247
  O      43.613759     22.331831     38.994853
  O      41.794555     21.089775     39.404952
  O      42.930499     19.102362     37.903486
  C      41.403516     18.923390     36.068292
  H      41.209061     17.870024     36.275842
  C      42.419942     19.290901     35.243822
  H      43.089898     18.542703     34.812815
  C      42.796862     20.672564     35.136108
  C      41.774707     21.656462     35.539791
  H      41.944161     22.685925     35.234793
  C      40.688174     21.308721     36.244705
  H      39.970600     22.075306     36.549280
  C      40.376860     19.886734     36.618902
  H      40.367913     19.816560     37.722539
  O      39.111528     19.518635     36.080496
  H      38.446236     19.363132     36.822181
  C      43.700620     21.104947     33.968020
  O      44.791066     20.504091     33.775038
  O      43.295555     22.075770     33.284018
24
Coordinates from ORCA-job neb_MEP_ALL.QMRegion E -1076.490300640375
  C      44.182125     20.670412     36.669999
  H      44.819223     19.857869     36.285762
  H      44.709756     21.629541     36.836998
  C      43.396494     20.257853     37.848363
  C      42.890966     21.337492     38.840403
  O      43.607408     22.352270     38.995155
  O      41.789313     21.105679     39.398445
  O      42.972666     19.119440     37.950842
  C      41.423628     18.908121     36.059646
  H      41.245599     17.858136     36.295444
  C      42.454310     19.277950     35.269786
  H      43.123803     18.534202     34.827048
  C      42.887759     20.690182     35.236051
  C      41.775552     21.647942     35.543547
  H      41.939277     22.680037     35.239165
  C      40.687421     21.294922     36.241499
  H      39.968611     22.061148     36.557877
  C      40.402361     19.867886     36.632124
  H      40.369557     19.794902     37.739203
  O      39.152997     19.487456     36.072682
  H      38.476998     19.330871     36.800166
  C      43.715693     21.114797     33.974164
  O      44.796339     20.506887     33.767102
  O      43.301980     22.073130     33.272607
24
Coordinates from ORCA-job neb_MEP_ALL.QMRegion E -1076.518406167713
  C      44.049857     20.671840     36.549914
  H      44.788047     19.916747     36.254070
  H      44.534730     21.644499     36.690918
  C      43.371503     20.250709     37.817129
  C      42.906826     21.334254     38.822446
  O      43.649545     22.332918     38.971220
  O      41.833606     21.092396     39.420479
  O      43.126961     19.095385     38.038020
  C      41.337687     18.913522     35.953335
  H      41.106045     17.862372     36.118134
  C      42.432317     19.273893     35.268494
  H      43.086012     18.520455     34.822136
  C      42.941886     20.686441     35.307242
  C      41.827968     21.654992     35.610960
  H      41.998129     22.686864     35.318192
  C      40.699104     21.302241     36.232913
  H      39.961770     22.068231     36.496537
  C      40.363458     19.878141     36.585821
  H      40.386721     19.766451     37.690400
  O      39.067533     19.574780     36.091623
  H      38.423128     19.403366     36.846155
  C      43.731297     21.098497     34.017029
  O      44.821401     20.507838     33.795608
  O      43.280870     22.034888     33.314316
24
Coordinates from ORCA-job neb_MEP_ALL.QMRegion E -1076.526823241864
  C      44.006000     20.664000     36.513000
  H      44.788000     19.945000     36.232000
  H      44.445000     21.661000     36.639000
  C      43.394000     20.234000     37.819000
  C      42.925000     21.311000     38.826000
  O      43.668000     22.308000     38.956000
  O      41.861000     21.069000     39.448000
  O      43.248000     19.057000     38.093000
  C      41.216000     18.941000     35.837000
  H      40.885000     17.904000     35.872000
  C      42.369000     19.274000     35.248000
  H      43.006000     18.514000     34.788000
  C      42.943000     20.667000     35.337000
  C      41.847000     21.661000     35.630000
  H      42.039000     22.693000     35.349000
  C      40.691000     21.331000     36.208000
  H      39.952000     22.105000     36.430000
  C      40.297000     19.915000     36.529000
  H      40.387000     19.767000     37.623000
  O      38.960000     19.678000     36.115000
  H      38.356000     19.505000     36.900000
  C      43.723000     21.074000     34.043000
  O      44.827000     20.504000     33.827000
  O      43.257000     21.999000     33.339000
24
Coordinates from ORCA-job neb_MEP_ALL.QMRegion E -1076.506452458426
  C      44.548000     20.393000     37.290000
  H      44.921000     19.659000     36.575000
  H      45.141000     21.280000     37.513000
  C      43.362000     20.252000     37.894000
  C      42.843000     21.307000     38.861000
  O      43.561000     22.317000     39.046000
  O      41.729000     21.090000     39.413000
  O      42.560000     19.150000     37.687000
  C      41.689000     19.080000     36.495000
  H      41.347000     18.036000     36.492000
  C      42.523000     19.394000     35.292000
  H      43.230000     18.641000     34.940000
  C      42.555000     20.645000     34.792000
  C      41.619000     21.654000     35.301000
  H      41.739000     22.662000     34.909000
  C      40.667000     21.365000     36.203000
  H      39.992000     22.151000     36.553000
  C      40.441000     19.968000     36.709000
  H      40.300000     20.009000     37.799000
  O      39.300000     19.403000     36.075000
  H      38.572000     19.274000     36.758000
  C      43.591000     21.118000     33.781000
  O      44.695000     20.512000     33.694000
  O      43.298000     22.166000     33.151000
24
Coordinates from ORCA-job neb_MEP_ALL.QMRegion E -1076.507973545132
  C      44.467583     20.498850     37.122482
  H      44.826131     19.801800     36.368715
  H      45.005332     21.431446     37.292712
  C      43.347113     20.275186     37.829758
  C      42.848393     21.307009     38.836602
  O      43.566317     22.316050     39.029909
  O      41.745946     21.079683     39.407934
  O      42.585976     19.138076     37.656104
  C      41.669078     19.029178     36.467623
  H      41.343896     17.979383     36.494188
  C      42.480895     19.350820     35.258927
  H      43.143939     18.584518     34.854376
  C      42.573406     20.626715     34.833821
  C      41.670892     21.645702     35.387040
  H      41.829310     22.670091     35.055496
  C      40.685619     21.338604     36.246201
  H      40.025641     22.126533     36.619349
  C      40.431910     19.927259     36.705493
  H      40.314353     19.945277     37.797904
  O      39.270178     19.399759     36.082896
  H      38.549179     19.278536     36.774582
  C      43.600818     21.103574     33.820269
  O      44.714209     20.513327     33.728160
  O      43.293884     22.144855     33.185268
24
Coordinates from ORCA-job neb_MEP_ALL.QMRegion E -1076.504379530502
  C      44.400762     20.574271     37.006255
  H      44.764689     19.893303     36.241782
  H      44.873347     21.551987     37.117341
  C      43.342957     20.288401     37.782893
  C      42.856930     21.308134     38.812743
  O      43.573663     22.317331     39.007982
  O      41.761986     21.074311     39.396138
  O      42.610653     19.130459     37.630999
  C      41.651819     18.988201     36.438181
  H      41.343625     17.932253     36.485106
  C      42.443389     19.321059     35.227798
  H      43.079901     18.552468     34.786611
  C      42.582929     20.613292     34.863009
  C      41.703340     21.635305     35.450079
  H      41.889960     22.668848     35.165543
  C      40.695395     21.315330     36.279544
  H      40.038732     22.100684     36.664502
  C      40.423877     19.894487     36.700820
  H      40.326137     19.891283     37.793380
  O      39.243102     19.400220     36.088006
  H      38.527987     19.285542     36.787972
  C      43.606737     21.095890     33.846985
  O      44.724631     20.513900     33.749508
  O      43.291762     22.133970     33.211607
24
Coordinates from ORCA-job neb_MEP_ALL.QMRegion E -1076.491403902123
  C      44.385963     20.591460     36.972285
  H      44.795203     19.871921     36.267469
  H      44.842158     21.576239     37.059414
  C      43.367637     20.275955     37.809162
  C      42.866113     21.317250     38.812616
  O      43.585613     22.326180     39.003700
  O      41.767404     21.085198     39.392008
  O      42.701437     19.122889     37.716791
  C      41.576000     18.964792     36.321337
  H      41.328410     17.905827     36.443206
  C      42.431743     19.314479     35.219607
  H      43.088482     18.555550     34.793052
  C      42.632849     20.630885     34.926877
  C      41.718425     21.640902     35.471518
  H      41.889650     22.671582     35.172149
  C      40.692528     21.311557     36.274356
  H      40.015912     22.087257     36.640804
  C      40.410936     19.890633     36.677973
  H      40.342201     19.864659     37.773170
  O      39.206719     19.426559     36.084268
  H      38.504596     19.298448     36.797424
  C      43.633649     21.101446     33.879471
  O      44.739159     20.509673     33.745366
  O      43.288601     22.121054     33.230939
24
Coordinates from ORCA-job neb_MEP_ALL.QMRegion E -1076.485455464189
  C      44.388164     20.592705     36.958251
  H      44.823378     19.849598     36.294672
  H      44.833500     21.585595     37.014398
  C      43.380199     20.265150     37.828156
  C      42.870149     21.322374     38.815305
  O      43.594554     22.328861     39.003846
  O      41.771092     21.093157     39.394530
  O      42.762507     19.119765     37.780590
  C      41.525996     18.956004     36.241268
  H      41.314785     17.898670     36.408440
  C      42.438596     19.313190     35.229858
  H      43.108056     18.560886     34.811868
  C      42.678675     20.647695     34.981099
  C      41.737236     21.649619     35.489167
  H      41.893173     22.678446     35.174821
  C      40.693371     21.311849     36.265061
  H      39.990419     22.078156     36.599463
  C      40.404006     19.891620     36.661061
  H      40.351172     19.851985     37.759237
  O      39.182204     19.454564     36.080119
  H      38.488181     19.313583     36.800761
  C      43.662920     21.104981     33.910897
  O      44.760226     20.507352     33.753316
  O      43.295688     22.109578     33.251379
24
Coordinates from ORCA-job neb_MEP_ALL.QMRegion E -1076.483281239891
  C      44.333195     20.634919     36.861820
  H      44.822893     19.878202     36.254593
  H      44.764761     21.635204     36.900614
  C      43.389965     20.267963     37.825852
  C      42.876553     21.330715     38.812233
  O      43.603893     22.333743     38.998413
  O      41.781999     21.095810     39.393998
  O      42.854223     19.118250     37.845695
  C      41.465988     18.932216     36.151103
  H      41.295011     17.879745     36.369248
  C      42.425216     19.298077     35.230603
  H      43.093388     18.550680     34.800271
  C      42.734246     20.656671     35.056859
  C      41.762989     21.648736     35.529017
  H      41.930467     22.681771     35.234443
  C      40.697633     21.300817     36.266852
  H      39.981320     22.061983     36.585451
  C      40.393491     19.879455     36.642642
  H      40.362244     19.818922     37.742738
  O      39.148571     19.482592     36.079770
  H      38.465844     19.332028     36.809462
  C      43.688212     21.103603     33.949047
  O      44.781883     20.506555     33.775956
  O      43.302262     22.094812     33.279244
24
Coordinates from ORCA-job neb_MEP_ALL.QMRegion E -1076.487859112174
  C      44.272042     20.649459     36.780306
  H      44.832347     19.870503     36.266420
  H      44.738628     21.636761     36.867914
  C      43.398446     20.254806     37.839535
  C      42.887907     21.325970     38.825478
  O      43.613783     22.332049     38.994891
  O      41.794730     21.090227     39.405185
  O      42.932799     19.102363     37.905801
  C      41.403260     18.923202     36.067596
  H      41.208823     17.870576     36.274960
  C      42.419803     19.291546     35.244667
  H      43.089785     18.542658     34.812827
  C      42.800049     20.672761     35.139659
  C      41.775676     21.655992     35.540669
  H      41.944131     22.686184     35.235294
  C      40.688745     21.308868     36.244718
  H      39.970442     22.074820     36.548859
  C      40.376272     19.886464     36.617901
  H      40.368053     19.816021     37.721460
  O      39.111271     19.519299     36.081013
  H      38.445509     19.363073     36.822417
  C      43.701211     21.104586     33.968689
  O      44.791206     20.504115     33.775491
  O      43.295337     22.075727     33.284663
24
Coordinates from ORCA-job neb_MEP_ALL.QMRegion E -1076.493281978009
  C      44.173650     20.669939     36.659363
  H      44.817946     19.861261     36.287229
  H      44.705715     21.627039     36.832429
  C      43.392937     20.260415     37.845465
  C      42.890628     21.338981     38.839392
  O      43.608423     22.351389     38.995541
  O      41.790550     21.105455     39.399092
  O      42.978255     19.118809     37.956311
  C      41.424512     18.908599     36.058922
  H      41.245837     17.858373     36.293913
  C      42.455076     19.279957     35.271569
  H      43.124665     18.534276     34.828140
  C      42.895335     20.691624     35.242201
  C      41.779692     21.647867     35.548378
  H      41.938617     22.679964     35.239337
  C      40.689810     21.294449     36.242662
  H      39.968432     22.059186     36.556210
  C      40.402312     19.867176     36.630414
  H      40.370497     19.793996     37.737292
  O      39.152681     19.487160     36.072194
  H      38.476163     19.329621     36.800572
  C      43.717514     21.114275     33.976871
  O      44.797770     20.506767     33.766888
  O      43.300589     22.071036     33.275738
24
Coordinates from ORCA-job neb_MEP_ALL.QMRegion E -1076.519137526438
  C      44.051456     20.671511     36.549207
  H      44.790239     19.913530     36.255644
  H      44.543487     21.645307     36.697605
  C      43.374012     20.255032     37.818315
  C      42.906094     21.334607     38.823182
  O      43.647468     22.332038     38.971860
  O      41.830822     21.093217     39.420459
  O      43.118786     19.093030     38.035554
  C      41.342374     18.913612     35.959531
  H      41.112565     17.862065     36.125681
  C      42.432120     19.274364     35.268145
  H      43.088227     18.521532     34.822884
  C      42.944416     20.685860     35.308276
  C      41.826275     21.654149     35.608082
  H      41.994973     22.687364     35.314080
  C      40.699587     21.302035     36.234610
  H      39.962325     22.066832     36.498733
  C      40.364747     19.877757     36.587047
  H      40.386300     19.767800     37.691453
  O      39.071147     19.570212     36.090443
  H      38.425104     19.399487     36.844182
  C      43.730157     21.098432     34.015254
  O      44.820360     20.508071     33.794462
  O      43.281755     22.036400     33.313165
24
Coordinates from ORCA-job neb_MEP_ALL.QMRegion E -1076.526823241864
  C      44.006000     20.664000     36.513000
  H      44.788000     19.945000     36.232000
  H      44.445000     21.661000     36.639000
  C      43.394000     20.234000     37.819000
  C      42.925000     21.311000     38.826000
  O      43.668000     22.308000     38.956000
  O      41.861000     21.069000     39.448000
  O      43.248000     19.057000     38.093000
  C      41.216000     18.941000     35.837000
  H      40.885000     17.904000     35.872000
  C      42.369000     19.274000     35.248000
  H      43.006000     18.514000     34.788000
  C      42.943000     20.667000     35.337000
  C      41.847000     21.661000     35.630000
  H      42.039000     22.693000     35.349000
  C      40.691000     21.331000     36.208000
  H      39.952000     22.105000     36.430000
  C      40.297000     19.915000     36.529000
  H      40.387000     19.767000     37.623000
  O      38.960000     19.678000     36.115000
  H      38.356000     19.505000     36.900000
  C      43.723000     21.074000     34.043000
  O      44.827000     20.504000     33.827000
  O      43.257000     21.999000     33.339000
24
Coordinates from ORCA-job neb_MEP_ALL.QMRegion E -1076.506452458426
  C      44.548000     20.393000     37.290000
  H      44.921000     19.659000     36.575000
  H      45.141000     21.280000     37.513000
  C      43.362000     20.252000     37.894000
  C      42.843000     21.307000     38.861000
  O      43.561000     22.317000     39.046000
  O      41.729000     21.090000     39.413000
  O      42.560000     19.150000     37.687000
  C      41.689000     19.080000     36.495000
  H      41.347000     18.036000     36.492000
  C      42.523000     19.394000     35.292000
  H      43.230000     18.641000     34.940000
  C      42.555000     20.645000     34.792000
  C      41.619000     21.654000     35.301000
  H      41.739000     22.662000     34.909000
  C      40.667000     21.365000     36.203000
  H      39.992000     22.151000     36.553000
  C      40.441000     19.968000     36.709000
  H      40.300000     20.009000     37.799000
  O      39.300000     19.403000     36.075000
  H      38.572000     19.274000     36.758000
  C      43.591000     21.118000     33.781000
  O      44.695000     20.512000     33.694000
  O      43.298000     22.166000     33.151000
24
Coordinates from ORCA-job neb_MEP_ALL.QMRegion E -1076.508241816342
  C      44.466658     20.496501     37.129381
  H      44.826465     19.805186     36.366624
  H      45.005841     21.432288     37.292651
  C      43.346613     20.274436     37.825675
  C      42.848889     21.304841     38.835591
  O      43.566365     22.313226     39.027947
  O      41.745511     21.077739     39.407054
  O      42.576575     19.142212     37.649221
  C      41.676690     19.032689     36.476273
  H      41.346449     17.984788     36.495273
  C      42.480138     19.349447     35.256024
  H      43.144188     18.583748     34.852916
  C      42.569595     20.624653     34.826300
  C      41.669269     21.643223     35.384574
  H      41.830022     22.669117     35.057314
  C      40.688275     21.337737     36.248748
  H      40.024744     22.124023     36.619518
  C      40.433179     19.927216     36.709138
  H      40.311912     19.944519     37.801252
  O      39.272402     19.400052     36.084167
  H      38.549287     19.278718     36.774074
  C      43.601095     21.106521     33.819433
  O      44.711457     20.511740     33.729070
  O      43.294681     22.146548     33.183833
24
Coordinates from ORCA-job neb_MEP_ALL.QMRegion E -1076.504605087558
  C      44.403945     20.571053     37.013112
  H      44.773461     19.891020     36.247323
  H      44.873765     21.551450     37.114688
  C      43.340208     20.285643     37.782619
  C      42.856142     21.306500     38.810159
  O      43.577012     22.313842     39.006448
  O      41.761005     21.073721     39.396602
  O      42.613658     19.132215     37.640836
  C      41.647674     18.994053     36.427933
  H      41.346203     17.941049     36.480268
  C      42.444222     19.320024     35.224110
  H      43.084505     18.552364     34.787063
  C      42.584822     20.615055     34.860848
  C      41.701272     21.632873     35.448031
  H      41.887452     22.667852     35.164776
  C      40.698740     21.313205     36.278942
  H      40.033707     22.094159     36.658926
  C      40.423363     19.895154     36.703438
  H      40.324301     19.886956     37.796984
  O      39.240962     19.404506     36.088899
  H      38.525179     19.287963     36.788474
  C      43.611350     21.101199     33.851909
  O      44.721752     20.509773     33.749272
  O      43.289499     22.133722     33.213514
24
Coordinates from ORCA-job neb_MEP_ALL.QMRegion E -1076.491950317993
  C      44.399049     20.584678     36.988016
  H      44.803293     19.868838     36.273906
  H      44.846992     21.580395     37.049821
  C      43.365008     20.270566     37.805943
  C      42.867541     21.316104     38.813277
  O      43.586209     22.326089     39.005618
  O      41.767179     21.088591     39.393139
  O      42.680024     19.116449     37.700865
  C      41.591032     18.971466     36.339188
  H      41.328523     17.912302     36.436864
  C      42.441476     19.317578     35.221206
  H      43.095748     18.555596     34.795040
  C      42.631977     20.632062     34.921772
  C      41.721196     21.641849     35.474706
  H      41.890736     22.673743     35.173578
  C      40.695013     21.310216     36.270386
  H      40.006702     22.082161     36.627120
  C      40.410562     19.889808     36.679295
  H      40.342325     19.860501     37.775127
  O      39.202452     19.436288     36.083651
  H      38.499567     19.303319     36.797948
  C      43.641821     21.105322     33.888354
  O      44.741910     20.506800     33.750805
  O      43.291119     22.120526     33.236421
24
Coordinates from ORCA-job neb_MEP_ALL.QMRegion E -1076.485730862719
  C      44.383542     20.598019     36.950468
  H      44.823360     19.857932     36.285994
  H      44.825273     21.593360     36.997358
  C      43.382474     20.264818     37.825644
  C      42.873385     21.322766     38.816335
  O      43.592929     22.331594     39.004022
  O      41.772290     21.095257     39.393055
  O      42.760033     19.117417     37.774964
  C      41.531307     18.954849     36.246977
  H      41.313284     17.897615     36.404215
  C      42.438918     19.312246     35.227771
  H      43.104624     18.558355     34.806576
  C      42.678258     20.646299     34.981006
  C      41.738564     21.647148     35.494117
  H      41.902259     22.678248     35.188484
  C      40.694581     21.308718     36.263598
  H      39.988789     22.074405     36.596933
  C      40.403122     19.888653     36.660013
  H      40.353078     19.844690     37.757829
  O      39.177393     19.461646     36.080285
  H      38.483811     19.317028     36.802318
  C      43.665668     21.106159     33.915714
  O      44.761524     20.506977     33.761515
  O      43.299789     22.110468     33.254543
24
Coordinates from ORCA-job neb_MEP_ALL.QMRegion E -1076.483756322913
  C      44.329691     20.634633     36.858178
  H      44.825761     19.877749     36.256461
  H      44.766441     21.631153     36.905997
  C      43.391166     20.267323     37.827178
  C      42.878576     21.330405     38.814769
  O      43.602266     22.336739     38.998673
  O      41.781359     21.097347     39.392801
  O      42.854308     19.118304     37.843818
  C      41.469211     18.932565     36.154444
  H      41.294609     17.878750     36.369581
  C      42.426427     19.297336     35.232021
  H      43.093501     18.550641     34.799788
  C      42.733162     20.657478     35.055446
  C      41.760905     21.647850     35.527373
  H      41.929732     22.681456     35.234122
  C      40.696550     21.300822     36.264851
  H      39.981946     22.062597     36.586887
  C      40.394317     19.879308     36.642774
  H      40.361875     19.817867     37.742067
  O      39.149504     19.483256     36.080085
  H      38.465685     19.330971     36.809618
  C      43.687087     21.105578     33.947900
  O      44.780381     20.506458     33.775919
  O      43.303477     22.096260     33.276860
24
Coordinates from ORCA-job neb_MEP_ALL.QMRegion E -1076.488671804770
  C      44.249471     20.653632     36.750426
  H      44.836113     19.872997     36.267981
  H      44.731165     21.630893     36.861194
  C      43.395107     20.254469     37.833972
  C      42.888628     21.326763     38.825647
  O      43.614336     22.332992     38.995006
  O      41.796072     21.092123     39.406125
  O      42.945180     19.102293     37.917898
  C      41.401189     18.924334     36.063675
  H      41.208194     17.872085     36.271028
  C      42.421103     19.290516     35.248012
  H      43.088021     18.543949     34.813689
  C      42.818351     20.676157     35.159587
  C      41.780299     21.655460     35.546185
  H      41.944009     22.686448     35.238402
  C      40.692554     21.308294     36.244219
  H      39.969448     22.072423     36.546780
  C      40.374664     19.885300     36.614456
  H      40.368734     19.813050     37.715846
  O      39.108702     19.522150     36.082847
  H      38.442126     19.362568     36.823689
  C      43.704675     21.102826     33.972653
  O      44.792142     20.504377     33.777495
  O      43.294255     22.074926     33.288450
24
Coordinates from ORCA-job neb_MEP_ALL.QMRegion E -1076.495151445645
  C      44.131296     20.672754     36.614009
  H      44.814608     19.876023     36.290971
  H      44.684014     21.612737     36.808367
  C      43.376729     20.276237     37.827738
  C      42.888959     21.343659     38.830807
  O      43.616270     22.346458     38.997364
  O      41.795413     21.102524     39.404827
  O      43.003604     19.111213     37.982676
  C      41.426481     18.913411     36.053428
  H      41.243633     17.860537     36.282792
  C      42.458027     19.285183     35.277478
  H      43.124369     18.537877     34.834201
  C      42.930371     20.698983     35.270898
  C      41.801614     21.650544     35.573991
  H      41.936157     22.679132     35.240843
  C      40.703676     21.291974     36.248223
  H      39.967442     22.050118     36.545715
  C      40.400368     19.865049     36.621977
  H      40.375182     19.790696     37.725393
  O      39.145335     19.488446     36.071236
  H      38.469833     19.326241     36.803618
  C      43.725157     21.110837     33.990671
  O      44.806529     20.505277     33.766442
  O      43.292749     22.060388     33.293208
24
Coordinates from ORCA-job neb_MEP_ALL.QMRegion E -1076.519424124013
  C      44.060056     20.675889     36.543414
  H      44.798038     19.901785     36.263744
  H      44.577661     21.641251     36.723299
  C      43.377116     20.258937     37.822246
  C      42.901517     21.334559     38.826251
  O      43.640675     22.330817     38.975741
  O      41.819363     21.096563     39.420119
  O      43.088251     19.097394     38.024707
  C      41.363426     18.914157     35.985648
  H      41.142116     17.860732     36.159186
  C      42.433831     19.276182     35.268355
  H      43.097952     18.526877     34.827229
  C      42.956373     20.687199     35.314796
  C      41.822899     21.652034     35.598874
  H      41.980032     22.687611     35.295696
  C      40.704913     21.299341     36.241099
  H      39.963704     22.060521     36.507867
  C      40.371290     19.875569     36.593739
  H      40.384634     19.773599     37.695298
  O      39.086400     19.549284     36.084764
  H      38.433773     19.381285     36.835078
  C      43.727231     21.098760     34.009983
  O      44.817389     20.508207     33.788314
  O      43.284115     22.041375     33.310109
24
Coordinates from ORCA-job neb_MEP_ALL.QMRegion E -1076.526823241864
  C      44.006000     20.664000     36.513000
  H      44.788000     19.945000     36.232000
  H      44.445000     21.661000     36.639000
  C      43.394000     20.234000     37.819000
  C      42.925000     21.311000     38.826000
  O      43.668000     22.308000     38.956000
  O      41.861000     21.069000     39.448000
  O      43.248000     19.057000     38.093000
  C      41.216000     18.941000     35.837000
  H      40.885000     17.904000     35.872000
  C      42.369000     19.274000     35.248000
  H      43.006000     18.514000     34.788000
  C      42.943000     20.667000     35.337000
  C      41.847000     21.661000     35.630000
  H      42.039000     22.693000     35.349000
  C      40.691000     21.331000     36.208000
  H      39.952000     22.105000     36.430000
  C      40.297000     19.915000     36.529000
  H      40.387000     19.767000     37.623000
  O      38.960000     19.678000     36.115000
  H      38.356000     19.505000     36.900000
  C      43.723000     21.074000     34.043000
  O      44.827000     20.504000     33.827000
  O      43.257000     21.999000     33.339000
24
Coordinates from ORCA-job neb_MEP_ALL.QMRegion E -1076.506452458426
  C      44.548000     20.393000     37.290000
  H      44.921000     19.659000     36.575000
  H      45.141000     21.280000     37.513000
  C      43.362000     20.252000     37.894000
  C      42.843000     21.307000     38.861000
  O      43.561000     22.317000     39.046000
  O      41.729000     21.090000     39.413000
  O      42.560000     19.150000     37.687000
  C      41.689000     19.080000     36.495000
  H      41.347000     18.036000     36.492000
  C      42.523000     19.394000     35.292000
  H      43.230000     18.641000     34.940000
  C      42.555000     20.645000     34.792000
  C      41.619000     21.654000     35.301000
  H      41.739000     22.662000     34.909000
  C      40.667000     21.365000     36.203000
  H      39.992000     22.151000     36.553000
  C      40.441000     19.968000     36.709000
  H      40.300000     20.009000     37.799000
  O      39.300000     19.403000     36.075000
  H      38.572000     19.274000     36.758000
  C      43.591000     21.118000     33.781000
  O      44.695000     20.512000     33.694000
  O      43.298000     22.166000     33.151000
24
Coordinates from ORCA-job neb_MEP_ALL.QMRegion E -1076.508546680770
  C      44.471670     20.495347     37.129166
  H      44.826318     19.808074     36.366615
  H      45.005396     21.430888     37.293904
  C      43.342448     20.275085     37.826419
  C      42.847908     21.302978     38.834823
  O      43.566790     22.311658     39.026994
  O      41.745899     21.076443     39.406368
  O      42.575017     19.144561     37.649943
  C      41.676261     19.035252     36.475861
  H      41.348232     17.988049     36.496412
  C      42.480278     19.350040     35.254637
  H      43.144577     18.583015     34.851891
  C      42.566442     20.623168     34.822410
  C      41.668334     21.641909     35.382647
  H      41.830052     22.668000     35.058123
  C      40.689286     21.336972     36.250441
  H      40.024470     22.122533     36.619773
  C      40.434448     19.927090     36.711353
  H      40.310122     19.944208     37.803788
  O      39.274307     19.400106     36.085084
  H      38.549880     19.278892     36.773652
  C      43.599155     21.106053     33.817819
  O      44.710736     20.511507     33.729393
  O      43.295845     22.148888     33.182716
24
Coordinates from ORCA-job neb_MEP_ALL.QMRegion E -1076.504549945759
  C      44.408144     20.568430     37.016125
  H      44.779381     19.889387     36.252925
  H      44.873972     21.550482     37.113135
  C      43.341670     20.286586     37.784381
  C      42.855654     21.306387     38.810095
  O      43.577828     22.311373     39.005745
  O      41.761515     21.074452     39.396187
  O      42.608756     19.130038     37.639278
  C      41.649128     18.997282     36.428173
  H      41.346892     17.943920     36.476775
  C      42.446666     19.322673     35.221207
  H      43.087734     18.552561     34.787902
  C      42.585620     20.614863     34.861667
  C      41.702320     21.632713     35.445783
  H      41.885427     22.666940     35.164116
  C      40.697520     21.311839     36.280130
  H      40.029945     22.090199     36.654210
  C      40.422962     19.895634     36.703933
  H      40.323695     19.883992     37.798548
  O      39.239505     19.408324     36.089604
  H      38.523120     19.289977     36.788949
  C      43.611222     21.101150     33.854065
  O      44.722607     20.508660     33.749223
  O      43.290281     22.135823     33.214643
24
Coordinates from ORCA-job neb_MEP_ALL.QMRegion E -1076.493897776253
  C      44.403848     20.581412     36.993295
  H      44.809216     19.867944     36.278335
  H      44.845986     21.579951     37.041379
  C      43.366364     20.271624     37.806137
  C      42.867743     21.315005     38.813672
  O      43.586773     22.324556     39.005378
  O      41.768062     21.090013     39.393005
  O      42.670435     19.115257     37.691410
  C      41.598693     18.973139     36.347447
  H      41.328114     17.915293     36.431395
  C      42.447424     19.320585     35.222016
  H      43.099907     18.556554     34.796632
  C      42.635124     20.631471     34.924411
  C      41.725213     21.642404     35.475502
  H      41.893059     22.674787     35.177351
  C      40.693402     21.308895     36.270694
  H      40.000550     22.078046     36.616673
  C      40.410426     19.890913     36.678772
  H      40.342592     19.857143     37.774793
  O      39.199770     19.443559     36.084128
  H      38.496046     19.307691     36.798188
  C      43.643783     21.104802     33.892646
  O      44.746720     20.506954     33.756237
  O      43.296237     22.122075     33.240517
24
Coordinates from ORCA-job neb_MEP_ALL.QMRegion E -1076.485955629206
  C      44.379714     20.601797     36.943145
  H      44.823084     19.864105     36.279206
  H      44.817682     21.598826     36.984683
  C      43.382961     20.265665     37.824217
  C      42.874450     21.322704     38.815949
  O      43.593293     22.333231     39.003677
  O      41.773303     21.095585     39.392101
  O      42.761102     19.117328     37.772098
  C      41.532677     18.953995     36.247417
  H      41.312350     17.895866     36.401226
  C      42.438927     19.310992     35.226874
  H      43.102049     18.556730     34.802689
  C      42.679209     20.645235     34.983016
  C      41.742030     21.646410     35.496591
  H      41.908606     22.678018     35.198779
  C      40.693090     21.306213     36.265037
  H      39.987963     22.071316     36.595163
  C      40.402700     19.887356     36.659276
  H      40.354097     19.839656     37.756784
  O      39.174422     19.465860     36.080586
  H      38.480916     19.319757     36.803402
  C      43.666723     21.106219     33.919067
  O      44.763961     20.507049     33.766801
  O      43.302772     22.110993     33.257196
24
Coordinates from ORCA-job neb_MEP_ALL.QMRegion E -1076.483991659474
  C      44.328043     20.634136     36.857187
  H      44.827458     19.877325     36.257520
  H      44.768039     21.629128     36.909755
  C      43.391956     20.267114     37.827507
  C      42.879024     21.330856     38.815705
  O      43.601489     22.337933     38.998986
  O      41.781432     21.097887     39.392080
  O      42.853612     19.117690     37.842910
  C      41.470855     18.932038     36.156868
  H      41.294695     17.878857     36.369985
  C      42.427525     19.298077     35.232305
  H      43.093809     18.550484     34.799422
  C      42.732320     20.656975     35.054408
  C      41.759996     21.648187     35.525551
  H      41.929054     22.681090     35.233804
  C      40.695270     21.300477     36.264541
  H      39.982442     22.062843     36.587760
  C      40.394561     19.879286     36.642853
  H      40.361669     19.817421     37.742165
  O      39.150298     19.483276     36.079907
  H      38.465807     19.330347     36.809806
  C      43.686646     21.105985     33.946782
  O      44.779162     20.506671     33.775869
  O      43.303952     22.097601     33.275339
24
Coordinates from ORCA-job neb_MEP_ALL.QMRegion E -1076.490819253368
  C      44.232620     20.655428     36.729108
  H      44.838183     19.874539     36.268295
  H      44.725837     21.627655     36.856305
  C      43.391675     20.256030     37.831721
  C      42.888250     21.328119     38.824771
  O      43.615202     22.332948     38.994570
  O      41.797086     21.092544     39.405938
  O      42.952010     19.102607     37.924168
  C      41.401797     18.924506     36.061042
  H      41.210762     17.872594     36.271657
  C      42.421361     19.290680     35.251292
  H      43.087950     18.543859     34.813586
  C      42.831948     20.678281     35.173730
  C      41.784091     21.656511     35.549895
  H      41.943766     22.686020     35.240845
  C      40.693040     21.306887     36.245223
  H      39.969844     22.069796     36.546017
  C      40.375606     19.885104     36.614073
  H      40.368837     19.810897     37.714376
  O      39.107915     19.522473     36.082408
  H      38.440900     19.361149     36.824491
  C      43.705027     21.104664     33.975425
  O      44.794640     20.503609     33.777526
  O      43.294338     22.073039     33.291459
24
Coordinates from ORCA-job neb_MEP_ALL.QMRegion E -1076.502541649696
  C      44.115771     20.673486     36.597502
  H      44.813763     19.883493     36.289425
  H      44.671633     21.607748     36.795106
  C      43.363387     20.262616     37.821483
  C      42.885048     21.344152     38.826605
  O      43.621912     22.340988     38.996772
  O      41.800883     21.100157     39.407867
  O      43.020237     19.125608     37.989305
  C      41.420471     18.914848     36.048052
  H      41.237358     17.864556     36.271368
  C      42.457722     19.287825     35.277303
  H      43.119991     18.540925     34.835992
  C      42.941516     20.699789     35.283618
  C      41.813999     21.654486     35.585791
  H      41.937313     22.679528     35.243575
  C      40.709111     21.291928     36.251001
  H      39.967787     22.046437     36.536961
  C      40.396727     19.866279     36.616637
  H      40.377023     19.790223     37.717924
  O      39.136818     19.495096     36.072286
  H      38.462460     19.329221     36.807764
  C      43.730494     21.106588     33.997111
  O      44.809466     20.505393     33.768405
  O      43.288094     22.056241     33.302470
24
Coordinates from ORCA-job neb_MEP_ALL.QMRegion E -1076.517313384334
  C      44.060440     20.676358     36.540238
  H      44.798003     19.902074     36.267317
  H      44.584483     21.634536     36.726555
  C      43.375899     20.277744     37.813480
  C      42.900731     21.335058     38.827228
  O      43.639318     22.329517     38.977339
  O      41.816226     21.097111     39.420355
  O      43.078421     19.084463     38.027831
  C      41.369909     18.913803     35.992377
  H      41.153014     17.860719     36.170117
  C      42.438694     19.278089     35.271803
  H      43.101480     18.529449     34.830201
  C      42.963084     20.692287     35.319010
  C      41.827799     21.652985     35.601343
  H      41.973927     22.686074     35.289009
  C      40.708788     21.297911     36.242941
  H      39.964395     22.056482     36.508905
  C      40.374857     19.873700     36.595750
  H      40.384084     19.775331     37.696786
  O      39.091600     19.541785     36.082675
  H      38.436246     19.373677     36.831456
  C      43.729830     21.099373     34.011705
  O      44.817978     20.507564     33.784908
  O      43.282798     22.040646     33.312042
24
Coordinates from ORCA-job neb_MEP_ALL.QMRegion E -1076.526823241864
  C      44.006000     20.664000     36.513000
  H      44.788000     19.945000     36.232000
  H      44.445000     21.661000     36.639000
  C      43.394000     20.234000     37.819000
  C      42.925000     21.311000     38.826000
  O      43.668000     22.308000     38.956000
  O      41.861000     21.069000     39.448000
  O      43.248000     19.057000     38.093000
  C      41.216000     18.941000     35.837000
  H      40.885000     17.904000     35.872000
  C      42.369000     19.274000     35.248000
  H      43.006000     18.514000     34.788000
  C      42.943000     20.667000     35.337000
  C      41.847000     21.661000     35.630000
  H      42.039000     22.693000     35.349000
  C      40.691000     21.331000     36.208000
  H      39.952000     22.105000     36.430000
  C      40.297000     19.915000     36.529000
  H      40.387000     19.767000     37.623000
  O      38.960000     19.678000     36.115000
  H      38.356000     19.505000     36.900000
  C      43.723000     21.074000     34.043000
  O      44.827000     20.504000     33.827000
  O      43.257000     21.999000     33.339000
24
Coordinates from ORCA-job neb_MEP_ALL.QMRegion E -1076.506452458426
  C      44.548000     20.393000     37.290000
  H      44.921000     19.659000     36.575000
  H      45.141000     21.280000     37.513000
  C      43.362000     20.252000     37.894000
  C      42.843000     21.307000     38.861000
  O      43.561000     22.317000     39.046000
  O      41.729000     21.090000     39.413000
  O      42.560000     19.150000     37.687000
  C      41.689000     19.080000     36.495000
  H      41.347000     18.036000     36.492000
  C      42.523000     19.394000     35.292000
  H      43.230000     18.641000     34.940000
  C      42.555000     20.645000     34.792000
  C      41.619000     21.654000     35.301000
  H      41.739000     22.662000     34.909000
  C      40.667000     21.365000     36.203000
  H      39.992000     22.151000     36.553000
  C      40.441000     19.968000     36.709000
  H      40.300000     20.009000     37.799000
  O      39.300000     19.403000     36.075000
  H      38.572000     19.274000     36.758000
  C      43.591000     21.118000     33.781000
  O      44.695000     20.512000     33.694000
  O      43.298000     22.166000     33.151000
24
Coordinates from ORCA-job neb_MEP_ALL.QMRegion E -1076.508565600047
  C      44.471866     20.494735     37.130428
  H      44.826713     19.808805     36.366272
  H      45.005515     21.429962     37.295189
  C      43.343105     20.276278     37.825733
  C      42.847675     21.302694     38.834437
  O      43.566855     22.310678     39.026628
  O      41.745588     21.075767     39.406431
  O      42.575330     19.145234     37.651837
  C      41.674701     19.036587     36.473847
  H      41.349037     17.989323     36.497088
  C      42.480527     19.350102     35.254300
  H      43.144724     18.582811     34.851533
  C      42.564811     20.622955     34.820634
  C      41.667477     21.641247     35.381878
  H      41.829842     22.667361     35.058186
  C      40.689781     21.336665     36.250960
  H      40.024438     22.121936     36.619996
  C      40.434901     19.927194     36.712411
  H      40.309262     19.944122     37.805048
  O      39.275271     19.400036     36.085558
  H      38.550458     19.279001     36.773387
  C      43.597933     21.105532     33.816085
  O      44.710203     20.511827     33.729463
  O      43.296627     22.149776     33.182530
24
Coordinates from ORCA-job neb_MEP_ALL.QMRegion E -1076.504637432565
  C      44.410304     20.567222     37.017961
  H      44.782626     19.888059     36.255998
  H      44.874166     21.549738     37.112413
  C      43.342986     20.286777     37.785199
  C      42.855719     21.306174     38.810281
  O      43.578164     22.310860     39.005677
  O      41.761550     21.075068     39.396037
  O      42.604857     19.129081     37.635839
  C      41.651445     18.998504     36.430466
  H      41.346854     17.944418     36.474798
  C      42.448361     19.323361     35.220788
  H      43.089340     18.553076     34.788546
  C      42.586212     20.615745     34.862057
  C      41.701856     21.632287     35.446102
  H      41.884477     22.666826     35.163601
  C      40.697684     21.311501     36.279634
  H      40.027425     22.088803     36.651589
  C      40.422717     19.895720     36.704118
  H      40.323629     19.882494     37.798824
  O      39.238617     19.410536     36.089927
  H      38.522090     19.291219     36.789211
  C      43.610927     21.100591     33.853833
  O      44.723219     20.509086     33.749511
  O      43.291731     22.136651     33.215910
24
Coordinates from ORCA-job neb_MEP_ALL.QMRegion E -1076.494501533226
  C      44.404455     20.580737     36.993284
  H      44.812147     19.867977     36.279940
  H      44.843692     21.579113     37.036171
  C      43.367246     20.272911     37.806666
  C      42.868119     21.314556     38.813512
  O      43.587314     22.323706     39.004776
  O      41.768301     21.090112     39.392871
  O      42.668211     19.116122     37.687758
  C      41.601399     18.973859     36.349558
  H      41.327674     17.915695     36.428340
  C      42.449754     19.320840     35.222886
  H      43.101453     18.557390     34.797241
  C      42.638033     20.631851     34.927345
  C      41.726158     21.641814     35.477308
  H      41.895175     22.675314     35.180559
  C      40.693910     21.308465     36.270102
  H      39.997129     22.076238     36.611509
  C      40.410352     19.891352     36.678366
  H      40.342823     19.855193     37.773965
  O      39.198422     19.447283     36.084477
  H      38.494284     19.310317     36.798383
  C      43.644939     21.103765     33.893884
  O      44.749274     20.508091     33.759781
  O      43.299843     22.122847     33.243064
24
Coordinates from ORCA-job neb_MEP_ALL.QMRegion E -1076.485772005462
  C      44.377369     20.603819     36.939229
  H      44.822882     19.867163     36.275443
  H      44.813264     21.601543     36.978232
  C      43.383148     20.266598     37.823152
  C      42.874886     21.323122     38.815428
  O      43.593673     22.333412     39.003231
  O      41.773804     21.095308     39.391696
  O      42.762449     19.117655     37.771149
  C      41.532363     18.953277     36.246382
  H      41.312030     17.894868     36.399793
  C      42.438830     19.310178     35.226584
  H      43.100722     18.555959     34.800649
  C      42.680205     20.644740     34.984541
  C      41.742833     21.645550     35.498864
  H      41.911835     22.678220     35.204019
  C      40.693608     21.305281     36.265231
  H      39.987306     22.069959     36.594534
  C      40.402449     19.886778     36.659039
  H      40.354457     19.837184     37.756336
  O      39.173045     19.467532     36.080860
  H      38.479656     19.321230     36.803881
  C      43.667547     21.105849     33.920489
  O      44.765224     20.507438     33.769302
  O      43.304232     22.111095     33.258734
24
Coordinates from ORCA-job neb_MEP_ALL.QMRegion E -1076.483680407173
  C      44.327798     20.633896     36.857137
  H      44.828142     19.877152     36.257965
  H      44.768892     21.628349     36.911572
  C      43.392016     20.266870     37.827585
  C      42.879090     21.331150     38.815629
  O      43.601312     22.338322     38.999216
  O      41.781443     21.097934     39.391885
  O      42.853141     19.117377     37.842608
  C      41.471722     18.932111     36.157768
  H      41.294809     17.878878     36.370261
  C      42.427874     19.298148     35.232444
  H      43.093979     18.550475     34.799248
  C      42.731916     20.656975     35.053710
  C      41.759199     21.648042     35.524929
  H      41.928732     22.681130     35.233563
  C      40.695147     21.300429     36.264309
  H      39.982601     22.062935     36.588194
  C      40.394623     19.879141     36.643021
  H      40.361578     19.817279     37.742360
  O      39.150312     19.483034     36.079947
  H      38.466149     19.330132     36.809719
  C      43.686166     21.106217     33.946061
  O      44.778823     20.506712     33.775764
  O      43.304135     22.098092     33.274863
24
Coordinates from ORCA-job neb_MEP_ALL.QMRegion E -1076.491862204654
  C      44.224636     20.656230     36.719466
  H      44.838734     19.875244     36.268065
  H      44.723217     21.625883     36.854134
  C      43.389416     20.256862     37.830628
  C      42.887728     21.329054     38.823890
  O      43.615724     22.332824     38.994169
  O      41.797226     21.092511     39.405437
  O      42.953792     19.103650     37.925701
  C      41.402995     18.924445     36.061459
  H      41.214337     17.872681     36.274466
  C      42.422451     19.290615     35.252289
  H      43.088133     18.543879     34.813327
  C      42.838109     20.679617     35.180123
  C      41.784947     21.656476     35.552307
  H      41.943470     22.685940     35.241999
  C      40.693980     21.306027     36.245637
  H      39.970275     22.068253     36.546529
  C      40.376864     19.884616     36.614901
  H      40.368632     19.809793     37.715029
  O      39.108443     19.521444     36.082025
  H      38.441339     19.359635     36.824317
  C      43.706479     21.104554     33.976825
  O      44.794907     20.503854     33.777220
  O      43.294253     22.072938     33.292208
24
Coordinates from ORCA-job neb_MEP_ALL.QMRegion E -1076.504863477504
  C      44.111855     20.672471     36.593932
  H      44.814117     19.885949     36.287029
  H      44.666311     21.607441     36.790054
  C      43.363267     20.269676     37.817544
  C      42.884999     21.343414     38.824345
  O      43.624156     22.337203     38.995397
  O      41.801938     21.098648     39.410204
  O      43.021456     19.118087     37.992131
  C      41.416256     18.916298     36.042956
  H      41.232348     17.866298     36.264668
  C      42.454614     19.288206     35.277450
  H      43.116857     18.542058     34.835621
  C      42.943930     20.699482     35.287482
  C      41.817483     21.655984     35.590011
  H      41.939242     22.680527     35.245637
  C      40.711409     21.292746     36.250935
  H      39.967984     22.045960     36.532348
  C      40.394272     19.867721     36.614338
  H      40.377252     19.790500     37.715007
  O      39.131021     19.500427     36.073760
  H      38.458138     19.332770     36.810266
  C      43.730549     21.105855     33.999312
  O      44.811338     20.504986     33.769755
  O      43.286888     22.054580     33.306228
24
Coordinates from ORCA-job neb_MEP_ALL.QMRegion E -1076.515545365913
  C      44.058428     20.676484     36.538555
  H      44.796130     19.904684     36.268174
  H      44.581661     21.630748     36.722414
  C      43.369618     20.273601     37.810038
  C      42.899948     21.335369     38.826739
  O      43.640558     22.329362     38.978032
  O      41.817166     21.096833     39.420502
  O      43.082386     19.090574     38.029370
  C      41.370753     18.913795     35.991206
  H      41.154576     17.860801     36.170540
  C      42.441649     19.279561     35.274814
  H      43.102352     18.530206     34.831663
  C      42.965803     20.694969     35.320984
  C      41.831896     21.654160     35.605967
  H      41.972808     22.685224     35.288078
  C      40.711228     21.297236     36.242763
  H      39.964650     22.054670     36.507237
  C      40.375959     19.872788     36.595758
  H      40.384125     19.775235     37.696986
  O      39.092333     19.540929     36.082265
  H      38.436112     19.371901     36.830741
  C      43.732468     21.100068     34.014232
  O      44.819363     20.507044     33.783829
  O      43.281291     22.038683     33.314522
24
Coordinates from ORCA-job neb_MEP_ALL.QMRegion E -1076.526823241864
  C      44.006000     20.664000     36.513000
  H      44.788000     19.945000     36.232000
  H      44.445000     21.661000     36.639000
  C      43.394000     20.234000     37.819000
  C      42.925000     21.311000     38.826000
  O      43.668000     22.308000     38.956000
  O      41.861000     21.069000     39.448000
  O      43.248000     19.057000     38.093000
  C      41.216000     18.941000     35.837000
  H      40.885000     17.904000     35.872000
  C      42.369000     19.274000     35.248000
  H      43.006000     18.514000     34.788000
  C      42.943000     20.667000     35.337000
  C      41.847000     21.661000     35.630000
  H      42.039000     22.693000     35.349000
  C      40.691000     21.331000     36.208000
  H      39.952000     22.105000     36.430000
  C      40.297000     19.915000     36.529000
  H      40.387000     19.767000     37.623000
  O      38.960000     19.678000     36.115000
  H      38.356000     19.505000     36.900000
  C      43.723000     21.074000     34.043000
  O      44.827000     20.504000     33.827000
  O      43.257000     21.999000     33.339000
24
Coordinates from ORCA-job neb_MEP_ALL.QMRegion E -1076.506452458426
  C      44.548000     20.393000     37.290000
  H      44.921000     19.659000     36.575000
  H      45.141000     21.280000     37.513000
  C      43.362000     20.252000     37.894000
  C      42.843000     21.307000     38.861000
  O      43.561000     22.317000     39.046000
  O      41.729000     21.090000     39.413000
  O      42.560000     19.150000     37.687000
  C      41.689000     19.080000     36.495000
  H      41.347000     18.036000     36.492000
  C      42.523000     19.394000     35.292000
  H      43.230000     18.641000     34.940000
  C      42.555000     20.645000     34.792000
  C      41.619000     21.654000     35.301000
  H      41.739000     22.662000     34.909000
  C      40.667000     21.365000     36.203000
  H      39.992000     22.151000     36.553000
  C      40.441000     19.968000     36.709000
  H      40.300000     20.009000     37.799000
  O      39.300000     19.403000     36.075000
  H      38.572000     19.274000     36.758000
  C      43.591000     21.118000     33.781000
  O      44.695000     20.512000     33.694000
  O      43.298000     22.166000     33.151000
24
Coordinates from ORCA-job neb_MEP_ALL.QMRegion E -1076.508717310115
  C      44.473152     20.492412     37.135531
  H      44.829596     19.810532     36.365492
  H      45.007157     21.423698     37.304304
  C      43.347494     20.282435     37.823950
  C      42.846034     21.302368     38.832899
  O      43.567202     22.306899     39.025886
  O      41.743919     21.072816     39.407235
  O      42.580704     19.147469     37.664611
  C      41.664199     19.042660     36.460290
  H      41.352283     17.993916     36.500530
  C      42.482149     19.351031     35.253450
  H      43.145516     18.582420     34.850654
  C      42.557058     20.622533     34.812943
  C      41.662688     21.638653     35.378010
  H      41.827683     22.664001     35.056843
  C      40.691050     21.335551     36.252856
  H      40.024765     22.119761     36.621276
  C      40.436206     19.928512     36.716879
  H      40.305518     19.944121     37.810770
  O      39.279896     19.399405     36.087528
  H      38.554060     19.279534     36.772103
  C      43.591212     21.101894     33.805645
  O      44.707391     20.514420     33.729146
  O      43.300558     22.153805     33.182090
24
Coordinates from ORCA-job neb_MEP_ALL.QMRegion E -1076.504860107505
  C      44.420845     20.561574     37.026636
  H      44.799208     19.879857     36.271854
  H      44.875048     21.545837     37.108312
  C      43.350104     20.286169     37.789045
  C      42.857261     21.305202     38.812251
  O      43.579341     22.310573     39.006162
  O      41.761463     21.078859     39.395190
  O      42.584061     19.125593     37.612739
  C      41.665950     19.001981     36.446623
  H      41.345217     17.943387     36.464132
  C      42.458068     19.327391     35.222214
  H      43.097349     18.556685     34.792283
  C      42.589798     20.620038     34.865723
  C      41.700634     21.631797     35.449597
  H      41.880124     22.666625     35.161349
  C      40.696822     21.310255     36.276883
  H      40.013460     22.083625     36.637218
  C      40.421786     19.895623     36.703821
  H      40.324354     19.875234     37.798127
  O      39.233586     19.422542     36.091203
  H      38.516864     19.298288     36.790716
  C      43.609409     21.096130     33.850084
  O      44.727827     20.513895     33.752121
  O      43.301940     22.140926     33.223573
24
Coordinates from ORCA-job neb_MEP_ALL.QMRegion E -1076.494624752359
  C      44.400066     20.581030     36.983741
  H      44.825338     19.869812     36.284225
  H      44.826653     21.574545     37.008070
  C      43.372035     20.281357     37.809242
  C      42.869739     21.312870     38.811930
  O      43.590952     22.319885     39.000421
  O      41.769674     21.088534     39.391556
  O      42.667053     19.124459     37.675561
  C      41.608772     18.975426     36.352076
  H      41.325192     17.914250     36.413311
  C      42.458411     19.320544     35.227636
  H      43.106826     18.561740     34.798847
  C      42.655307     20.633234     34.946927
  C      41.731657     21.638812     35.487372
  H      41.908318     22.676600     35.201053
  C      40.696065     21.306313     36.268425
  H      39.980969     22.068073     36.587625
  C      40.410406     19.893115     36.675390
  H      40.344240     19.845210     37.768254
  O      39.192032     19.464641     36.086468
  H      38.486322     19.324139     36.799549
  C      43.650443     21.097748     33.898046
  O      44.763109     20.515756     33.778753
  O      43.319578     22.126454     33.256092
24
Coordinates from ORCA-job neb_MEP_ALL.QMRegion E -1076.485715719336
  C      44.366155     20.613428     36.920267
  H      44.821473     19.881338     36.256973
  H      44.790966     21.613984     36.948650
  C      43.383015     20.272367     37.817118
  C      42.875527     21.325343     38.811663
  O      43.596666     22.332948     39.000484
  O      41.776501     21.092666     39.389913
  O      42.770771     19.120523     37.767978
  C      41.527744     18.949174     36.238006
  H      41.311285     17.889830     36.393740
  C      42.438146     19.306036     35.225374
  H      43.094493     18.552522     34.790822
  C      42.685817     20.642178     34.993045
  C      41.747114     21.641956     35.509755
  H      41.926543     22.679189     35.228744
  C      40.696235     21.301389     36.267333
  H      39.984165     22.063837     36.592342
  C      40.401438     19.884353     36.658186
  H      40.355513     19.826197     37.754785
  O      39.167576     19.473608     36.082421
  H      38.474562     19.328350     36.805949
  C      43.671334     21.103572     33.926242
  O      44.771978     20.509896     33.780089
  O      43.310824     22.110932     33.266444
24
Coordinates from ORCA-job neb_MEP_ALL.QMRegion E -1076.483887598526
  C      44.329129     20.632429     36.859531
  H      44.830700     19.876422     36.259830
  H      44.773489     21.625399     36.920425
  C      43.391285     20.265500     37.827353
  C      42.878448     21.332603     38.813643
  O      43.601138     22.339185     39.000456
  O      41.781645     21.097433     39.391368
  O      42.849656     19.115895     37.841130
  C      41.475853     18.933131     36.161978
  H      41.295901     17.879341     36.372060
  C      42.429330     19.298257     35.232564
  H      43.094915     18.550676     34.798465
  C      42.729296     20.657080     35.049350
  C      41.755573     21.647322     35.521759
  H      41.926984     22.681579     35.232063
  C      40.694829     21.300200     36.264057
  H      39.983287     22.063112     36.590187
  C      40.394653     19.878226     36.644165
  H      40.361135     19.817089     37.743935
  O      39.150686     19.481101     36.079704
  H      38.468098     19.329271     36.809328
  C      43.683722     21.106596     33.942215
  O      44.777466     20.507032     33.774958
  O      43.304558     22.100383     33.273110
24
Coordinates from ORCA-job neb_MEP_ALL.QMRegion E -1076.492764688467
  C      44.192388     20.658904     36.682508
  H      44.838858     19.878391     36.265501
  H      44.712410     21.617118     36.846630
  C      43.377719     20.262354     37.824762
  C      42.883811     21.333984     38.818090
  O      43.617986     22.332118     38.991818
  O      41.796109     21.091838     39.401261
  O      42.952552     19.110635     37.924985
  C      41.415383     18.924082     36.071232
  H      41.241543     17.872358     36.299425
  C      42.429374     19.290267     35.255383
  H      43.090468     18.543920     34.810736
  C      42.861699     20.685357     35.203746
  C      41.787295     21.655785     35.562539
  H      41.940811     22.685050     35.247083
  C      40.698112     21.300437     36.249704
  H      39.973746     22.059848     36.553209
  C      40.385580     19.880643     36.623228
  H      40.366523     19.804828     37.723823
  O      39.116760     19.511349     36.079320
  H      38.447665     19.348683     36.821212
  C      43.711997     21.105776     33.981138
  O      44.795724     20.505023     33.773938
  O      43.294990     22.073455     33.294261
24
Coordinates from ORCA-job neb_MEP_ALL.QMRegion E -1076.506920211750
  C      44.112623     20.665981     36.596932
  H      44.818902     19.891928     36.269832
  H      44.646369     21.613859     36.773198
  C      43.363814     20.276695     37.808634
  C      42.884101     21.334673     38.815657
  O      43.634457     22.319076     38.986217
  O      41.806770     21.091120     39.420037
  O      43.021035     19.100728     37.988992
  C      41.386880     18.922831     36.016968
  H      41.202243     17.874470     36.230185
  C      42.435629     19.288949     35.273025
  H      43.097109     18.546501     34.829143
  C      42.938053     20.693858     35.292962
  C      41.826133     21.662903     35.600650
  H      41.952988     22.687416     35.258021
  C      40.716562     21.298950     36.247186
  H      39.969251     22.049260     36.510520
  C      40.379909     19.877927     36.604993
  H      40.375854     19.794080     37.704304
  O      39.099419     19.533309     36.083086
  H      38.434887     19.357344     36.824601
  C      43.727726     21.101977     34.006120
  O      44.816090     20.504218     33.778597
  O      43.283944     22.051102     33.318448
24
Coordinates from ORCA-job neb_MEP_ALL.QMRegion E -1076.516756717688
  C      44.036952     20.674136     36.528725
  H      44.781214     19.925479     36.268203
  H      44.544872     21.613423     36.682057
  C      43.334003     20.256641     37.789203
  C      42.899255     21.338164     38.819814
  O      43.651645     22.327395     38.979479
  O      41.827781     21.093371     39.423438
  O      43.121658     19.116200     38.047004
  C      41.364908     18.914105     35.969115
  H      41.147039     17.861635     36.152539
  C      42.457461     19.287389     35.292736
  H      43.103296     18.532060     34.838779
  C      42.978483     20.708081     35.331520
  C      41.857992     21.662091     35.638853
  H      41.975244     22.681429     35.293340
  C      40.722911     21.294012     36.239189
  H      39.965720     22.046742     36.490865
  C      40.378714     19.868834     36.591459
  H      40.385672     19.770907     37.695629
  O      39.088188     19.547777     36.083259
  H      38.430784     19.371452     36.831187
  C      43.749134     21.103264     34.032387
  O      44.829908     20.504456     33.781477
  O      43.271312     22.024637     33.330983
24
Coordinates from ORCA-job neb_MEP_ALL.QMRegion E -1076.526823241864
  C      44.006000     20.664000     36.513000
  H      44.788000     19.945000     36.232000
  H      44.445000     21.661000     36.639000
  C      43.394000     20.234000     37.819000
  C      42.925000     21.311000     38.826000
  O      43.668000     22.308000     38.956000
  O      41.861000     21.069000     39.448000
  O      43.248000     19.057000     38.093000
  C      41.216000     18.941000     35.837000
  H      40.885000     17.904000     35.872000
  C      42.369000     19.274000     35.248000
  H      43.006000     18.514000     34.788000
  C      42.943000     20.667000     35.337000
  C      41.847000     21.661000     35.630000
  H      42.039000     22.693000     35.349000
  C      40.691000     21.331000     36.208000
  H      39.952000     22.105000     36.430000
  C      40.297000     19.915000     36.529000
  H      40.387000     19.767000     37.623000
  O      38.960000     19.678000     36.115000
  H      38.356000     19.505000     36.900000
  C      43.723000     21.074000     34.043000
  O      44.827000     20.504000     33.827000
  O      43.257000     21.999000     33.339000
24
Coordinates from ORCA-job neb_MEP_ALL.QMRegion E -1076.506452458426
  C      44.548000     20.393000     37.290000
  H      44.921000     19.659000     36.575000
  H      45.141000     21.280000     37.513000
  C      43.362000     20.252000     37.894000
  C      42.843000     21.307000     38.861000
  O      43.561000     22.317000     39.046000
  O      41.729000     21.090000     39.413000
  O      42.560000     19.150000     37.687000
  C      41.689000     19.080000     36.495000
  H      41.347000     18.036000     36.492000
  C      42.523000     19.394000     35.292000
  H      43.230000     18.641000     34.940000
  C      42.555000     20.645000     34.792000
  C      41.619000     21.654000     35.301000
  H      41.739000     22.662000     34.909000
  C      40.667000     21.365000     36.203000
  H      39.992000     22.151000     36.553000
  C      40.441000     19.968000     36.709000
  H      40.300000     20.009000     37.799000
  O      39.300000     19.403000     36.075000
  H      38.572000     19.274000     36.758000
  C      43.591000     21.118000     33.781000
  O      44.695000     20.512000     33.694000
  O      43.298000     22.166000     33.151000
24
Coordinates from ORCA-job neb_MEP_ALL.QMRegion E -1076.508357545966
  C      44.474517     20.492664     37.134314
  H      44.829851     19.810157     36.365917
  H      45.008252     21.424280     37.305127
  C      43.345201     20.279674     37.825581
  C      42.845991     21.302527     38.833328
  O      43.567204     22.308240     39.026579
  O      41.744403     21.073206     39.406884
  O      42.579029     19.148100     37.660801
  C      41.668501     19.041238     36.465171
  H      41.351795     17.993458     36.500196
  C      42.481266     19.351139     35.252883
  H      43.145358     18.582745     34.851078
  C      42.557752     20.621971     34.812031
  C      41.662495     21.638809     35.377645
  H      41.827250     22.664222     35.056238
  C      40.690352     21.336025     36.253147
  H      40.024905     22.119959     36.621482
  C      40.435149     19.929243     36.716589
  H      40.306020     19.944033     37.810261
  O      39.279393     19.399383     36.087092
  H      38.553991     19.279483     36.772332
  C      43.592159     21.103157     33.806522
  O      44.706668     20.513703     33.728678
  O      43.299593     22.153655     33.181581
24
Coordinates from ORCA-job neb_MEP_ALL.QMRegion E -1076.504272811515
  C      44.419446     20.560321     37.027303
  H      44.800055     19.879024     36.271541
  H      44.875522     21.546478     37.108097
  C      43.346485     20.283037     37.786989
  C      42.857615     21.305024     38.811923
  O      43.579973     22.310860     39.006034
  O      41.761058     21.078160     39.395252
  O      42.590854     19.129794     37.618540
  C      41.662416     18.999879     36.441400
  H      41.345770     17.945224     36.463615
  C      42.457452     19.327322     35.224853
  H      43.098060     18.556872     34.792024
  C      42.590461     20.618923     34.864758
  C      41.701964     21.632871     35.449041
  H      41.880369     22.666511     35.162034
  C      40.695682     21.310066     36.277872
  H      40.012790     22.083488     36.636054
  C      40.422517     19.895613     36.703969
  H      40.324268     19.875328     37.797916
  O      39.233336     19.422686     36.090894
  H      38.516894     19.298973     36.790762
  C      43.611950     21.098166     33.851464
  O      44.727601     20.513207     33.752809
  O      43.301549     22.140875     33.223391
24
Coordinates from ORCA-job neb_MEP_ALL.QMRegion E -1076.492871672729
  C      44.399160     20.580880     36.983564
  H      44.824316     19.869656     36.281754
  H      44.827285     21.578502     37.007906
  C      43.369081     20.278048     37.805439
  C      42.869509     21.313588     38.811751
  O      43.591424     22.321305     39.001014
  O      41.769639     21.088134     39.391648
  O      42.666596     19.123614     37.676739
  C      41.608204     18.975044     36.352639
  H      41.326177     17.914974     36.414499
  C      42.457598     19.321293     35.227906
  H      43.106856     18.560409     34.797332
  C      42.653311     20.632707     34.943573
  C      41.733829     21.640350     35.487265
  H      41.908754     22.675582     35.202257
  C      40.695261     21.306296     36.269163
  H      39.981551     22.068217     36.588566
  C      40.410816     19.891899     36.675914
  H      40.344118     19.845467     37.769315
  O      39.192088     19.463529     36.085833
  H      38.487067     19.324204     36.799715
  C      43.653207     21.100712     33.900501
  O      44.762907     20.514094     33.778179
  O      43.317527     22.125238     33.255520
24
Coordinates from ORCA-job neb_MEP_ALL.QMRegion E -1076.484986449048
  C      44.368062     20.612467     36.922679
  H      44.820786     19.881515     36.256969
  H      44.792007     21.614098     36.950404
  C      43.382158     20.271534     37.815704
  C      42.875210     21.324693     38.811356
  O      43.596421     22.332911     39.000655
  O      41.776483     21.092784     39.389922
  O      42.767537     19.120891     37.765628
  C      41.529614     18.949330     36.240962
  H      41.312185     17.890607     36.394943
  C      42.437935     19.306338     35.224756
  H      43.094632     18.552440     34.790397
  C      42.684021     20.641823     34.990192
  C      41.747818     21.642698     35.508469
  H      41.926173     22.678387     35.228573
  C      40.695502     21.301584     36.268243
  H      39.984446     22.063935     36.592749
  C      40.401641     19.883914     36.658641
  H      40.355207     19.826855     37.755577
  O      39.168540     19.472854     36.082416
  H      38.475155     19.328225     36.805817
  C      43.671161     21.104106     33.925846
  O      44.771661     20.509675     33.779851
  O      43.310594     22.110961     33.266033
24
Coordinates from ORCA-job neb_MEP_ALL.QMRegion E -1076.483615284404
  C      44.329570     20.632369     36.859876
  H      44.830587     19.876613     36.259753
  H      44.773351     21.625401     36.920356
  C      43.391185     20.265671     37.827113
  C      42.878484     21.332131     38.813728
  O      43.601138     22.338984     39.000205
  O      41.781596     21.097527     39.391335
  O      42.849805     19.116310     37.841138
  C      41.475489     18.933126     36.161748
  H      41.295976     17.879297     36.371993
  C      42.429274     19.298147     35.232468
  H      43.094885     18.550745     34.798449
  C      42.728951     20.657136     35.049205
  C      41.756194     21.647402     35.521643
  H      41.926900     22.681466     35.232151
  C      40.694468     21.300015     36.264358
  H      39.983271     22.062991     36.590183
  C      40.394785     19.878318     36.644143
  H      40.361095     19.817042     37.743792
  O      39.151283     19.481096     36.079486
  H      38.467725     19.329272     36.809559
  C      43.684065     21.106529     33.942573
  O      44.777362     20.507100     33.774779
  O      43.304403     22.100339     33.273076
24
Coordinates from ORCA-job neb_MEP_ALL.QMRegion E -1076.494093166630
  C      44.199492     20.658142     36.691115
  H      44.837110     19.878637     36.265630
  H      44.714462     21.616838     36.849513
  C      43.378813     20.262201     37.822317
  C      42.883730     21.333265     38.818166
  O      43.617016     22.332657     38.992178
  O      41.794903     21.092665     39.400938
  O      42.946677     19.110550     37.921629
  C      41.419332     18.924190     36.075510
  H      41.245221     17.872575     36.303873
  C      42.429139     19.290538     35.254668
  H      43.091116     18.544202     34.810150
  C      42.855867     20.683975     35.197139
  C      41.787267     21.655051     35.559751
  H      41.939869     22.684883     35.246387
  C      40.697762     21.300097     36.251357
  H      39.973864     22.060056     36.555380
  C      40.385063     19.879063     36.624219
  H      40.366106     19.805379     37.725219
  O      39.120496     19.509401     36.080462
  H      38.449484     19.347241     36.819745
  C      43.709487     21.107175     33.978485
  O      44.795752     20.504481     33.773632
  O      43.295627     22.074173     33.293593
24
Coordinates from ORCA-job neb_MEP_ALL.QMRegion E -1076.509143146829
  C      44.113588     20.666915     36.595059
  H      44.819641     19.890610     36.270045
  H      44.648646     21.614269     36.775946
  C      43.360603     20.262744     37.812568
  C      42.883432     21.334272     38.817434
  O      43.633803     22.321590     38.986403
  O      41.807450     21.091529     39.417469
  O      43.021219     19.111717     37.984194
  C      41.386723     18.922485     36.020872
  H      41.203847     17.872371     36.233780
  C      42.437435     19.290511     35.271448
  H      43.097402     18.545119     34.827775
  C      42.937702     20.694836     35.290433
  C      41.824806     21.661375     35.598069
  H      41.953011     22.687421     35.258338
  C      40.713782     21.298502     36.247347
  H      39.968689     22.050728     36.513093
  C      40.380006     19.877657     36.606057
  H      40.375351     19.794010     37.706370
  O      39.101370     19.532520     36.082476
  H      38.436216     19.357235     36.824597
  C      43.728833     21.101219     34.006398
  O      44.813299     20.505290     33.778381
  O      43.284637     22.052383     33.316096
24
Coordinates from ORCA-job neb_MEP_ALL.QMRegion E -1076.516442949813
  C      44.027976     20.672150     36.523411
  H      44.781275     19.924349     36.267092
  H      44.540436     21.620014     36.677724
  C      43.341017     20.279286     37.789429
  C      42.900340     21.339644     38.817519
  O      43.652059     22.325476     38.978157
  O      41.827726     21.093822     39.425712
  O      43.122747     19.095168     38.055109
  C      41.364150     18.914474     35.967344
  H      41.143759     17.861150     36.146175
  C      42.456690     19.286910     35.291657
  H      43.104680     18.531959     34.840003
  C      42.982341     20.704462     35.334802
  C      41.857574     21.661432     35.639181
  H      41.977797     22.683461     35.296260
  C      40.722323     21.293509     36.240692
  H      39.966058     22.046210     36.488404
  C      40.377908     19.869112     36.589783
  H      40.386774     19.769152     37.694312
  O      39.087389     19.549549     36.083713
  H      38.430853     19.372838     36.831522
  C      43.748267     21.101824     34.032379
  O      44.830653     20.505836     33.783317
  O      43.271900     22.024667     33.331060
24
Coordinates from ORCA-job neb_MEP_ALL.QMRegion E -1076.526823241864
  C      44.006000     20.664000     36.513000
  H      44.788000     19.945000     36.232000
  H      44.445000     21.661000     36.639000
  C      43.394000     20.234000     37.819000
  C      42.925000     21.311000     38.826000
  O      43.668000     22.308000     38.956000
  O      41.861000     21.069000     39.448000
  O      43.248000     19.057000     38.093000
  C      41.216000     18.941000     35.837000
  H      40.885000     17.904000     35.872000
  C      42.369000     19.274000     35.248000
  H      43.006000     18.514000     34.788000
  C      42.943000     20.667000     35.337000
  C      41.847000     21.661000     35.630000
  H      42.039000     22.693000     35.349000
  C      40.691000     21.331000     36.208000
  H      39.952000     22.105000     36.430000
  C      40.297000     19.915000     36.529000
  H      40.387000     19.767000     37.623000
  O      38.960000     19.678000     36.115000
  H      38.356000     19.505000     36.900000
  C      43.723000     21.074000     34.043000
  O      44.827000     20.504000     33.827000
  O      43.257000     21.999000     33.339000
24
Coordinates from ORCA-job neb_MEP_ALL.QMRegion E -1076.506452458426
  C      44.548000     20.393000     37.290000
  H      44.921000     19.659000     36.575000
  H      45.141000     21.280000     37.513000
  C      43.362000     20.252000     37.894000
  C      42.843000     21.307000     38.861000
  O      43.561000     22.317000     39.046000
  O      41.729000     21.090000     39.413000
  O      42.560000     19.150000     37.687000
  C      41.689000     19.080000     36.495000
  H      41.347000     18.036000     36.492000
  C      42.523000     19.394000     35.292000
  H      43.230000     18.641000     34.940000
  C      42.555000     20.645000     34.792000
  C      41.619000     21.654000     35.301000
  H      41.739000     22.662000     34.909000
  C      40.667000     21.365000     36.203000
  H      39.992000     22.151000     36.553000
  C      40.441000     19.968000     36.709000
  H      40.300000     20.009000     37.799000
  O      39.300000     19.403000     36.075000
  H      38.572000     19.274000     36.758000
  C      43.591000     21.118000     33.781000
  O      44.695000     20.512000     33.694000
  O      43.298000     22.166000     33.151000
24
Coordinates from ORCA-job neb_MEP_ALL.QMRegion E -1076.508753299535
  C      44.474356     20.492646     37.134442
  H      44.830304     19.809527     36.366270
  H      45.009521     21.424657     37.306214
  C      43.344900     20.277899     37.826202
  C      42.846287     21.302865     38.833772
  O      43.566999     22.309181     39.027152
  O      41.744554     21.073584     39.406735
  O      42.577342     19.148234     37.657594
  C      41.671972     19.040408     36.469342
  H      41.351370     17.993013     36.499962
  C      42.480589     19.351033     35.252516
  H      43.145280     18.583110     34.851545
  C      42.558119     20.621731     34.811290
  C      41.662169     21.638823     35.377284
  H      41.826718     22.664439     35.055466
  C      40.689949     21.336463     36.253101
  H      40.024942     22.120349     36.621723
  C      40.434535     19.929622     36.716345
  H      40.306414     19.944061     37.809818
  O      39.278943     19.399349     36.086733
  H      38.553978     19.279402     36.772493
  C      43.592838     21.104243     33.807213
  O      44.706112     20.513039     33.728131
  O      43.298706     22.153601     33.181038
24
Coordinates from ORCA-job neb_MEP_ALL.QMRegion E -1076.504792594610
  C      44.418300     20.559559     37.027415
  H      44.800969     19.878208     36.271442
  H      44.875442     21.546888     37.107329
  C      43.344144     20.281433     37.785532
  C      42.857868     21.304937     38.811520
  O      43.580483     22.310945     39.005863
  O      41.760925     21.077647     39.395252
  O      42.596221     19.132279     37.623648
  C      41.659361     18.998841     36.436725
  H      41.346086     17.946085     36.462935
  C      42.457260     19.326784     35.226683
  H      43.098607     18.557294     34.792004
  C      42.591284     20.618491     34.864654
  C      41.702673     21.633147     35.449405
  H      41.880869     22.666774     35.162886
  C      40.695660     21.310086     36.277955
  H      40.011765     22.083372     36.634712
  C      40.422900     19.895468     36.703850
  H      40.324341     19.875211     37.797621
  O      39.232893     19.423065     36.090633
  H      38.516771     19.299825     36.790852
  C      43.614293     21.099877     33.853172
  O      44.727962     20.512561     33.753579
  O      43.301351     22.140842     33.223401
24
Coordinates from ORCA-job neb_MEP_ALL.QMRegion E -1076.493379103690
  C      44.398638     20.581288     36.982825
  H      44.823138     19.869813     36.279258
  H      44.827325     21.581780     37.007603
  C      43.366634     20.275999     37.802384
  C      42.869465     21.314254     38.811298
  O      43.591577     22.322221     39.001468
  O      41.769736     21.087860     39.391749
  O      42.666045     19.122310     37.677928
  C      41.607533     18.974775     36.352683
  H      41.327089     17.915363     36.415693
  C      42.456947     19.321237     35.227759
  H      43.106466     18.559436     34.795988
  C      42.651595     20.632679     34.940711
  C      41.734876     21.640807     35.487987
  H      41.909430     22.675193     35.203449
  C      40.695534     21.306359     36.269270
  H      39.982062     22.068448     36.589676
  C      40.410985     19.890905     36.676398
  H      40.344000     19.845648     37.770292
  O      39.192214     19.462378     36.085327
  H      38.487771     19.324255     36.799862
  C      43.655493     21.102863     33.902713
  O      44.762833     20.512770     33.777685
  O      43.315738     22.124329     33.254936
24
Coordinates from ORCA-job neb_MEP_ALL.QMRegion E -1076.485244810785
  C      44.369788     20.611659     36.924910
  H      44.820170     19.881622     36.256924
  H      44.792973     21.614139     36.952168
  C      43.381482     20.271085     37.814417
  C      42.875102     21.324270     38.810999
  O      43.596075     22.332669     39.000760
  O      41.776391     21.092857     39.389968
  O      42.764361     19.120928     37.763463
  C      41.531413     18.949643     36.243612
  H      41.313033     17.891211     36.396138
  C      42.437712     19.306565     35.224107
  H      43.094721     18.552409     34.790018
  C      42.682373     20.641533     34.987576
  C      41.747703     21.642804     35.507848
  H      41.925869     22.677973     35.228277
  C      40.695638     21.301832     36.268567
  H      39.984606     22.064166     36.593268
  C      40.401833     19.883559     36.659174
  H      40.354906     19.827483     37.756305
  O      39.169297     19.472016     36.082483
  H      38.475829     19.328089     36.805627
  C      43.671071     21.104419     33.925456
  O      44.771309     20.509518     33.779583
  O      43.310325     22.111095     33.265553
24
Coordinates from ORCA-job neb_MEP_ALL.QMRegion E -1076.483875516517
  C      44.330132     20.632273     36.860430
  H      44.830465     19.876795     36.259644
  H      44.773289     21.625421     36.920378
  C      43.391114     20.265901     37.826877
  C      42.878558     21.331769     38.813785
  O      43.601103     22.338707     38.999950
  O      41.781501     21.097573     39.391304
  O      42.849688     19.116632     37.840953
  C      41.475337     18.933149     36.161661
  H      41.296094     17.879281     36.371995
  C      42.429160     19.298103     35.232382
  H      43.094869     18.550804     34.798398
  C      42.728561     20.657086     35.048844
  C      41.756400     21.647341     35.521747
  H      41.926833     22.681407     35.232211
  C      40.694486     21.299951     36.264434
  H      39.983218     22.062901     36.590220
  C      40.394977     19.878404     36.644191
  H      40.361042     19.817009     37.743698
  O      39.151393     19.480954     36.079647
  H      38.467674     19.329312     36.809500
  C      43.684195     21.106616     33.942793
  O      44.777346     20.507105     33.774616
  O      43.304307     22.100231     33.273106
24
Coordinates from ORCA-job neb_MEP_ALL.QMRegion E -1076.493575119893
  C      44.206407     20.657277     36.699568
  H      44.835698     19.878577     36.265531
  H      44.716756     21.616942     36.852522
  C      43.379395     20.261771     37.820858
  C      42.883610     21.332732     38.818053
  O      43.615988     22.332964     38.992503
  O      41.793901     21.093400     39.400496
  O      42.941093     19.110947     37.917998
  C      41.422790     18.924162     36.079943
  H      41.248974     17.872771     36.308330
  C      42.429267     19.290748     35.253683
  H      43.091692     18.544578     34.809606
  C      42.849933     20.682653     35.190221
  C      41.786247     21.654189     35.557615
  H      41.938970     22.684736     35.245659
  C      40.698039     21.299855     36.252540
  H      39.974028     22.060223     36.557559
  C      40.385211     19.877898     36.625530
  H      40.365704     19.805882     37.726553
  O      39.123636     19.507238     36.081316
  H      38.451334     19.345769     36.818356
  C      43.708338     21.107181     33.976345
  O      44.794881     20.504521     33.773410
  O      43.295906     22.075598     33.292393
24
Coordinates from ORCA-job neb_MEP_ALL.QMRegion E -1076.509589982511
  C      44.114916     20.667114     36.595029
  H      44.820381     19.889413     36.270141
  H      44.651305     21.614453     36.779393
  C      43.361704     20.262219     37.813478
  C      42.884564     21.334260     38.818574
  O      43.632392     22.323277     38.986397
  O      41.806632     21.091771     39.415656
  O      43.016973     19.110266     37.981191
  C      41.388663     18.922389     36.023953
  H      41.206011     17.870552     36.238134
  C      42.437555     19.290982     35.270820
  H      43.097603     18.543922     34.826314
  C      42.936924     20.695663     35.287374
  C      41.822527     21.659982     35.595499
  H      41.952838     22.687216     35.258552
  C      40.711829     21.298302     36.247213
  H      39.968197     22.052181     36.516078
  C      40.380079     19.877339     36.607603
  H      40.374676     19.794081     37.708530
  O      39.103081     19.531238     36.082317
  H      38.437943     19.356977     36.824181
  C      43.727954     21.102283     34.005623
  O      44.811806     20.505425     33.777873
  O      43.285784     22.053138     33.314182
24
Coordinates from ORCA-job neb_MEP_ALL.QMRegion E -1076.518156754797
  C      44.022251     20.672126     36.519266
  H      44.780717     19.923521     36.266276
  H      44.535189     21.625436     36.672766
  C      43.343463     20.278918     37.794304
  C      42.899550     21.340672     38.816212
  O      43.653263     22.324515     38.977020
  O      41.828921     21.094512     39.427167
  O      43.128076     19.095979     38.058351
  C      41.363216     18.914702     35.965636
  H      41.140466     17.860969     36.139518
  C      42.455895     19.286101     35.290297
  H      43.106093     18.531925     34.841332
  C      42.984136     20.701086     35.337025
  C      41.857256     21.660812     35.639443
  H      41.980410     22.685240     35.299368
  C      40.722292     21.293064     36.241907
  H      39.966212     22.045790     36.485846
  C      40.377099     19.869254     36.588420
  H      40.387983     19.767341     37.692698
  O      39.086494     19.551458     36.083938
  H      38.430812     19.374246     36.831980
  C      43.747490     21.100595     34.032252
  O      44.831577     20.507121     33.785268
  O      43.272463     22.024453     33.331420
24
Coordinates from ORCA-job neb_MEP_ALL.QMRegion E -1076.526823241864
  C      44.006000     20.664000     36.513000
  H      44.788000     19.945000     36.232000
  H      44.445000     21.661000     36.639000
  C      43.394000     20.234000     37.819000
  C      42.925000     21.311000     38.826000
  O      43.668000     22.308000     38.956000
  O      41.861000     21.069000     39.448000
  O      43.248000     19.057000     38.093000
  C      41.216000     18.941000     35.837000
  H      40.885000     17.904000     35.872000
  C      42.369000     19.274000     35.248000
  H      43.006000     18.514000     34.788000
  C      42.943000     20.667000     35.337000
  C      41.847000     21.661000     35.630000
  H      42.039000     22.693000     35.349000
  C      40.691000     21.331000     36.208000
  H      39.952000     22.105000     36.430000
  C      40.297000     19.915000     36.529000
  H      40.387000     19.767000     37.623000
  O      38.960000     19.678000     36.115000
  H      38.356000     19.505000     36.900000
  C      43.723000     21.074000     34.043000
  O      44.827000     20.504000     33.827000
  O      43.257000     21.999000     33.339000
24
Coordinates from ORCA-job neb_MEP_ALL.QMRegion E -1076.506452458426
  C      44.548000     20.393000     37.290000
  H      44.921000     19.659000     36.575000
  H      45.141000     21.280000     37.513000
  C      43.362000     20.252000     37.894000
  C      42.843000     21.307000     38.861000
  O      43.561000     22.317000     39.046000
  O      41.729000     21.090000     39.413000
  O      42.560000     19.150000     37.687000
  C      41.689000     19.080000     36.495000
  H      41.347000     18.036000     36.492000
  C      42.523000     19.394000     35.292000
  H      43.230000     18.641000     34.940000
  C      42.555000     20.645000     34.792000
  C      41.619000     21.654000     35.301000
  H      41.739000     22.662000     34.909000
  C      40.667000     21.365000     36.203000
  H      39.992000     22.151000     36.553000
  C      40.441000     19.968000     36.709000
  H      40.300000     20.009000     37.799000
  O      39.300000     19.403000     36.075000
  H      38.572000     19.274000     36.758000
  C      43.591000     21.118000     33.781000
  O      44.695000     20.512000     33.694000
  O      43.298000     22.166000     33.151000
24
Coordinates from ORCA-job neb_MEP_ALL.QMRegion E -1076.508902096032
  C      44.472533     20.492002     37.137902
  H      44.833467     19.805659     36.369622
  H      45.017261     21.423947     37.314790
  C      43.347887     20.272592     37.828018
  C      42.848765     21.304271     38.836793
  O      43.565036     22.313431     39.030172
  O      41.744966     21.076077     39.406182
  O      42.569434     19.146435     37.643469
  C      41.685512     19.038610     36.488247
  H      41.349329     17.990805     36.499260
  C      42.477794     19.350428     35.251664
  H      43.145444     18.585220     34.854390
  C      42.557531     20.621269     34.808722
  C      41.660078     21.638870     35.374144
  H      41.822421     22.665309     35.049595
  C      40.688376     21.338402     36.251369
  H      40.024735     22.124095     36.623650
  C      40.434221     19.929169     36.715021
  H      40.308024     19.944941     37.807496
  O      39.277322     19.399261     36.084745
  H      38.553754     19.278634     36.773416
  C      43.594642     21.109320     33.809815
  O      44.703634     20.509700     33.723930
  O      43.293934     22.153968     33.177535
24
Coordinates from ORCA-job neb_MEP_ALL.QMRegion E -1076.504824337236
  C      44.414342     20.558951     37.022547
  H      44.806826     19.873214     36.272470
  H      44.870670     21.547867     37.098605
  C      43.339817     20.284312     37.781635
  C      42.858285     21.305545     38.808106
  O      43.582727     22.310140     39.004656
  O      41.762400     21.075788     39.394758
  O      42.615448     19.132280     37.648237
  C      41.644843     18.998442     36.414399
  H      41.346772     17.944409     36.457956
  C      42.459142     19.323901     35.230277
  H      43.101534     18.560569     34.793233
  C      42.597402     20.618654     34.871192
  C      41.707648     21.632726     35.454139
  H      41.885786     22.669352     35.170474
  C      40.697952     21.310611     36.276320
  H      40.003753     22.081833     36.624264
  C      40.422687     19.894719     36.700586
  H      40.326095     19.873049     37.795336
  O      39.229290     19.426988     36.089110
  H      38.514934     19.306617     36.791910
  C      43.627470     21.108301     33.866197
  O      44.734405     20.509492     33.759194
  O      43.302084     22.140118     33.225339
24
Coordinates from ORCA-job neb_MEP_ALL.QMRegion E -1076.493575778815
  C      44.396136     20.587398     36.974459
  H      44.813815     19.874341     36.262423
  H      44.822303     21.597464     37.004523
  C      43.357153     20.273566     37.787962
  C      42.868725     21.316671     38.806254
  O      43.590573     22.324493     39.002961
  O      41.772268     21.087290     39.392011
  O      42.662021     19.112243     37.684246
  C      41.602833     18.972783     36.349250
  H      41.332444     17.914793     36.423814
  C      42.453237     19.318683     35.222245
  H      43.100770     18.555153     34.787988
  C      42.642677     20.631773     34.928419
  C      41.738527     21.639733     35.493563
  H      41.915457     22.675662     35.212252
  C      40.698425     21.305593     36.270771
  H      39.986589     22.069568     36.598143
  C      40.410518     19.887139     36.678648
  H      40.343170     19.846362     37.775718
  O      39.194024     19.454394     36.083609
  H      38.492140     19.324336     36.800471
  C      43.663985     21.110892     33.912331
  O      44.763504     20.507673     33.775586
  O      43.307723     22.119958     33.252062
24
Coordinates from ORCA-job neb_MEP_ALL.QMRegion E -1076.485403753072
  C      44.378778     20.607906     36.936526
  H      44.816927     19.881752     36.256349
  H      44.798360     21.613744     36.963665
  C      43.378124     20.270706     37.807689
  C      42.874346     21.322131     38.808542
  O      43.594010     22.330594     39.000930
  O      41.776112     21.093080     39.390070
  O      42.745814     19.119258     37.751628
  C      41.541418     18.952184     36.257855
  H      41.318007     17.893666     36.403513
  C      42.436608     19.308075     35.218987
  H      43.094782     18.552610     34.788058
  C      42.673225     20.639332     34.974203
  C      41.745392     21.641481     35.505472
  H      41.923940     22.677152     35.225723
  C      40.697702     21.302544     36.269894
  H      39.985886     22.065884     36.597252
  C      40.402970     19.882409     36.662532
  H      40.353031     19.831300     37.760317
  O      39.174154     19.466203     36.082386
  H      38.479868     19.326889     36.804834
  C      43.670063     21.105679     33.922620
  O      44.769379     20.508755     33.777326
  O      43.308484     22.112085     33.262296
24
Coordinates from ORCA-job neb_MEP_ALL.QMRegion E -1076.483888573247
  C      44.334156     20.631755     36.864581
  H      44.829773     19.877862     36.258635
  H      44.773225     21.626080     36.920716
  C      43.390907     20.267333     37.825671
  C      42.878665     21.329947     38.813851
  O      43.601130     22.336971     38.998428
  O      41.780965     21.097588     39.391052
  O      42.848319     19.118043     37.839464
  C      41.474667     18.933081     36.161155
  H      41.296910     17.879226     36.372070
  C      42.428307     19.298175     35.231422
  H      43.094744     18.551173     34.797979
  C      42.726148     20.656238     35.046112
  C      41.756752     21.646979     35.522846
  H      41.926417     22.681022     35.232655
  C      40.695306     21.299962     36.264657
  H      39.982907     22.062190     36.590569
  C      40.395637     19.878547     36.644344
  H      40.360817     19.816770     37.743373
  O      39.152309     19.479970     36.080390
  H      38.467296     19.329590     36.809355
  C      43.684495     21.107141     33.943741
  O      44.777422     20.507054     33.773705
  O      43.303734     22.099636     33.273455
24
Coordinates from ORCA-job neb_MEP_ALL.QMRegion E -1076.492681959214
  C      44.248022     20.651100     36.752486
  H      44.829961     19.875088     36.262607
  H      44.733355     21.621164     36.872557
  C      43.380985     20.261566     37.819137
  C      42.881892     21.330286     38.815598
  O      43.609631     22.333482     38.994178
  O      41.788904     21.097126     39.396866
  O      42.906649     19.113293     37.893451
  C      41.442591     18.923766     36.107139
  H      41.273597     17.873054     36.337121
  C      42.430490     19.291535     35.247124
  H      43.095345     18.547136     34.806182
  C      42.811439     20.674148     35.144058
  C      41.776775     21.650434     35.546042
  H      41.933280     22.682725     35.241205
  C      40.699443     21.298035     36.259630
  H      39.976468     22.059901     36.571140
  C      40.391521     19.874078     36.635782
  H      40.363288     19.808659     37.735105
  O      39.141287     19.492085     36.082350
  H      38.461951     19.335805     36.811618
  C      43.701552     21.107323     33.964280
  O      44.789276     20.505054     33.771196
  O      43.297823     22.084017     33.284823
24
Coordinates from ORCA-job neb_MEP_ALL.QMRegion E -1076.509236751850
  C      44.134624     20.667210     36.611689
  H      44.823445     19.882522     36.270187
  H      44.672527     21.613045     36.806873
  C      43.368261     20.251919     37.815585
  C      42.889644     21.331709     38.824121
  O      43.622652     22.334813     38.987533
  O      41.800575     21.094312     39.403172
  O      42.983778     19.110550     37.954565
  C      41.407060     18.918225     36.049284
  H      41.227568     17.864347     36.273864
  C      42.438910     19.289230     35.264317
  H      43.096522     18.539724     34.817100
  C      42.919280     20.696438     35.260972
  C      41.803809     21.653678     35.577013
  H      41.949068     22.683962     35.258675
  C      40.701640     21.298128     36.247412
  H      39.967001     22.060267     36.539140
  C      40.382399     19.874423     36.620939
  H      40.369098     19.795940     37.723372
  O      39.117403     19.518411     36.082001
  H      38.450832     19.352665     36.819838
  C      43.722127     21.108552     33.994417
  O      44.802490     20.504937     33.774098
  O      43.291958     22.062479     33.299505
24
Coordinates from ORCA-job neb_MEP_ALL.QMRegion E -1076.518672735156
  C      44.002828     20.677223     36.504721
  H      44.771069     19.923704     36.261942
  H      44.488450     21.655142     36.632066
  C      43.360379     20.278686     37.815197
  C      42.896143     21.345931     38.812748
  O      43.663441     22.320652     38.967736
  O      41.835658     21.100099     39.438130
  O      43.169252     19.098852     38.087659
  C      41.353496     18.914456     35.950594
  H      41.114801     17.861578     36.087498
  C      42.449855     19.277670     35.281566
  H      43.116836     18.530854     34.851319
  C      42.981964     20.684326     35.343235
  C      41.858853     21.656838     35.641296
  H      41.999938     22.693838     35.324436
  C      40.725868     21.291194     36.247445
  H      39.965503     22.043653     36.466378
  C      40.372429     19.869029     36.579533
  H      40.397268     19.753331     37.679589
  O      39.077961     19.566514     36.084289
  H      38.429246     19.385050     36.836208
  C      43.743865     21.091653     34.033745
  O      44.839980     20.515209     33.799241
  O      43.275049     22.021791     33.335201
24
Coordinates from ORCA-job neb_MEP_ALL.QMRegion E -1076.526823241864
  C      44.006000     20.664000     36.513000
  H      44.788000     19.945000     36.232000
  H      44.445000     21.661000     36.639000
  C      43.394000     20.234000     37.819000
  C      42.925000     21.311000     38.826000
  O      43.668000     22.308000     38.956000
  O      41.861000     21.069000     39.448000
  O      43.248000     19.057000     38.093000
  C      41.216000     18.941000     35.837000
  H      40.885000     17.904000     35.872000
  C      42.369000     19.274000     35.248000
  H      43.006000     18.514000     34.788000
  C      42.943000     20.667000     35.337000
  C      41.847000     21.661000     35.630000
  H      42.039000     22.693000     35.349000
  C      40.691000     21.331000     36.208000
  H      39.952000     22.105000     36.430000
  C      40.297000     19.915000     36.529000
  H      40.387000     19.767000     37.623000
  O      38.960000     19.678000     36.115000
  H      38.356000     19.505000     36.900000
  C      43.723000     21.074000     34.043000
  O      44.827000     20.504000     33.827000
  O      43.257000     21.999000     33.339000
24
Coordinates from ORCA-job neb_MEP_ALL.QMRegion E -1076.506452458426
  C      44.548000     20.393000     37.290000
  H      44.921000     19.659000     36.575000
  H      45.141000     21.280000     37.513000
  C      43.362000     20.252000     37.894000
  C      42.843000     21.307000     38.861000
  O      43.561000     22.317000     39.046000
  O      41.729000     21.090000     39.413000
  O      42.560000     19.150000     37.687000
  C      41.689000     19.080000     36.495000
  H      41.347000     18.036000     36.492000
  C      42.523000     19.394000     35.292000
  H      43.230000     18.641000     34.940000
  C      42.555000     20.645000     34.792000
  C      41.619000     21.654000     35.301000
  H      41.739000     22.662000     34.909000
  C      40.667000     21.365000     36.203000
  H      39.992000     22.151000     36.553000
  C      40.441000     19.968000     36.709000
  H      40.300000     20.009000     37.799000
  O      39.300000     19.403000     36.075000
  H      38.572000     19.274000     36.758000
  C      43.591000     21.118000     33.781000
  O      44.695000     20.512000     33.694000
  O      43.298000     22.166000     33.151000
24
Coordinates from ORCA-job neb_MEP_ALL.QMRegion E -1076.508682920445
  C      44.475380     20.492239     37.136562
  H      44.833128     19.806665     36.370190
  H      45.016255     21.422480     37.314885
  C      43.346238     20.274239     37.828420
  C      42.848380     21.303562     38.836695
  O      43.565269     22.312775     39.029788
  O      41.745173     21.075826     39.406089
  O      42.573931     19.146662     37.649120
  C      41.679586     19.038685     36.481157
  H      41.349855     17.991637     36.499629
  C      42.478322     19.350935     35.252686
  H      43.145643     18.584841     34.853970
  C      42.556708     20.621394     34.809699
  C      41.659971     21.639245     35.374061
  H      41.822166     22.664948     35.049530
  C      40.688307     21.337896     36.251417
  H      40.025001     22.123975     36.623714
  C      40.435224     19.928680     36.715259
  H      40.307584     19.944979     37.807753
  O      39.277868     19.399252     36.085298
  H      38.553817     19.278647     36.773192
  C      43.593507     21.107847     33.808528
  O      44.703466     20.510827     33.723817
  O      43.294677     22.153980     33.178055
24
Coordinates from ORCA-job neb_MEP_ALL.QMRegion E -1076.503225008821
  C      44.415597     20.560254     37.020584
  H      44.806370     19.873346     36.272728
  H      44.869790     21.548155     37.097737
  C      43.341982     20.285076     37.783121
  C      42.857802     21.306425     38.807878
  O      43.582457     22.310432     39.004825
  O      41.762897     21.076249     39.394733
  O      42.609678     19.129452     37.642951
  C      41.647930     18.997029     36.419496
  H      41.346812     17.943453     36.458103
  C      42.459086     19.325767     35.227793
  H      43.101988     18.559711     34.793056
  C      42.598599     20.619880     34.872428
  C      41.708542     21.633598     35.454032
  H      41.886423     22.668789     35.171470
  C      40.696716     21.310475     36.276949
  H      40.004073     22.081282     36.623732
  C      40.421896     19.895732     36.700258
  H      40.326511     19.872789     37.795064
  O      39.229071     19.427024     36.089204
  H      38.514975     19.306969     36.791884
  C      43.626298     21.106354     33.865768
  O      44.734844     20.511178     33.759671
  O      43.303480     22.139371     33.226565
24
Coordinates from ORCA-job neb_MEP_ALL.QMRegion E -1076.493426407584
  C      44.395188     20.587559     36.973965
  H      44.813054     19.876454     36.262357
  H      44.820298     21.595044     37.004338
  C      43.359838     20.275777     37.790103
  C      42.868472     21.315765     38.805673
  O      43.590201     22.323165     39.001862
  O      41.772331     21.087373     39.391843
  O      42.663091     19.115650     37.681645
  C      41.603737     18.972288     36.348869
  H      41.332044     17.913384     36.423886
  C      42.452071     19.318816     35.220875
  H      43.099948     18.555428     34.787753
  C      42.644406     20.630592     34.931496
  C      41.737916     21.639917     35.492308
  H      41.915845     22.675579     35.213058
  C      40.697259     21.305048     36.272385
  H      39.987649     22.069173     36.598834
  C      40.410283     19.887938     36.678431
  H      40.343121     19.846230     37.774753
  O      39.194664     19.454216     36.084402
  H      38.491859     19.323992     36.800327
  C      43.660327     21.107353     33.908325
  O      44.763148     20.510216     33.776506
  O      43.310127     22.120690     33.252865
24
Coordinates from ORCA-job neb_MEP_ALL.QMRegion E -1076.486331976099
  C      44.376644     20.608611     36.933970
  H      44.817535     19.881685     36.256322
  H      44.797543     21.613494     36.963033
  C      43.378341     20.270949     37.808988
  C      42.874219     21.322375     38.808703
  O      43.594581     22.330697     39.000480
  O      41.776146     21.092780     39.389895
  O      42.748999     19.119798     37.753264
  C      41.539860     18.951724     36.255501
  H      41.317426     17.893038     36.402620
  C      42.436540     19.307774     35.219195
  H      43.094579     18.552711     34.788302
  C      42.675016     20.639507     34.976960
  C      41.746168     21.642026     35.505414
  H      41.923790     22.677250     35.225804
  C      40.696385     21.302046     36.270566
  H      39.986459     22.065438     36.597281
  C      40.402982     19.882963     36.662046
  H      40.353179     19.830856     37.759560
  O      39.173656     19.466283     36.082500
  H      38.479544     19.326750     36.804910
  C      43.669657     21.105274     33.922514
  O      44.769554     20.509081     33.777091
  O      43.308604     22.111806     33.262618
24
Coordinates from ORCA-job neb_MEP_ALL.QMRegion E -1076.483912568344
  C      44.334514     20.631748     36.864981
  H      44.829820     19.877888     36.258481
  H      44.773504     21.626428     36.920917
  C      43.390961     20.266973     37.825923
  C      42.878527     21.330330     38.813593
  O      43.601266     22.337080     38.998573
  O      41.780965     21.097399     39.391029
  O      42.847938     19.117812     37.839102
  C      41.474921     18.933093     36.161388
  H      41.296937     17.879170     36.372091
  C      42.428329     19.298159     35.231053
  H      43.094676     18.551198     34.797893
  C      42.725936     20.656228     35.045885
  C      41.756962     21.647099     35.522479
  H      41.926419     22.680994     35.232732
  C      40.694918     21.299864     36.265057
  H      39.982994     22.062084     36.590642
  C      40.395498     19.878424     36.644275
  H      40.360910     19.816743     37.743494
  O      39.151889     19.479833     36.080470
  H      38.467510     19.329652     36.809271
  C      43.684375     21.106769     33.943376
  O      44.777291     20.507155     33.773874
  O      43.303730     22.099899     33.273473
24
Coordinates from ORCA-job neb_MEP_ALL.QMRegion E -1076.487932005344
  C      44.245793     20.650915     36.750462
  H      44.830844     19.874386     36.261943
  H      44.733068     21.622314     36.871655
  C      43.380668     20.262105     37.820947
  C      42.881236     21.331029     38.815318
  O      43.610395     22.333246     38.993821
  O      41.789040     21.096493     39.396849
  O      42.908664     19.113533     37.894334
  C      41.441526     18.923768     36.105500
  H      41.273453     17.872471     36.336617
  C      42.430387     19.291625     35.247370
  H      43.095523     18.546965     34.806293
  C      42.812091     20.674453     35.145589
  C      41.776945     21.650764     35.547024
  H      41.933359     22.682664     35.241445
  C      40.698928     21.298055     36.259797
  H      39.976971     22.059083     36.570697
  C      40.392618     19.874840     36.635304
  H      40.363545     19.808215     37.735412
  O      39.140477     19.491951     36.081191
  H      38.461547     19.335684     36.812266
  C      43.702350     21.107207     33.965182
  O      44.789400     20.505277     33.770914
  O      43.297712     22.083538     33.285232
24
Coordinates from ORCA-job neb_MEP_ALL.QMRegion E -1076.503572586916
  C      44.138615     20.665276     36.619325
  H      44.822993     19.882595     36.269324
  H      44.674430     21.612853     36.809160
  C      43.371560     20.265607     37.813364
  C      42.890340     21.332809     38.821741
  O      43.621317     22.331673     38.987526
  O      41.799430     21.094157     39.403868
  O      42.977075     19.100494     37.953758
  C      41.410007     18.919086     36.050473
  H      41.231550     17.865690     36.277830
  C      42.436779     19.288153     35.265161
  H      43.096775     18.540583     34.816706
  C      42.913751     20.694239     35.257304
  C      41.803371     21.654191     35.576960
  H      41.947571     22.683946     35.257458
  C      40.702164     21.298036     36.249411
  H      39.968605     22.058590     36.540389
  C      40.385201     19.874258     36.621501
  H      40.368565     19.796660     37.723884
  O      39.119277     19.515691     36.081950
  H      38.451204     19.350750     36.819284
  C      43.720451     21.108969     33.991922
  O      44.803587     20.504270     33.773263
  O      43.291784     22.063384     33.299536
24
Coordinates from ORCA-job neb_MEP_ALL.QMRegion E -1076.519880602417
  C      44.010174     20.677171     36.511949
  H      44.769695     19.926109     36.262070
  H      44.484460     21.655326     36.629155
  C      43.358529     20.269582     37.813199
  C      42.898072     21.345332     38.815480
  O      43.663810     22.322119     38.967010
  O      41.835510     21.100866     39.438313
  O      43.174301     19.108277     38.088002
  C      41.351293     18.913441     35.948412
  H      41.112326     17.861707     36.083446
  C      42.449264     19.277421     35.281869
  H      43.117850     18.529724     34.851543
  C      42.975338     20.685986     35.337267
  C      41.859649     21.657468     35.640616
  H      42.001394     22.691642     35.327170
  C      40.726466     21.291979     36.245950
  H      39.964839     22.044019     36.465231
  C      40.372749     19.868717     36.578537
  H      40.397960     19.751923     37.678934
  O      39.076396     19.568157     36.084065
  H      38.428620     19.386076     36.836694
  C      43.744309     21.092429     34.034281
  O      44.840431     20.514799     33.800366
  O      43.274989     22.020473     33.336069
24
Coordinates from ORCA-job neb_MEP_ALL.QMRegion E -1076.526823241864
  C      44.006000     20.664000     36.513000
  H      44.788000     19.945000     36.232000
  H      44.445000     21.661000     36.639000
  C      43.394000     20.234000     37.819000
  C      42.925000     21.311000     38.826000
  O      43.668000     22.308000     38.956000
  O      41.861000     21.069000     39.448000
  O      43.248000     19.057000     38.093000
  C      41.216000     18.941000     35.837000
  H      40.885000     17.904000     35.872000
  C      42.369000     19.274000     35.248000
  H      43.006000     18.514000     34.788000
  C      42.943000     20.667000     35.337000
  C      41.847000     21.661000     35.630000
  H      42.039000     22.693000     35.349000
  C      40.691000     21.331000     36.208000
  H      39.952000     22.105000     36.430000
  C      40.297000     19.915000     36.529000
  H      40.387000     19.767000     37.623000
  O      38.960000     19.678000     36.115000
  H      38.356000     19.505000     36.900000
  C      43.723000     21.074000     34.043000
  O      44.827000     20.504000     33.827000
  O      43.257000     21.999000     33.339000
24
Coordinates from ORCA-job neb_MEP_ALL.QMRegion E -1076.506452458426
  C      44.548000     20.393000     37.290000
  H      44.921000     19.659000     36.575000
  H      45.141000     21.280000     37.513000
  C      43.362000     20.252000     37.894000
  C      42.843000     21.307000     38.861000
  O      43.561000     22.317000     39.046000
  O      41.729000     21.090000     39.413000
  O      42.560000     19.150000     37.687000
  C      41.689000     19.080000     36.495000
  H      41.347000     18.036000     36.492000
  C      42.523000     19.394000     35.292000
  H      43.230000     18.641000     34.940000
  C      42.555000     20.645000     34.792000
  C      41.619000     21.654000     35.301000
  H      41.739000     22.662000     34.909000
  C      40.667000     21.365000     36.203000
  H      39.992000     22.151000     36.553000
  C      40.441000     19.968000     36.709000
  H      40.300000     20.009000     37.799000
  O      39.300000     19.403000     36.075000
  H      38.572000     19.274000     36.758000
  C      43.591000     21.118000     33.781000
  O      44.695000     20.512000     33.694000
  O      43.298000     22.166000     33.151000
24
Coordinates from ORCA-job neb_MEP_ALL.QMRegion E -1076.509021643833
  C      44.475776     20.492216     37.136797
  H      44.833148     19.807067     36.370324
  H      45.015919     21.421711     37.315125
  C      43.346677     20.275617     37.827968
  C      42.848338     21.303341     38.836544
  O      43.565402     22.312230     39.029534
  O      41.745016     21.075586     39.406206
  O      42.576386     19.146564     37.652417
  C      41.676257     19.038955     36.476890
  H      41.350119     17.991950     36.499890
  C      42.478694     19.351066     35.253267
  H      43.145702     18.584701     34.853786
  C      42.556247     20.621634     34.810240
  C      41.659647     21.639382     35.374093
  H      41.821901     22.664776     35.049323
  C      40.688337     21.337646     36.251392
  H      40.025249     22.123828     36.623777
  C      40.435603     19.928545     36.715393
  H      40.307330     19.944990     37.807931
  O      39.278266     19.399217     36.085678
  H      38.553872     19.278654     36.773046
  C      43.592567     21.106905     33.807633
  O      44.703350     20.511501     33.723669
  O      43.295098     22.153977     33.178410
24
Coordinates from ORCA-job neb_MEP_ALL.QMRegion E -1076.503611219625
  C      44.415636     20.560918     37.019621
  H      44.806097     19.873397     36.272623
  H      44.869104     21.548833     37.096760
  C      43.343426     20.284896     37.783525
  C      42.857644     21.306920     38.807687
  O      43.582321     22.310825     39.004875
  O      41.763114     21.076619     39.394758
  O      42.606043     19.128251     37.639010
  C      41.650342     18.996511     36.422863
  H      41.346782     17.942519     36.458138
  C      42.458936     19.326396     35.226471
  H      43.102202     18.559267     34.792853
  C      42.599590     20.620929     34.873315
  C      41.708594     21.633820     35.454791
  H      41.887133     22.668728     35.172368
  C      40.696680     21.310475     36.276713
  H      40.004059     22.081037     36.623352
  C      40.421442     19.896001     36.700131
  H      40.326805     19.872574     37.794794
  O      39.228884     19.427131     36.089203
  H      38.514892     19.307296     36.791926
  C      43.625600     21.105051     33.865558
  O      44.735481     20.512260     33.760185
  O      43.304477     22.138915     33.227473
24
Coordinates from ORCA-job neb_MEP_ALL.QMRegion E -1076.493699569315
  C      44.394432     20.587969     36.973184
  H      44.812494     19.878019     36.262050
  H      44.818740     21.593681     37.003936
  C      43.361382     20.276937     37.791640
  C      42.868394     21.315286     38.805429
  O      43.590101     22.322454     39.001018
  O      41.772254     21.087314     39.391658
  O      42.664475     19.118105     37.680233
  C      41.603862     18.971901     36.348146
  H      41.331720     17.912334     36.423818
  C      42.451025     19.318231     35.220109
  H      43.099225     18.555596     34.787449
  C      42.645681     20.630395     34.933555
  C      41.736983     21.639566     35.492142
  H      41.916219     22.675648     35.213733
  C      40.697287     21.304857     36.272871
  H      39.988280     22.069038     36.599572
  C      40.410237     19.888145     36.678247
  H      40.343148     19.845998     37.774001
  O      39.194794     19.454067     36.084961
  H      38.491632     19.323724     36.800240
  C      43.657930     21.105029     33.905922
  O      44.763076     20.511689     33.777069
  O      43.311506     22.121243     33.253318
24
Coordinates from ORCA-job neb_MEP_ALL.QMRegion E -1076.486202360703
  C      44.374950     20.609211     36.932017
  H      44.817994     19.881634     36.256293
  H      44.796904     21.613355     36.962522
  C      43.378623     20.271100     37.809809
  C      42.874236     21.322654     38.808811
  O      43.594956     22.330743     39.000147
  O      41.776123     21.092586     39.389808
  O      42.751503     19.120090     37.754701
  C      41.538588     18.951373     36.253477
  H      41.316965     17.892579     36.401913
  C      42.436348     19.307461     35.219513
  H      43.094457     18.552741     34.788446
  C      42.676455     20.639847     34.978993
  C      41.746050     21.642028     35.505979
  H      41.923699     22.677464     35.225822
  C      40.696328     21.301900     36.270417
  H      39.986708     22.065255     36.597431
  C      40.402880     19.883115     36.661696
  H      40.353304     19.830489     37.759007
  O      39.173338     19.466344     36.082506
  H      38.479245     19.326626     36.805030
  C      43.669546     21.104897     33.922545
  O      44.769617     20.509310     33.776879
  O      43.308578     22.111633     33.262816
24
Coordinates from ORCA-job neb_MEP_ALL.QMRegion E -1076.483922382351
  C      44.334830     20.631726     36.865383
  H      44.829853     19.877944     36.258360
  H      44.773728     21.626674     36.921108
  C      43.391064     20.266761     37.826055
  C      42.878411     21.330548     38.813412
  O      43.601354     22.337179     38.998681
  O      41.780986     21.097292     39.390990
  O      42.847591     19.117610     37.838781
  C      41.475149     18.933100     36.161561
  H      41.296966     17.879133     36.372106
  C      42.428278     19.298183     35.230810
  H      43.094643     18.551193     34.797786
  C      42.725761     20.656181     35.045607
  C      41.756809     21.647043     35.522414
  H      41.926440     22.681036     35.232777
  C      40.694953     21.299816     36.265138
  H      39.983001     22.062048     36.590748
  C      40.395327     19.878297     36.644259
  H      40.360985     19.816707     37.743564
  O      39.151817     19.479759     36.080343
  H      38.467523     19.329678     36.809356
  C      43.684140     21.106639     33.943077
  O      44.777274     20.507169     33.773978
  O      43.303760     22.100033     33.273515
24
Coordinates from ORCA-job neb_MEP_ALL.QMRegion E -1076.488124850013
  C      44.244744     20.650965     36.749414
  H      44.831416     19.873982     36.261509
  H      44.732856     21.622916     36.871084
  C      43.380662     20.262528     37.822008
  C      42.880833     21.331576     38.815155
  O      43.610894     22.333109     38.993562
  O      41.788986     21.096070     39.396868
  O      42.909944     19.113630     37.894949
  C      41.440874     18.923664     36.104480
  H      41.273476     17.872159     36.336355
  C      42.430318     19.291587     35.247402
  H      43.095622     18.546905     34.806370
  C      42.812338     20.674665     35.146382
  C      41.776892     21.650950     35.547712
  H      41.933386     22.682634     35.241604
  C      40.698843     21.298010     36.259782
  H      39.977219     22.058575     36.570542
  C      40.393100     19.875188     36.635049
  H      40.363768     19.807875     37.735525
  O      39.139904     19.491814     36.080600
  H      38.461408     19.335563     36.812572
  C      43.702602     21.107280     33.965734
  O      44.789629     20.505331     33.770722
  O      43.297697     22.083174     33.285581
24
Coordinates from ORCA-job neb_MEP_ALL.QMRegion E -1076.502709641794
  C      44.141989     20.664636     36.624551
  H      44.822712     19.882345     36.268673
  H      44.675936     21.612816     36.810696
  C      43.369692     20.263144     37.813813
  C      42.888462     21.332460     38.820310
  O      43.621538     22.330917     38.987843
  O      41.799689     21.094199     39.403706
  O      42.975986     19.104857     37.951343
  C      41.410966     18.919037     36.052639
  H      41.234762     17.866774     36.280938
  C      42.436780     19.287953     35.264579
  H      43.096853     18.541340     34.816520
  C      42.909386     20.692626     35.254253
  C      41.802806     21.654422     35.577140
  H      41.946412     22.684000     35.256496
  C      40.702999     21.297799     36.250755
  H      39.969641     22.057415     36.541494
  C      40.386999     19.874126     36.622079
  H      40.368297     19.797139     37.724235
  O      39.121036     19.513564     36.081756
  H      38.451552     19.349194     36.818906
  C      43.720258     21.108239     33.990511
  O      44.803478     20.504387     33.772726
  O      43.291463     22.064341     33.299330
24
Coordinates from ORCA-job neb_MEP_ALL.QMRegion E -1076.520535301724
  C      44.014030     20.676742     36.516469
  H      44.769860     19.927229     36.261932
  H      44.482626     21.656227     36.628106
  C      43.359105     20.272348     37.810819
  C      42.899644     21.344607     38.817056
  O      43.663780     22.323150     38.966546
  O      41.835293     21.101465     39.438491
  O      43.175866     19.106308     38.089636
  C      41.349910     18.912887     35.946936
  H      41.110664     17.861524     36.080946
  C      42.448670     19.277085     35.281701
  H      43.118414     18.529051     34.851678
  C      42.971663     20.686677     35.333589
  C      41.859392     21.657518     35.639700
  H      42.002529     22.690409     35.329015
  C      40.726551     21.292575     36.244779
  H      39.964401     22.044362     36.464634
  C      40.372745     19.868657     36.577738
  H      40.398418     19.750930     37.678489
  O      39.075471     19.569431     36.083842
  H      38.428095     19.386830     36.837082
  C      43.744488     21.092508     34.034628
  O      44.840498     20.514523     33.801343
  O      43.275004     22.020239     33.336064
24
Coordinates from ORCA-job neb_MEP_ALL.QMRegion E -1076.526823241864
  C      44.006000     20.664000     36.513000
  H      44.788000     19.945000     36.232000
  H      44.445000     21.661000     36.639000
  C      43.394000     20.234000     37.819000
  C      42.925000     21.311000     38.826000
  O      43.668000     22.308000     38.956000
  O      41.861000     21.069000     39.448000
  O      43.248000     19.057000     38.093000
  C      41.216000     18.941000     35.837000
  H      40.885000     17.904000     35.872000
  C      42.369000     19.274000     35.248000
  H      43.006000     18.514000     34.788000
  C      42.943000     20.667000     35.337000
  C      41.847000     21.661000     35.630000
  H      42.039000     22.693000     35.349000
  C      40.691000     21.331000     36.208000
  H      39.952000     22.105000     36.430000
  C      40.297000     19.915000     36.529000
  H      40.387000     19.767000     37.623000
  O      38.960000     19.678000     36.115000
  H      38.356000     19.505000     36.900000
  C      43.723000     21.074000     34.043000
  O      44.827000     20.504000     33.827000
  O      43.257000     21.999000     33.339000
24
Coordinates from ORCA-job neb_MEP_ALL.QMRegion E -1076.506452458426
  C      44.548000     20.393000     37.290000
  H      44.921000     19.659000     36.575000
  H      45.141000     21.280000     37.513000
  C      43.362000     20.252000     37.894000
  C      42.843000     21.307000     38.861000
  O      43.561000     22.317000     39.046000
  O      41.729000     21.090000     39.413000
  O      42.560000     19.150000     37.687000
  C      41.689000     19.080000     36.495000
  H      41.347000     18.036000     36.492000
  C      42.523000     19.394000     35.292000
  H      43.230000     18.641000     34.940000
  C      42.555000     20.645000     34.792000
  C      41.619000     21.654000     35.301000
  H      41.739000     22.662000     34.909000
  C      40.667000     21.365000     36.203000
  H      39.992000     22.151000     36.553000
  C      40.441000     19.968000     36.709000
  H      40.300000     20.009000     37.799000
  O      39.300000     19.403000     36.075000
  H      38.572000     19.274000     36.758000
  C      43.591000     21.118000     33.781000
  O      44.695000     20.512000     33.694000
  O      43.298000     22.166000     33.151000
24
Coordinates from ORCA-job neb_MEP_ALL.QMRegion E -1076.509109934176
  C      44.475860     20.492073     37.137958
  H      44.833580     19.807504     36.370527
  H      45.016061     21.420602     37.316150
  C      43.348136     20.277718     37.827217
  C      42.848232     21.303271     38.836159
  O      43.565792     22.311379     39.029246
  O      41.744647     21.075021     39.406485
  O      42.579628     19.146250     37.656695
  C      41.672249     19.039668     36.471082
  H      41.350333     17.991933     36.500339
  C      42.479339     19.351235     35.253788
  H      43.145666     18.584696     34.853712
  C      42.555621     20.622075     34.810915
  C      41.658661     21.639520     35.374043
  H      41.821042     22.664569     35.048452
  C      40.688232     21.337400     36.251494
  H      40.025907     22.123384     36.623970
  C      40.435493     19.928932     36.715527
  H      40.307049     19.944948     37.808250
  O      39.278863     19.399045     36.086374
  H      38.554050     19.278671     36.772779
  C      43.590617     21.105352     33.806032
  O      44.702930     20.512435     33.723161
  O      43.295474     22.154056     33.178948
24
Coordinates from ORCA-job neb_MEP_ALL.QMRegion E -1076.503761695704
  C      44.414552     20.561718     37.018046
  H      44.805501     19.873670     36.271713
  H      44.867289     21.551044     37.093908
  C      43.344923     20.282965     37.783209
  C      42.857814     21.307421     38.807279
  O      43.582102     22.311848     39.004608
  O      41.763396     21.077413     39.394721
  O      42.600496     19.128090     37.631112
  C      41.655041     18.996089     36.428467
  H      41.346803     17.940530     36.458092
  C      42.458522     19.326720     35.224881
  H      43.102308     18.558774     34.792117
  C      42.601503     20.622205     34.875418
  C      41.709021     21.634236     35.456975
  H      41.889154     22.669112     35.174938
  C      40.696885     21.310247     36.276037
  H      40.003712     22.080698     36.622470
  C      40.421173     19.895501     36.699914
  H      40.327308     19.872138     37.794169
  O      39.228436     19.427493     36.089182
  H      38.514528     19.308149     36.792073
  C      43.624948     21.102894     33.865382
  O      44.737462     20.514035     33.761777
  O      43.306386     22.138330     33.229227
24
Coordinates from ORCA-job neb_MEP_ALL.QMRegion E -1076.493737834576
  C      44.392185     20.589540     36.970528
  H      44.811408     19.881162     36.260502
  H      44.815432     21.592498     37.002304
  C      43.363713     20.278256     37.794198
  C      42.868448     21.314843     38.805511
  O      43.590410     22.321861     38.999265
  O      41.771868     21.086923     39.391062
  O      42.668941     19.122372     37.679161
  C      41.602339     18.970705     36.345207
  H      41.331007     17.910239     36.423363
  C      42.448470     19.316607     35.218970
  H      43.097503     18.555558     34.786314
  C      42.647905     20.630355     34.937559
  C      41.735703     21.638848     35.492522
  H      41.917060     22.675603     35.215553
  C      40.697749     21.304490     36.273368
  H      39.989520     22.068909     36.601640
  C      40.410394     19.887668     36.677556
  H      40.343412     19.845116     37.772432
  O      39.194555     19.453793     36.085701
  H      38.490857     19.323087     36.800399
  C      43.654482     21.101679     33.902630
  O      44.763089     20.513492     33.777832
  O      43.313042     22.122056     33.253914
24
Coordinates from ORCA-job neb_MEP_ALL.QMRegion E -1076.486101485257
  C      44.371349     20.610681     36.927601
  H      44.818928     19.881584     36.256252
  H      44.795483     21.613245     36.961355
  C      43.379325     20.271179     37.811217
  C      42.874307     21.323262     38.809035
  O      43.595703     22.330946     38.999517
  O      41.776145     21.092339     39.389641
  O      42.757208     19.120437     37.758400
  C      41.535365     18.950404     36.248579
  H      41.315953     17.891673     36.400302
  C      42.435790     19.306868     35.220353
  H      43.094233     18.552680     34.788654
  C      42.679529     20.640736     34.983408
  C      41.745913     21.642085     35.507280
  H      41.923400     22.677775     35.225917
  C      40.696542     21.301708     36.269883
  H      39.987101     22.064998     36.597961
  C      40.402597     19.882901     36.660820
  H      40.353608     19.829635     37.757915
  O      39.172523     19.466422     36.082530
  H      38.478652     19.326318     36.805292
  C      43.669548     21.104401     33.922851
  O      44.769761     20.509557     33.776286
  O      43.308230     22.111134     33.263241
24
Coordinates from ORCA-job neb_MEP_ALL.QMRegion E -1076.483948039110
  C      44.335743     20.631635     36.866528
  H      44.829907     19.878208     36.258088
  H      44.774250     21.627126     36.921674
  C      43.391346     20.266385     37.826208
  C      42.878259     21.330869     38.813069
  O      43.601439     22.337362     38.998887
  O      41.781041     21.097143     39.390835
  O      42.846691     19.117213     37.837880
  C      41.475668     18.933082     36.162059
  H      41.297079     17.879064     36.372133
  C      42.428119     19.298296     35.230269
  H      43.094579     18.551151     34.797437
  C      42.725168     20.655968     35.044728
  C      41.756346     21.646865     35.522326
  H      41.926479     22.681116     35.232910
  C      40.695118     21.299661     36.265238
  H      39.983006     22.061971     36.591070
  C      40.395037     19.878010     36.644268
  H      40.361147     19.816577     37.743663
  O      39.151629     19.479541     36.080125
  H      38.467545     19.329732     36.809534
  C      43.683601     21.106435     33.942450
  O      44.777178     20.507186     33.774171
  O      43.303823     22.100347     33.273542
24
Coordinates from ORCA-job neb_MEP_ALL.QMRegion E -1076.488237109128
  C      44.244601     20.651252     36.748914
  H      44.832299     19.873625     36.260815
  H      44.732650     21.623633     36.870339
  C      43.381277     20.263255     37.823332
  C      42.880101     21.332503     38.814975
  O      43.611683     22.333062     38.993120
  O      41.788586     21.095445     39.396894
  O      42.911905     19.113826     37.895915
  C      41.440058     18.923262     36.103116
  H      41.273975     17.871793     36.336255
  C      42.430107     19.291373     35.247027
  H      43.095789     18.546925     34.806435
  C      42.811856     20.674891     35.146733
  C      41.776677     21.651259     35.548596
  H      41.933304     22.682582     35.241893
  C      40.698903     21.297668     36.259751
  H      39.977475     22.057716     36.570761
  C      40.393180     19.875187     36.634681
  H      40.364329     19.807138     37.735461
  O      39.139191     19.491459     36.079901
  H      38.461376     19.335153     36.812883
  C      43.702699     21.107290     33.966520
  O      44.789967     20.505394     33.770512
  O      43.297733     22.082783     33.286208
24
Coordinates from ORCA-job neb_MEP_ALL.QMRegion E -1076.502323823226
  C      44.149101     20.663542     36.634903
  H      44.822612     19.881113     36.267131
  H      44.679674     21.613309     36.814392
  C      43.367104     20.261329     37.814640
  C      42.885117     21.332595     38.817339
  O      43.622004     22.329065     38.988175
  O      41.798825     21.093902     39.403773
  O      42.971938     19.110489     37.946803
  C      41.413606     18.919045     36.057260
  H      41.242295     17.868245     36.288706
  C      42.436334     19.287587     35.263333
  H      43.097352     18.542719     34.815931
  C      42.901015     20.690304     35.246711
  C      41.801536     21.654683     35.577236
  H      41.943746     22.684050     35.254315
  C      40.705023     21.296819     36.253730
  H      39.971566     22.054967     36.544553
  C      40.389976     19.873658     36.623834
  H      40.367915     19.798056     37.725255
  O      39.124979     19.508474     36.081649
  H      38.453051     19.345490     36.817646
  C      43.719060     21.106924     33.988136
  O      44.802904     20.504857     33.771294
  O      43.291189     22.065867     33.299113
24
Coordinates from ORCA-job neb_MEP_ALL.QMRegion E -1076.520839697361
  C      44.018970     20.676526     36.523061
  H      44.773242     19.927864     36.261260
  H      44.481607     21.659899     36.628578
  C      43.361012     20.275007     37.810467
  C      42.902082     21.343534     38.819648
  O      43.663156     22.325252     38.966070
  O      41.835698     21.102739     39.438294
  O      43.177681     19.105035     38.090072
  C      41.347458     18.912090     35.944250
  H      41.107535     17.860525     36.076863
  C      42.447169     19.276036     35.279935
  H      43.119049     18.528067     34.851921
  C      42.966644     20.686116     35.328058
  C      41.857093     21.656702     35.636304
  H      42.005160     22.688980     35.332472
  C      40.725161     21.293497     36.242388
  H      39.963637     22.045331     36.464032
  C      40.372127     19.869040     36.575985
  H      40.399325     19.748935     37.677337
  O      39.073491     19.572275     36.083616
  H      38.427078     19.388535     36.837686
  C      43.743968     21.092416     34.034462
  O      44.840127     20.513866     33.803920
  O      43.275630     22.020875     33.334969
24
Coordinates from ORCA-job neb_MEP_ALL.QMRegion E -1076.526823241864
  C      44.006000     20.664000     36.513000
  H      44.788000     19.945000     36.232000
  H      44.445000     21.661000     36.639000
  C      43.394000     20.234000     37.819000
  C      42.925000     21.311000     38.826000
  O      43.668000     22.308000     38.956000
  O      41.861000     21.069000     39.448000
  O      43.248000     19.057000     38.093000
  C      41.216000     18.941000     35.837000
  H      40.885000     17.904000     35.872000
  C      42.369000     19.274000     35.248000
  H      43.006000     18.514000     34.788000
  C      42.943000     20.667000     35.337000
  C      41.847000     21.661000     35.630000
  H      42.039000     22.693000     35.349000
  C      40.691000     21.331000     36.208000
  H      39.952000     22.105000     36.430000
  C      40.297000     19.915000     36.529000
  H      40.387000     19.767000     37.623000
  O      38.960000     19.678000     36.115000
  H      38.356000     19.505000     36.900000
  C      43.723000     21.074000     34.043000
  O      44.827000     20.504000     33.827000
  O      43.257000     21.999000     33.339000
24
Coordinates from ORCA-job neb_MEP_ALL.QMRegion E -1076.506452458426
  C      44.548000     20.393000     37.290000
  H      44.921000     19.659000     36.575000
  H      45.141000     21.280000     37.513000
  C      43.362000     20.252000     37.894000
  C      42.843000     21.307000     38.861000
  O      43.561000     22.317000     39.046000
  O      41.729000     21.090000     39.413000
  O      42.560000     19.150000     37.687000
  C      41.689000     19.080000     36.495000
  H      41.347000     18.036000     36.492000
  C      42.523000     19.394000     35.292000
  H      43.230000     18.641000     34.940000
  C      42.555000     20.645000     34.792000
  C      41.619000     21.654000     35.301000
  H      41.739000     22.662000     34.909000
  C      40.667000     21.365000     36.203000
  H      39.992000     22.151000     36.553000
  C      40.441000     19.968000     36.709000
  H      40.300000     20.009000     37.799000
  O      39.300000     19.403000     36.075000
  H      38.572000     19.274000     36.758000
  C      43.591000     21.118000     33.781000
  O      44.695000     20.512000     33.694000
  O      43.298000     22.166000     33.151000
24
Coordinates from ORCA-job neb_MEP_ALL.QMRegion E -1076.509110907029
  C      44.477023     20.492125     37.137952
  H      44.834027     19.807668     36.370914
  H      45.016822     21.420348     37.317213
  C      43.347567     20.277415     37.827933
  C      42.847976     21.303420     38.836040
  O      43.566081     22.311353     39.029383
  O      41.744816     21.074779     39.406413
  O      42.579885     19.146395     37.656357
  C      41.672582     19.039644     36.471244
  H      41.350229     17.991706     36.500416
  C      42.479375     19.351518     35.253468
  H      43.145619     18.584812     34.853847
  C      42.555433     20.622120     34.810778
  C      41.658093     21.639552     35.373703
  H      41.820190     22.664495     35.047588
  C      40.687968     21.337474     36.251675
  H      40.026221     22.123242     36.624269
  C      40.435008     19.929425     36.715538
  H      40.307146     19.944847     37.808345
  O      39.278852     19.398885     36.086470
  H      38.554082     19.278670     36.772785
  C      43.589971     21.105090     33.805526
  O      44.702273     20.512404     33.722662
  O      43.295006     22.154210     33.178962
24
Coordinates from ORCA-job neb_MEP_ALL.QMRegion E -1076.503826438262
  C      44.413863     20.561996     37.016983
  H      44.804958     19.874281     36.270552
  H      44.865532     21.552214     37.091792
  C      43.344177     20.282203     37.782435
  C      42.858175     21.307120     38.807070
  O      43.581952     22.312039     39.003857
  O      41.763632     21.077716     39.394419
  O      42.599626     19.129175     37.628378
  C      41.656029     18.995520     36.429175
  H      41.347274     17.940210     36.458125
  C      42.458388     19.326422     35.224948
  H      43.101964     18.558843     34.791291
  C      42.602103     20.621625     34.876551
  C      41.710361     21.634638     35.458027
  H      41.890720     22.669602     35.177132
  C      40.696501     21.309716     36.276256
  H      40.003454     22.080480     36.621958
  C      40.421679     19.894679     36.699671
  H      40.327411     19.871945     37.793936
  O      39.228378     19.427608     36.089220
  H      38.514232     19.308718     36.792184
  C      43.625729     21.102489     33.865708
  O      44.738768     20.514513     33.763114
  O      43.307115     22.138259     33.229915
24
Coordinates from ORCA-job neb_MEP_ALL.QMRegion E -1076.493410817251
  C      44.390278     20.591038     36.968052
  H      44.810917     19.882619     36.258777
  H      44.813770     21.593827     37.000702
  C      43.364347     20.278416     37.794561
  C      42.868741     21.315145     38.805891
  O      43.590833     22.322316     38.998589
  O      41.771703     21.086710     39.390601
  O      42.672287     19.122638     37.680790
  C      41.599942     18.969605     36.342099
  H      41.330615     17.909222     36.422872
  C      42.447078     19.316079     35.218595
  H      43.096338     18.555110     34.785248
  C      42.648529     20.630025     34.939270
  C      41.736432     21.638939     35.493042
  H      41.917471     22.675316     35.216884
  C      40.697508     21.304046     36.273768
  H      39.990312     22.068762     36.603191
  C      40.410420     19.886912     36.676887
  H      40.343780     19.844220     37.771727
  O      39.193747     19.453564     36.085802
  H      38.490375     19.322698     36.800688
  C      43.654682     21.101783     33.902848
  O      44.762833     20.513238     33.777666
  O      43.312396     22.121698     33.254002
24
Coordinates from ORCA-job neb_MEP_ALL.QMRegion E -1076.485838244243
  C      44.369723     20.611571     36.925099
  H      44.819328     19.881669     36.256222
  H      44.794742     21.613471     36.960751
  C      43.379627     20.270914     37.811672
  C      42.874415     21.323523     38.809068
  O      43.595983     22.331152     38.999299
  O      41.776262     21.092428     39.389557
  O      42.760505     19.120344     37.760947
  C      41.533145     18.949658     36.245451
  H      41.315433     17.891179     36.399402
  C      42.435498     19.306576     35.220753
  H      43.094043     18.552627     34.788688
  C      42.681012     20.641285     34.985654
  C      41.746517     21.642402     35.507597
  H      41.923104     22.677747     35.226039
  C      40.696203     21.301484     36.269975
  H      39.987341     22.064857     36.598436
  C      40.402445     19.882490     36.660246
  H      40.353813     19.829113     37.757434
  O      39.171962     19.466335     36.082520
  H      38.478404     19.326091     36.805448
  C      43.669808     21.104425     33.923296
  O      44.769753     20.509462     33.775801
  O      43.307717     22.110773     33.263412
24
Coordinates from ORCA-job neb_MEP_ALL.QMRegion E -1076.483956222022
  C      44.336556     20.631524     36.867481
  H      44.829927     19.878539     36.257914
  H      44.774589     21.627276     36.922198
  C      43.391502     20.266231     37.826169
  C      42.878330     21.330854     38.812935
  O      43.601364     22.337422     38.998948
  O      41.781057     21.097144     39.390660
  O      42.846052     19.117117     37.837099
  C      41.475966     18.933072     36.162504
  H      41.297200     17.879001     36.372126
  C      42.428055     19.298312     35.229893
  H      43.094491     18.551144     34.797113
  C      42.724474     20.655789     35.043915
  C      41.756287     21.646825     35.522092
  H      41.926462     22.681060     35.233067
  C      40.694925     21.299493     36.265451
  H      39.983077     22.061840     36.591340
  C      40.394985     19.877837     36.644258
  H      40.361229     19.816431     37.743669
  O      39.151561     19.479366     36.080080
  H      38.467514     19.329758     36.809640
  C      43.683365     21.106347     33.942155
  O      44.776973     20.507222     33.774229
  O      43.303825     22.100585     33.273448
24
Coordinates from ORCA-job neb_MEP_ALL.QMRegion E -1076.488313064661
  C      44.246885     20.650994     36.751063
  H      44.832478     19.873995     36.260619
  H      44.733270     21.623921     36.870740
  C      43.382108     20.263398     37.823278
  C      42.879956     21.332672     38.814933
  O      43.611573     22.333245     38.993099
  O      41.788276     21.095515     39.396738
  O      42.911909     19.114027     37.895648
  C      41.440416     18.923099     36.103513
  H      41.274809     17.871709     36.336858
  C      42.429792     19.291393     35.246442
  H      43.095921     18.547001     34.806221
  C      42.810139     20.674486     35.144927
  C      41.776452     21.651172     35.548247
  H      41.933088     22.682621     35.241973
  C      40.698726     21.297297     36.260000
  H      39.977494     22.057351     36.571511
  C      40.392776     19.874543     36.634527
  H      40.364675     19.806716     37.735256
  O      39.139186     19.491065     36.080000
  H      38.461587     19.334718     36.812730
  C      43.702413     21.107081     33.966304
  O      44.789709     20.505451     33.770703
  O      43.297834     22.083099     33.286336
24
Coordinates from ORCA-job neb_MEP_ALL.QMRegion E -1076.500886155510
  C      44.151426     20.663516     36.637143
  H      44.822663     19.880240     36.266508
  H      44.681136     21.613845     36.815596
  C      43.366470     20.261883     37.814642
  C      42.882966     21.332834     38.816707
  O      43.622519     22.328420     38.988027
  O      41.798163     21.093856     39.403719
  O      42.969811     19.111481     37.945835
  C      41.414893     18.918746     36.059190
  H      41.246480     17.868238     36.293100
  C      42.436276     19.287700     35.262601
  H      43.097905     18.543216     34.815673
  C      42.898982     20.690104     35.244158
  C      41.801577     21.654811     35.577136
  H      41.942287     22.683965     35.253393
  C      40.705824     21.296021     36.255467
  H      39.972302     22.053574     36.546476
  C      40.390704     19.872854     36.624891
  H      40.368034     19.798170     37.726074
  O      39.127318     19.505719     36.081567
  H      38.454269     19.343250     36.816880
  C      43.718441     21.106538     33.987723
  O      44.802391     20.505188     33.770457
  O      43.291085     22.066188     33.299314
24
Coordinates from ORCA-job neb_MEP_ALL.QMRegion E -1076.521058944628
  C      44.021675     20.677173     36.524614
  H      44.777511     19.927354     36.260991
  H      44.484962     21.662085     36.633052
  C      43.363632     20.277317     37.812794
  C      42.903190     21.343787     38.820324
  O      43.661963     22.326371     38.966472
  O      41.835559     21.103056     39.437831
  O      43.174593     19.102693     38.087446
  C      41.346967     18.911708     35.943983
  H      41.107355     17.859840     36.077566
  C      42.445831     19.275207     35.277764
  H      43.118764     18.527745     34.851497
  C      42.965266     20.684601     35.326537
  C      41.854227     21.655340     35.632525
  H      42.006251     22.689050     35.333276
  C      40.722911     21.293545     36.241056
  H      39.963221     22.046362     36.465154
  C      40.371282     19.869542     36.575443
  H      40.399494     19.748387     37.676653
  O      39.072685     19.573400     36.083576
  H      38.426714     19.389235     36.837714
  C      43.742654     21.092510     34.032907
  O      44.839117     20.513426     33.805300
  O      43.276911     22.022158     33.333352
24
Coordinates from ORCA-job neb_MEP_ALL.QMRegion E -1076.526823241864
  C      44.006000     20.664000     36.513000
  H      44.788000     19.945000     36.232000
  H      44.445000     21.661000     36.639000
  C      43.394000     20.234000     37.819000
  C      42.925000     21.311000     38.826000
  O      43.668000     22.308000     38.956000
  O      41.861000     21.069000     39.448000
  O      43.248000     19.057000     38.093000
  C      41.216000     18.941000     35.837000
  H      40.885000     17.904000     35.872000
  C      42.369000     19.274000     35.248000
  H      43.006000     18.514000     34.788000
  C      42.943000     20.667000     35.337000
  C      41.847000     21.661000     35.630000
  H      42.039000     22.693000     35.349000
  C      40.691000     21.331000     36.208000
  H      39.952000     22.105000     36.430000
  C      40.297000     19.915000     36.529000
  H      40.387000     19.767000     37.623000
  O      38.960000     19.678000     36.115000
  H      38.356000     19.505000     36.900000
  C      43.723000     21.074000     34.043000
  O      44.827000     20.504000     33.827000
  O      43.257000     21.999000     33.339000
24
Coordinates from ORCA-job neb_MEP_ALL.QMRegion E -1076.506452458426
  C      44.548000     20.393000     37.290000
  H      44.921000     19.659000     36.575000
  H      45.141000     21.280000     37.513000
  C      43.362000     20.252000     37.894000
  C      42.843000     21.307000     38.861000
  O      43.561000     22.317000     39.046000
  O      41.729000     21.090000     39.413000
  O      42.560000     19.150000     37.687000
  C      41.689000     19.080000     36.495000
  H      41.347000     18.036000     36.492000
  C      42.523000     19.394000     35.292000
  H      43.230000     18.641000     34.940000
  C      42.555000     20.645000     34.792000
  C      41.619000     21.654000     35.301000
  H      41.739000     22.662000     34.909000
  C      40.667000     21.365000     36.203000
  H      39.992000     22.151000     36.553000
  C      40.441000     19.968000     36.709000
  H      40.300000     20.009000     37.799000
  O      39.300000     19.403000     36.075000
  H      38.572000     19.274000     36.758000
  C      43.591000     21.118000     33.781000
  O      44.695000     20.512000     33.694000
  O      43.298000     22.166000     33.151000
24
Coordinates from ORCA-job neb_MEP_ALL.QMRegion E -1076.509141470951
  C      44.477912     20.492077     37.139218
  H      44.835432     19.807714     36.371576
  H      45.019215     21.420268     37.319950
  C      43.347954     20.276452     37.828729
  C      42.847779     21.303979     38.835851
  O      43.566565     22.311412     39.029817
  O      41.745009     21.074369     39.406345
  O      42.579070     19.146565     37.653779
  C      41.674821     19.039513     36.473769
  H      41.349905     17.991160     36.500473
  C      42.479107     19.351877     35.252663
  H      43.145516     18.585167     34.854204
  C      42.554994     20.622359     34.809982
  C      41.656720     21.639482     35.372836
  H      41.817971     22.664361     35.045364
  C      40.687495     21.337785     36.251890
  H      40.026718     22.123204     36.625190
  C      40.434021     19.930242     36.715615
  H      40.307491     19.944579     37.808505
  O      39.278582     19.398527     36.086445
  H      38.554032     19.278652     36.772954
  C      43.588751     21.105189     33.804707
  O      44.700602     20.511816     33.721297
  O      43.293444     22.154597     33.178762
24
Coordinates from ORCA-job neb_MEP_ALL.QMRegion E -1076.503765820075
  C      44.411672     20.562644     37.014611
  H      44.803585     19.876050     36.267215
  H      44.860876     21.554819     37.086522
  C      43.342371     20.281710     37.779873
  C      42.859031     21.306147     38.806427
  O      43.581786     22.312111     39.001705
  O      41.764063     21.078112     39.393653
  O      42.599579     19.131534     37.624647
  C      41.656501     18.994372     36.428170
  H      41.348603     17.939717     36.458227
  C      42.458057     19.324868     35.225631
  H      43.100801     18.559171     34.789049
  C      42.603422     20.620277     34.878674
  C      41.713073     21.634862     35.461275
  H      41.894691     22.671020     35.182682
  C      40.696702     21.308579     36.276247
  H      40.002734     22.079938     36.620988
  C      40.422855     19.892612     36.699121
  H      40.327602     19.871389     37.793419
  O      39.228146     19.427642     36.089424
  H      38.513620     19.310048     36.792391
  C      43.628123     21.102324     33.867170
  O      44.741875     20.515106     33.766324
  O      43.308462     22.137976     33.231316
24
Coordinates from ORCA-job neb_MEP_ALL.QMRegion E -1076.493044105206
  C      44.386096     20.595033     36.961606
  H      44.809871     19.885639     36.254486
  H      44.810173     21.598096     36.996652
  C      43.364966     20.278131     37.794704
  C      42.869571     21.316092     38.806597
  O      43.591758     22.323808     38.997560
  O      41.771634     21.086500     39.389581
  O      42.680310     19.121546     37.686260
  C      41.593636     18.966993     36.333978
  H      41.329687     17.906915     36.421562
  C      42.444268     19.314401     35.217890
  H      43.093476     18.554019     34.782737
  C      42.649846     20.630080     34.942324
  C      41.737920     21.638669     35.495385
  H      41.918417     22.674935     35.219855
  C      40.697713     21.303161     36.273984
  H      39.991996     22.068400     36.606943
  C      40.410006     19.884980     36.675348
  H      40.344776     19.841884     37.770319
  O      39.191697     19.452988     36.085611
  H      38.489180     19.321810     36.801603
  C      43.656208     21.103029     33.905120
  O      44.762325     20.511836     33.776718
  O      43.309930     22.120395     33.254024
24
Coordinates from ORCA-job neb_MEP_ALL.QMRegion E -1076.485694977234
  C      44.366600     20.613488     36.920068
  H      44.820110     19.881928     36.256039
  H      44.793260     21.614265     36.959574
  C      43.380325     20.270161     37.812322
  C      42.874732     21.324029     38.809025
  O      43.596422     22.331606     38.998932
  O      41.776592     21.092811     39.389371
  O      42.767569     19.119883     37.766752
  C      41.528185     18.947986     36.238276
  H      41.314374     17.890013     36.397523
  C      42.434744     19.305896     35.221574
  H      43.093570     18.552514     34.788647
  C      42.684028     20.642540     34.990003
  C      41.747232     21.642694     35.508736
  H      41.922450     22.677831     35.226257
  C      40.696167     21.301093     36.269795
  H      39.987752     22.064644     36.599727
  C      40.402012     19.881413     36.659080
  H      40.354294     19.827916     37.756496
  O      39.170731     19.465971     36.082411
  H      38.477912     19.325531     36.805839
  C      43.670490     21.104711     33.924407
  O      44.769631     20.509089     33.774613
  O      43.306390     22.109920     33.263733
24
Coordinates from ORCA-job neb_MEP_ALL.QMRegion E -1076.483957478641
  C      44.338603     20.631220     36.869907
  H      44.829991     19.879424     36.257477
  H      44.775397     21.627525     36.923575
  C      43.391887     20.266018     37.825959
  C      42.878581     21.330637     38.812711
  O      43.601124     22.337517     38.999018
  O      41.781075     21.097196     39.390177
  O      42.844499     19.116970     37.835126
  C      41.476716     18.933053     36.163537
  H      41.297511     17.878822     36.372094
  C      42.427849     19.298331     35.229073
  H      43.094260     18.551128     34.796255
  C      42.722656     20.655312     35.041750
  C      41.755837     21.646542     35.521767
  H      41.926415     22.680950     35.233458
  C      40.694785     21.299142     36.265695
  H      39.983214     22.061535     36.592078
  C      40.394909     19.877437     36.644267
  H      40.361399     19.816018     37.743632
  O      39.151422     19.478903     36.080085
  H      38.467415     19.329813     36.809865
  C      43.682736     21.106343     33.941518
  O      44.776494     20.507253     33.774283
  O      43.303834     22.101072     33.273195
24
Coordinates from ORCA-job neb_MEP_ALL.QMRegion E -1076.488187636406
  C      44.253684     20.650250     36.757939
  H      44.832863     19.875014     36.260146
  H      44.735379     21.624632     36.872378
  C      43.384209     20.263687     37.822891
  C      42.879921     21.332739     38.814730
  O      43.610851     22.333824     38.993282
  O      41.787630     21.095978     39.396166
  O      42.910892     19.114307     37.894215
  C      41.441769     18.922749     36.105397
  H      41.277105     17.871542     36.338707
  C      42.429127     19.291457     35.244813
  H      43.096167     18.547279     34.805543
  C      42.805035     20.673182     35.139119
  C      41.775430     21.650650     35.547041
  H      41.932493     22.682725     35.242108
  C      40.698445     21.296386     36.260545
  H      39.977458     22.056609     36.573690
  C      40.391858     19.872900     36.634285
  H      40.365430     19.805722     37.734732
  O      39.139553     19.489967     36.080234
  H      38.462013     19.333562     36.812364
  C      43.701249     21.106731     33.965286
  O      44.789001     20.505448     33.771293
  O      43.298174     22.084148     33.286438
24
Coordinates from ORCA-job neb_MEP_ALL.QMRegion E -1076.500349664309
  C      44.154737     20.663843     36.638943
  H      44.822745     19.878460     36.265474
  H      44.683611     21.615082     36.817216
  C      43.365137     20.262682     37.814282
  C      42.879890     21.334092     38.815623
  O      43.623106     22.326938     38.987493
  O      41.795796     21.093882     39.403959
  O      42.966203     19.113589     37.944882
  C      41.417962     18.917912     36.062608
  H      41.255484     17.867496     36.302500
  C      42.436127     19.288126     35.261258
  H      43.099332     18.544095     34.815197
  C      42.897044     20.690345     35.240561
  C      41.801471     21.654682     35.577322
  H      41.939235     22.683852     35.251697
  C      40.707907     21.294236     36.258736
  H      39.973495     22.050617     36.550876
  C      40.391924     19.870623     36.627201
  H      40.368580     19.797891     37.728090
  O      39.131832     19.499800     36.081576
  H      38.457379     19.338261     36.815001
  C      43.717353     21.106161     33.987417
  O      44.801242     20.505753     33.768740
  O      43.290755     22.066627     33.299954
24
Coordinates from ORCA-job neb_MEP_ALL.QMRegion E -1076.521174201110
  C      44.028808     20.679202     36.527102
  H      44.788298     19.926230     36.260842
  H      44.496197     21.665996     36.646887
  C      43.369775     20.276982     37.819263
  C      42.904220     21.344360     38.822040
  O      43.659128     22.329665     38.968129
  O      41.835269     21.103455     39.435932
  O      43.164332     19.101669     38.077708
  C      41.346594     18.910908     35.944911
  H      41.108929     17.858384     36.082672
  C      42.442628     19.273345     35.272437
  H      43.117564     18.526999     34.849728
  C      42.962909     20.681301     35.323925
  C      41.846795     21.651965     35.622984
  H      42.007824     22.689292     35.333704
  C      40.717277     21.293475     36.237864
  H      39.962246     22.049079     36.469271
  C      40.369236     19.870506     36.574744
  H      40.399415     19.747946     37.675359
  O      39.071229     19.575017     36.083406
  H      38.426114     19.390309     36.837482
  C      43.739372     21.092519     34.028738
  O      44.836118     20.512409     33.807705
  O      43.280292     22.025930     33.328763
24
Coordinates from ORCA-job neb_MEP_ALL.QMRegion E -1076.526823241864
  C      44.006000     20.664000     36.513000
  H      44.788000     19.945000     36.232000
  H      44.445000     21.661000     36.639000
  C      43.394000     20.234000     37.819000
  C      42.925000     21.311000     38.826000
  O      43.668000     22.308000     38.956000
  O      41.861000     21.069000     39.448000
  O      43.248000     19.057000     38.093000
  C      41.216000     18.941000     35.837000
  H      40.885000     17.904000     35.872000
  C      42.369000     19.274000     35.248000
  H      43.006000     18.514000     34.788000
  C      42.943000     20.667000     35.337000
  C      41.847000     21.661000     35.630000
  H      42.039000     22.693000     35.349000
  C      40.691000     21.331000     36.208000
  H      39.952000     22.105000     36.430000
  C      40.297000     19.915000     36.529000
  H      40.387000     19.767000     37.623000
  O      38.960000     19.678000     36.115000
  H      38.356000     19.505000     36.900000
  C      43.723000     21.074000     34.043000
  O      44.827000     20.504000     33.827000
  O      43.257000     21.999000     33.339000
24
Coordinates from ORCA-job neb_MEP_ALL.QMRegion E -1076.506452458426
  C      44.548000     20.393000     37.290000
  H      44.921000     19.659000     36.575000
  H      45.141000     21.280000     37.513000
  C      43.362000     20.252000     37.894000
  C      42.843000     21.307000     38.861000
  O      43.561000     22.317000     39.046000
  O      41.729000     21.090000     39.413000
  O      42.560000     19.150000     37.687000
  C      41.689000     19.080000     36.495000
  H      41.347000     18.036000     36.492000
  C      42.523000     19.394000     35.292000
  H      43.230000     18.641000     34.940000
  C      42.555000     20.645000     34.792000
  C      41.619000     21.654000     35.301000
  H      41.739000     22.662000     34.909000
  C      40.667000     21.365000     36.203000
  H      39.992000     22.151000     36.553000
  C      40.441000     19.968000     36.709000
  H      40.300000     20.009000     37.799000
  O      39.300000     19.403000     36.075000
  H      38.572000     19.274000     36.758000
  C      43.591000     21.118000     33.781000
  O      44.695000     20.512000     33.694000
  O      43.298000     22.166000     33.151000
24
Coordinates from ORCA-job neb_MEP_ALL.QMRegion E -1076.509231357155
  C      44.478045     20.492119     37.142283
  H      44.837759     19.808383     36.372608
  H      45.022468     21.419663     37.324113
  C      43.350912     20.276809     37.827492
  C      42.848831     21.303593     38.835941
  O      43.566565     22.311416     39.030250
  O      41.744938     21.074467     39.406302
  O      42.578111     19.146028     37.650855
  C      41.675799     19.040122     36.475954
  H      41.349884     17.991337     36.500560
  C      42.478089     19.351779     35.252877
  H      43.145528     18.585591     34.854127
  C      42.553069     20.622483     34.808645
  C      41.655032     21.639468     35.371261
  H      41.814133     22.663908     35.042005
  C      40.687116     21.337818     36.251747
  H      40.026657     22.124147     36.627247
  C      40.435051     19.928675     36.716112
  H      40.307650     19.944176     37.808859
  O      39.278238     19.398327     36.086446
  H      38.553497     19.278601     36.773429
  C      43.586819     21.106198     33.803916
  O      44.698131     20.510547     33.718552
  O      43.290901     22.155566     33.177888
24
Coordinates from ORCA-job neb_MEP_ALL.QMRegion E -1076.503540563556
  C      44.408038     20.565912     37.007844
  H      44.800915     19.880090     36.260644
  H      44.851888     21.559326     37.076756
  C      43.341944     20.285006     37.776137
  C      42.859071     21.306095     38.804064
  O      43.582883     22.311834     38.998454
  O      41.764512     21.077470     39.392792
  O      42.603061     19.129919     37.627303
  C      41.652711     18.993386     36.421611
  H      41.350031     17.936560     36.457861
  C      42.457094     19.323165     35.223600
  H      43.098412     18.558290     34.784578
  C      42.606862     20.620347     34.881720
  C      41.717161     21.634268     35.467102
  H      41.901398     22.671837     35.192946
  C      40.698759     21.307522     36.276183
  H      40.002455     22.077631     36.620333
  C      40.421707     19.891245     36.697545
  H      40.328755     19.869191     37.792015
  O      39.226772     19.426959     36.089613
  H      38.512686     19.311904     36.792970
  C      43.631689     21.102775     33.872656
  O      44.746121     20.515545     33.770591
  O      43.309985     22.135761     33.233688
24
Coordinates from ORCA-job neb_MEP_ALL.QMRegion E -1076.492162154953
  C      44.381373     20.601244     36.952557
  H      44.808302     19.889939     36.248932
  H      44.804941     21.604240     36.990816
  C      43.365757     20.276465     37.794096
  C      42.870570     21.316923     38.805219
  O      43.591814     22.325114     38.997624
  O      41.773171     21.087851     39.388744
  O      42.691869     19.119427     37.695643
  C      41.584985     18.963197     36.321151
  H      41.328045     17.902768     36.419371
  C      42.441651     19.312245     35.215839
  H      43.089279     18.552657     34.779589
  C      42.652803     20.631391     34.946552
  C      41.738812     21.637817     35.499584
  H      41.919618     22.675083     35.223561
  C      40.698056     21.301718     36.274684
  H      39.994615     22.067143     36.612092
  C      40.407827     19.883383     36.673488
  H      40.346285     19.838144     37.768735
  O      39.188381     19.451744     36.085597
  H      38.488025     19.320592     36.802640
  C      43.656505     21.103417     33.908648
  O      44.762045     20.510651     33.774617
  O      43.306945     22.118143     33.254758
24
Coordinates from ORCA-job neb_MEP_ALL.QMRegion E -1076.485409731204
  C      44.364583     20.615374     36.916359
  H      44.820890     19.882514     36.255113
  H      44.792123     21.615848     36.959204
  C      43.381251     20.269192     37.812850
  C      42.874862     21.324232     38.808677
  O      43.596682     22.332020     38.998572
  O      41.777252     21.093484     39.388802
  O      42.775044     19.119119     37.773225
  C      41.522521     18.945901     36.229534
  H      41.313545     17.888078     36.395750
  C      42.433572     19.305245     35.221638
  H      43.092774     18.552443     34.788098
  C      42.686418     20.643481     34.993314
  C      41.746831     21.642540     35.510297
  H      41.921558     22.678104     35.226435
  C      40.696404     21.300448     36.269840
  H      39.988615     22.064095     36.602012
  C      40.401389     19.880449     36.657969
  H      40.354954     19.826266     37.755637
  O      39.169337     19.464761     36.082335
  H      38.477586     19.324564     36.806314
  C      43.670789     21.105298     33.925222
  O      44.768986     20.508595     33.772897
  O      43.304678     22.108962     33.263942
24
Coordinates from ORCA-job neb_MEP_ALL.QMRegion E -1076.483963404891
  C      44.341997     20.630678     36.873971
  H      44.830266     19.880938     36.256600
  H      44.776766     21.627833     36.926163
  C      43.392488     20.265988     37.825554
  C      42.878975     21.330112     38.812548
  O      43.600854     22.337525     38.998918
  O      41.780986     21.097134     39.389237
  O      42.842066     19.116855     37.831835
  C      41.477946     18.932827     36.164979
  H      41.298028     17.878447     36.371940
  C      42.427538     19.298505     35.227781
  H      43.093772     18.551112     34.794653
  C      42.719390     20.654294     35.037877
  C      41.754711     21.645908     35.521469
  H      41.926271     22.680679     35.234204
  C      40.694900     21.298624     36.265765
  H      39.983431     22.060960     36.593512
  C      40.394764     19.876903     36.644274
  H      40.361620     19.815138     37.743501
  O      39.151265     19.478033     36.080427
  H      38.467196     19.329894     36.810146
  C      43.681666     21.106539     33.940623
  O      44.775632     20.507270     33.774181
  O      43.303777     22.101823     33.272671
24
Coordinates from ORCA-job neb_MEP_ALL.QMRegion E -1076.487781695048
  C      44.263661     20.649763     36.769575
  H      44.834702     19.875451     36.258453
  H      44.739662     21.626909     36.875567
  C      43.386453     20.264284     37.824308
  C      42.880321     21.332663     38.813760
  O      43.609449     22.334899     38.993887
  O      41.787484     21.096589     39.394501
  O      42.908531     19.113908     37.890590
  C      41.443846     18.922051     36.108513
  H      41.280596     17.870653     36.341420
  C      42.428912     19.291166     35.242555
  H      43.096214     18.547852     34.804251
  C      42.795888     20.671181     35.128922
  C      41.772744     21.649741     35.545409
  H      41.931576     22.682222     35.242753
  C      40.697985     21.295130     36.261103
  H      39.977758     22.055054     36.577133
  C      40.392627     19.872116     36.634213
  H      40.366288     19.803814     37.734261
  O      39.139575     19.487690     36.079402
  H      38.461856     19.331746     36.812483
  C      43.699468     21.106638     33.963722
  O      44.787945     20.505261     33.771965
  O      43.298714     22.086089     33.286000
24
Coordinates from ORCA-job neb_MEP_ALL.QMRegion E -1076.499547298723
  C      44.155137     20.663731     36.638181
  H      44.822689     19.877709     36.265038
  H      44.685372     21.615835     36.817062
  C      43.365338     20.267768     37.811688
  C      42.879037     21.333921     38.814387
  O      43.621970     22.327022     38.987478
  O      41.793039     21.095780     39.403693
  O      42.962991     19.112923     37.945699
  C      41.423679     18.916086     36.065972
  H      41.267215     17.865743     36.313688
  C      42.436334     19.287979     35.260507
  H      43.101224     18.545340     34.814838
  C      42.897871     20.690619     35.240461
  C      41.800482     21.653940     35.577924
  H      41.935624     22.683477     35.250667
  C      40.709429     21.291535     36.261812
  H      39.974591     22.046706     36.557229
  C      40.395244     19.867003     36.629678
  H      40.369773     19.795669     37.731209
  O      39.137026     19.492784     36.080292
  H      38.460909     19.331229     36.813306
  C      43.716612     21.107487     33.986765
  O      44.800642     20.505077     33.767196
  O      43.289767     22.068084     33.300400
24
Coordinates from ORCA-job neb_MEP_ALL.QMRegion E -1076.521204512852
  C      44.044630     20.680975     36.534455
  H      44.802086     19.928672     36.262669
  H      44.520617     21.663962     36.674495
  C      43.377717     20.273509     37.816400
  C      42.906414     21.344785     38.826086
  O      43.653898     22.335367     38.971872
  O      41.831320     21.102603     39.431918
  O      43.139231     19.100757     38.058825
  C      41.347828     18.909954     35.950771
  H      41.118399     17.857009     36.101955
  C      42.439076     19.272087     35.268123
  H      43.114663     18.524706     34.843868
  C      42.959258     20.683225     35.318508
  C      41.837886     21.649823     35.610992
  H      42.005089     22.685821     35.329428
  C      40.710949     21.294237     36.232538
  H      39.961047     22.052827     36.479792
  C      40.367652     19.869874     36.574994
  H      40.397397     19.750331     37.675908
  O      39.070483     19.572458     36.082164
  H      38.425771     19.389172     36.836469
  C      43.735407     21.093508     34.023674
  O      44.831433     20.510158     33.805830
  O      43.285009     22.031152     33.321768
24
Coordinates from ORCA-job neb_MEP_ALL.QMRegion E -1076.526823241864
  C      44.006000     20.664000     36.513000
  H      44.788000     19.945000     36.232000
  H      44.445000     21.661000     36.639000
  C      43.394000     20.234000     37.819000
  C      42.925000     21.311000     38.826000
  O      43.668000     22.308000     38.956000
  O      41.861000     21.069000     39.448000
  O      43.248000     19.057000     38.093000
  C      41.216000     18.941000     35.837000
  H      40.885000     17.904000     35.872000
  C      42.369000     19.274000     35.248000
  H      43.006000     18.514000     34.788000
  C      42.943000     20.667000     35.337000
  C      41.847000     21.661000     35.630000
  H      42.039000     22.693000     35.349000
  C      40.691000     21.331000     36.208000
  H      39.952000     22.105000     36.430000
  C      40.297000     19.915000     36.529000
  H      40.387000     19.767000     37.623000
  O      38.960000     19.678000     36.115000
  H      38.356000     19.505000     36.900000
  C      43.723000     21.074000     34.043000
  O      44.827000     20.504000     33.827000
  O      43.257000     21.999000     33.339000
24
Coordinates from ORCA-job neb_MEP_ALL.QMRegion E -1076.506452458426
  C      44.548000     20.393000     37.290000
  H      44.921000     19.659000     36.575000
  H      45.141000     21.280000     37.513000
  C      43.362000     20.252000     37.894000
  C      42.843000     21.307000     38.861000
  O      43.561000     22.317000     39.046000
  O      41.729000     21.090000     39.413000
  O      42.560000     19.150000     37.687000
  C      41.689000     19.080000     36.495000
  H      41.347000     18.036000     36.492000
  C      42.523000     19.394000     35.292000
  H      43.230000     18.641000     34.940000
  C      42.555000     20.645000     34.792000
  C      41.619000     21.654000     35.301000
  H      41.739000     22.662000     34.909000
  C      40.667000     21.365000     36.203000
  H      39.992000     22.151000     36.553000
  C      40.441000     19.968000     36.709000
  H      40.300000     20.009000     37.799000
  O      39.300000     19.403000     36.075000
  H      38.572000     19.274000     36.758000
  C      43.591000     21.118000     33.781000
  O      44.695000     20.512000     33.694000
  O      43.298000     22.166000     33.151000
24
Coordinates from ORCA-job neb_MEP_ALL.QMRegion E -1076.509327076784
  C      44.481132     20.492692     37.141407
  H      44.838774     19.809543     36.373415
  H      45.023742     21.419490     37.325999
  C      43.349093     20.275819     37.828125
  C      42.849226     21.303015     38.836345
  O      43.566469     22.311708     39.030500
  O      41.745727     21.074754     39.405689
  O      42.577768     19.146367     37.648469
  C      41.676967     19.039697     36.478084
  H      41.349944     17.991685     36.500402
  C      42.477303     19.351934     35.252627
  H      43.145294     18.585864     34.853863
  C      42.551874     20.621912     34.807823
  C      41.654251     21.639381     35.370477
  H      41.812014     22.663719     35.040421
  C      40.686706     21.337692     36.252029
  H      40.026494     22.124586     36.628546
  C      40.435555     19.927763     36.716392
  H      40.307819     19.943674     37.808996
  O      39.277932     19.398300     36.086496
  H      38.553043     19.278664     36.773821
  C      43.586404     21.107061     33.803875
  O      44.696291     20.509836     33.716926
  O      43.289338     22.156169     33.177264
24
Coordinates from ORCA-job neb_MEP_ALL.QMRegion E -1076.502908707069
  C      44.405932     20.568638     37.002534
  H      44.799263     19.883009     36.256162
  H      44.846397     21.562573     37.070577
  C      43.340765     20.286418     37.774527
  C      42.858797     21.306716     38.802388
  O      43.583721     22.311429     38.996843
  O      41.765147     21.076816     39.392144
  O      42.608376     19.128938     37.632571
  C      41.648142     18.991648     36.415308
  H      41.350561     17.934858     36.457088
  C      42.456258     19.322712     35.221772
  H      43.096538     18.557327     34.781588
  C      42.608774     20.620024     34.883896
  C      41.720748     21.634224     35.469420
  H      41.905148     22.671642     35.199288
  C      40.698868     21.306631     36.277455
  H      40.002911     22.075847     36.620593
  C      40.420699     19.890963     36.696175
  H      40.329654     19.867364     37.791047
  O      39.225216     19.426352     36.089621
  H      38.512064     19.312625     36.793446
  C      43.634700     21.103565     33.876421
  O      44.747575     20.515337     33.772695
  O      43.310059     22.134191     33.234816
24
Coordinates from ORCA-job neb_MEP_ALL.QMRegion E -1076.490773679658
  C      44.379427     20.603609     36.949119
  H      44.807697     19.891690     36.246234
  H      44.803048     21.608221     36.988319
  C      43.366092     20.275361     37.792561
  C      42.871036     21.317450     38.803967
  O      43.591654     22.325655     38.998240
  O      41.774176     21.088771     39.388540
  O      42.696522     19.117103     37.700672
  C      41.580827     18.961377     36.314909
  H      41.327455     17.901020     36.418273
  C      42.440844     19.312417     35.214938
  H      43.087672     18.551629     34.777853
  C      42.653285     20.631349     34.948004
  C      41.740211     21.638296     35.500973
  H      41.919795     22.674802     35.225184
  C      40.697204     21.300676     36.275843
  H      39.995884     22.066288     36.614538
  C      40.406705     19.882424     36.672724
  H      40.346974     19.836210     37.768562
  O      39.187081     19.450957     36.085190
  H      38.487479     19.319948     36.803360
  C      43.657970     21.104254     33.910532
  O      44.761146     20.509972     33.773237
  O      43.304910     22.116633     33.255265
24
Coordinates from ORCA-job neb_MEP_ALL.QMRegion E -1076.485168212579
  C      44.365723     20.615665     36.916624
  H      44.820873     19.883160     36.254457
  H      44.792268     21.616784     36.960041
  C      43.381426     20.268582     37.812826
  C      42.875230     21.324274     38.808216
  O      43.596426     22.331962     38.998521
  O      41.777279     21.093793     39.388516
  O      42.776625     19.118639     37.774910
  C      41.520688     18.945020     36.226902
  H      41.313700     17.887277     36.395510
  C      42.433076     19.304972     35.220830
  H      43.092305     18.552457     34.787446
  C      42.685828     20.643655     34.992892
  C      41.747115     21.642721     35.509886
  H      41.920996     22.677852     35.226580
  C      40.695642     21.299930     36.270784
  H      39.989226     22.063691     36.603439
  C      40.401188     19.879862     36.657674
  H      40.355242     19.825565     37.755636
  O      39.169140     19.463810     36.082287
  H      38.477623     19.323967     36.806559
  C      43.670660     21.105500     33.925281
  O      44.768301     20.508333     33.772059
  O      43.303801     22.108980     33.263654
24
Coordinates from ORCA-job neb_MEP_ALL.QMRegion E -1076.483980812533
  C      44.344021     20.630361     36.876241
  H      44.830488     19.881895     36.256063
  H      44.777549     21.627901     36.927822
  C      43.392736     20.266025     37.825273
  C      42.879304     21.329708     38.812512
  O      43.600701     22.337412     38.998766
  O      41.780835     21.097056     39.388659
  O      42.840824     19.116965     37.829959
  C      41.478498     18.932711     36.165757
  H      41.298327     17.878137     36.371764
  C      42.427473     19.298427     35.226971
  H      43.093393     18.551163     34.793644
  C      42.717303     20.653812     35.035572
  C      41.754609     21.645709     35.520890
  H      41.926111     22.680349     35.234742
  C      40.694328     21.298231     36.266160
  H      39.983679     22.060479     36.594395
  C      40.394799     19.876583     36.644209
  H      40.361721     19.814528     37.743370
  O      39.151306     19.477518     36.080695
  H      38.466958     19.329923     36.810347
  C      43.681171     21.106625     33.940190
  O      44.774976     20.507336     33.774035
  O      43.303671     22.102277     33.272297
24
Coordinates from ORCA-job neb_MEP_ALL.QMRegion E -1076.487114160140
  C      44.269218     20.649153     36.775820
  H      44.835548     19.876138     36.257775
  H      44.742184     21.628452     36.877427
  C      43.387756     20.264108     37.824685
  C      42.880850     21.332578     38.813425
  O      43.608531     22.335612     38.994287
  O      41.787514     21.096987     39.393365
  O      42.907105     19.113668     37.888375
  C      41.445242     18.921638     36.110052
  H      41.282286     17.869968     36.342662
  C      42.428742     19.291204     35.241749
  H      43.096315     18.547993     34.803298
  C      42.790798     20.669977     35.123329
  C      41.771667     21.649167     35.544020
  H      41.931064     22.681796     35.243374
  C      40.697213     21.294534     36.261668
  H      39.977907     22.054134     36.579072
  C      40.392934     19.871458     36.634059
  H      40.366615     19.802636     37.733976
  O      39.139875     19.486512     36.079219
  H      38.461581     19.330865     36.812489
  C      43.698686     21.106710     33.962630
  O      44.787049     20.505282     33.772384
  O      43.299059     22.087245     33.285599
24
Coordinates from ORCA-job neb_MEP_ALL.QMRegion E -1076.498683267256
  C      44.152627     20.664761     36.633541
  H      44.822675     19.878139     36.265517
  H      44.684516     21.615497     36.814881
  C      43.364468     20.265823     37.811084
  C      42.879300     21.334170     38.815316
  O      43.620764     22.328207     38.987598
  O      41.793265     21.097260     39.402328
  O      42.965168     19.115621     37.946985
  C      41.425675     18.914325     36.067118
  H      41.271570     17.864221     36.316920
  C      42.438043     19.288180     35.260167
  H      43.102210     18.545586     34.814822
  C      42.901101     20.691543     35.243602
  C      41.800498     21.653371     35.578216
  H      41.934518     22.682955     35.251355
  C      40.708874     21.290029     36.262440
  H      39.974501     22.045055     36.560048
  C      40.396617     19.864905     36.630481
  H      40.370786     19.793311     37.732377
  O      39.138211     19.490556     36.079935
  H      38.462608     19.328304     36.812531
  C      43.717548     21.108351     33.987252
  O      44.799904     20.504906     33.767044
  O      43.289290     22.068771     33.300498
24
Coordinates from ORCA-job neb_MEP_ALL.QMRegion E -1076.520448207826
  C      44.053145     20.682232     36.536923
  H      44.809464     19.930214     36.264054
  H      44.538974     21.658916     36.693720
  C      43.379237     20.271337     37.813890
  C      42.906413     21.344083     38.826642
  O      43.650346     22.337866     38.975009
  O      41.829088     21.101368     39.428367
  O      43.119888     19.100264     38.044845
  C      41.350959     18.909724     35.956924
  H      41.128422     17.856513     36.120028
  C      42.438810     19.272684     35.267212
  H      43.111753     18.524003     34.839422
  C      42.959202     20.685382     35.316851
  C      41.834095     21.649121     35.606422
  H      42.000507     22.684318     35.323158
  C      40.707763     21.294162     36.230801
  H      39.961210     22.054028     36.487911
  C      40.367305     19.869607     36.576477
  H      40.395062     19.753704     37.677605
  O      39.071890     19.567680     36.081068
  H      38.426116     19.386506     36.835342
  C      43.734352     21.095068     34.020206
  O      44.828132     20.508763     33.801984
  O      43.287251     22.033649     33.318384
24
Coordinates from ORCA-job neb_MEP_ALL.QMRegion E -1076.526823241864
  C      44.006000     20.664000     36.513000
  H      44.788000     19.945000     36.232000
  H      44.445000     21.661000     36.639000
  C      43.394000     20.234000     37.819000
  C      42.925000     21.311000     38.826000
  O      43.668000     22.308000     38.956000
  O      41.861000     21.069000     39.448000
  O      43.248000     19.057000     38.093000
  C      41.216000     18.941000     35.837000
  H      40.885000     17.904000     35.872000
  C      42.369000     19.274000     35.248000
  H      43.006000     18.514000     34.788000
  C      42.943000     20.667000     35.337000
  C      41.847000     21.661000     35.630000
  H      42.039000     22.693000     35.349000
  C      40.691000     21.331000     36.208000
  H      39.952000     22.105000     36.430000
  C      40.297000     19.915000     36.529000
  H      40.387000     19.767000     37.623000
  O      38.960000     19.678000     36.115000
  H      38.356000     19.505000     36.900000
  C      43.723000     21.074000     34.043000
  O      44.827000     20.504000     33.827000
  O      43.257000     21.999000     33.339000
24
Coordinates from ORCA-job neb_MEP_ALL.QMRegion E -1076.506452458426
  C      44.548000     20.393000     37.290000
  H      44.921000     19.659000     36.575000
  H      45.141000     21.280000     37.513000
  C      43.362000     20.252000     37.894000
  C      42.843000     21.307000     38.861000
  O      43.561000     22.317000     39.046000
  O      41.729000     21.090000     39.413000
  O      42.560000     19.150000     37.687000
  C      41.689000     19.080000     36.495000
  H      41.347000     18.036000     36.492000
  C      42.523000     19.394000     35.292000
  H      43.230000     18.641000     34.940000
  C      42.555000     20.645000     34.792000
  C      41.619000     21.654000     35.301000
  H      41.739000     22.662000     34.909000
  C      40.667000     21.365000     36.203000
  H      39.992000     22.151000     36.553000
  C      40.441000     19.968000     36.709000
  H      40.300000     20.009000     37.799000
  O      39.300000     19.403000     36.075000
  H      38.572000     19.274000     36.758000
  C      43.591000     21.118000     33.781000
  O      44.695000     20.512000     33.694000
  O      43.298000     22.166000     33.151000
24
Coordinates from ORCA-job neb_MEP_ALL.QMRegion E -1076.509386676733
  C      44.480491     20.493135     37.140191
  H      44.838348     19.810285     36.372441
  H      45.022271     21.420387     37.324151
  C      43.348694     20.275974     37.827036
  C      42.849638     21.302652     38.836588
  O      43.566145     22.311692     39.030157
  O      41.745980     21.075038     39.405390
  O      42.578480     19.146590     37.649178
  C      41.676282     19.039042     36.477045
  H      41.350195     17.991959     36.500139
  C      42.477071     19.351468     35.252624
  H      43.144835     18.585789     34.853250
  C      42.551874     20.621550     34.808043
  C      41.654670     21.639132     35.371281
  H      41.812853     22.663830     35.041763
  C      40.686852     21.337346     36.252353
  H      40.026179     22.124310     36.628526
  C      40.435759     19.927355     36.716463
  H      40.307777     19.943210     37.808910
  O      39.277872     19.398527     36.086746
  H      38.552823     19.278864     36.773928
  C      43.587108     21.107416     33.804518
  O      44.696516     20.510060     33.717225
  O      43.289829     22.155992     33.177417
24
Coordinates from ORCA-job neb_MEP_ALL.QMRegion E -1076.502415070870
  C      44.405336     20.569780     37.001583
  H      44.799516     19.883385     36.255776
  H      44.847128     21.563366     37.070834
  C      43.341650     20.286178     37.775572
  C      42.858201     21.307883     38.801883
  O      43.584131     22.311417     38.997996
  O      41.765381     21.076475     39.392327
  O      42.612109     19.127456     37.638047
  C      41.645438     18.990805     36.412382
  H      41.349508     17.934433     36.456122
  C      42.455569     19.322936     35.220660
  H      43.095997     18.556531     34.781521
  C      42.608933     20.621069     34.883872
  C      41.719906     21.633616     35.468744
  H      41.904151     22.670670     35.198414
  C      40.699212     21.306911     36.277806
  H      40.003766     22.075559     36.622095
  C      40.419545     19.891882     36.695843
  H      40.330061     19.866481     37.790788
  O      39.224182     19.426121     36.089210
  H      38.511863     19.311700     36.793798
  C      43.634580     21.104228     33.876814
  O      44.745804     20.514495     33.771204
  O      43.308722     22.133633     33.234365
24
Coordinates from ORCA-job neb_MEP_ALL.QMRegion E -1076.490342363986
  C      44.382554     20.601073     36.953212
  H      44.808337     19.890084     36.248320
  H      44.805300     21.606868     36.990805
  C      43.365417     20.275157     37.791699
  C      42.870546     21.317073     38.803055
  O      43.591149     22.324747     38.999169
  O      41.774365     21.088955     39.389130
  O      42.691598     19.116688     37.698035
  C      41.584011     18.962765     36.318922
  H      41.328190     17.902377     36.418800
  C      42.442516     19.313421     35.215454
  H      43.089407     18.551994     34.778816
  C      42.651749     20.631502     34.945557
  C      41.739201     21.638488     35.499943
  H      41.918934     22.674941     35.223478
  C      40.697302     21.301046     36.275807
  H      39.994844     22.066356     36.612939
  C      40.407019     19.882859     36.673803
  H      40.346417     19.837116     37.769851
  O      39.188235     19.450889     36.085077
  H      38.488180     19.320260     36.803027
  C      43.657834     21.104094     33.909404
  O      44.760987     20.510429     33.773268
  O      43.305548     22.117173     33.255333
24
Coordinates from ORCA-job neb_MEP_ALL.QMRegion E -1076.485173567488
  C      44.369660     20.613968     36.921819
  H      44.820103     19.883516     36.254213
  H      44.793879     21.616554     36.961961
  C      43.381080     20.268880     37.812146
  C      42.875102     21.323790     38.808019
  O      43.595929     22.331581     38.998812
  O      41.776872     21.093558     39.388435
  O      42.770763     19.118774     37.770239
  C      41.524360     18.946047     36.232195
  H      41.314881     17.887947     36.397125
  C      42.433247     19.305298     35.219519
  H      43.092465     18.552522     34.786874
  C      42.682288     20.642715     34.988189
  C      41.746134     21.642249     35.508740
  H      41.921203     22.677618     35.226480
  C      40.695830     21.300062     36.271133
  H      39.989082     22.063769     36.603431
  C      40.401455     19.880086     36.658638
  H      40.355005     19.826157     37.756511
  O      39.170151     19.463471     36.082421
  H      38.478126     19.324052     36.806351
  C      43.669730     21.105354     33.924097
  O      44.767917     20.508492     33.772617
  O      43.304474     22.109926     33.263098
24
Coordinates from ORCA-job neb_MEP_ALL.QMRegion E -1076.483997839834
  C      44.343571     20.630433     36.875570
  H      44.830608     19.881785     36.256085
  H      44.777392     21.627745     36.927761
  C      43.392605     20.266190     37.825249
  C      42.879265     21.329636     38.812628
  O      43.600834     22.337249     38.998641
  O      41.780731     21.096953     39.388703
  O      42.841404     19.117136     37.830506
  C      41.478213     18.932705     36.165281
  H      41.298233     17.878037     36.371621
  C      42.427518     19.298268     35.227159
  H      43.093351     18.551198     34.793668
  C      42.717596     20.654006     35.035929
  C      41.754676     21.645642     35.520941
  H      41.926066     22.680309     35.234758
  C      40.694310     21.298294     36.266054
  H      39.983671     22.060449     36.594401
  C      40.394895     19.876621     36.644183
  H      40.361662     19.814434     37.743296
  O      39.151349     19.477551     36.080853
  H      38.466887     19.329901     36.810309
  C      43.681270     21.106727     33.940356
  O      44.775000     20.507328     33.773893
  O      43.303602     22.102124     33.272329
24
Coordinates from ORCA-job neb_MEP_ALL.QMRegion E -1076.486803100481
  C      44.266371     20.649403     36.772469
  H      44.835407     19.876271     36.258181
  H      44.741335     21.628563     36.876589
  C      43.387252     20.263598     37.824458
  C      42.881230     21.332557     38.813701
  O      43.608803     22.335633     38.994245
  O      41.787856     21.096809     39.393295
  O      42.907877     19.113326     37.889063
  C      41.444564     18.921512     36.108771
  H      41.281061     17.869693     36.341354
  C      42.429193     19.291239     35.242787
  H      43.096280     18.547740     34.803316
  C      42.793084     20.670541     35.125987
  C      41.772095     21.649086     35.544401
  H      41.931332     22.681667     35.243795
  C      40.697211     21.294941     36.261428
  H      39.977761     22.054287     36.578355
  C      40.393118     19.871713     36.633956
  H      40.366227     19.802613     37.734051
  O      39.139811     19.486977     36.079497
  H      38.461175     19.331453     36.812540
  C      43.699191     21.107152     33.962959
  O      44.787212     20.505349     33.772146
  O      43.299016     22.086857     33.285487
24
Coordinates from ORCA-job neb_MEP_ALL.QMRegion E -1076.499267844289
  C      44.149445     20.665235     36.630255
  H      44.822908     19.880043     36.266617
  H      44.682187     21.614386     36.812555
  C      43.365971     20.264741     37.811897
  C      42.882851     21.334481     38.816787
  O      43.619464     22.330142     38.988068
  O      41.795084     21.097433     39.401166
  O      42.969183     19.113921     37.948091
  C      41.424421     18.914341     36.064758
  H      41.265843     17.863634     36.310084
  C      42.438925     19.287960     35.261468
  H      43.101793     18.544589     34.814855
  C      42.903615     20.692109     35.246848
  C      41.800064     21.652764     35.578089
  H      41.936725     22.682634     35.253530
  C      40.706836     21.290735     36.259510
  H      39.973178     22.046768     36.557959
  C      40.395483     19.865550     36.628924
  H      40.370969     19.791873     37.730848
  O      39.135062     19.494721     36.080033
  H      38.460744     19.331234     36.813680
  C      43.718475     21.109202     33.987928
  O      44.800247     20.504677     33.768482
  O      43.289916     22.068558     33.299995
24
Coordinates from ORCA-job neb_MEP_ALL.QMRegion E -1076.519598752525
  C      44.050262     20.681836     36.534490
  H      44.805359     19.931045     36.264542
  H      44.541602     21.652022     36.694079
  C      43.372165     20.268491     37.810227
  C      42.904560     21.342728     38.824012
  O      43.650324     22.335509     38.975758
  O      41.829255     21.100143     39.426994
  O      43.116561     19.103429     38.042770
  C      41.354577     18.910491     35.960468
  H      41.134601     17.857374     36.128543
  C      42.442372     19.275165     35.271432
  H      43.110341     18.525061     34.838378
  C      42.962819     20.688351     35.319337
  C      41.838356     21.651138     35.613062
  H      41.995616     22.684662     35.317599
  C      40.710554     21.293603     36.233480
  H      39.962704     22.051754     36.489561
  C      40.368886     19.869273     36.578521
  H      40.393336     19.756692     37.679976
  O      39.074679     19.562338     36.080673
  H      38.427075     19.383267     36.834512
  C      43.737292     21.096161     34.021376
  O      44.828575     20.508694     33.797052
  O      43.285157     22.032155     33.320459
24
Coordinates from ORCA-job neb_MEP_ALL.QMRegion E -1076.526823241864
  C      44.006000     20.664000     36.513000
  H      44.788000     19.945000     36.232000
  H      44.445000     21.661000     36.639000
  C      43.394000     20.234000     37.819000
  C      42.925000     21.311000     38.826000
  O      43.668000     22.308000     38.956000
  O      41.861000     21.069000     39.448000
  O      43.248000     19.057000     38.093000
  C      41.216000     18.941000     35.837000
  H      40.885000     17.904000     35.872000
  C      42.369000     19.274000     35.248000
  H      43.006000     18.514000     34.788000
  C      42.943000     20.667000     35.337000
  C      41.847000     21.661000     35.630000
  H      42.039000     22.693000     35.349000
  C      40.691000     21.331000     36.208000
  H      39.952000     22.105000     36.430000
  C      40.297000     19.915000     36.529000
  H      40.387000     19.767000     37.623000
  O      38.960000     19.678000     36.115000
  H      38.356000     19.505000     36.900000
  C      43.723000     21.074000     34.043000
  O      44.827000     20.504000     33.827000
  O      43.257000     21.999000     33.339000
24
Coordinates from ORCA-job neb_MEP_ALL.QMRegion E -1076.506452458426
  C      44.548000     20.393000     37.290000
  H      44.921000     19.659000     36.575000
  H      45.141000     21.280000     37.513000
  C      43.362000     20.252000     37.894000
  C      42.843000     21.307000     38.861000
  O      43.561000     22.317000     39.046000
  O      41.729000     21.090000     39.413000
  O      42.560000     19.150000     37.687000
  C      41.689000     19.080000     36.495000
  H      41.347000     18.036000     36.492000
  C      42.523000     19.394000     35.292000
  H      43.230000     18.641000     34.940000
  C      42.555000     20.645000     34.792000
  C      41.619000     21.654000     35.301000
  H      41.739000     22.662000     34.909000
  C      40.667000     21.365000     36.203000
  H      39.992000     22.151000     36.553000
  C      40.441000     19.968000     36.709000
  H      40.300000     20.009000     37.799000
  O      39.300000     19.403000     36.075000
  H      38.572000     19.274000     36.758000
  C      43.591000     21.118000     33.781000
  O      44.695000     20.512000     33.694000
  O      43.298000     22.166000     33.151000
24
Coordinates from ORCA-job neb_MEP_ALL.QMRegion E -1076.509383653871
  C      44.477561     20.494317     37.138430
  H      44.837693     19.811656     36.369464
  H      45.019159     21.422854     37.319956
  C      43.349784     20.277191     37.825008
  C      42.850060     21.302631     38.835831
  O      43.566400     22.311580     39.029517
  O      41.745833     21.074763     39.405356
  O      42.579901     19.146286     37.650802
  C      41.674980     19.038646     36.474115
  H      41.350348     17.990964     36.499714
  C      42.476747     19.350660     35.251964
  H      43.143767     18.585306     34.851848
  C      42.552439     20.621676     34.809002
  C      41.655293     21.638796     35.373086
  H      41.814626     22.663772     35.044774
  C      40.687066     21.336764     36.253324
  H      40.026072     22.123003     36.628452
  C      40.435134     19.927433     36.716431
  H      40.307890     19.941928     37.808913
  O      39.277509     19.398760     36.087322
  H      38.552493     19.279380     36.774121
  C      43.587189     21.107087     33.805267
  O      44.697532     20.510592     33.718097
  O      43.290844     22.155733     33.178352
24
Coordinates from ORCA-job neb_MEP_ALL.QMRegion E -1076.502215041600
  C      44.404766     20.570814     37.001435
  H      44.799849     19.883862     36.255786
  H      44.848798     21.564525     37.071846
  C      43.343510     20.284826     37.777348
  C      42.858279     21.308492     38.801624
  O      43.583968     22.312071     38.999904
  O      41.765506     21.076917     39.392557
  O      42.612772     19.126183     37.638972
  C      41.645819     18.990449     36.412445
  H      41.347889     17.933731     36.454947
  C      42.454424     19.322623     35.220229
  H      43.095181     18.555857     34.781633
  C      42.608687     20.621635     34.884067
  C      41.717820     21.633152     35.467997
  H      41.902462     22.669913     35.196358
  C      40.699281     21.306912     36.277931
  H      40.004801     22.076000     36.624546
  C      40.419325     19.891427     36.695876
  H      40.330282     19.865562     37.790641
  O      39.223104     19.426211     36.088880
  H      38.511504     19.310157     36.794185
  C      43.632754     21.104182     33.875430
  O      44.744125     20.513546     33.768991
  O      43.307275     22.133992     33.233572
24
Coordinates from ORCA-job neb_MEP_ALL.QMRegion E -1076.490811330543
  C      44.387521     20.597600     36.959554
  H      44.809768     19.887674     36.251644
  H      44.808293     21.603227     36.994806
  C      43.364930     20.275609     37.792401
  C      42.869672     21.316383     38.803205
  O      43.591245     22.323663     38.999324
  O      41.773716     21.088272     39.389396
  O      42.685145     19.117872     37.692937
  C      41.588390     18.964539     36.325146
  H      41.329248     17.904275     36.419291
  C      42.444283     19.313926     35.216045
  H      43.091982     18.553148     34.780535
  C      42.649913     20.631576     34.942595
  C      41.737386     21.638426     35.497895
  H      41.917569     22.675212     35.220987
  C      40.697568     21.301693     36.275597
  H      39.992982     22.066694     36.610555
  C      40.408146     19.883265     36.675136
  H      40.345649     19.838436     37.771070
  O      39.190001     19.451073     36.085313
  H      38.488936     19.320693     36.802457
  C      43.656074     21.103495     33.907301
  O      44.761630     20.510875     33.773681
  O      43.307001     22.119221     33.254835
24
Coordinates from ORCA-job neb_MEP_ALL.QMRegion E -1076.485424859083
  C      44.373914     20.612075     36.928042
  H      44.819564     19.884061     36.254012
  H      44.795802     21.615966     36.964021
  C      43.381313     20.269380     37.811668
  C      42.874727     21.323219     38.808236
  O      43.595617     22.331333     38.999103
  O      41.776401     21.093077     39.388071
  O      42.764212     19.119333     37.764378
  C      41.528920     18.947256     36.238613
  H      41.316054     17.888747     36.398565
  C      42.433233     19.305868     35.218055
  H      43.092778     18.552498     34.786057
  C      42.678122     20.641165     34.982892
  C      41.744725     21.641604     35.507479
  H      41.921617     22.677367     35.226638
  C      40.696196     21.300146     36.271177
  H      39.988646     22.063809     36.603252
  C      40.401768     19.880212     36.659598
  H      40.354857     19.826556     37.757195
  O      39.170996     19.463510     36.082672
  H      38.478378     19.324402     36.806195
  C      43.668379     21.105196     33.922365
  O      44.767487     20.508844     33.773645
  O      43.305672     22.111141     33.262632
24
Coordinates from ORCA-job neb_MEP_ALL.QMRegion E -1076.484002958462
  C      44.342836     20.630631     36.874574
  H      44.830815     19.881581     36.256087
  H      44.777265     21.627672     36.927685
  C      43.392562     20.266238     37.825242
  C      42.879060     21.329701     38.812589
  O      43.601054     22.337071     38.998637
  O      41.780708     21.096807     39.388793
  O      42.842177     19.117130     37.831395
  C      41.477824     18.932521     36.164557
  H      41.298073     17.877971     36.371352
  C      42.427459     19.298308     35.227314
  H      43.093368     18.551144     34.793629
  C      42.718249     20.654079     35.036592
  C      41.754454     21.645563     35.521117
  H      41.926023     22.680336     35.234762
  C      40.694532     21.298277     36.265845
  H      39.983594     22.060473     36.594476
  C      40.394897     19.876569     36.644156
  H      40.361657     19.814281     37.743251
  O      39.151233     19.477543     36.080910
  H      38.466831     19.329886     36.810346
  C      43.681285     21.106708     33.940377
  O      44.775064     20.507313     33.773762
  O      43.303482     22.102051     33.272389
24
Coordinates from ORCA-job neb_MEP_ALL.QMRegion E -1076.486980377445
  C      44.261093     20.650707     36.765991
  H      44.835234     19.876470     36.258759
  H      44.739014     21.627883     36.874649
  C      43.386797     20.263139     37.823845
  C      42.881492     21.332494     38.814098
  O      43.609733     22.335520     38.993944
  O      41.788100     21.096373     39.393543
  O      42.910092     19.113012     37.891030
  C      41.442789     18.921187     36.106327
  H      41.278872     17.869445     36.338748
  C      42.430032     19.290994     35.243912
  H      43.096199     18.547460     34.803573
  C      42.798048     20.671735     35.131443
  C      41.772872     21.649192     35.545579
  H      41.931867     22.681768     35.244438
  C      40.697588     21.295081     36.260924
  H      39.977306     22.054686     36.577088
  C      40.392713     19.871665     36.633797
  H      40.365822     19.802529     37.733969
  O      39.139422     19.487889     36.080027
  H      38.460766     19.332514     36.812594
  C      43.699935     21.107421     33.963988
  O      44.787784     20.505500     33.771674
  O      43.298787     22.086202     33.285507
24
Coordinates from ORCA-job neb_MEP_ALL.QMRegion E -1076.500012824453
  C      44.150163     20.664666     36.633095
  H      44.823875     19.882162     36.267140
  H      44.681682     21.614455     36.812301
  C      43.369800     20.265277     37.813745
  C      42.885841     21.334333     38.817381
  O      43.619553     22.333298     38.988848
  O      41.796490     21.096355     39.400071
  O      42.971611     19.109904     37.947292
  C      41.422437     18.915183     36.062591
  H      41.258271     17.863398     36.301303
  C      42.439351     19.287454     35.262698
  H      43.101176     18.543318     34.814273
  C      42.901262     20.691650     35.244959
  C      41.798913     21.652203     35.576917
  H      41.939453     22.682243     35.256033
  C      40.704310     21.291721     36.256496
  H      39.971810     22.048870     36.555202
  C      40.393383     19.866953     36.626634
  H      40.370804     19.790697     37.728257
  O      39.131062     19.499662     36.080867
  H      38.458008     19.335628     36.814886
  C      43.717986     21.109519     33.988027
  O      44.800768     20.504834     33.770115
  O      43.291511     22.068584     33.299070
24
Coordinates from ORCA-job neb_MEP_ALL.QMRegion E -1076.519698026006
  C      44.043459     20.680360     36.531183
  H      44.799930     19.930440     36.264280
  H      44.542993     21.644891     36.691942
  C      43.363739     20.271964     37.806238
  C      42.902660     21.341484     38.819859
  O      43.650618     22.330806     38.975726
  O      41.829105     21.098292     39.425824
  O      43.112733     19.101750     38.042282
  C      41.359848     18.912009     35.964737
  H      41.142277     17.858549     36.137796
  C      42.447034     19.278159     35.276889
  H      43.108816     18.527352     34.838022
  C      42.969224     20.691270     35.323680
  C      41.844216     21.653990     35.622167
  H      41.989681     22.686016     35.310976
  C      40.714895     21.292436     36.237904
  H      39.964692     22.048438     36.490355
  C      40.371232     19.868831     36.581333
  H      40.391050     19.760290     37.682916
  O      39.078841     19.555779     36.080579
  H      38.428380     19.379014     36.833215
  C      43.740379     21.097191     34.023482
  O      44.830558     20.508287     33.791237
  O      43.281727     22.031010     33.323309
24
Coordinates from ORCA-job neb_MEP_ALL.QMRegion E -1076.526823241864
  C      44.006000     20.664000     36.513000
  H      44.788000     19.945000     36.232000
  H      44.445000     21.661000     36.639000
  C      43.394000     20.234000     37.819000
  C      42.925000     21.311000     38.826000
  O      43.668000     22.308000     38.956000
  O      41.861000     21.069000     39.448000
  O      43.248000     19.057000     38.093000
  C      41.216000     18.941000     35.837000
  H      40.885000     17.904000     35.872000
  C      42.369000     19.274000     35.248000
  H      43.006000     18.514000     34.788000
  C      42.943000     20.667000     35.337000
  C      41.847000     21.661000     35.630000
  H      42.039000     22.693000     35.349000
  C      40.691000     21.331000     36.208000
  H      39.952000     22.105000     36.430000
  C      40.297000     19.915000     36.529000
  H      40.387000     19.767000     37.623000
  O      38.960000     19.678000     36.115000
  H      38.356000     19.505000     36.900000
  C      43.723000     21.074000     34.043000
  O      44.827000     20.504000     33.827000
  O      43.257000     21.999000     33.339000
24
Coordinates from ORCA-job neb_MEP_ALL.QMRegion E -1076.506452458426
  C      44.548000     20.393000     37.290000
  H      44.921000     19.659000     36.575000
  H      45.141000     21.280000     37.513000
  C      43.362000     20.252000     37.894000
  C      42.843000     21.307000     38.861000
  O      43.561000     22.317000     39.046000
  O      41.729000     21.090000     39.413000
  O      42.560000     19.150000     37.687000
  C      41.689000     19.080000     36.495000
  H      41.347000     18.036000     36.492000
  C      42.523000     19.394000     35.292000
  H      43.230000     18.641000     34.940000
  C      42.555000     20.645000     34.792000
  C      41.619000     21.654000     35.301000
  H      41.739000     22.662000     34.909000
  C      40.667000     21.365000     36.203000
  H      39.992000     22.151000     36.553000
  C      40.441000     19.968000     36.709000
  H      40.300000     20.009000     37.799000
  O      39.300000     19.403000     36.075000
  H      38.572000     19.274000     36.758000
  C      43.591000     21.118000     33.781000
  O      44.695000     20.512000     33.694000
  O      43.298000     22.166000     33.151000
24
Coordinates from ORCA-job neb_MEP_ALL.QMRegion E -1076.509363468286
  C      44.478749     20.497152     37.132599
  H      44.837071     19.815170     36.365718
  H      45.015043     21.426492     37.314786
  C      43.347156     20.277444     37.825116
  C      42.849518     21.303019     38.834625
  O      43.567354     22.311355     39.028806
  O      41.747107     21.073979     39.404511
  O      42.582081     19.146265     37.650995
  C      41.673740     19.037435     36.471559
  H      41.350475     17.989133     36.499019
  C      42.475956     19.350545     35.250005
  H      43.141959     18.584354     34.849379
  C      42.552721     20.621586     34.810394
  C      41.655471     21.638404     35.375344
  H      41.815715     22.663417     35.048262
  C      40.687123     21.335858     36.255012
  H      40.026103     22.121031     36.629440
  C      40.434000     19.927382     36.716470
  H      40.308387     19.939390     37.809212
  O      39.276509     19.398882     36.088042
  H      38.551690     19.280236     36.774791
  C      43.586934     21.106066     33.805492
  O      44.697213     20.511252     33.718627
  O      43.290993     22.155840     33.179908
24
Coordinates from ORCA-job neb_MEP_ALL.QMRegion E -1076.502231330359
  C      44.404081     20.572882     36.999554
  H      44.798974     19.886319     36.253630
  H      44.847513     21.567387     37.069830
  C      43.344384     20.282622     37.778037
  C      42.859020     21.308514     38.802018
  O      43.583264     22.312750     39.000569
  O      41.766190     21.077938     39.391726
  O      42.610663     19.126189     37.633527
  C      41.648369     18.988414     36.415349
  H      41.346945     17.932775     36.453572
  C      42.453376     19.322027     35.219465
  H      43.093081     18.555141     34.780002
  C      42.608402     20.620523     34.885582
  C      41.717899     21.633303     35.468404
  H      41.902762     22.669794     35.197436
  C      40.697864     21.305572     36.279254
  H      40.006064     22.076037     36.627467
  C      40.419962     19.889206     36.695608
  H      40.330587     19.863827     37.790285
  O      39.222476     19.426372     36.088801
  H      38.510497     19.308810     36.794903
  C      43.631878     21.102854     33.873620
  O      44.743111     20.513694     33.768146
  O      43.306612     22.134477     33.233599
24
Coordinates from ORCA-job neb_MEP_ALL.QMRegion E -1076.491536877864
  C      44.390301     20.594773     36.964609
  H      44.811328     19.886877     36.253502
  H      44.810151     21.601100     36.997639
  C      43.366528     20.276474     37.793763
  C      42.869740     21.316268     38.804437
  O      43.591713     22.322955     38.998374
  O      41.772271     21.087173     39.388833
  O      42.682990     19.119803     37.689696
  C      41.590115     18.964889     36.327246
  H      41.329806     17.904487     36.418805
  C      42.443892     19.314625     35.215900
  H      43.093676     18.553889     34.780994
  C      42.648256     20.630193     34.941444
  C      41.736364     21.638623     35.495818
  H      41.916264     22.675001     35.219922
  C      40.697031     21.301575     36.276151
  H      39.991790     22.066550     36.609913
  C      40.409074     19.882952     36.675527
  H      40.345565     19.838274     37.771134
  O      39.190672     19.451088     36.085879
  H      38.488976     19.320709     36.802272
  C      43.655725     21.103200     33.904542
  O      44.760137     20.511823     33.774151
  O      43.307995     22.120683     33.254673
24
Coordinates from ORCA-job neb_MEP_ALL.QMRegion E -1076.485735563971
  C      44.376911     20.611253     36.931137
  H      44.819806     19.885272     36.253883
  H      44.797166     21.615612     36.965723
  C      43.382045     20.269654     37.812306
  C      42.875296     21.323224     38.808434
  O      43.595434     22.331196     38.999203
  O      41.775688     21.092563     39.387457
  O      42.761835     19.119716     37.761223
  C      41.530840     18.947407     36.241379
  H      41.316512     17.888748     36.398401
  C      42.432927     19.305434     35.216665
  H      43.092592     18.552572     34.784936
  C      42.675318     20.640501     34.979724
  C      41.744296     21.641280     35.506146
  H      41.921681     22.676952     35.227327
  C      40.695378     21.299683     36.271677
  H      39.988542     22.063278     36.603845
  C      40.401835     19.879697     36.659568
  H      40.355169     19.825762     37.757054
  O      39.170835     19.463594     36.082943
  H      38.477938     19.324636     36.806464
  C      43.667178     21.104672     33.921168
  O      44.766720     20.509204     33.774248
  O      43.306235     22.112493     33.262182
24
Coordinates from ORCA-job neb_MEP_ALL.QMRegion E -1076.484005794645
  C      44.343507     20.630684     36.874976
  H      44.831193     19.882074     36.255727
  H      44.777829     21.627878     36.928780
  C      43.392758     20.265940     37.825150
  C      42.879072     21.329760     38.812198
  O      43.601147     22.336874     38.998776
  O      41.780682     21.096613     39.388535
  O      42.842094     19.116898     37.831101
  C      41.477782     18.932296     36.164321
  H      41.298067     17.877618     36.370828
  C      42.427314     19.298033     35.226632
  H      43.093084     18.551145     34.792841
  C      42.717641     20.654053     35.035895
  C      41.754425     21.645446     35.520587
  H      41.925861     22.680180     35.235155
  C      40.693941     21.297841     36.266313
  H      39.983763     22.060067     36.595202
  C      40.394769     19.876018     36.644006
  H      40.361849     19.813651     37.743190
  O      39.150913     19.477125     36.080920
  H      38.466645     19.329920     36.810678
  C      43.680786     21.106576     33.939751
  O      44.774671     20.507362     33.773609
  O      43.303267     22.102393     33.272296
24
Coordinates from ORCA-job neb_MEP_ALL.QMRegion E -1076.487357934049
  C      44.258715     20.651262     36.762064
  H      44.835436     19.877623     36.258978
  H      44.737582     21.627832     36.873609
  C      43.387228     20.262933     37.823407
  C      42.881811     21.332654     38.814296
  O      43.610394     22.335142     38.993539
  O      41.788180     21.095973     39.393356
  O      42.912506     19.113165     37.892128
  C      41.442040     18.920815     36.104049
  H      41.277407     17.868819     36.336319
  C      42.429897     19.290838     35.244489
  H      43.096427     18.547076     34.803174
  C      42.800856     20.672201     35.134557
  C      41.773616     21.649221     35.546142
  H      41.932122     22.681875     35.245473
  C      40.697054     21.294486     36.261147
  H      39.977065     22.054308     36.576856
  C      40.391902     19.870733     36.633439
  H      40.365848     19.801631     37.733660
  O      39.138718     19.488123     36.080430
  H      38.460429     19.333198     36.812709
  C      43.700220     21.107707     33.964245
  O      44.787821     20.505789     33.771392
  O      43.298664     22.085789     33.285833
24
Coordinates from ORCA-job neb_MEP_ALL.QMRegion E -1076.500091872190
  C      44.157690     20.664921     36.642499
  H      44.825891     19.883039     36.266303
  H      44.684513     21.616210     36.815106
  C      43.372180     20.260090     37.816925
  C      42.886729     21.336490     38.817743
  O      43.619210     22.333865     38.989134
  O      41.797536     21.094872     39.398286
  O      42.972720     19.112636     37.943187
  C      41.421253     18.915164     36.063219
  H      41.255307     17.863474     36.296999
  C      42.439830     19.286878     35.261921
  H      43.101040     18.542812     34.813012
  C      42.892902     20.689659     35.236898
  C      41.796496     21.651459     35.574951
  H      41.940494     22.681961     35.257744
  C      40.702938     21.291725     36.255598
  H      39.971185     22.049224     36.555057
  C      40.391542     19.867312     36.625399
  H      40.370710     19.789456     37.726160
  O      39.129845     19.501148     36.081030
  H      38.455918     19.337784     36.815704
  C      43.717259     21.108385     33.986674
  O      44.799729     20.505899     33.771213
  O      43.293076     22.069812     33.298012
24
Coordinates from ORCA-job neb_MEP_ALL.QMRegion E -1076.519653226411
  C      44.042635     20.679699     36.530887
  H      44.798962     19.928336     36.263992
  H      44.552130     21.637934     36.697814
  C      43.354065     20.263276     37.805942
  C      42.898729     21.339363     38.816926
  O      43.650483     22.327773     38.976355
  O      41.828241     21.096102     39.422618
  O      43.102243     19.110913     38.032611
  C      41.366528     18.913127     35.972797
  H      41.155237     17.859701     36.154371
  C      42.451121     19.281462     35.280142
  H      43.106789     18.530034     34.836416
  C      42.974376     20.693841     35.326658
  C      41.847323     21.656319     35.626911
  H      41.982372     22.687072     35.302752
  C      40.717730     21.291240     36.242002
  H      39.966616     22.045647     36.494008
  C      40.373867     19.868107     36.585262
  H      40.387629     19.764827     37.686591
  O      39.084076     19.547701     36.080540
  H      38.430252     19.373464     36.830812
  C      43.743141     21.098664     34.022298
  O      44.829703     20.508038     33.785626
  O      43.279823     22.031460     33.324990
24
Coordinates from ORCA-job neb_MEP_ALL.QMRegion E -1076.526823241864
  C      44.006000     20.664000     36.513000
  H      44.788000     19.945000     36.232000
  H      44.445000     21.661000     36.639000
  C      43.394000     20.234000     37.819000
  C      42.925000     21.311000     38.826000
  O      43.668000     22.308000     38.956000
  O      41.861000     21.069000     39.448000
  O      43.248000     19.057000     38.093000
  C      41.216000     18.941000     35.837000
  H      40.885000     17.904000     35.872000
  C      42.369000     19.274000     35.248000
  H      43.006000     18.514000     34.788000
  C      42.943000     20.667000     35.337000
  C      41.847000     21.661000     35.630000
  H      42.039000     22.693000     35.349000
  C      40.691000     21.331000     36.208000
  H      39.952000     22.105000     36.430000
  C      40.297000     19.915000     36.529000
  H      40.387000     19.767000     37.623000
  O      38.960000     19.678000     36.115000
  H      38.356000     19.505000     36.900000
  C      43.723000     21.074000     34.043000
  O      44.827000     20.504000     33.827000
  O      43.257000     21.999000     33.339000
24
Coordinates from ORCA-job neb_MEP_ALL.QMRegion E -1076.506452458426
  C      44.548000     20.393000     37.290000
  H      44.921000     19.659000     36.575000
  H      45.141000     21.280000     37.513000
  C      43.362000     20.252000     37.894000
  C      42.843000     21.307000     38.861000
  O      43.561000     22.317000     39.046000
  O      41.729000     21.090000     39.413000
  O      42.560000     19.150000     37.687000
  C      41.689000     19.080000     36.495000
  H      41.347000     18.036000     36.492000
  C      42.523000     19.394000     35.292000
  H      43.230000     18.641000     34.940000
  C      42.555000     20.645000     34.792000
  C      41.619000     21.654000     35.301000
  H      41.739000     22.662000     34.909000
  C      40.667000     21.365000     36.203000
  H      39.992000     22.151000     36.553000
  C      40.441000     19.968000     36.709000
  H      40.300000     20.009000     37.799000
  O      39.300000     19.403000     36.075000
  H      38.572000     19.274000     36.758000
  C      43.591000     21.118000     33.781000
  O      44.695000     20.512000     33.694000
  O      43.298000     22.166000     33.151000
24
Coordinates from ORCA-job neb_MEP_ALL.QMRegion E -1076.509325951215
  C      44.477434     20.497378     37.133579
  H      44.837671     19.815621     36.365144
  H      45.015400     21.427035     37.315066
  C      43.349024     20.277953     37.824024
  C      42.849861     21.303131     38.834319
  O      43.567518     22.311219     39.028781
  O      41.746925     21.073807     39.404609
  O      42.582120     19.145980     37.650499
  C      41.673641     19.037479     36.471395
  H      41.350489     17.988866     36.498986
  C      42.475645     19.350300     35.249898
  H      43.141677     18.584334     34.849018
  C      42.552362     20.621848     34.810236
  C      41.655063     21.638340     35.375300
  H      41.814951     22.663278     35.047926
  C      40.687042     21.335739     36.255193
  H      40.026142     22.120950     36.630081
  C      40.434044     19.927018     36.716618
  H      40.308488     19.938944     37.809364
  O      39.276307     19.398824     36.088154
  H      38.551473     19.280336     36.774986
  C      43.586132     21.106173     33.805208
  O      44.696729     20.511002     33.718064
  O      43.290433     22.156021     33.180024
24
Coordinates from ORCA-job neb_MEP_ALL.QMRegion E -1076.502261588641
  C      44.403092     20.573544     36.998295
  H      44.798252     19.887480     36.251931
  H      44.845368     21.568726     37.067481
  C      43.344519     20.283050     37.776921
  C      42.859292     21.308263     38.801606
  O      43.583382     22.312856     38.999793
  O      41.766183     21.077967     39.391457
  O      42.610131     19.126083     37.631988
  C      41.648736     18.988168     36.415195
  H      41.347294     17.931929     36.453481
  C      42.453061     19.321393     35.219160
  H      43.092392     18.554931     34.778773
  C      42.609105     20.620523     34.886188
  C      41.718454     21.633043     35.470172
  H      41.904396     22.670161     35.199880
  C      40.698512     21.305203     36.279035
  H      40.006000     22.075608     36.627589
  C      40.419944     19.888497     36.695436
  H      40.330808     19.863207     37.789990
  O      39.222100     19.426186     36.089041
  H      38.510340     19.309165     36.794956
  C      43.632135     21.102720     33.874375
  O      44.744297     20.513936     33.769117
  O      43.307147     22.134051     33.234286
24
Coordinates from ORCA-job neb_MEP_ALL.QMRegion E -1076.491896738608
  C      44.389581     20.596251     36.962541
  H      44.811042     19.888121     36.252309
  H      44.808900     21.602073     36.996514
  C      43.366821     20.276221     37.794289
  C      42.869913     21.316266     38.804427
  O      43.591890     22.323365     38.998129
  O      41.772469     21.087320     39.388392
  O      42.685894     19.119877     37.691386
  C      41.588146     18.963956     36.324379
  H      41.329438     17.903377     36.418205
  C      42.442979     19.313622     35.215269
  H      43.092621     18.553745     34.780204
  C      42.648938     20.630687     34.942357
  C      41.736227     21.638157     35.496733
  H      41.916524     22.675025     35.220868
  C      40.697276     21.301276     36.276188
  H      39.992360     22.066245     36.611272
  C      40.408677     19.882450     36.675021
  H      40.345981     19.837276     37.770550
  O      39.189949     19.450827     36.085940
  H      38.488551     19.320390     36.802577
  C      43.655020     21.103156     33.905083
  O      44.760312     20.511520     33.773759
  O      43.307519     22.120513     33.254723
24
Coordinates from ORCA-job neb_MEP_ALL.QMRegion E -1076.485889803281
  C      44.375976     20.611885     36.929859
  H      44.820226     19.885481     36.253679
  H      44.796857     21.615922     36.965584
  C      43.382520     20.269450     37.812540
  C      42.875194     21.323217     38.808492
  O      43.595659     22.331441     38.999103
  O      41.775935     21.092696     39.387174
  O      42.764208     19.119589     37.762998
  C      41.529297     18.946804     36.238882
  H      41.316163     17.888187     36.397667
  C      42.432543     19.305278     35.216787
  H      43.092387     18.552509     34.784704
  C      42.676140     20.640690     34.980881
  C      41.743987     21.641142     35.506742
  H      41.921468     22.677058     35.227471
  C      40.695616     21.299485     36.271442
  H      39.988695     22.063092     36.604484
  C      40.401622     19.879360     36.659182
  H      40.355405     19.825143     37.756655
  O      39.170287     19.463387     36.082957
  H      38.477703     19.324453     36.806650
  C      43.667109     21.104895     33.921281
  O      44.766587     20.509093     33.773849
  O      43.305862     22.112213     33.262333
24
Coordinates from ORCA-job neb_MEP_ALL.QMRegion E -1076.484020387543
  C      44.344411     20.630569     36.876044
  H      44.831306     19.882499     36.255467
  H      44.778254     21.628018     36.929531
  C      43.392969     20.265850     37.825043
  C      42.879119     21.329652     38.812086
  O      43.601104     22.336903     38.998809
  O      41.780701     21.096587     39.388264
  O      42.841462     19.116783     37.830256
  C      41.478119     18.932196     36.164628
  H      41.298186     17.877490     36.370721
  C      42.427161     19.298102     35.226235
  H      43.092956     18.551111     34.792339
  C      42.716822     20.653761     35.034866
  C      41.753925     21.645196     35.520600
  H      41.925823     22.680155     35.235364
  C      40.694125     21.297673     36.266259
  H      39.983795     22.059909     36.595660
  C      40.394667     19.875793     36.644006
  H      40.361948     19.813356     37.743159
  O      39.150780     19.476848     36.080976
  H      38.466589     19.329950     36.810798
  C      43.680426     21.106594     33.939422
  O      44.774429     20.507364     33.773580
  O      43.303233     22.102635     33.272165
24
Coordinates from ORCA-job neb_MEP_ALL.QMRegion E -1076.487608057667
  C      44.260927     20.651240     36.764567
  H      44.835949     19.877815     36.258511
  H      44.738439     21.628298     36.874322
  C      43.387875     20.263190     37.823702
  C      42.881771     21.332615     38.814045
  O      43.610248     22.335358     38.993614
  O      41.788091     21.096036     39.392988
  O      42.912216     19.113114     37.891397
  C      41.442319     18.920554     36.104693
  H      41.278161     17.868623     36.336725
  C      42.429910     19.290722     35.243738
  H      43.096422     18.547229     34.802845
  C      42.798874     20.671798     35.132371
  C      41.772876     21.648943     35.545989
  H      41.931916     22.681828     35.245683
  C      40.697106     21.294118     36.261198
  H      39.977117     22.053879     36.577704
  C      40.391947     19.870395     36.633365
  H      40.366113     19.801068     37.733532
  O      39.138606     19.487554     36.080222
  H      38.460402     19.332808     36.812782
  C      43.699785     21.107575     33.963969
  O      44.787607     20.505767     33.771489
  O      43.298722     22.086262     33.285766
24
Coordinates from ORCA-job neb_MEP_ALL.QMRegion E -1076.499011233004
  C      44.159587     20.664589     36.644487
  H      44.826179     19.882718     36.265831
  H      44.685873     21.616928     36.816114
  C      43.373040     20.263119     37.816419
  C      42.885761     21.335885     38.816962
  O      43.619464     22.334003     38.989183
  O      41.796673     21.095118     39.398287
  O      42.970626     19.111077     37.942780
  C      41.422765     18.914922     36.064202
  H      41.258471     17.863201     36.300092
  C      42.439346     19.286658     35.261604
  H      43.101533     18.543178     34.812694
  C      42.891363     20.689318     35.235034
  C      41.796062     21.651333     35.574748
  H      41.939415     22.681903     35.257341
  C      40.703345     21.291007     36.256792
  H      39.971645     22.048053     36.556808
  C      40.392398     19.866473     36.626036
  H      40.370861     19.789109     37.726826
  O      39.130978     19.498920     36.080991
  H      38.456869     19.336078     36.815066
  C      43.716382     21.108652     33.986090
  O      44.799708     20.505742     33.770683
  O      43.293014     22.070256     33.298132
24
Coordinates from ORCA-job neb_MEP_ALL.QMRegion E -1076.518512751426
  C      44.046600     20.679702     36.533393
  H      44.802332     19.928240     36.264171
  H      44.557925     21.637730     36.704248
  C      43.356954     20.268918     37.804338
  C      42.899858     21.339591     38.817617
  O      43.648967     22.328369     38.976884
  O      41.826603     21.095831     39.421921
  O      43.094633     19.104827     38.029200
  C      41.367483     18.913022     35.974512
  H      41.158251     17.859360     36.159418
  C      42.450099     19.281269     35.279183
  H      43.106307     18.529801     34.835174
  C      42.973476     20.694263     35.325061
  C      41.845107     21.655765     35.623980
  H      41.981560     22.686426     35.301689
  C      40.716541     21.291399     36.241053
  H      39.966406     22.046311     36.496387
  C      40.373751     19.867969     36.585632
  H      40.386973     19.765415     37.687036
  O      39.084494     19.546858     36.080221
  H      38.430313     19.372847     36.830419
  C      43.741879     21.098964     34.021206
  O      44.828840     20.507398     33.785186
  O      43.280837     22.033030     33.323333
24
Coordinates from ORCA-job neb_MEP_ALL.QMRegion E -1076.526823241864
  C      44.006000     20.664000     36.513000
  H      44.788000     19.945000     36.232000
  H      44.445000     21.661000     36.639000
  C      43.394000     20.234000     37.819000
  C      42.925000     21.311000     38.826000
  O      43.668000     22.308000     38.956000
  O      41.861000     21.069000     39.448000
  O      43.248000     19.057000     38.093000
  C      41.216000     18.941000     35.837000
  H      40.885000     17.904000     35.872000
  C      42.369000     19.274000     35.248000
  H      43.006000     18.514000     34.788000
  C      42.943000     20.667000     35.337000
  C      41.847000     21.661000     35.630000
  H      42.039000     22.693000     35.349000
  C      40.691000     21.331000     36.208000
  H      39.952000     22.105000     36.430000
  C      40.297000     19.915000     36.529000
  H      40.387000     19.767000     37.623000
  O      38.960000     19.678000     36.115000
  H      38.356000     19.505000     36.900000
  C      43.723000     21.074000     34.043000
  O      44.827000     20.504000     33.827000
  O      43.257000     21.999000     33.339000
