24
Coordinates from ORCA-job neb_MEP.QMRegion E -1076.506452458426
  C      44.548000     20.393000     37.290000
  H      44.921000     19.659000     36.575000
  H      45.141000     21.280000     37.513000
  C      43.362000     20.252000     37.894000
  C      42.843000     21.307000     38.861000
  O      43.561000     22.317000     39.046000
  O      41.729000     21.090000     39.413000
  O      42.560000     19.150000     37.687000
  C      41.689000     19.080000     36.495000
  H      41.347000     18.036000     36.492000
  C      42.523000     19.394000     35.292000
  H      43.230000     18.641000     34.940000
  C      42.555000     20.645000     34.792000
  C      41.619000     21.654000     35.301000
  H      41.739000     22.662000     34.909000
  C      40.667000     21.365000     36.203000
  H      39.992000     22.151000     36.553000
  C      40.441000     19.968000     36.709000
  H      40.300000     20.009000     37.799000
  O      39.300000     19.403000     36.075000
  H      38.572000     19.274000     36.758000
  C      43.591000     21.118000     33.781000
  O      44.695000     20.512000     33.694000
  O      43.298000     22.166000     33.151000
24
Coordinates from ORCA-job neb_MEP.QMRegion E -1076.509325951215
  C      44.477434     20.497378     37.133579
  H      44.837671     19.815621     36.365144
  H      45.015400     21.427035     37.315066
  C      43.349024     20.277953     37.824024
  C      42.849861     21.303131     38.834319
  O      43.567518     22.311219     39.028781
  O      41.746925     21.073807     39.404609
  O      42.582120     19.145980     37.650499
  C      41.673641     19.037479     36.471395
  H      41.350489     17.988866     36.498986
  C      42.475645     19.350300     35.249898
  H      43.141677     18.584334     34.849018
  C      42.552362     20.621848     34.810236
  C      41.655063     21.638340     35.375300
  H      41.814951     22.663278     35.047926
  C      40.687042     21.335739     36.255193
  H      40.026142     22.120950     36.630081
  C      40.434044     19.927018     36.716618
  H      40.308488     19.938944     37.809364
  O      39.276307     19.398824     36.088154
  H      38.551473     19.280336     36.774986
  C      43.586132     21.106173     33.805208
  O      44.696729     20.511002     33.718064
  O      43.290433     22.156021     33.180024
24
Coordinates from ORCA-job neb_MEP.QMRegion E -1076.502261588641
  C      44.403092     20.573544     36.998295
  H      44.798252     19.887480     36.251931
  H      44.845368     21.568726     37.067481
  C      43.344519     20.283050     37.776921
  C      42.859292     21.308263     38.801606
  O      43.583382     22.312856     38.999793
  O      41.766183     21.077967     39.391457
  O      42.610131     19.126083     37.631988
  C      41.648736     18.988168     36.415195
  H      41.347294     17.931929     36.453481
  C      42.453061     19.321393     35.219160
  H      43.092392     18.554931     34.778773
  C      42.609105     20.620523     34.886188
  C      41.718454     21.633043     35.470172
  H      41.904396     22.670161     35.199880
  C      40.698512     21.305203     36.279035
  H      40.006000     22.075608     36.627589
  C      40.419944     19.888497     36.695436
  H      40.330808     19.863207     37.789990
  O      39.222100     19.426186     36.089041
  H      38.510340     19.309165     36.794956
  C      43.632135     21.102720     33.874375
  O      44.744297     20.513936     33.769117
  O      43.307147     22.134051     33.234286
24
Coordinates from ORCA-job neb_MEP.QMRegion E -1076.491896738608
  C      44.389581     20.596251     36.962541
  H      44.811042     19.888121     36.252309
  H      44.808900     21.602073     36.996514
  C      43.366821     20.276221     37.794289
  C      42.869913     21.316266     38.804427
  O      43.591890     22.323365     38.998129
  O      41.772469     21.087320     39.388392
  O      42.685894     19.119877     37.691386
  C      41.588146     18.963956     36.324379
  H      41.329438     17.903377     36.418205
  C      42.442979     19.313622     35.215269
  H      43.092621     18.553745     34.780204
  C      42.648938     20.630687     34.942357
  C      41.736227     21.638157     35.496733
  H      41.916524     22.675025     35.220868
  C      40.697276     21.301276     36.276188
  H      39.992360     22.066245     36.611272
  C      40.408677     19.882450     36.675021
  H      40.345981     19.837276     37.770550
  O      39.189949     19.450827     36.085940
  H      38.488551     19.320390     36.802577
  C      43.655020     21.103156     33.905083
  O      44.760312     20.511520     33.773759
  O      43.307519     22.120513     33.254723
24
Coordinates from ORCA-job neb_MEP.QMRegion E -1076.485889803281
  C      44.375976     20.611885     36.929859
  H      44.820226     19.885481     36.253679
  H      44.796857     21.615922     36.965584
  C      43.382520     20.269450     37.812540
  C      42.875194     21.323217     38.808492
  O      43.595659     22.331441     38.999103
  O      41.775935     21.092696     39.387174
  O      42.764208     19.119589     37.762998
  C      41.529297     18.946804     36.238882
  H      41.316163     17.888187     36.397667
  C      42.432543     19.305278     35.216787
  H      43.092387     18.552509     34.784704
  C      42.676140     20.640690     34.980881
  C      41.743987     21.641142     35.506742
  H      41.921468     22.677058     35.227471
  C      40.695616     21.299485     36.271442
  H      39.988695     22.063092     36.604484
  C      40.401622     19.879360     36.659182
  H      40.355405     19.825143     37.756655
  O      39.170287     19.463387     36.082957
  H      38.477703     19.324453     36.806650
  C      43.667109     21.104895     33.921281
  O      44.766587     20.509093     33.773849
  O      43.305862     22.112213     33.262333
24
Coordinates from ORCA-job neb_MEP.QMRegion E -1076.484020387543
  C      44.344411     20.630569     36.876044
  H      44.831306     19.882499     36.255467
  H      44.778254     21.628018     36.929531
  C      43.392969     20.265850     37.825043
  C      42.879119     21.329652     38.812086
  O      43.601104     22.336903     38.998809
  O      41.780701     21.096587     39.388264
  O      42.841462     19.116783     37.830256
  C      41.478119     18.932196     36.164628
  H      41.298186     17.877490     36.370721
  C      42.427161     19.298102     35.226235
  H      43.092956     18.551111     34.792339
  C      42.716822     20.653761     35.034866
  C      41.753925     21.645196     35.520600
  H      41.925823     22.680155     35.235364
  C      40.694125     21.297673     36.266259
  H      39.983795     22.059909     36.595660
  C      40.394667     19.875793     36.644006
  H      40.361948     19.813356     37.743159
  O      39.150780     19.476848     36.080976
  H      38.466589     19.329950     36.810798
  C      43.680426     21.106594     33.939422
  O      44.774429     20.507364     33.773580
  O      43.303233     22.102635     33.272165
24
Coordinates from ORCA-job neb_MEP.QMRegion E -1076.487608057667
  C      44.260927     20.651240     36.764567
  H      44.835949     19.877815     36.258511
  H      44.738439     21.628298     36.874322
  C      43.387875     20.263190     37.823702
  C      42.881771     21.332615     38.814045
  O      43.610248     22.335358     38.993614
  O      41.788091     21.096036     39.392988
  O      42.912216     19.113114     37.891397
  C      41.442319     18.920554     36.104693
  H      41.278161     17.868623     36.336725
  C      42.429910     19.290722     35.243738
  H      43.096422     18.547229     34.802845
  C      42.798874     20.671798     35.132371
  C      41.772876     21.648943     35.545989
  H      41.931916     22.681828     35.245683
  C      40.697106     21.294118     36.261198
  H      39.977117     22.053879     36.577704
  C      40.391947     19.870395     36.633365
  H      40.366113     19.801068     37.733532
  O      39.138606     19.487554     36.080222
  H      38.460402     19.332808     36.812782
  C      43.699785     21.107575     33.963969
  O      44.787607     20.505767     33.771489
  O      43.298722     22.086262     33.285766
24
Coordinates from ORCA-job neb_MEP.QMRegion E -1076.499011233004
  C      44.159587     20.664589     36.644487
  H      44.826179     19.882718     36.265831
  H      44.685873     21.616928     36.816114
  C      43.373040     20.263119     37.816419
  C      42.885761     21.335885     38.816962
  O      43.619464     22.334003     38.989183
  O      41.796673     21.095118     39.398287
  O      42.970626     19.111077     37.942780
  C      41.422765     18.914922     36.064202
  H      41.258471     17.863201     36.300092
  C      42.439346     19.286658     35.261604
  H      43.101533     18.543178     34.812694
  C      42.891363     20.689318     35.235034
  C      41.796062     21.651333     35.574748
  H      41.939415     22.681903     35.257341
  C      40.703345     21.291007     36.256792
  H      39.971645     22.048053     36.556808
  C      40.392398     19.866473     36.626036
  H      40.370861     19.789109     37.726826
  O      39.130978     19.498920     36.080991
  H      38.456869     19.336078     36.815066
  C      43.716382     21.108652     33.986090
  O      44.799708     20.505742     33.770683
  O      43.293014     22.070256     33.298132
24
Coordinates from ORCA-job neb_MEP.QMRegion E -1076.518512751426
  C      44.046600     20.679702     36.533393
  H      44.802332     19.928240     36.264171
  H      44.557925     21.637730     36.704248
  C      43.356954     20.268918     37.804338
  C      42.899858     21.339591     38.817617
  O      43.648967     22.328369     38.976884
  O      41.826603     21.095831     39.421921
  O      43.094633     19.104827     38.029200
  C      41.367483     18.913022     35.974512
  H      41.158251     17.859360     36.159418
  C      42.450099     19.281269     35.279183
  H      43.106307     18.529801     34.835174
  C      42.973476     20.694263     35.325061
  C      41.845107     21.655765     35.623980
  H      41.981560     22.686426     35.301689
  C      40.716541     21.291399     36.241053
  H      39.966406     22.046311     36.496387
  C      40.373751     19.867969     36.585632
  H      40.386973     19.765415     37.687036
  O      39.084494     19.546858     36.080221
  H      38.430313     19.372847     36.830419
  C      43.741879     21.098964     34.021206
  O      44.828840     20.507398     33.785186
  O      43.280837     22.033030     33.323333
24
Coordinates from ORCA-job neb_MEP.QMRegion E -1076.526823241864
  C      44.006000     20.664000     36.513000
  H      44.788000     19.945000     36.232000
  H      44.445000     21.661000     36.639000
  C      43.394000     20.234000     37.819000
  C      42.925000     21.311000     38.826000
  O      43.668000     22.308000     38.956000
  O      41.861000     21.069000     39.448000
  O      43.248000     19.057000     38.093000
  C      41.216000     18.941000     35.837000
  H      40.885000     17.904000     35.872000
  C      42.369000     19.274000     35.248000
  H      43.006000     18.514000     34.788000
  C      42.943000     20.667000     35.337000
  C      41.847000     21.661000     35.630000
  H      42.039000     22.693000     35.349000
  C      40.691000     21.331000     36.208000
  H      39.952000     22.105000     36.430000
  C      40.297000     19.915000     36.529000
  H      40.387000     19.767000     37.623000
  O      38.960000     19.678000     36.115000
  H      38.356000     19.505000     36.900000
  C      43.723000     21.074000     34.043000
  O      44.827000     20.504000     33.827000
  O      43.257000     21.999000     33.339000
