25
Coordinates from ORCA-job job
  C          44.84866399009189     21.09067341336426     40.49828150218254
  H          45.12144132385551     20.91931538764829     39.45470356148095
  H          45.53541845134991     21.61465626463730     41.16599256614778
  C          43.66562930202850     20.71588515429541     41.01303428465126
  C          43.27955737027246     21.07419477811485     42.48223801634440
  O          44.23647256915724     21.28111751586683     43.26440879898470
  O          42.04956111209005     21.15337140593067     42.71236092916541
  O          42.74095651748347     19.98357907302492     40.30347777992741
  C          42.00524911027495     20.56008895163276     39.19667867438437
  H          41.38124452899176     19.71172454287092     38.86406624389757
  C          42.89200000000000     20.97500000000000     38.05400000000000
  H          43.51346631294710     20.21846078092847     37.56568626744764
  C          42.96900000000000     22.24400000000000     37.60500000000000
  C          42.11800000000000     23.28100000000000     38.20199999999999
  H          42.27593382000650     24.28755217724408     37.80526186081550
  C          41.18800000000000     23.00200000000000     39.13000000000000
  H          40.54535565987452     23.78763905089263     39.54722968538930
  C          40.98158958488612     21.62448859694258     39.69721020247129
  H          41.12624719211064     21.65824521008206     40.79624161416391
  O          39.63218470822496     21.22652909693165     39.40072349521275
  H          39.28968244772550     20.71514507451478     40.15100359777500
  C          43.90251450544669     22.63284940883176     36.42138551603585
  O          44.60892872434150     21.71442676335931     35.94386055388594
  O          43.84627760708238     23.83743796935856     36.06311874373365
  N          37.43598037999999     19.72154179000000     41.19694341000000
