25
Coordinates from ORCA-job job E -836.079443220832
  C      44.842000     22.068000     40.142000
  H      45.265000     21.440000     39.358000
  H      45.368000     22.976000     40.435000
  C      43.689000     21.758000     40.746000
  C      43.115000     22.623000     41.859000
  O      43.577000     23.785000     42.012000
  O      42.221000     22.117000     42.579000
  O      42.985000     20.610000     40.433000
  C      42.079000     20.646000     39.270000
  H      41.683000     19.622000     39.219000
  C      42.892000     20.975000     38.054000
  H      43.551000     20.209000     37.638000
  C      42.969000     22.244000     37.605000
  C      42.118000     23.281000     38.202000
  H      42.307000     24.301000     37.867000
  C      41.188000     23.002000     39.130000
  H      40.598000     23.809000     39.575000
  C      40.887000     21.588000     39.553000
  H      40.742000     21.566000     40.644000
  O      39.715000     21.144000     38.884000
  H      39.068000     20.737000     39.535000
  C      44.024000     22.694000     36.600000
  O      44.937000     21.905000     36.259000
  O      43.944000     23.900000     36.236000
  N      37.435980     19.721542     41.196943
25
Coordinates from ORCA-job job E -836.087212002189
  C      44.848798     21.974469     40.449095
  H      45.312916     21.430519     39.623216
  H      45.360366     22.838562     40.873916
  C      43.644441     21.640304     40.933494
  C      43.010384     22.397174     42.113526
  O      43.544908     23.488346     42.441616
  O      42.038024     21.837258     42.682719
  O      42.950121     20.540458     40.462426
  C      42.085005     20.639700     39.277198
  H      41.673259     19.620261     39.205931
  C      42.892000     20.975000     38.054000
  H      43.542645     20.210103     37.621181
  C      42.969000     22.244000     37.605000
  C      42.118000     23.281000     38.202000
  H      42.303921     24.298274     37.854262
  C      41.188000     23.002000     39.130000
  H      40.591045     23.805266     39.575120
  C      40.895246     21.585708     39.563785
  H      40.759201     21.561552     40.658455
  O      39.710236     21.128628     38.902281
  H      39.096214     20.739070     39.547516
  C      43.996567     22.661979     36.539825
  O      44.814579     21.794761     36.144204
  O      43.872201     23.835933     36.090889
  N      37.435980     19.721542     41.196943
25
Coordinates from ORCA-job job E -836.089211435257
  C      44.877153     21.860296     40.538181
  H      45.326451     21.349604     39.679884
  H      45.405383     22.687265     41.015848
  C      43.651995     21.553015     40.993337
  C      43.027438     22.275307     42.226591
  O      43.641786     23.299132     42.613850
  O      41.983333     21.752472     42.695746
  O      42.942380     20.496468     40.459840
  C      42.094287     20.634662     39.284855
  H      41.667500     19.619822     39.207950
  C      42.892000     20.975000     38.054000
  H      43.536863     20.214855     37.603734
  C      42.969000     22.244000     37.605000
  C      42.118000     23.281000     38.202000
  H      42.297804     24.294967     37.835744
  C      41.188000     23.002000     39.130000
  H      40.578895     23.799109     39.572819
  C      40.909725     21.586329     39.579619
  H      40.786079     21.561380     40.677782
  O      39.710148     21.116631     38.929859
  H      39.128398     20.741337     39.580961
  C      43.956005     22.631104     36.470204
  O      44.789545     21.747553     36.148849
  O      43.895918     23.829203     36.080378
  N      37.435980     19.721542     41.196943
25
Coordinates from ORCA-job job E -836.092178312673
  C      44.904984     21.788370     40.415408
  H      45.286373     21.288654     39.517983
  H      45.468943     22.600112     40.879472
  C      43.698725     21.502837     40.932434
  C      43.150175     22.224950     42.220447
  O      43.908617     23.106492     42.680991
  O      42.044476     21.811344     42.640671
  O      42.965408     20.459542     40.420120
  C      42.100352     20.628798     39.285892
  H      41.648783     19.625875     39.199950
  C      42.892000     20.975000     38.054000
  H      43.528080     20.219629     37.584726
  C      42.969000     22.244000     37.605000
  C      42.118000     23.281000     38.202000
  H      42.287142     24.291241     37.815402
  C      41.188000     23.002000     39.130000
  H      40.561479     23.791928     39.562706
  C      40.931078     21.592995     39.603569
  H      40.832297     21.573225     40.704102
  O      39.713702     21.119415     38.981777
  H      39.148476     20.742431     39.664129
  C      43.875067     22.609862     36.384065
  O      44.575675     21.670095     35.938330
  O      43.743851     23.780582     35.946404
  N      37.435980     19.721542     41.196943
25
Coordinates from ORCA-job job E -836.093694457173
  C      44.874740     21.759486     40.558218
  H      45.300163     21.311352     39.657558
  H      45.409795     22.549118     41.088614
  C      43.654728     21.426502     41.008442
  C      43.045016     22.075714     42.299363
  O      43.800142     22.867838     42.907192
  O      41.877561     21.729507     42.586582
  O      42.948131     20.397562     40.422336
  C      42.089593     20.620258     39.276828
  H      41.610071     19.635526     39.149909
  C      42.892000     20.975000     38.054000
  H      43.520893     20.217587     37.578154
  C      42.969000     22.244000     37.605000
  C      42.118000     23.281000     38.202000
  H      42.287402     24.291266     37.819785
  C      41.188000     23.002000     39.130000
  H      40.559049     23.791887     39.557209
  C      40.932972     21.596722     39.609165
  H      40.853088     21.583470     40.709801
  O      39.704322     21.132302     39.012634
  H      39.140127     20.745026     39.712898
  C      43.863004     22.621465     36.383809
  O      44.578037     21.707723     35.910540
  O      43.752057     23.806452     35.982272
  N      37.435980     19.721542     41.196943
25
Coordinates from ORCA-job job E -836.094133510187
  C      44.889987     21.676309     40.524471
  H      45.254083     21.295401     39.568178
  H      45.469162     22.410191     41.087498
  C      43.698280     21.311764     41.023122
  C      43.174439     21.880452     42.387326
  O      44.019828     22.511479     43.062671
  O      42.002346     21.575335     42.700820
  O      42.949139     20.327306     40.409156
  C      42.085703     20.612214     39.273753
  H      41.576261     19.647409     39.113550
  C      42.892000     20.975000     38.054000
  H      43.515949     20.217935     37.569457
  C      42.969000     22.244000     37.605000
  C      42.118000     23.281000     38.202000
  H      42.285658     24.290153     37.817369
  C      41.188000     23.002000     39.130000
  H      40.551164     23.789786     39.549795
  C      40.942914     21.601580     39.626601
  H      40.894424     21.599648     40.729575
  O      39.693534     21.137889     39.069434
  H      39.153859     20.750670     39.783434
  C      43.858070     22.625147     36.381686
  O      44.568442     21.715048     35.895197
  O      43.782588     23.824894     36.015918
  N      37.435980     19.721542     41.196943
25
Coordinates from ORCA-job job E -836.093620088718
  C      44.920968     21.558982     40.440183
  H      45.188431     21.260504     39.423820
  H      45.571987     22.213134     41.022797
  C      43.774714     21.157453     41.012073
  C      43.380669     21.639399     42.451055
  O      44.298148     22.212810     43.085365
  O      42.170418     21.553061     42.760731
  O      42.953877     20.237801     40.385550
  C      42.083386     20.602380     39.272146
  H      41.534298     19.666378     39.073855
  C      42.892000     20.975000     38.054000
  H      43.510246     20.218896     37.557888
  C      42.969000     22.244000     37.605000
  C      42.118000     23.281000     38.202000
  H      42.283242     24.288396     37.812586
  C      41.188000     23.002000     39.130000
  H      40.539266     23.786072     39.540250
  C      40.960506     21.608990     39.655981
  H      40.962674     21.625176     40.761917
  O      39.679541     21.141724     39.166036
  H      39.186366     20.758304     39.897752
  C      43.858565     22.629323     36.383876
  O      44.538367     21.711690     35.868637
  O      43.805298     23.838283     36.039749
  N      37.435980     19.721542     41.196943
25
Coordinates from ORCA-job job E -836.095465770117
  C      44.901453     21.519137     40.492003
  H      45.228510     21.168015     39.509898
  H      45.518424     22.203517     41.076735
  C      43.716728     21.158462     41.012240
  C      43.223765     21.727351     42.386110
  O      44.117206     22.240963     43.100694
  O      41.995683     21.636871     42.616384
  O      42.910384     20.233570     40.381331
  C      42.069319     20.597393     39.258846
  H      41.521244     19.661673     39.057106
  C      42.892000     20.975000     38.054000
  H      43.515976     20.220605     37.564240
  C      42.969000     22.244000     37.605000
  C      42.118000     23.281000     38.202000
  H      42.284822     24.289093     37.813026
  C      41.188000     23.002000     39.130000
  H      40.542488     23.787057     39.543885
  C      40.956841     21.608438     39.653559
  H      40.968068     21.620389     40.760598
  O      39.670524     21.149912     39.174570
  H      39.183192     20.760883     39.911430
  C      43.875001     22.628678     36.396163
  O      44.560151     21.705348     35.898133
  O      43.821181     23.835597     36.045267
  N      37.435980     19.721542     41.196943
25
Coordinates from ORCA-job job E -836.095754325498
  C      44.845251     21.499820     40.521086
  H      45.154512     21.234921     39.507574
  H      45.464214     22.148906     41.142627
  C      43.680801     21.076245     41.039124
  C      43.216566     21.525738     42.462263
  O      44.122297     21.968626     43.207761
  O      41.995266     21.401606     42.712031
  O      42.875649     20.180125     40.367035
  C      42.054219     20.588958     39.244282
  H      41.490705     19.668759     39.015362
  C      42.892000     20.975000     38.054000
  H      43.515907     20.220558     37.565289
  C      42.969000     22.244000     37.605000
  C      42.118000     23.281000     38.202000
  H      42.284921     24.289273     37.813654
  C      41.188000     23.002000     39.130000
  H      40.544726     23.787899     39.545294
  C      40.958315     21.610983     39.659422
  H      40.995187     21.627709     40.765809
  O      39.658873     21.163198     39.212825
  H      39.186043     20.763364     39.964308
  C      43.886523     22.631635     36.407876
  O      44.578173     21.711488     35.912844
  O      43.838140     23.839583     36.060242
  N      37.435980     19.721542     41.196943
25
Coordinates from ORCA-job job E -836.096026426043
  C      44.857831     21.399625     40.505320
  H      45.152457     21.148661     39.484065
  H      45.498085     22.021897     41.132925
  C      43.688796     20.994494     41.028539
  C      43.249905     21.434710     42.459665
  O      44.176259     21.808281     43.217617
  O      42.020429     21.383970     42.698008
  O      42.845839     20.135744     40.355376
  C      42.043467     20.581791     39.233176
  H      41.465895     19.675804     38.982183
  C      42.892000     20.975000     38.054000
  H      43.517416     20.220649     37.567350
  C      42.969000     22.244000     37.605000
  C      42.118000     23.281000     38.202000
  H      42.283836     24.288968     37.812193
  C      41.188000     23.002000     39.130000
  H      40.544999     23.788015     39.545827
  C      40.962582     21.613702     39.668190
  H      41.024861     21.634562     40.774090
  O      39.649899     21.175435     39.256920
  H      39.200881     20.768119     40.017851
  C      43.898666     22.633019     36.418725
  O      44.597388     21.712796     35.933103
  O      43.849457     23.839824     36.066618
  N      37.435980     19.721542     41.196943
25
Coordinates from ORCA-job job E -836.096235894144
  C      44.843581     21.279328     40.501854
  H      45.127027     21.071241     39.467743
  H      45.501198     21.863839     41.147899
  C      43.673020     20.875549     41.023580
  C      43.256018     21.275262     42.470974
  O      44.194048     21.575104     43.246481
  O      42.021874     21.290752     42.694662
  O      42.791568     20.070937     40.336911
  C      42.024471     20.570940     39.213546
  H      41.428433     19.687025     38.927391
  C      42.892000     20.975000     38.054000
  H      43.518708     20.219825     37.570546
  C      42.969000     22.244000     37.605000
  C      42.118000     23.281000     38.202000
  H      42.281070     24.288450     37.809282
  C      41.188000     23.002000     39.130000
  H      40.546502     23.788384     39.547839
  C      40.967403     21.617469     39.677598
  H      41.066415     21.642068     40.781521
  O      39.637273     21.198546     39.316251
  H      39.226701     20.776445     40.087314
  C      43.908138     22.632844     36.426910
  O      44.618735     21.713718     35.955846
  O      43.851949     23.836172     36.064520
  N      37.435980     19.721542     41.196943
25
Coordinates from ORCA-job job E -836.096277216665
  C      44.853648     21.185649     40.489914
  H      45.124846     20.999937     39.448450
  H      45.531327     21.736379     41.145151
  C      43.680086     20.795384     41.015354
  C      43.288901     21.172755     42.477314
  O      44.242110     21.396664     43.259431
  O      42.057538     21.250341     42.703344
  O      42.768698     20.029629     40.324437
  C      42.016727     20.565399     39.206561
  H      41.406648     19.697950     38.899523
  C      42.892000     20.975000     38.054000
  H      43.516521     20.219240     37.568329
  C      42.969000     22.244000     37.605000
  C      42.118000     23.281000     38.202000
  H      42.277858     24.287606     37.805891
  C      41.188000     23.002000     39.130000
  H      40.545164     23.787956     39.546722
  C      40.974009     21.620216     39.688301
  H      41.096757     21.648944     40.789950
  O      39.632734     21.207430     39.361628
  H      39.243068     20.775503     40.139531
  C      43.903840     22.632148     36.422434
  O      44.615673     21.714071     35.951542
  O      43.844313     23.834711     36.058765
  N      37.435980     19.721542     41.196943
25
Coordinates from ORCA-job job E -836.096296672911
  C      44.847879     21.151740     40.496828
  H      45.122600     20.975732     39.454653
  H      45.527828     21.690844     41.159582
  C      43.670626     20.764990     41.016250
  C      43.280263     21.131637     42.482050
  O      44.233293     21.344740     43.267048
  O      42.048986     21.211697     42.706796
  O      42.753743     20.013187     40.318129
  C      42.010862     20.563206     39.201358
  H      41.396204     19.702542     38.884316
  C      42.892000     20.975000     38.054000
  H      43.515192     20.218630     37.567607
  C      42.969000     22.244000     37.605000
  C      42.118000     23.281000     38.202000
  H      42.277386     24.287676     37.805986
  C      41.188000     23.002000     39.130000
  H      40.545877     23.788041     39.547521
  C      40.975406     21.621832     39.688981
  H      41.104440     21.650308     40.789847
  O      39.631841     21.216774     39.369870
  H      39.250385     20.779297     40.146986
  C      43.902378     22.632324     36.421059
  O      44.616201     21.715669     35.950800
  O      43.838760     23.834042     36.055317
  N      37.435980     19.721542     41.196943
25
Coordinates from ORCA-job job E -836.096305857762
  C      44.843307     21.135435     40.500771
  H      45.119771     20.966156     39.457851
  H      45.523433     21.669098     41.167787
  C      43.665130     20.747448     41.016873
  C      43.274053     21.108280     42.484541
  O      44.227011     21.320215     43.269877
  O      42.042776     21.185051     42.709590
  O      42.747197     20.002579     40.313069
  C      42.007801     20.562063     39.199281
  H      41.389593     19.706081     38.876417
  C      42.892000     20.975000     38.054000
  H      43.514176     20.218390     37.566659
  C      42.969000     22.244000     37.605000
  C      42.118000     23.281000     38.202000
  H      42.276273     24.287521     37.805250
  C      41.188000     23.002000     39.130000
  H      40.545950     23.788131     39.547389
  C      40.977502     21.622970     39.692175
  H      41.113388     21.652884     40.792212
  O      39.630942     21.220705     39.382580
  H      39.254408     20.778867     40.159959
  C      43.901229     22.632535     36.420119
  O      44.613134     21.715823     35.947429
  O      43.838272     23.834941     36.056058
  N      37.435980     19.721542     41.196943
25
Coordinates from ORCA-job job E -836.096312833064
  C      44.845286     21.113439     40.500846
  H      45.122867     20.941923     39.458528
  H      45.527768     21.642672     41.168932
  C      43.663794     20.733273     41.014975
  C      43.273883     21.096745     42.482731
  O      44.228263     21.309109     43.266313
  O      42.043122     21.173920     42.709581
  O      42.743433     19.993867     40.308307
  C      42.005383     20.561266     39.197934
  H      41.384209     19.709164     38.870421
  C      42.892000     20.975000     38.054000
  H      43.513630     20.218326     37.566087
  C      42.969000     22.244000     37.605000
  C      42.118000     23.281000     38.202000
  H      42.275551     24.287484     37.804973
  C      41.188000     23.002000     39.130000
  H      40.545717     23.788173     39.546918
  C      40.979093     21.623986     39.694626
  H      41.119397     21.655156     40.794049
  O      39.630464     21.224435     39.391664
  H      39.257228     20.778558     40.168276
  C      43.901605     22.633015     36.420625
  O      44.610614     21.715800     35.944805
  O      43.841878     23.836777     36.059919
  N      37.435980     19.721542     41.196943
25
Coordinates from ORCA-job job E -836.096316235498
  C      44.846732     21.101257     40.501226
  H      45.124809     20.925678     39.459699
  H      45.530249     21.629573     41.168910
  C      43.662720     20.727150     41.014040
  C      43.272213     21.094387     42.480549
  O      44.226714     21.308023     43.263726
  O      42.041506     21.172627     42.707378
  O      42.741699     19.989575     40.305830
  C      42.004152     20.560786     39.197113
  H      41.381625     19.710447     38.867445
  C      42.892000     20.975000     38.054000
  H      43.513584     20.218322     37.566091
  C      42.969000     22.244000     37.605000
  C      42.118000     23.281000     38.202000
  H      42.275542     24.287537     37.805080
  C      41.188000     23.002000     39.130000
  H      40.545587     23.788182     39.546731
  C      40.979366     21.624257     39.695475
  H      41.121441     21.655959     40.794698
  O      39.629778     21.226101     39.395381
  H      39.258092     20.777994     40.171493
  C      43.902771     22.633133     36.421743
  O      44.609570     21.715077     35.944173
  O      43.846407     23.837833     36.063507
  N      37.435980     19.721542     41.196943
25
Coordinates from ORCA-job job E -836.096318677881
  C      44.846999     21.094166     40.502248
  H      45.124976     20.915471     39.461227
  H      45.531057     21.622391     41.169410
  C      43.661272     20.723857     41.014006
  C      43.269526     21.093232     42.479289
  O      44.223560     21.306620     43.263194
  O      42.038701     21.173307     42.705100
  O      42.740393     19.986995     40.304457
  C      42.003444     20.560433     39.196455
  H      41.380163     19.711069     38.865570
  C      42.892000     20.975000     38.054000
  H      43.513573     20.218280     37.566197
  C      42.969000     22.244000     37.605000
  C      42.118000     23.281000     38.202000
  H      42.275881     24.287604     37.805306
  C      41.188000     23.002000     39.130000
  H      40.545549     23.788138     39.546800
  C      40.979155     21.624237     39.695526
  H      41.121844     21.656052     40.794706
  O      39.629171     21.226876     39.396506
  H      39.258587     20.777422     40.172339
  C      43.903544     22.633103     36.422403
  O      44.608856     21.714318     35.943816
  O      43.849420     23.838281     36.065647
  N      37.435980     19.721542     41.196943
25
Coordinates from ORCA-job job E -836.096320824383
  C      44.847427     21.087435     40.502352
  H      45.124378     20.906484     39.461468
  H      45.532647     21.615026     41.168762
  C      43.660536     20.720421     41.013824
  C      43.268633     21.090898     42.478375
  O      44.222536     21.303125     43.262731
  O      42.037738     21.173059     42.703659
  O      42.738945     19.984713     40.303559
  C      42.002898     20.560123     39.195826
  H      41.378952     19.711572     38.863940
  C      42.892000     20.975000     38.054000
  H      43.513435     20.218140     37.566251
  C      42.969000     22.244000     37.605000
  C      42.118000     23.281000     38.202000
  H      42.276189     24.287618     37.805450
  C      41.188000     23.002000     39.130000
  H      40.545646     23.788081     39.547064
  C      40.979064     21.624211     39.695564
  H      41.122372     21.656112     40.794699
  O      39.628805     21.227319     39.397539
  H      39.259541     20.776631     40.173285
  C      43.903771     22.632918     36.422518
  O      44.608096     21.713622     35.943323
  O      43.850810     23.838283     36.066404
  N      37.435980     19.721542     41.196943
25
Coordinates from ORCA-job job E -836.096323216377
  C      44.847014     21.084723     40.503411
  H      45.123243     20.902976     39.462474
  H      45.532725     21.611985     41.169562
  C      43.659583     20.718710     41.014415
  C      43.266905     21.088971     42.478552
  O      44.220351     21.300147     43.263738
  O      42.035869     21.172197     42.702948
  O      42.738065     19.983556     40.303262
  C      42.002733     20.559969     39.195504
  H      41.378436     19.711834     38.863153
  C      42.892000     20.975000     38.054000
  H      43.513228     20.217997     37.566187
  C      42.969000     22.244000     37.605000
  C      42.118000     23.281000     38.202000
  H      42.276401     24.287590     37.805430
  C      41.188000     23.002000     39.130000
  H      40.545676     23.787983     39.547291
  C      40.979086     21.624167     39.695508
  H      41.122705     21.656101     40.794613
  O      39.628776     21.227206     39.397895
  H      39.260658     20.775577     40.173596
  C      43.903426     22.632824     36.422118
  O      44.607260     21.713320     35.942529
  O      43.850632     23.838196     36.066203
  N      37.435980     19.721542     41.196943
25
Coordinates from ORCA-job job E -836.096328171857
  C      44.846867     21.083245     40.504018
  H      45.121423     20.900831     39.462751
  H      45.533488     21.610300     41.169355
  C      43.659303     20.717686     41.015092
  C      43.266350     21.087100     42.479038
  O      44.219517     21.297434     43.264746
  O      42.035190     21.170731     42.703036
  O      42.737726     19.982967     40.303371
  C      42.002974     20.559936     39.195402
  H      41.378500     19.711965     38.862961
  C      42.892000     20.975000     38.054000
  H      43.512859     20.217767     37.566039
  C      42.969000     22.244000     37.605000
  C      42.118000     23.281000     38.202000
  H      42.276610     24.287502     37.805269
  C      41.188000     23.002000     39.130000
  H      40.545689     23.787819     39.547600
  C      40.979389     21.624133     39.695500
  H      41.123194     21.656230     40.794561
  O      39.629274     21.226472     39.398147
  H      39.263055     20.773074     40.173653
  C      43.902568     22.632655     36.421199
  O      44.606165     21.713134     35.941364
  O      43.849118     23.837882     36.064969
  N      37.435980     19.721542     41.196943
25
Coordinates from ORCA-job job E -836.096337255380
  C      44.846920     21.084119     40.505342
  H      45.119719     20.900847     39.463746
  H      45.534263     21.611515     41.169582
  C      43.659386     20.718264     41.016299
  C      43.265447     21.086774     42.479946
  O      44.218051     21.297540     43.266236
  O      42.034085     21.169287     42.703383
  O      42.738410     19.983310     40.303913
  C      42.003734     20.560085     39.195663
  H      41.379372     19.711877     38.863675
  C      42.892000     20.975000     38.054000
  H      43.512349     20.217488     37.565766
  C      42.969000     22.244000     37.605000
  C      42.118000     23.281000     38.202000
  H      42.276768     24.287339     37.804925
  C      41.188000     23.002000     39.130000
  H      40.545617     23.787591     39.547884
  C      40.980074     21.624126     39.695666
  H      41.124038     21.656632     40.794691
  O      39.630375     21.224947     39.398591
  H      39.267424     20.767723     40.173329
  C      43.901176     22.632585     36.419826
  O      44.604636     21.713269     35.939584
  O      43.846502     23.837634     36.063208
  N      37.435980     19.721542     41.196943
25
Coordinates from ORCA-job job E -836.096352195032
  C      44.848368     21.087876     40.505405
  H      45.118568     20.903671     39.463263
  H      45.536859     21.616162     41.167625
  C      43.661514     20.721015     41.017154
  C      43.267536     21.088466     42.480927
  O      44.220134     21.301403     43.266668
  O      42.036115     21.167760     42.705185
  O      42.741043     19.985167     40.305066
  C      42.005356     20.560535     39.196554
  H      41.381635     19.711380     38.865961
  C      42.892000     20.975000     38.054000
  H      43.511735     20.217195     37.565372
  C      42.969000     22.244000     37.605000
  C      42.118000     23.281000     38.202000
  H      42.276823     24.287099     37.804369
  C      41.188000     23.002000     39.130000
  H      40.545425     23.787319     39.548039
  C      40.981378     21.624206     39.696165
  H      41.125437     21.657589     40.795116
  O      39.632418     21.222400     39.399603
  H      39.275513     20.756904     40.172189
  C      43.899284     22.632640     36.418060
  O      44.603008     21.713866     35.937491
  O      43.842510     23.837410     36.060714
  N      37.435980     19.721542     41.196943
25
Coordinates from ORCA-job job E -836.096368564516
  C      44.850549     21.094958     40.504400
  H      45.119271     20.911494     39.461691
  H      45.539440     21.624397     41.165216
  C      43.665123     20.725242     41.017311
  C      43.271972     21.091087     42.481983
  O      44.225143     21.307334     43.266168
  O      42.040717     21.165453     42.708223
  O      42.745231     19.988028     40.306321
  C      42.007423     20.561157     39.197988
  H      41.384633     19.710655     38.869304
  C      42.892000     20.975000     38.054000
  H      43.511347     20.217106     37.564951
  C      42.969000     22.244000     37.605000
  C      42.118000     23.281000     38.202000
  H      42.276574     24.286883     37.803786
  C      41.188000     23.002000     39.130000
  H      40.545134     23.787162     39.547807
  C      40.983173     21.624477     39.697349
  H      41.127936     21.659246     40.796158
  O      39.634719     21.219840     39.402610
  H      39.286431     20.741397     40.171353
  C      43.897877     22.632782     36.416881
  O      44.602307     21.714684     35.936402
  O      43.839166     23.837320     36.058778
  N      37.435980     19.721542     41.196943
25
Coordinates from ORCA-job job E -836.096382374767
  C      44.852802     21.100892     40.501208
  H      45.122465     20.921565     39.457992
  H      45.541073     21.630203     41.162829
  C      43.669362     20.727076     41.015609
  C      43.279145     21.090451     42.482448
  O      44.234023     21.307977     43.264233
  O      42.048476     21.161409     42.711904
  O      42.748822     19.989631     40.306491
  C      42.008761     20.561538     39.199199
  H      41.386365     19.710380     38.871527
  C      42.892000     20.975000     38.054000
  H      43.511554     20.217432     37.564707
  C      42.969000     22.244000     37.605000
  C      42.118000     23.281000     38.202000
  H      42.275858     24.286856     37.803516
  C      41.188000     23.002000     39.130000
  H      40.544836     23.787287     39.547066
  C      40.985002     21.625008     39.699229
  H      41.131795     21.661293     40.797767
  O      39.636197     21.219305     39.408271
  H      39.296266     20.726623     40.172007
  C      43.898228     22.633016     36.417515
  O      44.603738     21.715425     35.937749
  O      43.839055     23.837521     36.059058
  N      37.435980     19.721542     41.196943
25
Coordinates from ORCA-job job E -836.096390118441
  C      44.854649     21.099349     40.496309
  H      45.127487     20.927106     39.452756
  H      45.541787     21.625929     41.161476
  C      43.672831     20.722348     41.012011
  C      43.287594     21.082270     42.481968
  O      44.245208     21.296647     43.261252
  O      42.057833     21.153931     42.715115
  O      42.749646     19.987326     40.304481
  C      42.008567     20.561275     39.199364
  H      41.385124     19.711230     38.870522
  C      42.892000     20.975000     38.054000
  H      43.512302     20.218157     37.564637
  C      42.969000     22.244000     37.605000
  C      42.118000     23.281000     38.202000
  H      42.274814     24.287101     37.803782
  C      41.188000     23.002000     39.130000
  H      40.544605     23.787634     39.546053
  C      40.986653     21.625761     39.701620
  H      41.137266     21.663468     40.799722
  O      39.636499     21.221889     39.416481
  H      39.304251     20.713028     40.173197
  C      43.900823     22.633101     36.420297
  O      44.607103     21.715330     35.941688
  O      43.843758     23.837896     36.062274
  N      37.435980     19.721542     41.196943
25
Coordinates from ORCA-job job E -836.096392341698
  C      44.854326     21.094574     40.495002
  H      45.128095     20.923745     39.451514
  H      45.541169     21.619724     41.161694
  C      43.672300     20.718370     41.010844
  C      43.288225     21.077686     42.481120
  O      44.246353     21.289344     43.260482
  O      42.058602     21.151950     42.714442
  O      42.747907     19.984802     40.303050
  C      42.007744     20.560832     39.198574
  H      41.383378     19.711883     38.868407
  C      42.892000     20.975000     38.054000
  H      43.512700     20.218449     37.564760
  C      42.969000     22.244000     37.605000
  C      42.118000     23.281000     38.202000
  H      42.274734     24.287310     37.804234
  C      41.188000     23.002000     39.130000
  H      40.544629     23.787677     39.546012
  C      40.986409     21.625718     39.701573
  H      41.137691     21.663228     40.799651
  O      39.636078     21.223479     39.416630
  H      39.304342     20.709809     40.170235
  C      43.902245     22.632935     36.421608
  O      44.608182     21.714596     35.943230
  O      43.846915     23.837907     36.064096
  N      37.435980     19.721542     41.196943
25
Coordinates from ORCA-job job E -836.096395598572
  C      44.852340     21.085445     40.494945
  H      45.126223     20.915722     39.451402
  H      45.539340     21.608140     41.163506
  C      43.669463     20.711331     41.010457
  C      43.285896     21.069264     42.480609
  O      44.244024     21.275469     43.261375
  O      42.056224     21.148759     42.712740
  O      42.743424     19.980432     40.301251
  C      42.006036     20.560014     39.196937
  H      41.380249     19.712937     38.864321
  C      42.892000     20.975000     38.054000
  H      43.513119     20.218685     37.564983
  C      42.969000     22.244000     37.605000
  C      42.118000     23.281000     38.202000
  H      42.275012     24.287567     37.804884
  C      41.188000     23.002000     39.130000
  H      40.544852     23.787639     39.546431
  C      40.985110     21.625410     39.700624
  H      41.136185     21.661952     40.798825
  O      39.634690     21.225896     39.413825
  H      39.300837     20.709056     40.164219
  C      43.903493     22.632654     36.422540
  O      44.608932     21.713576     35.944461
  O      43.849638     23.837659     36.065350
  N      37.435980     19.721542     41.196943
25
Coordinates from ORCA-job job E -836.096397811670
  C      44.850244     21.085383     40.496535
  H      45.123974     20.915192     39.453062
  H      45.536782     21.608213     41.165481
  C      43.667034     20.711445     41.011512
  C      43.282076     21.069218     42.480964
  O      44.239378     21.274632     43.262979
  O      42.052143     21.149730     42.711552
  O      42.741506     19.980308     40.301499
  C      42.005423     20.559793     39.196363
  H      41.379757     19.712776     38.863272
  C      42.892000     20.975000     38.054000
  H      43.513351     20.218699     37.565216
  C      42.969000     22.244000     37.605000
  C      42.118000     23.281000     38.202000
  H      42.275411     24.287639     37.805228
  C      41.188000     23.002000     39.130000
  H      40.545060     23.787581     39.546884
  C      40.983590     21.624931     39.699146
  H      41.132481     21.660276     40.797673
  O      39.633710     21.226374     39.408305
  H      39.295964     20.711110     40.157990
  C      43.903419     22.632574     36.422298
  O      44.608946     21.713412     35.944459
  O      43.849198     23.837398     36.064777
  N      37.435980     19.721542     41.196943
25
Coordinates from ORCA-job job E -836.096398942341
  C      44.848957     21.083766     40.497516
  H      45.121695     20.913623     39.453769
  H      45.536150     21.605849     41.166339
  C      43.665519     20.710162     41.012253
  C      43.280366     21.067101     42.481778
  O      44.237585     21.270598     43.264420
  O      42.050442     21.149053     42.711809
  O      42.739593     19.979961     40.301794
  C      42.004777     20.559664     39.195981
  H      41.379285     19.712816     38.862189
  C      42.892000     20.975000     38.054000
  H      43.513363     20.218578     37.565380
  C      42.969000     22.244000     37.605000
  C      42.118000     23.281000     38.202000
  H      42.275710     24.287609     37.805275
  C      41.188000     23.002000     39.130000
  H      40.545237     23.787565     39.547192
  C      40.982471     21.624754     39.698225
  H      41.129805     21.659283     40.796938
  O      39.632601     21.227076     39.405141
  H      39.292881     20.713025     40.154813
  C      43.902878     22.632692     36.421677
  O      44.608855     21.713873     35.944034
  O      43.847480     23.837332     36.063685
  N      37.435980     19.721542     41.196943
25
Coordinates from ORCA-job job E -836.096399591787
  C      44.848227     21.089070     40.498334
  H      45.120792     20.918094     39.454655
  H      45.535092     21.612489     41.166391
  C      43.665101     20.714497     41.013067
  C      43.279168     21.072218     42.482334
  O      44.236088     21.277824     43.264828
  O      42.049162     21.152444     42.712226
  O      42.740095     19.982769     40.303206
  C      42.004972     20.559946     39.196374
  H      41.380675     19.711938     38.863375
  C      42.892000     20.975000     38.054000
  H      43.513509     20.218500     37.565673
  C      42.969000     22.244000     37.605000
  C      42.118000     23.281000     38.202000
  H      42.275965     24.287572     37.805310
  C      41.188000     23.002000     39.130000
  H      40.545381     23.787606     39.547342
  C      40.981398     21.624437     39.697054
  H      41.126091     21.658043     40.796078
  O      39.632033     21.226755     39.400306
  H      39.289025     20.715642     40.150498
  C      43.902503     22.632848     36.421310
  O      44.609029     21.714424     35.943931
  O      43.846073     23.837359     36.062896
  N      37.435980     19.721542     41.196943
25
Coordinates from ORCA-job job E -836.096399713495
  C      44.848664     21.090673     40.498282
  H      45.121441     20.919315     39.454704
  H      45.535418     21.614656     41.165993
  C      43.665629     20.715885     41.013034
  C      43.279557     21.074195     42.482238
  O      44.236473     21.281118     43.264409
  O      42.049561     21.153371     42.712361
  O      42.740957     19.983579     40.303478
  C      42.005249     20.560089     39.196679
  H      41.381245     19.711725     38.864066
  C      42.892000     20.975000     38.054000
  H      43.513466     20.218461     37.565686
  C      42.969000     22.244000     37.605000
  C      42.118000     23.281000     38.202000
  H      42.275934     24.287552     37.805262
  C      41.188000     23.002000     39.130000
  H      40.545356     23.787639     39.547230
  C      40.981590     21.624489     39.697210
  H      41.126247     21.658245     40.796242
  O      39.632185     21.226529     39.400723
  H      39.289682     20.715145     40.151004
  C      43.902515     22.632849     36.421386
  O      44.608929     21.714427     35.943861
  O      43.846278     23.837438     36.063119
  N      37.435980     19.721542     41.196943
