64
Image 0. Energy: -22718.442787438016 
C  45.229358799568615 45.59864029682175 70.86339059400392
H  45.73384891440338 46.32292772730614 71.50253864063396
H  45.167004001165786 45.78618894142903 69.79136115944772
C  44.6473105084723 44.469106769306194 71.30612013183911
C  43.945887263126615 43.4730373797116 70.33596698082218
O  43.87457334825481 43.84469497074089 69.14224749905978
O  43.53119843510589 42.411043805823546 70.84798040916883
O  44.582767872545034 44.04509869242619 72.60332720252806
C  45.1941219080405 44.7653521825928 73.66787086223924
H  44.867810404604604 44.200846854987184 74.56624579043653
C  44.72944521973003 46.18691442268914 73.8546711820747
H  43.75386600423566 46.48643833905022 73.46631767104272
C  45.44094326870803 47.034532050165005 74.62588372778497
C  46.72653233901819 46.57616366425085 75.17863316488723
H  47.18657333161396 47.225445726325795 75.9262446908868
C  47.32009512655227 45.44263104133754 74.76012468136858
H  48.296066107094724 45.12308581553756 75.14002418108953
C  46.71890979656478 44.616670651584315 73.6530844787215
H  47.115103263304796 44.991689285717655 72.68619968263434
O  47.07930260401292 43.25186666427358 73.81078081258796
H  46.60725226467898 42.765475472120194 73.11693604430492
C  44.91810566802357 48.436622752611 74.99401116068778
O  43.84210707301325 48.79967144793997 74.46306999134605
O  45.62276205816804 49.0839832752721 75.81154176040128
C  62.3 23.6756 39.1676
O  63.483825 23.737376 38.771063
O  61.588716 22.648217 39.200159
H  61.842021 24.61145 39.520361
C  70.3341 23.2702 42.5136
O  71.517925 23.331976 42.117063
O  69.622816 22.242817 42.546159
H  69.876121 24.20605 42.866361
C  67.1614 25.4024 39.3404
O  68.345225 25.464176 38.943863
O  66.450116 24.375017 39.372959
H  66.703421 26.33825 39.693161
C  69.7271 19.8534 45.8868
O  70.910925 19.915176 45.490263
O  69.015816 18.826017 45.919359
H  69.269121 20.78925 46.239561
C  71.2685 29.6535 40.2283
O  72.452325 29.715276 39.831763
O  70.557216 28.626117 40.260859
H  70.810521 30.58935 40.581061
C  73.2724 21.485 48.6149
O  74.456225 21.546776 48.218363
O  72.561116 20.457617 48.647459
H  72.814421 22.42085 48.967661
C  74.5892 25.9265 45.3257
O  75.773025 25.988276 44.929163
O  73.877916 24.899117 45.358259
H  74.131221 26.86235 45.678461
C  66.5277 29.8555 37.7662
O  67.711525 29.917276 37.369663
O  65.816416 28.828117 37.798759
H  66.069721 30.79135 38.118961
C  65.5164 20.4963 42.2942
O  66.700225 20.558076 41.897663
O  64.805116 19.468917 42.326759
H  65.058421 21.43215 42.646961
C  75.275 30.4948 44.3167
O  76.458825 30.556576 43.920163
O  74.563716 29.467417 44.349259
H  74.817021 31.43065 44.669461
64
Image 1. Energy: -22718.037674335857 
C  44.65718250202727 45.6181169771831 71.06098589401937
H  45.49997992760796 46.17692313324722 71.46658688748947
H  43.948345152979265 46.12764760148391 70.40875915857563
C  44.39783285825281 44.327909236682004 71.33667459376542
C  43.135293459730015 43.61541101426485 70.77358160674798
O  42.48583509583413 44.260447865969255 69.91632446094414
O  42.88091860863754 42.48625890569471 71.24727172665108
O  45.14355264582027 43.51545500631453 72.1418502079649
C  46.1156991746355 44.05652761907724 73.0475681467647
H  46.35812644784132 43.18406102505086 73.67989772902943
C  45.51967069876616 45.116478960851126 73.92862799397172
H  44.56325953583715 44.85605302884503 74.38998259923031
C  46.09568993291015 46.309336795702464 74.163232575345
C  47.36251526325204 46.636491389337735 73.49810344896233
H  47.790959365263674 47.623331863250314 73.69305623494361
C  47.96830389029671 45.79905667300075 72.63939952295948
H  48.88764134753515 46.08825328305135 72.12170987427348
C  47.45925007059295 44.41663087492638 72.3489526703644
H  47.2968977442843 44.321478268807844 71.25756642970143
O  48.49888430930492 43.51778126920501 72.75054219491649
H  48.249409954582774 42.635774799711804 72.43921734621212
C  45.474513556675866 47.37544187005482 75.07368680034446
O  44.430339553035665 47.93009020537934 74.66300377742304
O  46.1036533342984 47.59849183290067 76.13657063941493
C  62.3 23.6756 39.1676
O  63.483825 23.737376 38.771063
O  61.588716 22.648217 39.200159
H  61.842021 24.61145 39.520361
C  70.3341 23.2702 42.5136
O  71.517925 23.331976 42.117063
O  69.622816 22.242817 42.546159
H  69.876121 24.20605 42.866361
C  67.1614 25.4024 39.3404
O  68.345225 25.464176 38.943863
O  66.450116 24.375017 39.372959
H  66.703421 26.33825 39.693161
C  69.7271 19.8534 45.8868
O  70.910925 19.915176 45.490263
O  69.015816 18.826017 45.919359
H  69.269121 20.78925 46.239561
C  71.2685 29.6535 40.2283
O  72.452325 29.715276 39.831763
O  70.557216 28.626117 40.260859
H  70.810521 30.58935 40.581061
C  73.2724 21.485 48.6149
O  74.456225 21.546776 48.218363
O  72.561116 20.457617 48.647459
H  72.814421 22.42085 48.967661
C  74.5892 25.9265 45.3257
O  75.773025 25.988276 44.929163
O  73.877916 24.899117 45.358259
H  74.131221 26.86235 45.678461
C  66.5277 29.8555 37.7662
O  67.711525 29.917276 37.369663
O  65.816416 28.828117 37.798759
H  66.069721 30.79135 38.118961
C  65.5164 20.4963 42.2942
O  66.700225 20.558076 41.897663
O  64.805116 19.468917 42.326759
H  65.058421 21.43215 42.646961
C  75.275 30.4948 44.3167
O  76.458825 30.556576 43.920163
O  74.563716 29.467417 44.349259
H  74.817021 31.43065 44.669461
64
Image 2. Energy: -22717.916653121243 
C  44.62389859344958 45.53337685867771 71.07286959846752
H  45.414412187205244 46.141208743867 71.49656377075826
H  43.757464417323504 46.025165447332036 70.6303917160643
C  44.59351843594462 44.1878820393011 71.06081106678319
C  43.335677271534 43.45450057017561 70.51090905844151
O  42.61773845460332 44.119417814174625 69.72642168627974
O  43.14564538901599 42.29281367682147 70.93435357780197
O  45.5383051813906 43.31231348210122 71.51938024088123
C  46.65506300165678 43.6219929799032 72.37907879532781
H  46.91031277687779 42.61823672133042 72.76850627705358
C  46.27874855212839 44.514938850556106 73.52011655330192
H  45.5658754449744 44.13380295974685 74.2550394125573
C  46.66529194171702 45.807316312184795 73.57309980480359
C  47.56549560766706 46.34711022560553 72.5472143755047
H  47.74667088991498 47.422300366051125 72.58042085087496
C  48.1080728192975 45.576289851955536 71.58796971355251
H  48.797925014585054 45.985130334458816 70.84428689285899
C  47.910528056956714 44.08621964871235 71.59788960160598
H  47.803207683426784 43.68935025556127 70.56932849346254
O  49.11016109618453 43.58304661105975 72.20029808960457
H  48.93115553186886 42.72031676469496 72.59162668958743
C  45.99127268130856 46.78587247359863 74.54695378476254
O  45.877342600266985 47.95664519952716 74.10108811812408
O  45.572779650705556 46.33352251261241 75.63711438155045
C  62.3 23.6756 39.1676
O  63.483825 23.737376 38.771063
O  61.588716 22.648217 39.200159
H  61.842021 24.61145 39.520361
C  70.3341 23.2702 42.5136
O  71.517925 23.331976 42.117063
O  69.622816 22.242817 42.546159
H  69.876121 24.20605 42.866361
C  67.1614 25.4024 39.3404
O  68.345225 25.464176 38.943863
O  66.450116 24.375017 39.372959
H  66.703421 26.33825 39.693161
C  69.7271 19.8534 45.8868
O  70.910925 19.915176 45.490263
O  69.015816 18.826017 45.919359
H  69.269121 20.78925 46.239561
C  71.2685 29.6535 40.2283
O  72.452325 29.715276 39.831763
O  70.557216 28.626117 40.260859
H  70.810521 30.58935 40.581061
C  73.2724 21.485 48.6149
O  74.456225 21.546776 48.218363
O  72.561116 20.457617 48.647459
H  72.814421 22.42085 48.967661
C  74.5892 25.9265 45.3257
O  75.773025 25.988276 44.929163
O  73.877916 24.899117 45.358259
H  74.131221 26.86235 45.678461
C  66.5277 29.8555 37.7662
O  67.711525 29.917276 37.369663
O  65.816416 28.828117 37.798759
H  66.069721 30.79135 38.118961
C  65.5164 20.4963 42.2942
O  66.700225 20.558076 41.897663
O  64.805116 19.468917 42.326759
H  65.058421 21.43215 42.646961
C  75.275 30.4948 44.3167
O  76.458825 30.556576 43.920163
O  74.563716 29.467417 44.349259
H  74.817021 31.43065 44.669461
64
Image 3. Energy: -22717.81232705891 
C  44.83791076714874 45.27452724242078 70.81520676559353
H  45.52722478696615 45.89520655470068 71.37405137140223
H  43.964191318766495 45.753944092732276 70.37203649511453
C  44.897564730886465 43.941435765007085 70.6315233983466
C  43.68235500550668 43.24083153875604 69.95878904594689
O  43.05432732828121 43.92012815333445 69.11230160651371
O  43.4207007681355 42.089538715422165 70.37384907425911
O  45.84987639957598 43.033451013525614 71.00351196524647
C  46.994437483526106 43.23911763270425 71.86390740686399
H  47.21821159205733 42.216897202474286 72.21173408022807
C  46.67318223695282 44.129887621563846 73.02266647089847
H  45.98811608692562 43.75842552980918 73.78892739581508
C  47.03919058268102 45.42755109796105 73.02991634451493
C  47.926255680019594 45.94303213311379 71.9771761414397
H  48.08600976135959 47.02302476720947 71.96413715083412
C  48.49608823137167 45.14169784341269 71.05827419245028
H  49.20046807623943 45.531962390817206 70.31647467162603
C  48.252938698047934 43.6587839921172 71.06504739092287
H  48.10662867250482 43.28840078724401 70.03753934605781
O  49.414913538021366 42.969125468886844 71.54672004620073
H  49.690607762207286 43.41012909934765 72.36395940185018
C  46.32307269951264 46.42935121069084 73.94811202793211
O  46.149325880627345 47.560852502895855 73.4240562532169
O  45.91577405268078 46.02678960384481 75.06039454673459
C  62.3 23.6756 39.1676
O  63.483825 23.737376 38.771063
O  61.588716 22.648217 39.200159
H  61.842021 24.61145 39.520361
C  70.3341 23.2702 42.5136
O  71.517925 23.331976 42.117063
O  69.622816 22.242817 42.546159
H  69.876121 24.20605 42.866361
C  67.1614 25.4024 39.3404
O  68.345225 25.464176 38.943863
O  66.450116 24.375017 39.372959
H  66.703421 26.33825 39.693161
C  69.7271 19.8534 45.8868
O  70.910925 19.915176 45.490263
O  69.015816 18.826017 45.919359
H  69.269121 20.78925 46.239561
C  71.2685 29.6535 40.2283
O  72.452325 29.715276 39.831763
O  70.557216 28.626117 40.260859
H  70.810521 30.58935 40.581061
C  73.2724 21.485 48.6149
O  74.456225 21.546776 48.218363
O  72.561116 20.457617 48.647459
H  72.814421 22.42085 48.967661
C  74.5892 25.9265 45.3257
O  75.773025 25.988276 44.929163
O  73.877916 24.899117 45.358259
H  74.131221 26.86235 45.678461
C  66.5277 29.8555 37.7662
O  67.711525 29.917276 37.369663
O  65.816416 28.828117 37.798759
H  66.069721 30.79135 38.118961
C  65.5164 20.4963 42.2942
O  66.700225 20.558076 41.897663
O  64.805116 19.468917 42.326759
H  65.058421 21.43215 42.646961
C  75.275 30.4948 44.3167
O  76.458825 30.556576 43.920163
O  74.563716 29.467417 44.349259
H  74.817021 31.43065 44.669461
64
Image 4. Energy: -22717.644929986076 
C  45.16061439732058 44.97539411253388 70.38018147501073
H  45.804481797325714 45.58815355479557 70.99491397361642
H  44.29757530182941 45.44957490605341 69.9120910884294
C  45.24998516341929 43.650573057000045 70.15148876505094
C  44.03947484770394 42.96917280468929 69.45686309697133
O  43.435581612291635 43.65494971921796 68.59432270191634
O  43.74725476194312 41.832125243221405 69.88352222848016
O  46.20505450011179 42.7368226598848 70.5058237782585
C  47.352886308683786 42.92227162833114 71.37099173545496
H  47.56559317235575 41.89595762608505 71.71372088124593
C  47.032433953908665 43.81361500367106 72.52806409992083
H  46.35470500080715 43.44098832283955 73.29952812720612
C  47.37154209451671 45.11877094311635 72.50998269561191
C  48.247218551407116 45.630859001539584 71.44596407376932
H  48.3810001791581 46.71399558202981 71.40974363326933
C  48.84463363165678 44.82271107234734 70.55128362967251
H  49.56144132838409 45.20796473313693 69.81815058050374
C  48.61440512869552 43.33785491307859 70.572517724893
H  48.47013431827849 42.958871061210374 69.54754941202731
O  49.780136525813035 42.65498822530686 71.05346570589856
H  50.0636809154909 43.09872023532029 71.8663593187288
C  46.63885684227446 46.11927717563611 73.41542785575932
O  46.4525437559321 47.24422556074764 72.87887004357951
O  46.230946900705355 45.72157607821773 74.52806596475625
C  62.3 23.6756 39.1676
O  63.483825 23.737376 38.771063
O  61.588716 22.648217 39.200159
H  61.842021 24.61145 39.520361
C  70.3341 23.2702 42.5136
O  71.517925 23.331976 42.117063
O  69.622816 22.242817 42.546159
H  69.876121 24.20605 42.866361
C  67.1614 25.4024 39.3404
O  68.345225 25.464176 38.943863
O  66.450116 24.375017 39.372959
H  66.703421 26.33825 39.693161
C  69.7271 19.8534 45.8868
O  70.910925 19.915176 45.490263
O  69.015816 18.826017 45.919359
H  69.269121 20.78925 46.239561
C  71.2685 29.6535 40.2283
O  72.452325 29.715276 39.831763
O  70.557216 28.626117 40.260859
H  70.810521 30.58935 40.581061
C  73.2724 21.485 48.6149
O  74.456225 21.546776 48.218363
O  72.561116 20.457617 48.647459
H  72.814421 22.42085 48.967661
C  74.5892 25.9265 45.3257
O  75.773025 25.988276 44.929163
O  73.877916 24.899117 45.358259
H  74.131221 26.86235 45.678461
C  66.5277 29.8555 37.7662
O  67.711525 29.917276 37.369663
O  65.816416 28.828117 37.798759
H  66.069721 30.79135 38.118961
C  65.5164 20.4963 42.2942
O  66.700225 20.558076 41.897663
O  64.805116 19.468917 42.326759
H  65.058421 21.43215 42.646961
C  75.275 30.4948 44.3167
O  76.458825 30.556576 43.920163
O  74.563716 29.467417 44.349259
H  74.817021 31.43065 44.669461
64
Image 5. Energy: -22717.440990146137 
C  45.50429063937358 44.65951570631784 69.92242905598506
H  46.074450408176915 45.28101390707154 70.59899300431972
H  44.6719754460086 45.16060807011562 69.43417716791892
C  45.60456348237935 43.346278148151164 69.66622431748026
C  44.38270128524178 42.68362979423285 68.96224352920603
O  43.793262678866014 43.38409102635776 68.09333260667326
O  44.06218065192466 41.56100800232401 69.3923359423742
O  46.57019667800341 42.42759626462434 69.99608325355136
C  47.71290514152554 42.60601817537288 70.87827443522693
H  47.915853901115376 41.57853901266458 71.22125421562606
C  47.38406777484484 43.50057726509758 72.0293939738018
H  46.708124662888224 43.12844997571581 72.80341774101741
C  47.68957443344857 44.81093393504292 71.98274559372405
C  48.56762202649832 45.32281984405333 70.92071278667314
H  48.68671750403459 46.407843790624106 70.87003723785176
C  49.19613881273855 44.509177743601725 70.05420963743306
H  49.92116572023704 44.8918861700029 69.32779907415475
C  48.97498679832573 43.02244353382309 70.08198552477654
H  48.823497212558635 42.64017290370815 69.0605904631347
O  50.14298353376656 42.34127343005455 70.55426747838743
H  50.42352823274232 42.78898282884565 71.36510826932447
C  46.95559364362368 45.805513030420094 72.89156037590246
O  46.77047832171214 46.94329363165373 72.35350922843121
O  46.55813086996201 45.413068290124315 73.99678773701157
C  62.3 23.6756 39.1676
O  63.483825 23.737376 38.771063
O  61.588716 22.648217 39.200159
H  61.842021 24.61145 39.520361
C  70.3341 23.2702 42.5136
O  71.517925 23.331976 42.117063
O  69.622816 22.242817 42.546159
H  69.876121 24.20605 42.866361
C  67.1614 25.4024 39.3404
O  68.345225 25.464176 38.943863
O  66.450116 24.375017 39.372959
H  66.703421 26.33825 39.693161
C  69.7271 19.8534 45.8868
O  70.910925 19.915176 45.490263
O  69.015816 18.826017 45.919359
H  69.269121 20.78925 46.239561
C  71.2685 29.6535 40.2283
O  72.452325 29.715276 39.831763
O  70.557216 28.626117 40.260859
H  70.810521 30.58935 40.581061
C  73.2724 21.485 48.6149
O  74.456225 21.546776 48.218363
O  72.561116 20.457617 48.647459
H  72.814421 22.42085 48.967661
C  74.5892 25.9265 45.3257
O  75.773025 25.988276 44.929163
O  73.877916 24.899117 45.358259
H  74.131221 26.86235 45.678461
C  66.5277 29.8555 37.7662
O  67.711525 29.917276 37.369663
O  65.816416 28.828117 37.798759
H  66.069721 30.79135 38.118961
C  65.5164 20.4963 42.2942
O  66.700225 20.558076 41.897663
O  64.805116 19.468917 42.326759
H  65.058421 21.43215 42.646961
C  75.275 30.4948 44.3167
O  76.458825 30.556576 43.920163
O  74.563716 29.467417 44.349259
H  74.817021 31.43065 44.669461
64
Image 6. Energy: -22716.80003353874 
C  45.86821071361937 44.331261024318145 69.51926439562978
H  46.236904343958734 44.93845184388092 70.34340626829838
H  45.1819524765867 44.933511823206125 68.9192133201755
C  45.991657912892926 43.02340590273758 69.1760102036087
C  44.711926988239355 42.412064020761626 68.4688817071183
O  44.12639168409437 43.137640030123066 67.63530034373967
O  44.3307980682758 41.30790787600159 68.92514369844929
O  46.98226106894551 42.090122795264136 69.43493413185357
C  48.088665223553505 42.263913198291796 70.38719527640687
H  48.290063709989326 41.244086891808415 70.75870802362711
C  47.70223966953438 43.18197933330727 71.49766192069714
H  47.0580316487733 42.80885905270673 72.29857081530334
C  47.93961827972246 44.50351664756966 71.3834469570125
C  48.8402089375435 45.01784694788946 70.3484293704789
H  48.98030426239219 46.10193353946155 70.32371724112966
C  49.54753853108626 44.192046042824245 69.55795372729423
H  50.30569859240212 44.57807739770169 68.87039438026454
C  49.35469764386942 42.70156418861629 69.60654490686385
H  49.16221865245586 42.3216567565103 68.59547929986314
O  50.54987175305751 42.04756642991979 70.03865391383651
H  50.809953664046326 42.464534356085856 70.8723853237309
C  47.248103667932476 45.514211360904405 72.30480578893109
O  47.07849108780615 46.6710021492958 71.83415415876739
O  46.901990129218525 45.08289611081021 73.42579747692565
C  62.3 23.6756 39.1676
O  63.483825 23.737376 38.771063
O  61.588716 22.648217 39.200159
H  61.842021 24.61145 39.520361
C  70.3341 23.2702 42.5136
O  71.517925 23.331976 42.117063
O  69.622816 22.242817 42.546159
H  69.876121 24.20605 42.866361
C  67.1614 25.4024 39.3404
O  68.345225 25.464176 38.943863
O  66.450116 24.375017 39.372959
H  66.703421 26.33825 39.693161
C  69.7271 19.8534 45.8868
O  70.910925 19.915176 45.490263
O  69.015816 18.826017 45.919359
H  69.269121 20.78925 46.239561
C  71.2685 29.6535 40.2283
O  72.452325 29.715276 39.831763
O  70.557216 28.626117 40.260859
H  70.810521 30.58935 40.581061
C  73.2724 21.485 48.6149
O  74.456225 21.546776 48.218363
O  72.561116 20.457617 48.647459
H  72.814421 22.42085 48.967661
C  74.5892 25.9265 45.3257
O  75.773025 25.988276 44.929163
O  73.877916 24.899117 45.358259
H  74.131221 26.86235 45.678461
C  66.5277 29.8555 37.7662
O  67.711525 29.917276 37.369663
O  65.816416 28.828117 37.798759
H  66.069721 30.79135 38.118961
C  65.5164 20.4963 42.2942
O  66.700225 20.558076 41.897663
O  64.805116 19.468917 42.326759
H  65.058421 21.43215 42.646961
C  75.275 30.4948 44.3167
O  76.458825 30.556576 43.920163
O  74.563716 29.467417 44.349259
H  74.817021 31.43065 44.669461
64
Image 7. Energy: -22717.59590058912 
C  46.52693098452595 44.02859341246819 69.48336794867441
H  45.597623324314554 44.216624677443676 70.07181863911535
H  46.512546535403 44.74960488193002 68.64036020736278
C  46.30015270908207 42.68580852223586 68.70383778948224
C  44.91612006936121 42.25982521161072 68.13280822812605
O  44.457261859323765 43.01800588810394 67.24392301186154
O  44.506982720190805 41.144803124644305 68.51509279812305
O  47.18639467353851 41.92236106317583 68.3555613901544
C  48.83729379870052 41.94958947098995 70.25872963621322
H  48.775744611452396 40.869494258327514 70.42817364776954
C  48.06130682309379 42.80632331353467 70.92641563589467
H  47.39706897682939 42.479452816164795 71.72974928391702
C  47.783283041294084 44.192986611066154 70.38448369473048
C  49.02260321411445 44.70228977654796 69.66575727109813
H  49.20178563808706 45.784524757221575 69.69255838731124
C  49.90542086137403 43.876654388443285 69.085943545505
H  50.75918482077247 44.252310992815815 68.50688188919507
C  49.795342602453445 42.37766571331653 69.18100951343246
H  49.48972587031372 41.96541832091685 68.20652537082314
O  51.07958473586836 41.80012690182321 69.46768611151668
H  51.26776822447787 42.09480627365799 70.37134363861567
C  47.440857530141066 45.209446283558734 71.56605094670472
O  47.377252455820134 46.42686899731645 71.27137512333425
O  47.28237149948113 44.71179129268745 72.70517896103256
C  62.3 23.6756 39.1676
O  63.483825 23.737376 38.771063
O  61.588716 22.648217 39.200159
H  61.842021 24.61145 39.520361
C  70.3341 23.2702 42.5136
O  71.517925 23.331976 42.117063
O  69.622816 22.242817 42.546159
H  69.876121 24.20605 42.866361
C  67.1614 25.4024 39.3404
O  68.345225 25.464176 38.943863
O  66.450116 24.375017 39.372959
H  66.703421 26.33825 39.693161
C  69.7271 19.8534 45.8868
O  70.910925 19.915176 45.490263
O  69.015816 18.826017 45.919359
H  69.269121 20.78925 46.239561
C  71.2685 29.6535 40.2283
O  72.452325 29.715276 39.831763
O  70.557216 28.626117 40.260859
H  70.810521 30.58935 40.581061
C  73.2724 21.485 48.6149
O  74.456225 21.546776 48.218363
O  72.561116 20.457617 48.647459
H  72.814421 22.42085 48.967661
C  74.5892 25.9265 45.3257
O  75.773025 25.988276 44.929163
O  73.877916 24.899117 45.358259
H  74.131221 26.86235 45.678461
C  66.5277 29.8555 37.7662
O  67.711525 29.917276 37.369663
O  65.816416 28.828117 37.798759
H  66.069721 30.79135 38.118961
C  65.5164 20.4963 42.2942
O  66.700225 20.558076 41.897663
O  64.805116 19.468917 42.326759
H  65.058421 21.43215 42.646961
C  75.275 30.4948 44.3167
O  76.458825 30.556576 43.920163
O  74.563716 29.467417 44.349259
H  74.817021 31.43065 44.669461
64
Image 8. Energy: -22717.596192898953 
C  46.856117069607976 43.71073490367698 68.95743764340456
H  45.95889777369916 43.91128253240203 69.56855025680657
H  46.84093130584323 44.45895678526907 68.14349299959069
C  46.62421059736012 42.395598662201564 68.18229914929371
C  45.2565808333695 41.97275260763554 67.64181975882526
O  44.78689178394343 42.73899180225875 66.77124242038214
O  44.85061510452538 40.85927888366588 68.05300440009914
O  47.539425313241736 41.64053599081553 67.82708342423881
C  49.1883569690735 41.63483438562113 69.76837646006751
H  49.15297564373671 40.558966707719605 69.95980013485841
C  48.390619420688516 42.48351047316049 70.42048464081452
H  47.736235141020494 42.1569392729223 71.23163630113385
C  48.13224029360604 43.87343161738438 69.89424165638552
C  49.35532089915232 44.386398312834096 69.16350274692489
H  49.50709786902771 45.473793330435704 69.17185109847388
C  50.246528229562685 43.56318459543436 68.59649008131697
H  51.09639204092614 43.94789547204432 68.023806936836
C  50.150542634617885 42.06458938862755 68.69670785414955
H  49.840338524592134 41.655604982338154 67.72471752313174
O  51.43681841009233 41.487876560605436 68.96996222141966
H  51.630844027237174 41.786788618489 69.8701007402612
C  47.78108974450455 44.89886633727436 71.06362795127536
O  47.701512389046485 46.11391117199625 70.7595396170767
O  47.61283441152663 44.40597479519385 72.20343667326217
C  62.3 23.6756 39.1676
O  63.483825 23.737376 38.771063
O  61.588716 22.648217 39.200159
H  61.842021 24.61145 39.520361
C  70.3341 23.2702 42.5136
O  71.517925 23.331976 42.117063
O  69.622816 22.242817 42.546159
H  69.876121 24.20605 42.866361
C  67.1614 25.4024 39.3404
O  68.345225 25.464176 38.943863
O  66.450116 24.375017 39.372959
H  66.703421 26.33825 39.693161
C  69.7271 19.8534 45.8868
O  70.910925 19.915176 45.490263
O  69.015816 18.826017 45.919359
H  69.269121 20.78925 46.239561
C  71.2685 29.6535 40.2283
O  72.452325 29.715276 39.831763
O  70.557216 28.626117 40.260859
H  70.810521 30.58935 40.581061
C  73.2724 21.485 48.6149
O  74.456225 21.546776 48.218363
O  72.561116 20.457617 48.647459
H  72.814421 22.42085 48.967661
C  74.5892 25.9265 45.3257
O  75.773025 25.988276 44.929163
O  73.877916 24.899117 45.358259
H  74.131221 26.86235 45.678461
C  66.5277 29.8555 37.7662
O  67.711525 29.917276 37.369663
O  65.816416 28.828117 37.798759
H  66.069721 30.79135 38.118961
C  65.5164 20.4963 42.2942
O  66.700225 20.558076 41.897663
O  64.805116 19.468917 42.326759
H  65.058421 21.43215 42.646961
C  75.275 30.4948 44.3167
O  76.458825 30.556576 43.920163
O  74.563716 29.467417 44.349259
H  74.817021 31.43065 44.669461
64
Image 9. Energy: -22717.66192431013 
C  47.19951767035106 43.41209651243618 68.43854740074953
H  46.30745086525763 43.60761008516579 69.05374637167148
H  47.156773186461585 44.19052351861254 67.65067861843981
C  46.99304344847377 42.09517932720289 67.64247499401328
C  45.58291064013766 41.68687571678196 67.16284826800113
O  45.08504820195738 42.46452992806171 66.31200353431537
O  45.16081846542824 40.59547051527634 67.59559647599335
O  47.90117988975135 41.38603449590087 67.26480726968828
C  49.555990361529666 41.31939085070425 69.2997361864281
H  49.55504473401005 40.246785987100424 69.5176853578128
C  48.71839471712781 42.15591833251091 69.91794615680647
H  48.065738523458506 41.826181393522916 70.73128163709515
C  48.47015799862404 43.54818217970669 69.3994522180414
C  49.68653073632523 44.06221516310235 68.66379790716587
H  49.79417012082016 45.152270766897395 68.625386808412
C  50.59116371112276 43.24889974289678 68.10710280673908
H  51.4464141249779 43.64740344415738 67.55020067207667
C  50.509846541107045 41.74905307010006 68.21483608625971
H  50.195427117560676 41.33449763712608 67.2432589482128
O  51.803364132367605 41.18227209412722 68.47079294530887
H  52.0157999057237 41.47368358770063 69.36893959239481
C  48.11240907563095 44.57362225596571 70.56557412002891
O  48.0198914580472 45.77691904309771 70.22189113045299
O  47.93913964375861 44.10040379183588 71.71320721388763
C  62.3 23.6756 39.1676
O  63.483825 23.737376 38.771063
O  61.588716 22.648217 39.200159
H  61.842021 24.61145 39.520361
C  70.3341 23.2702 42.5136
O  71.517925 23.331976 42.117063
O  69.622816 22.242817 42.546159
H  69.876121 24.20605 42.866361
C  67.1614 25.4024 39.3404
O  68.345225 25.464176 38.943863
O  66.450116 24.375017 39.372959
H  66.703421 26.33825 39.693161
C  69.7271 19.8534 45.8868
O  70.910925 19.915176 45.490263
O  69.015816 18.826017 45.919359
H  69.269121 20.78925 46.239561
C  71.2685 29.6535 40.2283
O  72.452325 29.715276 39.831763
O  70.557216 28.626117 40.260859
H  70.810521 30.58935 40.581061
C  73.2724 21.485 48.6149
O  74.456225 21.546776 48.218363
O  72.561116 20.457617 48.647459
H  72.814421 22.42085 48.967661
C  74.5892 25.9265 45.3257
O  75.773025 25.988276 44.929163
O  73.877916 24.899117 45.358259
H  74.131221 26.86235 45.678461
C  66.5277 29.8555 37.7662
O  67.711525 29.917276 37.369663
O  65.816416 28.828117 37.798759
H  66.069721 30.79135 38.118961
C  65.5164 20.4963 42.2942
O  66.700225 20.558076 41.897663
O  64.805116 19.468917 42.326759
H  65.058421 21.43215 42.646961
C  75.275 30.4948 44.3167
O  76.458825 30.556576 43.920163
O  74.563716 29.467417 44.349259
H  74.817021 31.43065 44.669461
64
Image 10. Energy: -22717.878118421184 
C  47.517040121469606 43.10445699592941 67.91999418438904
H  46.60099133377059 43.25217816353953 68.51419152270599
H  47.542640454533036 43.950619249461056 67.21147471635665
C  47.325590937181666 41.8546619925594 67.05284174875602
C  45.873755952609805 41.46149396440251 66.71919836351496
O  45.30018974644703 42.26839502693007 65.94904281110573
O  45.45128768082179 40.39342970096649 67.21141337372377
O  48.25164463378986 41.225746556722115 66.56421914252381
C  49.97482618428012 40.99225044984758 68.86744090651965
H  50.06453587894167 39.94661175367312 69.18078018702379
C  49.049586764821306 41.79922649562053 69.39582908892267
H  48.38030392779668 41.45309168911772 70.18675525571034
C  48.775003746800394 43.17980270446699 68.86512982620478
C  49.97640547408817 43.7064518828651 68.1165163171973
H  50.0176211056248 44.79473282235234 68.00892701863441
C  50.94954889388611 42.923154804283236 67.63830484453072
H  51.810253581415004 43.34175647310224 67.1032958159456
C  50.917807990626486 41.42388349894747 67.77462219037346
H  50.5760768947713 40.99270793520443 66.81659150150676
O  52.22742981789332 40.882760702314044 67.985857416873
H  52.49783658208999 41.17750226059123 68.86732470644667
C  48.414084314779174 44.211451981415465 70.02007197816661
O  48.269227639604196 45.40099426949505 69.65010968055181
O  48.29534447196178 43.753979336193304 71.18044016230772
C  62.3 23.6756 39.1676
O  63.483825 23.737376 38.771063
O  61.588716 22.648217 39.200159
H  61.842021 24.61145 39.520361
C  70.3341 23.2702 42.5136
O  71.517925 23.331976 42.117063
O  69.622816 22.242817 42.546159
H  69.876121 24.20605 42.866361
C  67.1614 25.4024 39.3404
O  68.345225 25.464176 38.943863
O  66.450116 24.375017 39.372959
H  66.703421 26.33825 39.693161
C  69.7271 19.8534 45.8868
O  70.910925 19.915176 45.490263
O  69.015816 18.826017 45.919359
H  69.269121 20.78925 46.239561
C  71.2685 29.6535 40.2283
O  72.452325 29.715276 39.831763
O  70.557216 28.626117 40.260859
H  70.810521 30.58935 40.581061
C  73.2724 21.485 48.6149
O  74.456225 21.546776 48.218363
O  72.561116 20.457617 48.647459
H  72.814421 22.42085 48.967661
C  74.5892 25.9265 45.3257
O  75.773025 25.988276 44.929163
O  73.877916 24.899117 45.358259
H  74.131221 26.86235 45.678461
C  66.5277 29.8555 37.7662
O  67.711525 29.917276 37.369663
O  65.816416 28.828117 37.798759
H  66.069721 30.79135 38.118961
C  65.5164 20.4963 42.2942
O  66.700225 20.558076 41.897663
O  64.805116 19.468917 42.326759
H  65.058421 21.43215 42.646961
C  75.275 30.4948 44.3167
O  76.458825 30.556576 43.920163
O  74.563716 29.467417 44.349259
H  74.817021 31.43065 44.669461
64
Image 11. Energy: -22717.948659956357 
C  47.729033587835374 42.68988370865011 67.6413284382533
H  46.96859976555759 42.6291866493336 68.43581138137182
H  47.53190024948394 43.64091895258744 67.11281280937963
C  47.43902829199805 41.58495441780291 66.63347606223256
C  45.93410604687815 41.27683893647269 66.4614315471254
O  45.261176039544175 42.24681546916495 66.02757366586806
O  45.556625650994334 40.13274245825373 66.78256671014312
O  48.3048450860813 41.01618646324634 65.9873499208524
C  50.5818884708143 40.689085121822686 68.2338395589419
H  50.82887046533771 39.67941548040974 68.58124220207472
C  49.548698827036226 41.36308546120346 68.75112456854234
H  48.92970841702708 40.922084972544916 69.5373867591076
C  49.133265653536796 42.74154350499643 68.30937707213337
C  50.155887991648 43.34916427551598 67.39159234742475
H  50.01503900850032 44.41221548752255 67.17673500257597
C  51.20110371930523 42.688773022386 66.88156421683516
H  51.92532829121548 43.1920416874072 66.23024802665648
C  51.456087903665 41.227719960175975 67.13501381108202
H  51.25394862083893 40.66391318935603 66.2037890058403
O  52.843837029755214 40.97261028719938 67.40396293963055
H  53.043522671035554 41.4212183068709 68.23903197333537
C  48.928305590786735 43.65835309003949 69.60742551354032
O  49.454921482109896 44.793881674583055 69.59127260636902
O  48.226114129024204 43.15402936245677 70.51299663066595
C  62.3 23.6756 39.1676
O  63.483825 23.737376 38.771063
O  61.588716 22.648217 39.200159
H  61.842021 24.61145 39.520361
C  70.3341 23.2702 42.5136
O  71.517925 23.331976 42.117063
O  69.622816 22.242817 42.546159
H  69.876121 24.20605 42.866361
C  67.1614 25.4024 39.3404
O  68.345225 25.464176 38.943863
O  66.450116 24.375017 39.372959
H  66.703421 26.33825 39.693161
C  69.7271 19.8534 45.8868
O  70.910925 19.915176 45.490263
O  69.015816 18.826017 45.919359
H  69.269121 20.78925 46.239561
C  71.2685 29.6535 40.2283
O  72.452325 29.715276 39.831763
O  70.557216 28.626117 40.260859
H  70.810521 30.58935 40.581061
C  73.2724 21.485 48.6149
O  74.456225 21.546776 48.218363
O  72.561116 20.457617 48.647459
H  72.814421 22.42085 48.967661
C  74.5892 25.9265 45.3257
O  75.773025 25.988276 44.929163
O  73.877916 24.899117 45.358259
H  74.131221 26.86235 45.678461
C  66.5277 29.8555 37.7662
O  67.711525 29.917276 37.369663
O  65.816416 28.828117 37.798759
H  66.069721 30.79135 38.118961
C  65.5164 20.4963 42.2942
O  66.700225 20.558076 41.897663
O  64.805116 19.468917 42.326759
H  65.058421 21.43215 42.646961
C  75.275 30.4948 44.3167
O  76.458825 30.556576 43.920163
O  74.563716 29.467417 44.349259
H  74.817021 31.43065 44.669461
64
Image 12. Energy: -22717.96790708639 
C  47.98507532742032 42.17360641823488 67.53171380564734
H  47.50973699360062 41.92286817513577 68.49328786103504
H  47.60372477305237 43.18210517951893 67.29645477690514
C  47.42716896617411 41.250688994027904 66.46002300196876
C  45.88917242324555 41.08397489181111 66.48663650427149
O  45.25093627924753 42.15755514749459 66.351893820056
O  45.457373262902195 39.92164539862329 66.63859707907213
O  48.1169612011058 40.70393999442827 65.61831040912561
C  51.1651040300176 40.37169370085451 67.27809449641934
H  51.541568478998336 39.36012996188764 67.46592222139867
C  50.05667138755413 40.813490737308946 67.88224179623289
H  49.505259563659365 40.16029636414013 68.56926544692952
C  49.50723170562734 42.20288349460674 67.71654681912541
C  50.18448846070513 42.935053832272764 66.59715637468466
H  49.74394910985368 43.90134503655759 66.32274479353656
C  51.29266951739346 42.50637788458987 65.98306528683753
H  51.77746104242076 43.112519955062396 65.20968899550861
C  52.007637870682196 41.248233300793416 66.39287817314904
H  52.330986670030846 40.68794133719126 65.49713341886124
O  53.23321684986266 41.58920025055798 67.07713901237614
H  52.92440472529423 42.08275472599822 67.85720249699361
C  49.88794195567527 42.977341308591164 69.09237311066988
O  51.10036159491772 43.235935844698126 69.24106272669094
O  48.945549650566925 43.22040122561084 69.87810036249942
C  62.3 23.6756 39.1676
O  63.483825 23.737376 38.771063
O  61.588716 22.648217 39.200159
H  61.842021 24.61145 39.520361
C  70.3341 23.2702 42.5136
O  71.517925 23.331976 42.117063
O  69.622816 22.242817 42.546159
H  69.876121 24.20605 42.866361
C  67.1614 25.4024 39.3404
O  68.345225 25.464176 38.943863
O  66.450116 24.375017 39.372959
H  66.703421 26.33825 39.693161
C  69.7271 19.8534 45.8868
O  70.910925 19.915176 45.490263
O  69.015816 18.826017 45.919359
H  69.269121 20.78925 46.239561
C  71.2685 29.6535 40.2283
O  72.452325 29.715276 39.831763
O  70.557216 28.626117 40.260859
H  70.810521 30.58935 40.581061
C  73.2724 21.485 48.6149
O  74.456225 21.546776 48.218363
O  72.561116 20.457617 48.647459
H  72.814421 22.42085 48.967661
C  74.5892 25.9265 45.3257
O  75.773025 25.988276 44.929163
O  73.877916 24.899117 45.358259
H  74.131221 26.86235 45.678461
C  66.5277 29.8555 37.7662
O  67.711525 29.917276 37.369663
O  65.816416 28.828117 37.798759
H  66.069721 30.79135 38.118961
C  65.5164 20.4963 42.2942
O  66.700225 20.558076 41.897663
O  64.805116 19.468917 42.326759
H  65.058421 21.43215 42.646961
C  75.275 30.4948 44.3167
O  76.458825 30.556576 43.920163
O  74.563716 29.467417 44.349259
H  74.817021 31.43065 44.669461
64
Image 13. Energy: -22718.08532858524 
C  48.533406803154705 41.513409459241224 67.61292671927244
H  48.4709419171103 40.927800382751165 68.54865691847878
H  48.112926461236476 42.48997164746011 67.88667556751791
C  47.57349034790975 40.87166972498299 66.632926264124
C  46.06196468744631 40.97428327052325 67.01664461144983
O  45.701038134642296 42.102754970038994 67.43582215496414
O  45.37725260180358 39.94247926400724 66.85556076285273
O  47.92919881755707 40.32233363394821 65.60467498828476
C  51.67042651398271 40.16488333399846 66.09590487460932
H  52.18055631451654 39.20060344083609 65.9956422364807
C  50.67644920132379 40.33108100990351 66.97803552858497
H  50.35069120779149 39.50025727120568 67.61467875317906
C  49.999329817205094 41.659872818708614 67.19676065644363
C  50.14369789038295 42.5331520342099 65.97660225501107
H  49.41930857461461 43.34888987888332 65.8669375705083
C  51.13263668003621 42.37220479508878 65.08781080350552
H  51.24269334125515 43.054521749971805 64.23757629091442
C  52.204582117892386 41.32557058422816 65.28874206300331
H  52.57617441307956 40.96982411904918 64.31189493015499
O  53.3367614165409 41.90604545658425 65.94798946602369
H  52.954767710806586 42.19645168036842 66.8180892760252
C  50.806986055642625 42.41013189294531 68.39467038482809
O  52.035191276367954 42.59988339837786 68.20474395617494
O  50.14698838769632 42.73922862267449 69.39614578760774
C  62.3 23.6756 39.1676
O  63.483825 23.737376 38.771063
O  61.588716 22.648217 39.200159
H  61.842021 24.61145 39.520361
C  70.3341 23.2702 42.5136
O  71.517925 23.331976 42.117063
O  69.622816 22.242817 42.546159
H  69.876121 24.20605 42.866361
C  67.1614 25.4024 39.3404
O  68.345225 25.464176 38.943863
O  66.450116 24.375017 39.372959
H  66.703421 26.33825 39.693161
C  69.7271 19.8534 45.8868
O  70.910925 19.915176 45.490263
O  69.015816 18.826017 45.919359
H  69.269121 20.78925 46.239561
C  71.2685 29.6535 40.2283
O  72.452325 29.715276 39.831763
O  70.557216 28.626117 40.260859
H  70.810521 30.58935 40.581061
C  73.2724 21.485 48.6149
O  74.456225 21.546776 48.218363
O  72.561116 20.457617 48.647459
H  72.814421 22.42085 48.967661
C  74.5892 25.9265 45.3257
O  75.773025 25.988276 44.929163
O  73.877916 24.899117 45.358259
H  74.131221 26.86235 45.678461
C  66.5277 29.8555 37.7662
O  67.711525 29.917276 37.369663
O  65.816416 28.828117 37.798759
H  66.069721 30.79135 38.118961
C  65.5164 20.4963 42.2942
O  66.700225 20.558076 41.897663
O  64.805116 19.468917 42.326759
H  65.058421 21.43215 42.646961
C  75.275 30.4948 44.3167
O  76.458825 30.556576 43.920163
O  74.563716 29.467417 44.349259
H  74.817021 31.43065 44.669461
