64
-2 1 -834.8737811499618
C       48.52142593    41.50239635    67.59353160
H       48.45794233    40.90338111    68.52126376
H       48.09242438    42.47257287    67.87575587
C       47.57645839    40.84005476    66.61121605
C       46.05997340    40.96946471    66.95941877
O       45.69282097    42.12288279    67.30563721
O       45.37669747    39.92971940    66.84138257
O       47.94600151    40.23971613    65.61517377
C       51.67564917    40.17488996    66.10807872
H       52.18438631    39.21004039    66.00262642
C       50.67556695    40.33565745    66.97997834
H       50.34128854    39.49291890    67.59227544
C       49.99187676    41.65911057    67.19958670
C       50.15138167    42.54279738    65.98854026
H       49.42334146    43.35287238    65.87547244
C       51.15529344    42.39018797    65.11460368
H       51.27216683    43.07286899    64.26311385
C       52.22573103    41.34035797    65.32103923
H       52.61585658    40.99516937    64.34762131
O       53.35531556    41.90613824    65.99933459
H       52.97749199    42.15542803    66.88188221
C       50.77283681    42.43556333    68.39891938
O       52.02436658    42.50872796    68.29547398
O       50.07116663    42.90438743    69.31418667
C       62.30000000    23.67560000    39.16760000
O       63.48382500    23.73737600    38.77106300
O       61.58871600    22.64821700    39.20015900
H       61.84202100    24.61145000    39.52036100
C       70.33410000    23.27020000    42.51360000
O       71.51792500    23.33197600    42.11706300
O       69.62281600    22.24281700    42.54615900
H       69.87612100    24.20605000    42.86636100
C       67.16140000    25.40240000    39.34040000
O       68.34522500    25.46417600    38.94386300
O       66.45011600    24.37501700    39.37295900
H       66.70342100    26.33825000    39.69316100
C       69.72710000    19.85340000    45.88680000
O       70.91092500    19.91517600    45.49026300
O       69.01581600    18.82601700    45.91935900
H       69.26912100    20.78925000    46.23956100
C       71.26850000    29.65350000    40.22830000
O       72.45232500    29.71527600    39.83176300
O       70.55721600    28.62611700    40.26085900
H       70.81052100    30.58935000    40.58106100
C       73.27240000    21.48500000    48.61490000
O       74.45622500    21.54677600    48.21836300
O       72.56111600    20.45761700    48.64745900
H       72.81442100    22.42085000    48.96766100
C       74.58920000    25.92650000    45.32570000
O       75.77302500    25.98827600    44.92916300
O       73.87791600    24.89911700    45.35825900
H       74.13122100    26.86235000    45.67846100
C       66.52770000    29.85550000    37.76620000
O       67.71152500    29.91727600    37.36966300
O       65.81641600    28.82811700    37.79875900
H       66.06972100    30.79135000    38.11896100
C       65.51640000    20.49630000    42.29420000
O       66.70022500    20.55807600    41.89766300
O       64.80511600    19.46891700    42.32675900
H       65.05842100    21.43215000    42.64696100
C       75.27500000    30.49480000    44.31670000
O       76.45882500    30.55657600    43.92016300
O       74.56371600    29.46741700    44.34925900
H       74.81702100    31.43065000    44.66946100
