64
-2 1 -834.8868827140283
C       45.28195480    45.56361549    70.86615156
H       45.78149055    46.28142428    71.51308751
H       45.23527870    45.75459150    69.79639994
C       44.67499668    44.44534620    71.30159148
C       43.94420404    43.47917810    70.32388990
O       43.88412348    43.86742713    69.13390307
O       43.49666286    42.42403111    70.82208373
O       44.60440029    44.02480717    72.60076965
C       45.19988434    44.76246903    73.66227670
H       44.86100255    44.21247777    74.56382138
C       44.72401074    46.18725383    73.81806159
H       43.75988057    46.47001369    73.39446987
C       45.41069400    47.04636323    74.59978765
C       46.67577920    46.58756385    75.19644073
H       47.11278436    47.23799843    75.95766187
C       47.28114151    45.45116001    74.80939047
H       48.23040047    45.11807724    75.24007468
C       46.72512179    44.62361135    73.67996162
H       47.14487822    45.00362935    72.72588348
O       47.10031956    43.26455385    73.84882606
H       46.71079755    42.77634253    73.11035039
C       44.88721243    48.45000384    74.95560095
O       43.81411157    48.81307194    74.41865300
O       45.58981532    49.09311731    75.77543522
C       62.30000000    23.67560000    39.16760000
O       63.48382500    23.73737600    38.77106300
O       61.58871600    22.64821700    39.20015900
H       61.84202100    24.61145000    39.52036100
C       70.33410000    23.27020000    42.51360000
O       71.51792500    23.33197600    42.11706300
O       69.62281600    22.24281700    42.54615900
H       69.87612100    24.20605000    42.86636100
C       67.16140000    25.40240000    39.34040000
O       68.34522500    25.46417600    38.94386300
O       66.45011600    24.37501700    39.37295900
H       66.70342100    26.33825000    39.69316100
C       69.72710000    19.85340000    45.88680000
O       70.91092500    19.91517600    45.49026300
O       69.01581600    18.82601700    45.91935900
H       69.26912100    20.78925000    46.23956100
C       71.26850000    29.65350000    40.22830000
O       72.45232500    29.71527600    39.83176300
O       70.55721600    28.62611700    40.26085900
H       70.81052100    30.58935000    40.58106100
C       73.27240000    21.48500000    48.61490000
O       74.45622500    21.54677600    48.21836300
O       72.56111600    20.45761700    48.64745900
H       72.81442100    22.42085000    48.96766100
C       74.58920000    25.92650000    45.32570000
O       75.77302500    25.98827600    44.92916300
O       73.87791600    24.89911700    45.35825900
H       74.13122100    26.86235000    45.67846100
C       66.52770000    29.85550000    37.76620000
O       67.71152500    29.91727600    37.36966300
O       65.81641600    28.82811700    37.79875900
H       66.06972100    30.79135000    38.11896100
C       65.51640000    20.49630000    42.29420000
O       66.70022500    20.55807600    41.89766300
O       64.80511600    19.46891700    42.32675900
H       65.05842100    21.43215000    42.64696100
C       75.27500000    30.49480000    44.31670000
O       76.45882500    30.55657600    43.92016300
O       74.56371600    29.46741700    44.34925900
H       74.81702100    31.43065000    44.66946100
