25
Coordinates from ORCA-job job
  C          44.57875306825972     20.07713268076392     40.81548918236455
  H          45.15081307228664     20.38633918722299     39.94055130318483
  H          44.96662990233178     20.28393856383632     41.81382986765363
  C          43.37794664972347     19.48331430551068     40.70743652650336
  C          42.62617657249127     19.16070518707970     41.96346658518361
  O          43.10361822959813     19.11004423223469     43.08044866055744
  O          41.32051910024685     18.94987129393603     41.75911573673118
  O          42.75464154898491     19.11580493348159     39.56518091253106
  C          42.41813546061088     20.11187010565248     38.55822686655488
  H          41.83676456954893     19.51391676602461     37.82957794818198
  C          43.59131522098194     20.75428924205013     37.88064224821458
  H          44.53089117434141     20.21122936388769     37.74844025011066
  C          43.46293540091943     21.95917275041178     37.29125970724557
  C          42.16933803054369     22.65609117271172     37.35324734875289
  H          42.07649775404251     23.52287049431440     36.69450753011193
  C          41.19827596138658     22.25874495514563     38.19599649725427
  H          40.24546275458388     22.78781274272078     38.30199013219080
  C          41.46009059846666     21.13503837552307     39.16562984354200
  H          41.98957228664159     21.58547154164221     40.04104181616022
  O          40.26087743880813     20.52156917656522     39.59483413229007
  H          40.53856768869906     19.82872537775845     40.21990040857928
  C          44.64132756375488     22.60032836568145     36.50057775059531
  O          45.73074590537993     21.99687095983239     36.58281200748538
  O          44.33851436764100     23.64495911816486     35.88023604256835
  N          40.83200000000000     18.75000000000000     42.55100000000000
