25
Coordinates from ORCA-job job E -836.339138445021
  C      44.842000     22.068000     40.142000
  H      45.265000     21.440000     39.358000
  H      45.368000     22.976000     40.435000
  C      43.689000     21.758000     40.746000
  C      43.115000     22.623000     41.859000
  O      43.577000     23.785000     42.012000
  O      42.221000     22.117000     42.579000
  O      42.985000     20.610000     40.433000
  C      42.079000     20.646000     39.270000
  H      41.683000     19.622000     39.219000
  C      42.892000     20.975000     38.054000
  H      43.551000     20.209000     37.638000
  C      42.969000     22.244000     37.605000
  C      42.118000     23.281000     38.202000
  H      42.307000     24.301000     37.867000
  C      41.188000     23.002000     39.130000
  H      40.598000     23.809000     39.575000
  C      40.887000     21.588000     39.553000
  H      40.742000     21.566000     40.644000
  O      39.715000     21.144000     38.884000
  H      39.068000     20.737000     39.535000
  C      44.024000     22.694000     36.600000
  O      44.937000     21.905000     36.259000
  O      43.944000     23.900000     36.236000
  N      40.832000     18.750000     42.551000
25
Coordinates from ORCA-job job E -836.347945723314
  C      44.839367     22.051678     40.162118
  H      45.256818     21.443499     39.355479
  H      45.344864     22.976839     40.442944
  C      43.683144     21.737799     40.764170
  C      43.079406     22.596306     41.882316
  O      43.568217     23.736762     42.048500
  O      42.163334     22.048139     42.569492
  O      42.977413     20.585268     40.432321
  C      42.083828     20.646627     39.267075
  H      41.676202     19.617833     39.214023
  C      42.881165     20.976209     38.043782
  H      43.558891     20.219836     37.638082
  C      42.976036     22.250274     37.612054
  C      42.118892     23.281136     38.205553
  H      42.313666     24.300408     37.868866
  C      41.180688     23.001160     39.126547
  H      40.587560     23.803686     39.575242
  C      40.892140     21.589864     39.556496
  H      40.758188     21.570061     40.654854
  O      39.704324     21.129229     38.888678
  H      39.094237     20.752122     39.532822
  C      44.051709     22.707047     36.615909
  O      44.904961     21.862031     36.248385
  O      43.925211     23.894060     36.208178
  N      40.832000     18.750000     42.551000
25
Coordinates from ORCA-job job E -836.346846756001
  C      44.836738     22.041161     40.167549
  H      45.250640     21.445292     39.348033
  H      45.336460     22.970331     40.451324
  C      43.678698     21.732768     40.772643
  C      43.066822     22.581977     41.916811
  O      43.556235     23.708909     42.061395
  O      42.117194     21.995192     42.559784
  O      42.971874     20.566353     40.434833
  C      42.092994     20.648386     39.269389
  H      41.671039     19.615501     39.216707
  C      42.871854     20.975795     38.038166
  H      43.565150     20.228385     37.638821
  C      42.989436     22.254662     37.623611
  C      42.124507     23.280684     38.211359
  H      42.317636     24.297311     37.861362
  C      41.176298     23.001774     39.124492
  H      40.577168     23.798753     39.575022
  C      40.899658     21.594016     39.559507
  H      40.768577     21.573326     40.662808
  O      39.694910     21.111148     38.886301
  H      39.117067     20.769164     39.532582
  C      44.005535     22.688113     36.524300
  O      44.903617     21.846695     36.286721
  O      43.939241     23.908767     36.241332
  N      40.832000     18.750000     42.551000
25
Coordinates from ORCA-job job E -836.356065054919
  C      44.809618     22.026518     40.191243
  H      45.229737     21.452080     39.359686
  H      45.299233     22.955769     40.490381
  C      43.659363     21.688473     40.793684
  C      43.026499     22.503687     41.949798
  O      43.503494     23.630388     42.146415
  O      42.060844     21.908834     42.554310
  O      42.966588     20.526769     40.427540
  C      42.089926     20.635080     39.262675
  H      41.658601     19.612653     39.192611
  C      42.881532     20.975882     38.042994
  H      43.563727     20.228803     37.628225
  C      42.979113     22.250850     37.614590
  C      42.122581     23.278910     38.210746
  H      42.318101     24.295977     37.864134
  C      41.178145     22.997917     39.125566
  H      40.571325     23.792121     39.572520
  C      40.906383     21.588745     39.559097
  H      40.777154     21.566716     40.659508
  O      39.706030     21.107504     38.892592
  H      39.105661     20.776831     39.570268
  C      44.035242     22.693525     36.564578
  O      44.879578     21.824214     36.253220
  O      43.928097     23.883978     36.192868
  N      40.832000     18.750000     42.551000
25
Coordinates from ORCA-job job E -836.357912984506
  C      44.791468     22.015062     40.210584
  H      45.219911     21.453091     39.375797
  H      45.269520     22.949424     40.514097
  C      43.643980     21.657742     40.807425
  C      42.963966     22.470309     41.938216
  O      43.483281     23.570506     42.208579
  O      42.058310     21.838182     42.579000
  O      42.962482     20.498119     40.422573
  C      42.087705     20.625785     39.258769
  H      41.647837     19.611116     39.177265
  C      42.885050     20.974538     38.044766
  H      43.566114     20.230295     37.623361
  C      42.974964     22.248030     37.612072
  C      42.120962     23.277209     38.209418
  H      42.317306     24.294172     37.862425
  C      41.178021     22.994906     39.125301
  H      40.566299     23.786500     39.570729
  C      40.909733     21.584744     39.559493
  H      40.781725     21.561879     40.658005
  O      39.710125     21.101182     38.896263
  H      39.104588     20.788308     39.583013
  C      44.032362     22.686978     36.560239
  O      44.870321     21.814593     36.241622
  O      43.930074     23.875810     36.180580
  N      40.832000     18.750000     42.551000
25
Coordinates from ORCA-job job E -836.363942312067
  C      44.763514     22.001003     40.233184
  H      45.195442     21.463631     39.382822
  H      45.237874     22.928749     40.562660
  C      43.624605     21.614341     40.829158
  C      42.947186     22.374939     41.999495
  O      43.412355     23.493393     42.276652
  O      41.997986     21.737464     42.574918
  O      42.956381     20.456294     40.415830
  C      42.083960     20.612468     39.252658
  H      41.631737     19.605735     39.154646
  C      42.887019     20.970608     38.044673
  H      43.568791     20.230113     37.617304
  C      42.973791     22.243950     37.611847
  C      42.119615     23.273041     38.208345
  H      42.315790     24.289988     37.860125
  C      41.177916     22.989114     39.125362
  H      40.561338     23.777874     39.569431
  C      40.912909     21.578179     39.560838
  H      40.789199     21.553661     40.658662
  O      39.709020     21.092757     38.904596
  H      39.103316     20.804576     39.598433
  C      44.030046     22.678139     36.553293
  O      44.856501     21.798049     36.224299
  O      43.926232     23.863245     36.161083
  N      40.832000     18.750000     42.551000
25
Coordinates from ORCA-job job E -836.367410612103
  C      44.744758     21.990809     40.252062
  H      45.181975     21.467394     39.396593
  H      45.212515     22.917568     40.593605
  C      43.608573     21.587132     40.841303
  C      42.926850     22.315039     42.029852
  O      43.372799     23.434949     42.320995
  O      41.971092     21.659511     42.580414
  O      42.950117     20.429777     40.409851
  C      42.082029     20.604084     39.246590
  H      41.621244     19.602052     39.138044
  C      42.888332     20.967689     38.042923
  H      43.571742     20.230302     37.612819
  C      42.973582     22.241286     37.610282
  C      42.118439     23.269900     38.205750
  H      42.313880     24.286834     37.856627
  C      41.177432     22.984350     39.123268
  H      40.559200     23.771082     39.568825
  C      40.914523     21.573072     39.559159
  H      40.792570     21.546187     40.657614
  O      39.706805     21.083658     38.908070
  H      39.097710     20.820437     39.608818
  C      44.025091     22.671437     36.543827
  O      44.849715     21.789473     36.218643
  O      43.923452     23.857096     36.155983
  N      40.832000     18.750000     42.551000
25
Coordinates from ORCA-job job E -836.372701225257
  C      44.715773     21.976212     40.279493
  H      45.159810     21.473085     39.417511
  H      45.175824     22.899674     40.638328
  C      43.584624     21.546579     40.858433
  C      42.893753     22.223998     42.068882
  O      43.311663     23.343830     42.385019
  O      41.937028     21.540559     42.586911
  O      42.942109     20.391702     40.401139
  C      42.080402     20.592369     39.238939
  H      41.606582     19.599085     39.114571
  C      42.891678     20.964357     38.042123
  H      43.577702     20.232217     37.607250
  C      42.972261     22.237820     37.607695
  C      42.115980     23.265926     38.201757
  H      42.310177     24.282833     37.851468
  C      41.176323     22.977275     39.120308
  H      40.555242     23.760547     39.568486
  C      40.917458     21.565208     39.557230
  H      40.795684     21.533595     40.655719
  O      39.706259     21.066496     38.913048
  H      39.089018     20.849160     39.621462
  C      44.017252     22.661223     36.530750
  O      44.839616     21.777542     36.209825
  O      43.920576     23.848662     36.149633
  N      40.832000     18.750000     42.551000
25
Coordinates from ORCA-job job E -836.380659947728
  C      44.676133     21.954333     40.321962
  H      45.131486     21.484608     39.444269
  H      45.120553     22.876262     40.708335
  C      43.551151     21.483356     40.885400
  C      42.842815     22.090635     42.130185
  O      43.222873     23.212875     42.489740
  O      41.881083     21.381806     42.600925
  O      42.930061     20.331986     40.383622
  C      42.075409     20.572175     39.222653
  H      41.584825     19.588940     39.075397
  C      42.893926     20.957244     38.035472
  H      43.584583     20.232068     37.596054
  C      42.970533     22.231561     37.602654
  C      42.112403     23.257885     38.196255
  H      42.304119     24.275136     37.844740
  C      41.175308     22.965225     39.116605
  H      40.551184     23.744644     39.567943
  C      40.920354     21.551981     39.552755
  H      40.802898     21.514469     40.651883
  O      39.701910     21.048150     38.919284
  H      39.073171     20.887691     39.639652
  C      44.009346     22.649881     36.515743
  O      44.825697     21.761853     36.194435
  O      43.916044     23.838231     36.139783
  N      40.832000     18.750000     42.551000
25
Coordinates from ORCA-job job E -836.389367377184
  C      44.632767     21.929173     40.365610
  H      45.099627     21.492039     39.476449
  H      45.063565     22.845939     40.781920
  C      43.513916     21.419257     40.910464
  C      42.787703     21.954215     42.185632
  O      43.133217     23.073493     42.588357
  O      41.828157     21.223053     42.612013
  O      42.913833     20.273078     40.366125
  C      42.068907     20.551650     39.205636
  H      41.563236     19.578901     39.035746
  C      42.896327     20.950046     38.029643
  H      43.589431     20.230700     37.584389
  C      42.968302     22.225124     37.597678
  C      42.108422     23.249136     38.192257
  H      42.297129     24.266738     37.839338
  C      41.174508     22.952736     39.115160
  H      40.548040     23.728634     39.569799
  C      40.921876     21.538339     39.548716
  H      40.807890     21.492992     40.647835
  O      39.694867     21.034002     38.924834
  H      39.063212     20.913987     39.647487
  C      44.003114     22.640989     36.502863
  O      44.813754     21.749182     36.181439
  O      43.910191     23.829272     36.130648
  N      40.832000     18.750000     42.551000
25
Coordinates from ORCA-job job E -836.399075439794
  C      44.592547     21.902831     40.409870
  H      45.069564     21.497236     39.509345
  H      45.008103     22.815758     40.851946
  C      43.478734     21.357668     40.933890
  C      42.731037     21.823035     42.233024
  O      43.050026     22.934561     42.686550
  O      41.771290     21.064300     42.610663
  O      42.896856     20.218939     40.348330
  C      42.062293     20.531693     39.187927
  H      41.545044     19.568177     38.997728
  C      42.898132     20.942268     38.022735
  H      43.593877     20.227836     37.573631
  C      42.967380     22.218557     37.593374
  C      42.104661     23.239503     38.188711
  H      42.291048     24.257875     37.836102
  C      41.172612     22.939280     39.112510
  H      40.545324     23.712435     39.571152
  C      40.922219     21.523681     39.542978
  H      40.810725     21.470981     40.641863
  O      39.687762     21.020035     38.927656
  H      39.049934     20.941654     39.654836
  C      43.998712     22.634574     36.491908
  O      44.804800     21.739958     36.169488
  O      43.904405     23.822908     36.123454
  N      40.832000     18.750000     42.551000
25
Coordinates from ORCA-job job E -836.410205314711
  C      44.550131     21.872347     40.452497
  H      45.035901     21.496556     39.543624
  H      44.952608     22.779966     40.918566
  C      43.442520     21.293810     40.956332
  C      42.675045     21.690807     42.272980
  O      42.961960     22.793739     42.763901
  O      41.725226     20.905547     42.610518
  O      42.877416     20.166203     40.331901
  C      42.054622     20.512921     39.171316
  H      41.526734     19.559288     38.960870
  C      42.900481     20.935369     38.017909
  H      43.597626     20.224990     37.564484
  C      42.966340     22.212551     37.590083
  C      42.101405     23.230752     38.186720
  H      42.285112     24.249754     37.833944
  C      41.171088     22.927031     39.111412
  H      40.542595     23.697670     39.573034
  C      40.921353     21.510192     39.537729
  H      40.810681     21.449626     40.635604
  O      39.679914     21.009971     38.929326
  H      39.043086     20.957315     39.653196
  C      43.995240     22.629587     36.483675
  O      44.797573     21.733386     36.159410
  O      43.899009     23.817957     36.118427
  N      40.832000     18.750000     42.551000
25
Coordinates from ORCA-job job E -836.423104119419
  C      44.511663     21.844032     40.492447
  H      45.005253     21.496450     39.575183
  H      44.901720     22.746227     40.980614
  C      43.409191     21.234797     40.974658
  C      42.618018     21.563798     42.305744
  O      42.876245     22.656452     42.845375
  O      41.673693     20.746794     42.595495
  O      42.860938     20.118662     40.313721
  C      42.048409     20.495082     39.154654
  H      41.512713     19.550104     38.926813
  C      42.902365     20.928187     38.011739
  H      43.601812     20.221518     37.556111
  C      42.966570     22.206677     37.587180
  C      42.098577     23.221760     38.184401
  H      42.280707     24.241809     37.833299
  C      41.168521     22.914191     39.108059
  H      40.539852     23.682804     39.573373
  C      40.920656     21.495872     39.530907
  H      40.810008     21.429553     40.627959
  O      39.674871     20.995918     38.928367
  H      39.029325     20.984061     39.656567
  C      43.993152     22.626160     36.476909
  O      44.792522     21.728829     36.150037
  O      43.894604     23.814956     36.115283
  N      40.832000     18.750000     42.551000
25
Coordinates from ORCA-job job E -836.438604648048
  C      44.470469     21.811120     40.532076
  H      44.971084     21.491284     39.607909
  H      44.848290     22.708937     41.038457
  C      43.374452     21.171146     40.993987
  C      42.561621     21.434877     42.332759
  O      42.784151     22.517195     42.898381
  O      41.635026     20.588040     42.588189
  O      42.841484     20.070601     40.296119
  C      42.039956     20.478993     39.138465
  H      41.495948     19.543293     38.892658
  C      42.903936     20.922366     38.007130
  H      43.604126     20.218362     37.548529
  C      42.966062     22.201789     37.584698
  C      42.096679     23.214533     38.184095
  H      42.276130     24.235093     37.832728
  C      41.168182     22.904438     39.108655
  H      40.538369     23.671377     39.575313
  C      40.918672     21.485159     39.526325
  H      40.808283     21.412302     40.622077
  O      39.665555     20.993810     38.929507
  H      39.029861     20.984455     39.646200
  C      43.991774     22.623961     36.472427
  O      44.788681     21.726312     36.142860
  O      43.890665     23.812914     36.113891
  N      40.832000     18.750000     42.551000
25
Coordinates from ORCA-job job E -836.456849206411
  C      44.434390     21.783561     40.566822
  H      44.940882     21.488404     39.636731
  H      44.802895     22.675836     41.090192
  C      43.343812     21.116641     41.007531
  C      42.503807     21.313865     42.353152
  O      42.693999     22.385440     42.965184
  O      41.585955     20.429287     42.560803
  O      42.828250     20.029943     40.278041
  C      42.036002     20.463852     39.124173
  H      41.486402     19.536255     38.864141
  C      42.906125     20.916266     38.001844
  H      43.608364     20.215140     37.542169
  C      42.967711     22.197026     37.583122
  C      42.094624     23.206728     38.181741
  H      42.273877     24.228648     37.833666
  C      41.164462     22.892376     39.102837
  H      40.535533     23.657803     39.574148
  C      40.918718     21.471130     39.518375
  H      40.806110     21.396207     40.613394
  O      39.667104     20.971672     38.924360
  H      39.008689     21.025688     39.656008
  C      43.991467     22.622392     36.468121
  O      44.786480     21.724250     36.135888
  O      43.887900     23.812098     36.112959
  N      40.832000     18.750000     42.551000
25
Coordinates from ORCA-job job E -836.479325339092
  C      44.393960     21.750933     40.603811
  H      44.906945     21.481610     39.667368
  H      44.752006     22.640711     41.139570
  C      43.309465     21.054504     41.024387
  C      42.445752     21.189803     42.370247
  O      42.600148     22.249015     42.995648
  O      41.549543     20.270534     42.550241
  O      42.809056     19.986988     40.258656
  C      42.025317     20.451188     39.108098
  H      41.469540     19.531908     38.833261
  C      42.906160     20.911894     37.997265
  H      43.608455     20.211852     37.536095
  C      42.966590     22.193335     37.580487
  C      42.094225     23.201778     38.183378
  H      42.269938     24.223603     37.833184
  C      41.167388     22.887342     39.108144
  H      40.536289     23.652103     39.576762
  C      40.915256     21.466461     39.517548
  H      40.806258     21.386426     40.611394
  O      39.649113     20.992537     38.932152
  H      39.028039     20.989405     39.630482
  C      43.991389     22.622113     36.466830
  O      44.785078     21.724754     36.131380
  O      43.885288     23.811664     36.113932
  N      40.832000     18.750000     42.551000
25
Coordinates from ORCA-job job E -836.500425508512
  C      44.349978     21.726358     40.648896
  H      44.859987     21.482097     39.709124
  H      44.709057     22.607185     41.179650
  C      43.277410     21.007460     41.045415
  C      42.374950     21.071247     42.356445
  O      42.515751     22.090262     43.008731
  O      41.534730     20.111781     42.512628
  O      42.794194     19.981113     40.246172
  C      42.022683     20.445771     39.100262
  H      41.478211     19.532272     38.823636
  C      42.911307     20.907256     37.998363
  H      43.609704     20.202838     37.539536
  C      42.966692     22.186332     37.576508
  C      42.091759     23.192118     38.182453
  H      42.265296     24.215308     37.834120
  C      41.164657     22.877658     39.106708
  H      40.535053     23.644880     39.571503
  C      40.911282     21.458316     39.518389
  H      40.805985     21.384428     40.608029
  O      39.629100     21.012616     38.952108
  H      39.034732     20.990389     39.609101
  C      43.995528     22.624806     36.470209
  O      44.786799     21.727422     36.122215
  O      43.881577     23.812641     36.111598
  N      40.832000     18.750000     42.551000
25
Coordinates from ORCA-job job E -836.521311573884
  C      44.315458     21.707532     40.683165
  H      44.831756     21.486766     39.736707
  H      44.666577     22.584641     41.234215
  C      43.245893     20.956742     41.055522
  C      42.319167     20.949484     42.373457
  O      42.416925     21.949624     43.059930
  O      41.490130     19.953028     42.485822
  O      42.784060     19.941629     40.222135
  C      42.014456     20.435381     39.085150
  H      41.467518     19.525895     38.798977
  C      42.912569     20.902692     37.993032
  H      43.613617     20.198526     37.537799
  C      42.967447     22.182353     37.572706
  C      42.091381     23.186440     38.181202
  H      42.260745     24.208882     37.830603
  C      41.167593     22.873412     39.109487
  H      40.533503     23.640136     39.567754
  C      40.908492     21.456701     39.518735
  H      40.808763     21.379897     40.608439
  O      39.610038     21.037949     38.962877
  H      39.043987     20.971737     39.589167
  C      43.995981     22.624564     36.467310
  O      44.788185     21.730949     36.116995
  O      43.878666     23.812642     36.112754
  N      40.832000     18.750000     42.551000
25
Coordinates from ORCA-job job E -836.545614721400
  C      44.271563     21.675151     40.722929
  H      44.799376     21.487998     39.769105
  H      44.606510     22.550638     41.287602
  C      43.210751     20.888679     41.078160
  C      42.258259     20.821170     42.397526
  O      42.328953     21.815056     43.077417
  O      41.439484     19.794275     42.484724
  O      42.763407     19.894116     40.208122
  C      42.004088     20.422521     39.070068
  H      41.445541     19.526085     38.766857
  C      42.913935     20.898937     37.989771
  H      43.618633     20.199006     37.532904
  C      42.967703     22.179507     37.570944
  C      42.092797     23.184060     38.180037
  H      42.257408     24.205403     37.822345
  C      41.173843     22.872311     39.113771
  H      40.533286     23.637211     39.565867
  C      40.908377     21.455643     39.517898
  H      40.811326     21.373495     40.606324
  O      39.596213     21.063547     38.966707
  H      39.055501     20.936855     39.579293
  C      43.995827     22.622830     36.463736
  O      44.787941     21.730204     36.112024
  O      43.876912     23.811791     36.112460
  N      40.832000     18.750000     42.551000
25
Coordinates from ORCA-job job E -836.580402806400
  C      44.234164     21.675583     40.749101
  H      44.780853     21.529183     39.804835
  H      44.579800     22.518897     41.335569
  C      43.187623     20.861362     41.081374
  C      42.191414     20.707042     42.400019
  O      42.301732     21.683770     43.096166
  O      41.364892     19.635521     42.448838
  O      42.765579     19.906292     40.199283
  C      42.002602     20.411718     39.059459
  H      41.451207     19.536557     38.763580
  C      42.908446     20.888555     37.980852
  H      43.625573     20.198513     37.526152
  C      42.962249     22.171723     37.567422
  C      42.093554     23.180255     38.177477
  H      42.257761     24.201439     37.816670
  C      41.183791     22.871503     39.119818
  H      40.530267     23.632018     39.560652
  C      40.913533     21.453422     39.518443
  H      40.811426     21.370234     40.601937
  O      39.592321     21.132499     38.947705
  H      39.042468     20.866350     39.590635
  C      43.992985     22.622277     36.465849
  O      44.793869     21.736689     36.103453
  O      43.871662     23.816831     36.115305
  N      40.832000     18.750000     42.551000
25
Coordinates from ORCA-job job E -836.604235421590
  C      44.199505     21.599659     40.810774
  H      44.708678     21.475493     39.838345
  H      44.545360     22.458730     41.398018
  C      43.154980     20.785794     41.106843
  C      42.209935     20.641109     42.400660
  O      42.241890     21.581847     43.119415
  O      41.391671     19.598587     42.466181
  O      42.730868     19.864074     40.180703
  C      41.972278     20.406796     39.038046
  H      41.413286     19.509779     38.711306
  C      42.908935     20.887391     37.976379
  H      43.621208     20.183614     37.536082
  C      42.978238     22.172474     37.576379
  C      42.096674     23.177731     38.174970
  H      42.257386     24.196816     37.825137
  C      41.183006     22.870608     39.110550
  H      40.526657     23.629093     39.547209
  C      40.894275     21.459500     39.501241
  H      40.795463     21.374096     40.595874
  O      39.587828     21.189356     38.916807
  H      39.009219     20.806524     39.602660
  C      43.988052     22.617963     36.470743
  O      44.802104     21.750581     36.096555
  O      43.871587     23.817184     36.123278
  N      40.832000     18.750000     42.551000
25
Coordinates from ORCA-job job E -836.612209540095
  C      44.131007     21.545789     40.869775
  H      44.626724     21.442357     39.893210
  H      44.487344     22.383990     41.492763
  C      43.091542     20.726342     41.122320
  C      42.177488     20.582019     42.378993
  O      42.184341     21.471944     43.278168
  O      41.319367     19.521632     42.369454
  O      42.681175     19.835183     40.164262
  C      41.944947     20.410162     39.021789
  H      41.377991     19.512973     38.672975
  C      42.902205     20.891955     37.971083
  H      43.597394     20.174876     37.525616
  C      42.979709     22.175074     37.572759
  C      42.107267     23.184621     38.175422
  H      42.261685     24.203788     37.817857
  C      41.190153     22.876257     39.105852
  H      40.539826     23.635748     39.550561
  C      40.880654     21.459992     39.484121
  H      40.789701     21.372002     40.582235
  O      39.589773     21.184094     38.912103
  H      39.057286     20.700046     39.594283
  C      43.987353     22.614858     36.477931
  O      44.796771     21.744820     36.095633
  O      43.877893     23.812549     36.124840
  N      40.832000     18.750000     42.551000
25
Coordinates from ORCA-job job E -836.616770966280
  C      44.084130     21.503747     40.887195
  H      44.578364     21.395137     39.930756
  H      44.467489     22.298768     41.572340
  C      43.042857     20.695175     41.111959
  C      42.215225     20.638798     42.320260
  O      42.237305     21.482665     43.255143
  O      41.335725     19.631087     42.309499
  O      42.635214     19.813601     40.162890
  C      41.927619     20.403646     39.017347
  H      41.364632     19.518393     38.657747
  C      42.897541     20.884930     37.973952
  H      43.585267     20.161414     37.525180
  C      42.979068     22.167902     37.571186
  C      42.112014     23.180150     38.174580
  H      42.271345     24.202140     37.818767
  C      41.182293     22.867078     39.089855
  H      40.537354     23.627252     39.546109
  C      40.865920     21.444478     39.464514
  H      40.777051     21.361073     40.562345
  O      39.595925     21.120690     38.897993
  H      39.037187     20.744307     39.595816
  C      43.994254     22.611954     36.487948
  O      44.796622     21.738197     36.103353
  O      43.876753     23.805784     36.128420
  N      40.832000     18.750000     42.551000
25
Coordinates from ORCA-job job E -836.613558438801
  C      44.063616     21.488009     40.926871
  H      44.569014     21.406716     39.941497
  H      44.418912     22.274817     41.631042
  C      43.006282     20.645629     41.134875
  C      42.162021     20.568695     42.386492
  O      42.231683     21.377664     43.179303
  O      41.297737     19.590167     42.384121
  O      42.609739     19.756503     40.135390
  C      41.919223     20.392857     38.996041
  H      41.349610     19.524455     38.626333
  C      42.890019     20.877700     37.965287
  H      43.581129     20.157470     37.517870
  C      42.982775     22.166221     37.571983
  C      42.108159     23.175889     38.173344
  H      42.284156     24.198887     37.830534
  C      41.167816     22.863308     39.079689
  H      40.534971     23.627699     39.544083
  C      40.858941     21.443778     39.455352
  H      40.774428     21.362803     40.550196
  O      39.564954     21.092189     38.902737
  H      39.045098     20.745037     39.592441
  C      44.009649     22.620706     36.481728
  O      44.798245     21.736316     36.101058
  O      43.875665     23.811180     36.127518
  N      40.832000     18.750000     42.551000
25
Coordinates from ORCA-job job E -836.629478334715
  C      44.053940     21.468910     40.926496
  H      44.573374     21.401850     39.952710
  H      44.402377     22.238095     41.624339
  C      43.002198     20.648750     41.123864
  C      42.157505     20.576321     42.382529
  O      42.303576     21.399805     43.273018
  O      41.247778     19.602933     42.356126
  O      42.598054     19.780903     40.140906
  C      41.908810     20.387189     38.986066
  H      41.324834     19.531430     38.600029
  C      42.882963     20.874910     37.958266
  H      43.575602     20.160615     37.504228
  C      42.978074     22.163624     37.571814
  C      42.107638     23.177682     38.170604
  H      42.294297     24.201975     37.834503
  C      41.164135     22.862881     39.072977
  H      40.533911     23.626496     39.543014
  C      40.854343     21.437680     39.444148
  H      40.770211     21.358431     40.537714
  O      39.563582     21.108188     38.887464
  H      39.056970     20.695529     39.600305
  C      44.004098     22.612830     36.484484
  O      44.800305     21.729792     36.102789
  O      43.884734     23.808244     36.128616
  N      40.832000     18.750000     42.551000
25
Coordinates from ORCA-job job E -836.631528791623
  C      44.033156     21.461086     40.925611
  H      44.555729     21.384707     39.977605
  H      44.387042     22.210892     41.656574
  C      42.979389     20.639332     41.105798
  C      42.157447     20.558629     42.369247
  O      42.281652     21.348731     43.292922
  O      41.230146     19.605937     42.324573
  O      42.585473     19.771195     40.132618
  C      41.902590     20.387269     38.984512
  H      41.327492     19.530264     38.596100
  C      42.886402     20.870689     37.962071
  H      43.574053     20.150200     37.509485
  C      42.979411     22.157493     37.571079
  C      42.106853     23.170635     38.170236
  H      42.299652     24.194970     37.843430
  C      41.154540     22.855813     39.063815
  H      40.524873     23.620539     39.531896
  C      40.842954     21.435682     39.437716
  H      40.762365     21.362150     40.534117
  O      39.552020     21.102178     38.887978
  H      39.041729     20.699239     39.597486
  C      44.004253     22.608478     36.486421
  O      44.804264     21.734083     36.102358
  O      43.886202     23.805405     36.135652
  N      40.832000     18.750000     42.551000
25
Coordinates from ORCA-job job E -836.633595702580
  C      44.024783     21.443407     40.942921
  H      44.547854     21.394917     39.983173
  H      44.345979     22.187646     41.672942
  C      42.975625     20.613322     41.113304
  C      42.154552     20.548163     42.370163
  O      42.296379     21.304614     43.307396
  O      41.183456     19.630431     42.296586
  O      42.571699     19.763590     40.126843
  C      41.899369     20.390640     38.978657
  H      41.322715     19.542114     38.575752
  C      42.887883     20.870346     37.962116
  H      43.567706     20.145955     37.503269
  C      42.978630     22.155351     37.568836
  C      42.108899     23.169457     38.171781
  H      42.304860     24.193895     37.847325
  C      41.149118     22.853593     39.057073
  H      40.521762     23.619902     39.526109
  C      40.836699     21.434846     39.428331
  H      40.758480     21.364873     40.525495
  O      39.548502     21.089654     38.882352
  H      39.044199     20.686567     39.599608
  C      44.006120     22.606743     36.487480
  O      44.805175     21.732880     36.101132
  O      43.893037     23.805329     36.139774
  N      40.832000     18.750000     42.551000
25
Coordinates from ORCA-job job E -836.635570105210
  C      44.014986     21.434760     40.946177
  H      44.547046     21.407382     39.984559
  H      44.329184     22.147470     41.710061
  C      42.967183     20.606480     41.101850
  C      42.141957     20.527897     42.373468
  O      42.312960     21.244755     43.327059
  O      41.148537     19.623695     42.278666
  O      42.560552     19.767770     40.116967
  C      41.893865     20.389467     38.971994
  H      41.317091     19.546976     38.560405
  C      42.884453     20.865787     37.960619
  H      43.567098     20.141873     37.505520
  C      42.981399     22.152268     37.572904
  C      42.109682     23.165988     38.173982
  H      42.310178     24.190869     37.851568
  C      41.142083     22.850689     39.050785
  H      40.514125     23.619291     39.515038
  C      40.828831     21.433191     39.421739
  H      40.752753     21.367903     40.518598
  O      39.536029     21.088704     38.878868
  H      39.042681     20.671135     39.599328
  C      44.009566     22.605175     36.490423
  O      44.804095     21.726685     36.099230
  O      43.896908     23.804772     36.145809
  N      40.832000     18.750000     42.551000
25
Coordinates from ORCA-job job E -836.637751821267
  C      43.993719     21.418643     40.962963
  H      44.543664     21.411143     40.014896
  H      44.292530     22.114590     41.757704
  C      42.947570     20.578421     41.100352
  C      42.118433     20.491262     42.364485
  O      42.333340     21.164188     43.355104
  O      41.086029     19.630078     42.238127
  O      42.541683     19.750677     40.103228
  C      41.883249     20.384386     38.957000
  H      41.300811     19.549270     38.528334
  C      42.883842     20.865938     37.954384
  H      43.566329     20.142220     37.499005
  C      42.985207     22.153937     37.572328
  C      42.109455     23.166154     38.169402
  H      42.318508     24.192549     37.856106
  C      41.134248     22.849381     39.037760
  H      40.505789     23.619198     39.499836
  C      40.821511     21.430675     39.411600
  H      40.750042     21.368833     40.508431
  O      39.525919     21.084433     38.877837
  H      39.043616     20.657151     39.596579
  C      44.012960     22.605695     36.491291
  O      44.805622     21.725470     36.098021
  O      43.907421     23.807746     36.152993
  N      40.832000     18.750000     42.551000
25
Coordinates from ORCA-job job E -836.638820136636
  C      43.951874     21.385554     40.983959
  H      44.525744     21.427617     40.061179
  H      44.197173     22.056802     41.796252
  C      42.922579     20.523729     41.100258
  C      42.098099     20.413543     42.355588
  O      42.315205     21.040413     43.375781
  O      41.065822     19.594458     42.236603
  O      42.509585     19.723670     40.081844
  C      41.865378     20.377149     38.934226
  H      41.271758     19.561202     38.474413
  C      42.881536     20.866633     37.945933
  H      43.561275     20.142515     37.487987
  C      42.991403     22.156647     37.572927
  C      42.111411     23.168067     38.162115
  H      42.332641     24.196509     37.859138
  C      41.122212     22.849078     39.014085
  H      40.491243     23.621573     39.470937
  C      40.810820     21.425030     39.395577
  H      40.747614     21.371448     40.492144
  O      39.515659     21.065925     38.880277
  H      39.059534     20.616735     39.600487
  C      44.017790     22.602547     36.495957
  O      44.806487     21.716257     36.104227
  O      43.927358     23.808290     36.167524
  N      40.832000     18.750000     42.551000
25
Coordinates from ORCA-job job E -836.640674302933
  C      43.958718     21.350444     41.013162
  H      44.529884     21.433396     40.085558
  H      44.187429     21.976197     41.859029
  C      42.906098     20.511016     41.056287
  C      42.047304     20.351208     42.291617
  O      42.274278     20.881660     43.375020
  O      40.942062     19.593235     42.077849
  O      42.498521     19.725242     40.034094
  C      41.850144     20.378628     38.907690
  H      41.280623     19.561356     38.459445
  C      42.878633     20.858810     37.932217
  H      43.571702     20.131199     37.500303
  C      42.994868     22.148958     37.562919
  C      42.100326     23.155684     38.141687
  H      42.319575     24.181543     37.841480
  C      41.095579     22.840730     38.976525
  H      40.445034     23.614216     39.402402
  C      40.786118     21.426777     39.371816
  H      40.733938     21.388786     40.470560
  O      39.477028     21.086244     38.873693
  H      39.026260     20.616598     39.583049
  C      44.035858     22.606154     36.507987
  O      44.827984     21.729132     36.108802
  O      43.951439     23.817445     36.192960
  N      40.832000     18.750000     42.551000
25
Coordinates from ORCA-job job E -836.639475249797
  C      43.922334     21.331870     41.010150
  H      44.508509     21.447632     40.067597
  H      44.193521     21.903055     41.970722
  C      42.875316     20.491852     41.051972
  C      42.085892     20.365714     42.322302
  O      42.358291     20.918031     43.361190
  O      40.981856     19.607360     42.143716
  O      42.462985     19.710465     40.026956
  C      41.842557     20.382805     38.879337
  H      41.251664     19.581042     38.407711
  C      42.872693     20.872205     37.910912
  H      43.550638     20.147056     37.450226
  C      42.987787     22.161783     37.543815
  C      42.101268     23.170277     38.130478
  H      42.320590     24.198527     37.829252
  C      41.092022     22.845257     38.957198
  H      40.448438     23.612640     39.403531
  C      40.788967     21.425339     39.341248
  H      40.746226     21.379501     40.441455
  O      39.487760     21.046184     38.851093
  H      39.064924     20.570477     39.597701
  C      44.057453     22.620035     36.508858
  O      44.834275     21.726075     36.112135
  O      43.980153     23.828066     36.184299
  N      40.832000     18.750000     42.551000
25
Coordinates from ORCA-job job E -836.641340924056
  C      43.938328     21.331112     41.009725
  H      44.523907     21.413648     40.109484
  H      44.186847     21.934972     41.884300
  C      42.889371     20.500549     41.055215
  C      42.083547     20.345898     42.312860
  O      42.345651     20.875913     43.365871
  O      41.037544     19.543529     42.147812
  O      42.475544     19.715600     40.020813
  C      41.841854     20.384515     38.878574
  H      41.252721     19.566224     38.411335
  C      42.873405     20.870979     37.911823
  H      43.559896     20.142268     37.470661
  C      42.997452     22.161361     37.549798
  C      42.094366     23.164748     38.121577
  H      42.311038     24.192615     37.819751
  C      41.084176     22.844519     38.947198
  H      40.430263     23.612007     39.375973
  C      40.783694     21.429194     39.343673
  H      40.742584     21.388595     40.444508
  O      39.472025     21.068956     38.858126
  H      39.043013     20.587735     39.578194
  C      44.063399     22.623161     36.509432
  O      44.845365     21.732837     36.117674
  O      43.980521     23.831509     36.195295
  N      40.832000     18.750000     42.551000
25
Coordinates from ORCA-job job E -836.643248378504
  C      43.943983     21.331308     41.007057
  H      44.520034     21.432259     40.093176
  H      44.181386     21.922153     41.870385
  C      42.887991     20.504150     41.035733
  C      42.080640     20.333831     42.302064
  O      42.370643     20.831857     43.385459
  O      40.992436     19.571740     42.098833
  O      42.478663     19.724952     40.007356
  C      41.845800     20.387398     38.870928
  H      41.266294     19.575223     38.409397
  C      42.875226     20.874222     37.904000
  H      43.557478     20.146289     37.456214
  C      42.996379     22.165450     37.542619
  C      42.093024     23.168490     38.115532
  H      42.314279     24.197959     37.822663
  C      41.079928     22.843554     38.937269
  H      40.430250     23.610664     39.373292
  C      40.785391     21.426849     39.336261
  H      40.746276     21.387565     40.435741
  O      39.479878     21.052287     38.855340
  H      39.050618     20.580989     39.576728
  C      44.063111     22.624148     36.504943
  O      44.847999     21.737622     36.113208
  O      43.994616     23.837418     36.197481
  N      40.832000     18.750000     42.551000
25
Coordinates from ORCA-job job E -836.644182133063
  C      43.945258     21.337487     40.996262
  H      44.533479     21.451278     40.077600
  H      44.185126     21.923256     41.891716
  C      42.896831     20.495651     41.030674
  C      42.085823     20.321491     42.282716
  O      42.346535     20.821576     43.355488
  O      41.003549     19.557376     42.075167
  O      42.484974     19.719956     40.000970
  C      41.845067     20.387506     38.868001
  H      41.266930     19.572459     38.407577
  C      42.876638     20.874721     37.902821
  H      43.563631     20.147033     37.461258
  C      42.997776     22.165734     37.542543
  C      42.092844     23.168146     38.113175
  H      42.309390     24.196906     37.816567
  C      41.079162     22.844037     38.933438
  H      40.421701     23.610221     39.360776
  C      40.783797     21.428380     39.334179
  H      40.747877     21.391021     40.434514
  O      39.476253     21.061531     38.855705
  H      39.048501     20.580451     39.576584
  C      44.066418     22.625860     36.508987
  O      44.851083     21.740786     36.112228
  O      43.998548     23.839761     36.202818
  N      40.832000     18.750000     42.551000
25
Coordinates from ORCA-job job E -836.644881232882
  C      43.942036     21.341387     40.988331
  H      44.530223     21.460768     40.075799
  H      44.185160     21.916288     41.892165
  C      42.897616     20.497305     41.021138
  C      42.092458     20.305435     42.276096
  O      42.364230     20.779003     43.363282
  O      41.019473     19.533815     42.061234
  O      42.489582     19.722188     39.986269
  C      41.846224     20.390285     38.857188
  H      41.268763     19.571779     38.397037
  C      42.876848     20.878704     37.893619
  H      43.564343     20.150124     37.453805
  C      42.998917     22.169818     37.536214
  C      42.092109     23.170116     38.107445
  H      42.306777     24.199455     37.811606
  C      41.077297     22.844483     38.925174
  H      40.416940     23.608925     39.350521
  C      40.784470     21.429308     39.327122
  H      40.754072     21.392484     40.428623
  O      39.473698     21.063338     38.854553
  H      39.053655     20.571171     39.575366
  C      44.073480     22.632901     36.508620
  O      44.855521     21.745414     36.111757
  O      44.005919     23.846528     36.205456
  N      40.832000     18.750000     42.551000
25
Coordinates from ORCA-job job E -836.645545743361
  C      43.943118     21.341808     40.985204
  H      44.528863     21.464455     40.083396
  H      44.187645     21.908239     41.879992
  C      42.898065     20.503293     41.009952
  C      42.090448     20.291692     42.259731
  O      42.367178     20.742271     43.352472
  O      41.029684     19.508659     42.030699
  O      42.495417     19.726364     39.975151
  C      41.846273     20.391376     38.848191
  H      41.265330     19.570105     38.388702
  C      42.876538     20.883146     37.886326
  H      43.566552     20.155630     37.448852
  C      42.999415     22.174598     37.532138
  C      42.090732     23.173463     38.101865
  H      42.303632     24.203577     37.805939
  C      41.075922     22.845749     38.918208
  H      40.412271     23.607437     39.342233
  C      40.786084     21.429924     39.321733
  H      40.759790     21.391911     40.423159
  O      39.474279     21.064183     38.853508
  H      39.062390     20.560842     39.570536
  C      44.079470     22.638140     36.509023
  O      44.858813     21.748055     36.112023
  O      44.015347     23.852190     36.209571
  N      40.832000     18.750000     42.551000
25
Coordinates from ORCA-job job E -836.646618269808
  C      43.949081     21.349603     40.984078
  H      44.530192     21.494022     40.072556
  H      44.190233     21.906687     41.880662
  C      42.902780     20.508844     40.993622
  C      42.105958     20.266169     42.243575
  O      42.382560     20.683130     43.354015
  O      41.057956     19.474187     41.992676
  O      42.506168     19.733975     39.955047
  C      41.846161     20.394057     38.835216
  H      41.269318     19.569193     38.383939
  C      42.874607     20.886232     37.873230
  H      43.569239     20.159088     37.442847
  C      43.000801     22.178861     37.524914
  C      42.088882     23.175724     38.093094
  H      42.299908     24.206614     37.798675
  C      41.072833     22.846055     38.907199
  H      40.405515     23.605865     39.328346
  C      40.785719     21.430529     39.314067
  H      40.767137     21.394412     40.415903
  O      39.471084     21.067025     38.855431
  H      39.065636     20.554960     39.565258
  C      44.085104     22.644559     36.508249
  O      44.865816     21.756741     36.110736
  O      44.025056     23.860630     36.215260
  N      40.832000     18.750000     42.551000
25
Coordinates from ORCA-job job E -836.648153770661
  C      43.946832     21.353021     40.973827
  H      44.530763     21.523297     40.057609
  H      44.187429     21.895436     41.888690
  C      42.906909     20.504559     40.973009
  C      42.137035     20.223076     42.227507
  O      42.415382     20.601248     43.348396
  O      41.099321     19.428539     41.944251
  O      42.515908     19.738261     39.925852
  C      41.845185     20.397468     38.808844
  H      41.269339     19.574741     38.364078
  C      42.871257     20.895060     37.846904
  H      43.568345     20.171115     37.416468
  C      43.000283     22.190222     37.509096
  C      42.086515     23.184724     38.078594
  H      42.296822     24.217527     37.789481
  C      41.069693     22.848455     38.890278
  H      40.400918     23.604151     39.316805
  C      40.787569     21.430395     39.296301
  H      40.781142     21.393962     40.398427
  O      39.472438     21.062357     38.851250
  H      39.084282     20.531185     39.556598
  C      44.093815     22.657021     36.504708
  O      44.876084     21.771184     36.107736
  O      44.045649     23.877180     36.219989
  N      40.832000     18.750000     42.551000
25
Coordinates from ORCA-job job E -836.649628821443
  C      43.958359     21.385581     40.948261
  H      44.541540     21.584534     40.042236
  H      44.191742     21.906055     41.873239
  C      42.931016     20.515647     40.935258
  C      42.163403     20.168424     42.186359
  O      42.436704     20.486891     43.335379
  O      41.156026     19.355476     41.873848
  O      42.555750     19.755499     39.877552
  C      41.859082     20.408307     38.777325
  H      41.284288     19.579495     38.337176
  C      42.874273     20.910125     37.811203
  H      43.572554     20.186553     37.382067
  C      43.002182     22.206445     37.482457
  C      42.082689     23.194993     38.053104
  H      42.287471     24.229398     37.766716
  C      41.068501     22.853230     38.864444
  H      40.391700     23.604170     39.287246
  C      40.799521     21.434517     39.278351
  H      40.809576     21.401864     40.381765
  O      39.478960     21.064634     38.853242
  H      39.110280     20.506080     39.552483
  C      44.107750     22.681345     36.496663
  O      44.891301     21.797294     36.097815
  O      44.069258     23.906469     36.228978
  N      40.832000     18.750000     42.551000
25
Coordinates from ORCA-job job E -836.648154770324
  C      43.932488     21.414390     40.958219
  H      44.517071     21.662580     40.086765
  H      44.175439     21.869722     41.942467
  C      42.941566     20.503243     40.944140
  C      42.202758     20.041211     42.204324
  O      42.490652     20.328138     43.349601
  O      41.235005     19.257624     41.893696
  O      42.566602     19.793176     39.862541
  C      41.843190     20.415600     38.756939
  H      41.246343     19.598171     38.313680
  C      42.843674     20.916404     37.774964
  H      43.533669     20.197511     37.326940
  C      42.978935     22.213950     37.462060
  C      42.062602     23.205290     38.033455
  H      42.278596     24.239527     37.756844
  C      41.043036     22.859014     38.838682
  H      40.361124     23.607765     39.266232
  C      40.782019     21.432497     39.246279
  H      40.789066     21.407612     40.345527
  O      39.478480     21.052202     38.812382
  H      39.142441     20.416371     39.484745
  C      44.117761     22.683259     36.522300
  O      44.904285     21.790023     36.135299
  O      44.126062     23.919557     36.281664
  N      40.832000     18.750000     42.551000
25
Coordinates from ORCA-job job E -836.652401418156
  C      43.964419     21.359821     40.949240
  H      44.504097     21.620583     40.035884
  H      44.204952     21.838860     41.897420
  C      42.973748     20.467415     40.938773
  C      42.275879     20.024586     42.203149
  O      42.567290     20.303041     43.349311
  O      41.278258     19.222240     41.858853
  O      42.573477     19.763694     39.848712
  C      41.865288     20.422704     38.739851
  H      41.273796     19.596727     38.290095
  C      42.874206     20.934949     37.763857
  H      43.568430     20.218925     37.314926
  C      42.999478     22.234306     37.449612
  C      42.070427     23.214391     38.021459
  H      42.270078     24.249905     37.738210
  C      41.053832     22.861445     38.827454
  H      40.364679     23.604113     39.249611
  C      40.800528     21.438922     39.237322
  H      40.819852     21.410793     40.341353
  O      39.485078     21.052657     38.814132
  H      39.148780     20.438720     39.480982
  C      44.136040     22.723369     36.507574
  O      44.923849     21.841226     36.111225
  O      44.118730     23.954930     36.271762
  N      40.832000     18.750000     42.551000
25
Coordinates from ORCA-job job E -836.653423341288
  C      43.969213     21.352280     40.960268
  H      44.531611     21.614154     40.056667
  H      44.172999     21.854790     41.900762
  C      42.964456     20.445778     40.914401
  C      42.231456     20.051858     42.153097
  O      42.504951     20.368870     43.294533
  O      41.221876     19.242146     41.847951
  O      42.580792     19.737036     39.812761
  C      41.900377     20.410442     38.706416
  H      41.328479     19.585740     38.247727
  C      42.909590     20.942775     37.735131
  H      43.615441     20.239767     37.281992
  C      43.029014     22.250523     37.433444
  C      42.084598     23.215648     38.007963
  H      42.269661     24.255737     37.723780
  C      41.073861     22.849259     38.815527
  H      40.385161     23.587297     39.243322
  C      40.836067     21.421834     39.225072
  H      40.872082     21.389816     40.335353
  O      39.511310     21.022858     38.818158
  H      39.190440     20.409012     39.502067
  C      44.145006     22.761097     36.476682
  O      44.932415     21.886511     36.063636
  O      44.110982     23.994677     36.259805
  N      40.832000     18.750000     42.551000
25
Coordinates from ORCA-job job E -836.655003944649
  C      43.976946     21.328667     40.894622
  H      44.498968     21.609813     39.980414
  H      44.209680     21.798352     41.854559
  C      42.996522     20.405224     40.869544
  C      42.276442     19.989074     42.113669
  O      42.555064     20.320335     43.257486
  O      41.263540     19.187839     41.836152
  O      42.605584     19.715246     39.784686
  C      41.925902     20.413008     38.694326
  H      41.354258     19.591943     38.226129
  C      42.937549     20.958448     37.728155
  H      43.655661     20.267071     37.276004
  C      43.045512     22.267265     37.425452
  C      42.092611     23.225456     37.995506
  H      42.260818     24.263897     37.695884
  C      41.088605     22.856595     38.807145
  H      40.382284     23.589442     39.216219
  C      40.863123     21.429617     39.220733
  H      40.895405     21.397014     40.328927
  O      39.540837     21.032500     38.806986
  H      39.223545     20.410957     39.477447
  C      44.154000     22.793046     36.465116
  O      44.945202     21.928041     36.040568
  O      44.110541     24.026956     36.263202
  N      40.832000     18.750000     42.551000
25
Coordinates from ORCA-job job E -836.656002456510
  C      43.980755     21.325746     40.894852
  H      44.496167     21.630131     39.983113
  H      44.215258     21.778722     41.862942
  C      43.007661     20.397851     40.854280
  C      42.300225     19.953388     42.108271
  O      42.585655     20.268874     43.249401
  O      41.286675     19.150924     41.821460
  O      42.615516     19.723504     39.752383
  C      41.942781     20.424994     38.664876
  H      41.373890     19.609450     38.191200
  C      42.954994     20.975538     37.707631
  H      43.669784     20.287013     37.248417
  C      43.044810     22.280415     37.398145
  C      42.090155     23.233433     37.972065
  H      42.264421     24.274883     37.687570
  C      41.086104     22.854948     38.780548
  H      40.382812     23.581709     39.200466
  C      40.875586     21.427601     39.195163
  H      40.912868     21.395647     40.299227
  O      39.558356     21.018951     38.789879
  H      39.255975     20.382207     39.454068
  C      44.161721     22.816892     36.450212
  O      44.955210     21.957363     36.017643
  O      44.125042     24.055307     36.261279
  N      40.832000     18.750000     42.551000
25
Coordinates from ORCA-job job E -836.656637986928
  C      43.967860     21.288745     40.883839
  H      44.474296     21.614822     39.972938
  H      44.197053     21.740034     41.845618
  C      43.010348     20.354368     40.842111
  C      42.313353     19.920218     42.099354
  O      42.618978     20.244166     43.232133
  O      41.274436     19.130855     41.819445
  O      42.603005     19.699292     39.727677
  C      41.955686     20.434229     38.638223
  H      41.376491     19.632754     38.132933
  C      42.981213     20.993797     37.703139
  H      43.695242     20.308695     37.238797
  C      43.054906     22.295522     37.385416
  C      42.093231     23.242890     37.955327
  H      42.263180     24.284325     37.672162
  C      41.087598     22.856092     38.759340
  H      40.379164     23.577139     39.180727
  C      40.889193     21.429793     39.176034
  H      40.940539     21.401220     40.278451
  O      39.565401     21.010044     38.792746
  H      39.287378     20.363463     39.460704
  C      44.171238     22.839469     36.437775
  O      44.964005     21.983960     35.995354
  O      44.130784     24.076664     36.250698
  N      40.832000     18.750000     42.551000
25
Coordinates from ORCA-job job E -836.657563105838
  C      43.949618     21.269173     40.872147
  H      44.456550     21.636220     39.972658
  H      44.172717     21.704588     41.844455
  C      43.007190     20.313139     40.799507
  C      42.322751     19.863500     42.041726
  O      42.635990     20.166598     43.180111
  O      41.287487     19.064349     41.774201
  O      42.600310     19.678309     39.680561
  C      41.970750     20.437061     38.600390
  H      41.393800     19.647652     38.074414
  C      43.004223     21.009729     37.686761
  H      43.731426     20.333468     37.230228
  C      43.074415     22.315571     37.378145
  C      42.091886     23.251001     37.934189
  H      42.244041     24.293251     37.644556
  C      41.080006     22.849345     38.726003
  H      40.351298     23.559864     39.137075
  C      40.900924     21.420702     39.146940
  H      40.967503     21.397759     40.249640
  O      39.577904     20.984955     38.784687
  H      39.330186     20.307443     39.441247
  C      44.190169     22.869454     36.436077
  O      44.974384     22.013028     35.974082
  O      44.156643     24.109966     36.269272
  N      40.832000     18.750000     42.551000
25
Coordinates from ORCA-job job E -836.658348189550
  C      43.941528     21.275650     40.846001
  H      44.440900     21.657156     39.949240
  H      44.172044     21.694765     41.829784
  C      43.005369     20.308918     40.763581
  C      42.328152     19.851150     42.023075
  O      42.645260     20.164301     43.158088
  O      41.290455     19.056206     41.781020
  O      42.601045     19.678578     39.644460
  C      42.003777     20.453622     38.559269
  H      41.444212     19.674741     38.016300
  C      43.051346     21.044796     37.664851
  H      43.800044     20.382315     37.217050
  C      43.100864     22.353571     37.353273
  C      42.090865     23.272463     37.895557
  H      42.230886     24.319033     37.610191
  C      41.078834     22.855175     38.680017
  H      40.339477     23.556152     39.089124
  C      40.923729     21.423486     39.109557
  H      40.999739     21.406353     40.214021
  O      39.606083     20.961746     38.760425
  H      39.363795     20.301823     39.410042
  C      44.205384     22.923420     36.408006
  O      45.003976     22.085826     35.949282
  O      44.148758     24.160595     36.240111
  N      40.832000     18.750000     42.551000
25
Coordinates from ORCA-job job E -836.658912129222
  C      43.937772     21.223915     40.814411
  H      44.419105     21.616088     39.926886
  H      44.188198     21.615853     41.808577
  C      43.010621     20.257531     40.727762
  C      42.339020     19.798523     41.992471
  O      42.671436     20.116408     43.122537
  O      41.276451     19.027147     41.769115
  O      42.580451     19.648512     39.603768
  C      42.000087     20.456976     38.528335
  H      41.443226     19.695248     37.965729
  C      43.058175     21.050950     37.653310
  H      43.816906     20.392272     37.218406
  C      43.092103     22.356010     37.327007
  C      42.066246     23.268547     37.847603
  H      42.204598     24.314007     37.560091
  C      41.058450     22.855032     38.631343
  H      40.313969     23.554634     39.024941
  C      40.923083     21.431286     39.093312
  H      41.030199     21.440537     40.201033
  O      39.591254     20.958864     38.788346
  H      39.390080     20.278090     39.451412
  C      44.220250     22.939077     36.417861
  O      45.022559     22.103753     35.962275
  O      44.186726     24.189948     36.287072
  N      40.832000     18.750000     42.551000
25
Coordinates from ORCA-job job E -836.659239757007
  C      43.895923     21.239603     40.789048
  H      44.372845     21.667835     39.898576
  H      44.127739     21.642415     41.766747
  C      43.001318     20.240736     40.720371
  C      42.332510     19.774867     41.979072
  O      42.672887     20.083388     43.107286
  O      41.266188     19.005661     41.754676
  O      42.572888     19.638354     39.594152
  C      42.028092     20.465803     38.509155
  H      41.474983     19.715871     37.909047
  C      43.110690     21.076551     37.667021
  H      43.876806     20.424069     37.239436
  C      43.120140     22.376867     37.326231
  C      42.073177     23.276159     37.826128
  H      42.192584     24.321149     37.530192
  C      41.054991     22.848259     38.591586
  H      40.287440     23.534777     38.970182
  C      40.941222     21.426196     39.061074
  H      41.047479     21.448757     40.161085
  O      39.628066     20.929576     38.765630
  H      39.453741     20.222295     39.428791
  C      44.237696     22.966360     36.412255
  O      45.057513     22.147425     35.962246
  O      44.166215     24.203928     36.250538
  N      40.832000     18.750000     42.551000
25
Coordinates from ORCA-job job E -836.659444606228
  C      43.903756     21.182759     40.809832
  H      44.376017     21.619460     39.928997
  H      44.160263     21.558148     41.799817
  C      42.987296     20.213593     40.699726
  C      42.321488     19.749968     41.950986
  O      42.679694     20.037720     43.082969
  O      41.247102     18.987167     41.735342
  O      42.526767     19.628931     39.572561
  C      42.009454     20.474173     38.489740
  H      41.457273     19.735059     37.867452
  C      43.106578     21.080583     37.673319
  H      43.875761     20.423010     37.264820
  C      43.130809     22.380010     37.332286
  C      42.074019     23.277451     37.807495
  H      42.181108     24.318101     37.493433
  C      41.035528     22.849003     38.549949
  H      40.245610     23.531377     38.898706
  C      40.919319     21.433545     39.026252
  H      41.012730     21.468738     40.119212
  O      39.624993     20.938010     38.718199
  H      39.439704     20.235208     39.347986
  C      44.265424     22.963480     36.437911
  O      45.070188     22.126779     35.978524
  O      44.212985     24.204377     36.291036
  N      40.832000     18.750000     42.551000
25
Coordinates from ORCA-job job E -836.660050923017
  C      43.896320     21.199856     40.782460
  H      44.363856     21.634966     39.899909
  H      44.155792     21.571531     41.780138
  C      42.980959     20.221021     40.678410
  C      42.340123     19.747569     41.950463
  O      42.702772     20.037538     43.078313
  O      41.271545     18.987937     41.745932
  O      42.526308     19.630071     39.557157
  C      42.018252     20.471346     38.474639
  H      41.479920     19.735082     37.860388
  C      43.109087     21.081668     37.656246
  H      43.901350     20.433215     37.264113
  C      43.130190     22.383778     37.313719
  C      42.056019     23.274274     37.771162
  H      42.169189     24.317475     37.465717
  C      41.024031     22.843099     38.516867
  H      40.246796     23.525340     38.873541
  C      40.928869     21.429666     39.025604
  H      41.068817     21.487524     40.132225
  O      39.609789     20.902480     38.771134
  H      39.451558     20.221115     39.421305
  C      44.269634     22.975123     36.427327
  O      45.085776     22.144941     35.979015
  O      44.220244     24.222009     36.292275
  N      40.832000     18.750000     42.551000
25
Coordinates from ORCA-job job E -836.660640043627
  C      43.895570     21.194988     40.774869
  H      44.361305     21.630588     39.895029
  H      44.156129     21.560583     41.775174
  C      42.982697     20.212573     40.680881
  C      42.336203     19.735477     41.952586
  O      42.704343     20.020641     43.081269
  O      41.256067     18.989886     41.744309
  O      42.518569     19.627105     39.558616
  C      42.021550     20.472539     38.471193
  H      41.487947     19.739589     37.847313
  C      43.125590     21.087211     37.663738
  H      43.921056     20.440211     37.276973
  C      43.137519     22.386844     37.311865
  C      42.053631     23.274242     37.755959
  H      42.162834     24.316570     37.445383
  C      41.019313     22.843358     38.496956
  H      40.229518     23.523714     38.838410
  C      40.928968     21.433379     39.012159
  H      41.062922     21.499501     40.114556
  O      39.615576     20.906230     38.757649
  H      39.474174     20.202872     39.418485
  C      44.284064     22.981017     36.436755
  O      45.127932     22.167008     36.025808
  O      44.212762     24.218202     36.274012
  N      40.832000     18.750000     42.551000
25
Coordinates from ORCA-job job E -836.660925991587
  C      43.894118     21.190432     40.764133
  H      44.352270     21.636191     39.875133
  H      44.152765     21.567396     41.746226
  C      42.986393     20.203475     40.683062
  C      42.339940     19.733559     41.949834
  O      42.712352     20.023020     43.071149
  O      41.255271     18.991655     41.744915
  O      42.511272     19.619802     39.562346
  C      42.027114     20.475406     38.475808
  H      41.493338     19.747886     37.834451
  C      43.132218     21.092319     37.677464
  H      43.917920     20.442211     37.288790
  C      43.134183     22.387416     37.312133
  C      42.053290     23.272228     37.750224
  H      42.153586     24.312028     37.428854
  C      41.019824     22.839066     38.489664
  H      40.225297     23.515903     38.823826
  C      40.935358     21.435653     39.015475
  H      41.072782     21.512053     40.110222
  O      39.630399     20.905667     38.772318
  H      39.497530     20.204693     39.431431
  C      44.282109     22.982992     36.442408
  O      45.123852     22.163777     36.022974
  O      44.215773     24.226061     36.289281
  N      40.832000     18.750000     42.551000
25
Coordinates from ORCA-job job E -836.661354780373
  C      43.896439     21.186002     40.762364
  H      44.352508     21.628189     39.875171
  H      44.164051     21.555857     41.750867
  C      42.981932     20.206430     40.679097
  C      42.340747     19.733460     41.946946
  O      42.721673     20.011154     43.071454
  O      41.255830     18.993285     41.741286
  O      42.500411     19.623237     39.559528
  C      42.027942     20.478446     38.470989
  H      41.498571     19.751748     37.824843
  C      43.137710     21.097456     37.679230
  H      43.935426     20.450452     37.302878
  C      43.141305     22.392328     37.313109
  C      42.048297     23.272708     37.736502
  H      42.145802     24.311651     37.411975
  C      41.009290     22.836236     38.469542
  H      40.209728     23.510659     38.797781
  C      40.934822     21.436576     39.008681
  H      41.082605     21.523981     40.102998
  O      39.629450     20.894348     38.781694
  H      39.505372     20.199754     39.442551
  C      44.291052     22.988907     36.446215
  O      45.141193     22.171557     36.039162
  O      44.212514     24.226970     36.278867
  N      40.832000     18.750000     42.551000
25
Coordinates from ORCA-job job E -836.661617571690
  C      43.898245     21.186627     40.754234
  H      44.352389     21.624999     39.867430
  H      44.171144     21.551486     41.748585
  C      42.975523     20.210835     40.672582
  C      42.343058     19.734436     41.947500
  O      42.730945     20.001896     43.072945
  O      41.253174     19.001791     41.743728
  O      42.489219     19.625907     39.558070
  C      42.026826     20.479761     38.469771
  H      41.503966     19.756728     37.825191
  C      43.138254     21.098959     37.681987
  H      43.942909     20.453991     37.313830
  C      43.143665     22.394232     37.314424
  C      42.044271     23.272319     37.726575
  H      42.141488     24.309976     37.398958
  C      41.004493     22.834597     38.456930
  H      40.204199     23.507317     38.781789
  C      40.934627     21.439583     39.004990
  H      41.091646     21.536532     40.099045
  O      39.630503     20.890020     38.791505
  H      39.518664     20.196030     39.456362
  C      44.293793     22.991095     36.449575
  O      45.148783     22.173778     36.051628
  O      44.213252     24.229115     36.276684
  N      40.832000     18.750000     42.551000
25
Coordinates from ORCA-job job E -836.661982376367
  C      43.906375     21.177589     40.750041
  H      44.356989     21.614149     39.860048
  H      44.183701     21.541672     41.744154
  C      42.974587     20.210332     40.671533
  C      42.344925     19.733235     41.946063
  O      42.736945     19.994194     43.070037
  O      41.251245     19.008711     41.742545
  O      42.478335     19.627183     39.557795
  C      42.027597     20.483719     38.466375
  H      41.506408     19.763845     37.813341
  C      43.145179     21.105167     37.686112
  H      43.955327     20.462638     37.325027
  C      43.146357     22.398709     37.312647
  C      42.037278     23.273345     37.710784
  H      42.132100     24.309414     37.377832
  C      40.995264     22.833794     38.437523
  H      40.187983     23.504134     38.754327
  C      40.935076     21.443807     38.999363
  H      41.104322     21.553519     40.091933
  O      39.630142     20.884554     38.806360
  H      39.534314     20.191005     39.475458
  C      44.299485     22.996604     36.452818
  O      45.164904     22.182132     36.071720
  O      44.212149     24.232221     36.267060
  N      40.832000     18.750000     42.551000
25
Coordinates from ORCA-job job E -836.662545313785
  C      43.916517     21.166467     40.741302
  H      44.362499     21.604413     39.847221
  H      44.196863     21.531336     41.730454
  C      42.971927     20.210376     40.673477
  C      42.346469     19.730783     41.945470
  O      42.756531     19.968752     43.069363
  O      41.240208     19.024454     41.740859
  O      42.459694     19.630934     39.561383
  C      42.027583     20.491122     38.467543
  H      41.508121     19.777217     37.801722
  C      43.152557     21.112031     37.699037
  H      43.965873     20.471355     37.346670
  C      43.145501     22.401123     37.312365
  C      42.026543     23.272304     37.690133
  H      42.121390     24.305416     37.348686
  C      40.980683     22.831908     38.410613
  H      40.166485     23.498822     38.716137
  C      40.934864     21.451518     38.995542
  H      41.120598     21.581763     40.082698
  O      39.633749     20.878990     38.833206
  H      39.563622     20.181972     39.502290
  C      44.305597     22.999654     36.461557
  O      45.184812     22.188118     36.106609
  O      44.210453     24.231504     36.253671
  N      40.832000     18.750000     42.551000
25
Coordinates from ORCA-job job E -836.663298785442
  C      43.934875     21.148286     40.728218
  H      44.374792     21.583476     39.832400
  H      44.228852     21.511386     41.713127
  C      42.973415     20.208171     40.666448
  C      42.355815     19.727114     41.938758
  O      42.782064     19.953306     43.054368
  O      41.235269     19.036803     41.743001
  O      42.442563     19.635540     39.557740
  C      42.030740     20.504754     38.464856
  H      41.513797     19.800255     37.788395
  C      43.164599     21.124105     37.711613
  H      43.991706     20.488973     37.378040
  C      43.147790     22.408275     37.308988
  C      42.012754     23.274266     37.656676
  H      42.092578     24.301367     37.288356
  C      40.965214     22.834792     38.373300
  H      40.133549     23.496601     38.654485
  C      40.940233     21.467075     38.990726
  H      41.148238     21.625205     40.070963
  O      39.642604     20.878519     38.869916
  H      39.607226     20.175411     39.538227
  C      44.314634     23.008389     36.468471
  O      45.212596     22.203972     36.143662
  O      44.202697     24.233241     36.230476
  N      40.832000     18.750000     42.551000
25
Coordinates from ORCA-job job E -836.664405294388
  C      43.961615     21.102504     40.700090
  H      44.394464     21.540951     39.799268
  H      44.276243     21.450751     41.685153
  C      42.966205     20.196761     40.646143
  C      42.369881     19.706122     41.926733
  O      42.837052     19.890205     43.035837
  O      41.219784     19.061650     41.745939
  O      42.404963     19.641856     39.541456
  C      42.020467     20.527143     38.449613
  H      41.501537     19.838362     37.755120
  C      43.167549     21.148502     37.717435
  H      44.011368     20.523571     37.405616
  C      43.149688     22.429339     37.305757
  C      41.999503     23.286384     37.617297
  H      42.074843     24.305570     37.225461
  C      40.944493     22.847198     38.323811
  H      40.104364     23.501219     38.583226
  C      40.941633     21.498512     38.980752
  H      41.182001     21.692300     40.047841
  O      39.651192     20.899071     38.918995
  H      39.671518     20.175994     39.573609
  C      44.330988     23.031395     36.485230
  O      45.255137     22.235422     36.210900
  O      44.201872     24.248762     36.207485
  N      40.832000     18.750000     42.551000
25
Coordinates from ORCA-job job E -836.665480966435
  C      43.972674     21.078784     40.694366
  H      44.404540     21.533710     39.796379
  H      44.314567     21.400784     41.686373
  C      42.957573     20.195071     40.641062
  C      42.372948     19.682664     41.916967
  O      42.878038     19.803011     43.026116
  O      41.193601     19.081080     41.746239
  O      42.382911     19.663384     39.538764
  C      42.017959     20.556241     38.455592
  H      41.497309     19.882583     37.757198
  C      43.179364     21.167752     37.744832
  H      44.036445     20.548551     37.467094
  C      43.141494     22.434294     37.292857
  C      41.953680     23.278530     37.533936
  H      42.008570     24.280604     37.095179
  C      40.900413     22.849077     38.244477
  H      40.038677     23.494480     38.457693
  C      40.950343     21.529969     38.989895
  H      41.238770     21.789368     40.040570
  O      39.670255     20.888609     39.020184
  H      39.759492     20.149167     39.651982
  C      44.347848     23.032030     36.504482
  O      45.304420     22.248926     36.300193
  O      44.208138     24.238197     36.179472
  N      40.832000     18.750000     42.551000
25
Coordinates from ORCA-job job E -836.657200782157
  C      44.003577     21.028341     40.624957
  H      44.493331     21.450684     39.764472
  H      44.392053     21.323794     41.603577
  C      42.962501     20.194644     40.598211
  C      42.369858     19.676203     41.866385
  O      42.900149     19.736458     42.951712
  O      41.151851     19.141271     41.767994
  O      42.432411     19.714022     39.485419
  C      42.005555     20.588885     38.425670
  H      41.463933     19.905956     37.794743
  C      43.157591     21.194198     37.697827
  H      44.007379     20.595872     37.422269
  C      43.135604     22.464809     37.270382
  C      41.946742     23.279816     37.503280
  H      42.021573     24.260364     37.066649
  C      40.905434     22.858383     38.244147
  H      40.058703     23.485314     38.449174
  C      40.978112     21.563958     39.009177
  H      41.273533     21.821691     40.015547
  O      39.731038     20.964734     39.074663
  H      39.845171     20.155905     39.549946
  C      44.354555     23.071963     36.509026
  O      45.313003     22.321493     36.362129
  O      44.222922     24.266038     36.163846
  N      40.832000     18.750000     42.551000
25
Coordinates from ORCA-job job E -836.666645019937
  C      44.030007     21.009809     40.645187
  H      44.490057     21.440674     39.766101
  H      44.396187     21.314869     41.626742
  C      42.974587     20.168882     40.599493
  C      42.384989     19.655937     41.875232
  O      42.922070     19.733300     42.967960
  O      41.172195     19.112910     41.741676
  O      42.389429     19.674173     39.483478
  C      42.007183     20.585987     38.416759
  H      41.462749     19.918336     37.732635
  C      43.158464     21.200475     37.700721
  H      44.025278     20.594807     37.433865
  C      43.137197     22.472804     37.268332
  C      41.954281     23.297760     37.502071
  H      41.998407     24.286105     37.036326
  C      40.915908     22.868631     38.234032
  H      40.043654     23.499938     38.428866
  C      40.975034     21.572827     38.987479
  H      41.299466     21.841823     40.015920
  O      39.701007     20.954706     39.069185
  H      39.833718     20.174342     39.625626
  C      44.355010     23.079364     36.506437
  O      45.338665     22.317356     36.373179
  O      44.199051     24.271164     36.145349
  N      40.832000     18.750000     42.551000
25
Coordinates from ORCA-job job E -836.666686431268
  C      44.014167     20.994436     40.664197
  H      44.440748     21.459457     39.765382
  H      44.395173     21.280946     41.650962
  C      42.981314     20.141408     40.600165
  C      42.408005     19.625320     41.882250
  O      42.938780     19.713966     42.972699
  O      41.199051     19.072394     41.744437
  O      42.377083     19.661912     39.484745
  C      42.023734     20.605676     38.417497
  H      41.480159     19.950218     37.701294
  C      43.200144     21.232439     37.729295
  H      44.095027     20.631544     37.492000
  C      43.155783     22.500996     37.279150
  C      41.932213     23.312894     37.476480
  H      41.951067     24.298723     37.000838
  C      40.886994     22.872401     38.202571
  H      39.999542     23.492132     38.388602
  C      40.985115     21.582649     38.985625
  H      41.330723     21.870231     40.010253
  O      39.707228     20.932847     39.106955
  H      39.870559     20.162716     39.689797
  C      44.350549     23.109925     36.500719
  O      45.288290     22.332239     36.293079
  O      44.209956     24.307555     36.174999
  N      40.832000     18.750000     42.551000
25
Coordinates from ORCA-job job E -836.667829194012
  C      44.051636     20.949639     40.668718
  H      44.482950     21.411169     39.773293
  H      44.456623     21.213709     41.658814
  C      42.989677     20.127997     40.591485
  C      42.419023     19.604608     41.869008
  O      42.965787     19.664746     42.953109
  O      41.200170     19.077022     41.741483
  O      42.364076     19.672217     39.479598
  C      42.016580     20.618944     38.420559
  H      41.472779     19.970834     37.706353
  C      43.189187     21.245600     37.734942
  H      44.067643     20.642459     37.496165
  C      43.133239     22.509412     37.265769
  C      41.908375     23.313267     37.447509
  H      41.923749     24.290453     36.958627
  C      40.877506     22.876435     38.190176
  H      39.995231     23.490080     38.370426
  C      40.989126     21.602318     38.998292
  H      41.356388     21.907592     40.009981
  O      39.718667     20.961876     39.152101
  H      39.903351     20.184690     39.704624
  C      44.353515     23.130025     36.521365
  O      45.370324     22.392691     36.422642
  O      44.156485     24.305264     36.125739
  N      40.832000     18.750000     42.551000
25
Coordinates from ORCA-job job E -836.666032684858
  C      44.071688     20.966658     40.671540
  H      44.546221     21.410019     39.816275
  H      44.449880     21.230039     41.655751
  C      43.004754     20.136598     40.612887
  C      42.426030     19.585515     41.885619
  O      43.005801     19.575437     42.981049
  O      41.186063     19.107977     41.740153
  O      42.397724     19.698127     39.484630
  C      42.035875     20.629902     38.428503
  H      41.492282     19.979992     37.724359
  C      43.189640     21.265414     37.727118
  H      44.070367     20.676268     37.487433
  C      43.125436     22.527784     37.260945
  C      41.916754     23.314368     37.458833
  H      41.877083     24.278028     36.908286
  C      40.903287     22.873564     38.220632
  H      39.968229     23.473563     38.351551
  C      41.018900     21.610871     39.021462
  H      41.396491     21.914880     40.016514
  O      39.765887     20.980407     39.194831
  H      39.963625     20.190565     39.707179
  C      44.313081     23.156572     36.484969
  O      45.313875     22.422825     36.352490
  O      44.123377     24.340703     36.109488
  N      40.832000     18.750000     42.551000
25
Coordinates from ORCA-job job E -836.668665383545
  C      44.075315     20.942108     40.670183
  H      44.531422     21.397714     39.799064
  H      44.466307     21.201112     41.654206
  C      43.011200     20.117171     40.602703
  C      42.428675     19.580089     41.871280
  O      42.985427     19.600699     42.954051
  O      41.192539     19.090879     41.738276
  O      42.387563     19.684653     39.478258
  C      42.029778     20.639471     38.432083
  H      41.478967     19.998840     37.719364
  C      43.185403     21.270440     37.736547
  H      44.082100     20.681431     37.513658
  C      43.124402     22.530462     37.265009
  C      41.901737     23.317205     37.442923
  H      41.903112     24.280589     36.933575
  C      40.880378     22.879262     38.199257
  H      39.985991     23.479919     38.366677
  C      41.016739     21.624622     39.027842
  H      41.415468     21.948842     40.023023
  O      39.756916     20.973080     39.232881
  H      39.980901     20.182128     39.760432
  C      44.317534     23.154485     36.494521
  O      45.314101     22.418335     36.367709
  O      44.124460     24.329185     36.102258
  N      40.832000     18.750000     42.551000
25
Coordinates from ORCA-job job E -836.668366864803
  C      44.079147     20.928095     40.703383
  H      44.509626     21.402901     39.801870
  H      44.485853     21.168338     41.695203
  C      43.011120     20.117242     40.612096
  C      42.432004     19.582487     41.886409
  O      42.975494     19.612406     42.969927
  O      41.207150     19.081112     41.746150
  O      42.379287     19.685132     39.499031
  C      42.037356     20.639811     38.446371
  H      41.491572     19.995863     37.722848
  C      43.212956     21.280371     37.762282
  H      44.117037     20.691207     37.546213
  C      43.131920     22.536263     37.274935
  C      41.875750     23.313151     37.432352
  H      41.845690     24.275251     36.901545
  C      40.861750     22.871190     38.198167
  H      39.943803     23.463879     38.351535
  C      41.012387     21.617765     39.025017
  H      41.396868     21.937320     40.017089
  O      39.765096     20.960463     39.211262
  H      39.970230     20.184912     39.743614
  C      44.336085     23.174142     36.516905
  O      45.355675     22.450837     36.412580
  O      44.123280     24.343785     36.114894
  N      40.832000     18.750000     42.551000
25
Coordinates from ORCA-job job E -836.669326161077
  C      44.095070     20.881544     40.673655
  H      44.532834     21.356291     39.787232
  H      44.512566     21.103048     41.664906
  C      43.017147     20.083588     40.593807
  C      42.448129     19.544725     41.869932
  O      43.028588     19.529766     42.947061
  O      41.192899     19.090843     41.743197
  O      42.368979     19.673985     39.480699
  C      42.025524     20.648607     38.449426
  H      41.467482     20.021944     37.723009
  C      43.193946     21.290139     37.769739
  H      44.083114     20.703828     37.547365
  C      43.120248     22.544801     37.286593
  C      41.874527     23.313135     37.442563
  H      41.850908     24.266931     36.906155
  C      40.858433     22.872277     38.208875
  H      39.941398     23.456905     38.359358
  C      41.024308     21.636917     39.057952
  H      41.451694     21.978181     40.035961
  O      39.775595     20.981154     39.309175
  H      40.033344     20.187063     39.819114
  C      44.328947     23.181456     36.536301
  O      45.354250     22.465388     36.458342
  O      44.114364     24.341585     36.111912
  N      40.832000     18.750000     42.551000
25
Coordinates from ORCA-job job E -836.667758382244
  C      44.086362     20.925737     40.683086
  H      44.561535     21.359995     39.840471
  H      44.468377     21.170276     41.655142
  C      43.024750     20.098732     40.622277
  C      42.424141     19.561812     41.878805
  O      42.975190     19.547801     42.962556
  O      41.188486     19.101345     41.733381
  O      42.387932     19.690771     39.491655
  C      42.032597     20.649802     38.459307
  H      41.482705     20.016927     37.744361
  C      43.185124     21.287435     37.764309
  H      44.115519     20.713671     37.582357
  C      43.111235     22.538649     37.277060
  C      41.879769     23.298608     37.441398
  H      41.862846     24.245941     36.911788
  C      40.863434     22.860892     38.209299
  H      39.962353     23.443058     38.370578
  C      41.026141     21.634505     39.059088
  H      41.451604     21.985077     40.032736
  O      39.787401     20.970336     39.312665
  H      40.035861     20.188593     39.822403
  C      44.309442     23.177983     36.519312
  O      45.325930     22.460433     36.426732
  O      44.104129     24.340955     36.109424
  N      40.832000     18.750000     42.551000
25
Coordinates from ORCA-job job E -836.669908791343
  C      44.108804     20.894566     40.701647
  H      44.560292     21.360368     39.825517
  H      44.513843     21.115163     41.692984
  C      43.035006     20.086640     40.619049
  C      42.443722     19.547679     41.883049
  O      43.001441     19.534227     42.962748
  O      41.198843     19.095137     41.742473
  O      42.392339     19.682573     39.497617
  C      42.041074     20.654987     38.470398
  H      41.480663     20.029315     37.746965
  C      43.199923     21.296087     37.780102
  H      44.098012     20.714845     37.568054
  C      43.112620     22.545501     37.283393
  C      41.868376     23.306552     37.439721
  H      41.830441     24.252855     36.887361
  C      40.867395     22.870260     38.224216
  H      39.952707     23.450320     38.376476
  C      41.041392     21.643271     39.079734
  H      41.471939     21.991011     40.050190
  O      39.802433     20.982882     39.339877
  H      40.057526     20.200255     39.850426
  C      44.300263     23.183504     36.513510
  O      45.320338     22.471230     36.424124
  O      44.079506     24.340491     36.087007
  N      40.832000     18.750000     42.551000
25
Coordinates from ORCA-job job E -836.669977933788
  C      44.112536     20.876816     40.702854
  H      44.559973     21.347686     39.822812
  H      44.520076     21.091106     41.689426
  C      43.030801     20.082640     40.615465
  C      42.447340     19.540577     41.885189
  O      43.019100     19.507828     42.964152
  O      41.193910     19.100984     41.746385
  O      42.383779     19.683371     39.499484
  C      42.041402     20.656415     38.472456
  H      41.482884     20.033289     37.747227
  C      43.207434     21.301504     37.788351
  H      44.126185     20.728360     37.591235
  C      43.114317     22.549850     37.290388
  C      41.850270     23.300342     37.433920
  H      41.817839     24.243887     36.891985
  C      40.845509     22.859840     38.215546
  H      39.920923     23.432849     38.365204
  C      41.039924     21.638706     39.080697
  H      41.476932     21.992958     40.042773
  O      39.811067     20.971782     39.355847
  H      40.080455     20.182084     39.861285
  C      44.310975     23.198631     36.530215
  O      45.347614     22.497812     36.460757
  O      44.077234     24.351911     36.091930
  N      40.832000     18.750000     42.551000
25
Coordinates from ORCA-job job E -836.670471056227
  C      44.138967     20.846064     40.700918
  H      44.582030     21.316397     39.823289
  H      44.556971     21.042725     41.690295
  C      43.056535     20.054371     40.614647
  C      42.469930     19.514420     41.883639
  O      43.041218     19.479076     42.958245
  O      41.209317     19.094808     41.749735
  O      42.395520     19.674337     39.493395
  C      42.047157     20.665142     38.481068
  H      41.480138     20.051721     37.752499
  C      43.206628     21.314269     37.793901
  H      44.122053     20.744590     37.594590
  C      43.107160     22.560527     37.292298
  C      41.843764     23.301759     37.437299
  H      41.791321     24.238120     36.873440
  C      40.850689     22.862693     38.234096
  H      39.922536     23.428261     38.381055
  C      41.057696     21.651815     39.107843
  H      41.515748     22.014596     40.060896
  O      39.831708     20.986861     39.411895
  H      40.112736     20.202679     39.908948
  C      44.297805     23.213716     36.529315
  O      45.339354     22.522706     36.467427
  O      44.057207     24.359763     36.083376
  N      40.832000     18.750000     42.551000
25
Coordinates from ORCA-job job E -836.670473979937
  C      44.134439     20.851400     40.721786
  H      44.587464     21.322476     39.852749
  H      44.544084     21.039449     41.713265
  C      43.053882     20.057903     40.623618
  C      42.456106     19.516626     41.887053
  O      43.017870     19.469413     42.964766
  O      41.205336     19.096147     41.744861
  O      42.404594     19.678122     39.503901
  C      42.057276     20.665453     38.494723
  H      41.485600     20.056393     37.765265
  C      43.213323     21.317237     37.803334
  H      44.108723     20.746750     37.589125
  C      43.101028     22.557802     37.291505
  C      41.841612     23.289881     37.445649
  H      41.774966     24.219780     36.870235
  C      40.852044     22.851239     38.247868
  H      39.925662     23.409187     38.402990
  C      41.068547     21.648705     39.120344
  H      41.535317     22.019992     40.064429
  O      39.853175     20.977573     39.440550
  H      40.140899     20.195372     39.940346
  C      44.282003     23.217435     36.518700
  O      45.316837     22.531240     36.443443
  O      44.039938     24.360266     36.077352
  N      40.832000     18.750000     42.551000
25
Coordinates from ORCA-job job E -836.670948524938
  C      44.165314     20.825055     40.727443
  H      44.618104     21.297797     39.856677
  H      44.583392     21.000830     41.720637
  C      43.074608     20.042643     40.632394
  C      42.472648     19.499644     41.892288
  O      43.041834     19.437459     42.967292
  O      41.207920     19.104983     41.749551
  O      42.415855     19.676408     39.509931
  C      42.065204     20.671399     38.509141
  H      41.489092     20.068889     37.779414
  C      43.218394     21.326328     37.816423
  H      44.134791     20.766355     37.616389
  C      43.094508     22.564448     37.297785
  C      41.824624     23.287531     37.440848
  H      41.751213     24.210580     36.856610
  C      40.848955     22.849903     38.258356
  H      39.919589     23.401444     38.411079
  C      41.084354     21.656389     39.146557
  H      41.565545     22.037846     40.079478
  O      39.877611     20.984678     39.491753
  H      40.179243     20.200330     39.981085
  C      44.262133     23.227105     36.514414
  O      45.311479     22.553936     36.458381
  O      43.995127     24.360433     36.044430
  N      40.832000     18.750000     42.551000
25
Coordinates from ORCA-job job E -836.671071795992
  C      44.174148     20.806139     40.730958
  H      44.622888     21.286908     39.857516
  H      44.591349     20.973323     41.723663
  C      43.086608     20.023731     40.632182
  C      42.485991     19.482008     41.895798
  O      43.053359     19.417249     42.970283
  O      41.214264     19.098968     41.753074
  O      42.422808     19.667030     39.507482
  C      42.065518     20.673042     38.517314
  H      41.484294     20.075698     37.788154
  C      43.215333     21.330825     37.821691
  H      44.142997     20.776730     37.627435
  C      43.091693     22.568025     37.306862
  C      41.811928     23.282636     37.448834
  H      41.737804     24.200830     36.869513
  C      40.840042     22.845418     38.272716
  H      39.894622     23.391755     38.417456
  C      41.090453     21.658129     39.166581
  H      41.582162     22.044815     40.091627
  O      39.888088     20.990161     39.527786
  H      40.191149     20.210995     40.017511
  C      44.267532     23.238453     36.532525
  O      45.326610     22.575787     36.485182
  O      44.000479     24.368101     36.066417
  N      40.832000     18.750000     42.551000
25
Coordinates from ORCA-job job E -836.671383543085
  C      44.197439     20.786640     40.743926
  H      44.653338     21.262728     39.877081
  H      44.617421     20.946185     41.733612
  C      43.100590     20.016132     40.638822
  C      42.496783     19.473926     41.901228
  O      43.065727     19.396185     42.973694
  O      41.224401     19.103564     41.759189
  O      42.436353     19.667504     39.515403
  C      42.078870     20.678023     38.531655
  H      41.492125     20.086603     37.799820
  C      43.227325     21.342565     37.835280
  H      44.153261     20.795401     37.638998
  C      43.084961     22.574669     37.308499
  C      41.796801     23.275264     37.447735
  H      41.697651     24.185428     36.845550
  C      40.836178     22.835884     38.284923
  H      39.890643     23.371318     38.434703
  C      41.109292     21.659958     39.189549
  H      41.620190     22.059674     40.101078
  O      39.916873     20.984774     39.583907
  H      40.236961     20.207016     40.071624
  C      44.248565     23.253623     36.524214
  O      45.316597     22.605268     36.484525
  O      43.961294     24.373617     36.041381
  N      40.832000     18.750000     42.551000
25
Coordinates from ORCA-job job E -836.671446525977
  C      44.210835     20.773648     40.759608
  H      44.670424     21.252651     39.896866
  H      44.635520     20.917625     41.758001
  C      43.110768     20.006851     40.651927
  C      42.496597     19.462410     41.905825
  O      43.061364     19.370386     42.981057
  O      41.221227     19.103783     41.755216
  O      42.444989     19.664536     39.525059
  C      42.084124     20.677002     38.547620
  H      41.494449     20.090146     37.815396
  C      43.230773     21.345067     37.850832
  H      44.157711     20.803474     37.653345
  C      43.079967     22.575073     37.321907
  C      41.794422     23.269360     37.467281
  H      41.688455     24.175902     36.861484
  C      40.839361     22.829426     38.307981
  H      39.903621     23.359162     38.471033
  C      41.116651     21.658277     39.206687
  H      41.629850     22.061088     40.109371
  O      39.935917     20.986922     39.605615
  H      40.255459     20.204948     40.089298
  C      44.234492     23.257527     36.531417
  O      45.299340     22.613453     36.487568
  O      43.940153     24.372038     36.042088
  N      40.832000     18.750000     42.551000
25
Coordinates from ORCA-job job E -836.671708994404
  C      44.221524     20.767981     40.770578
  H      44.682610     21.248499     39.906827
  H      44.642123     20.912245     41.766903
  C      43.122467     20.002771     40.660708
  C      42.504554     19.459690     41.914638
  O      43.065238     19.366531     42.990460
  O      41.227913     19.106548     41.760976
  O      42.461347     19.661893     39.531982
  C      42.094352     20.676963     38.559284
  H      41.502472     20.091560     37.829692
  C      43.232977     21.348453     37.855535
  H      44.164231     20.811821     37.658170
  C      43.073000     22.575702     37.321588
  C      41.783448     23.262529     37.469488
  H      41.674251     24.164144     36.866168
  C      40.836323     22.821499     38.319996
  H      39.887422     23.346491     38.477706
  C      41.130370     21.655820     39.227608
  H      41.655089     22.065982     40.123698
  O      39.952734     20.980956     39.644658
  H      40.275270     20.208183     40.134717
  C      44.216098     23.262495     36.518416
  O      45.292176     22.630565     36.479730
  O      43.905234     24.370545     36.018862
  N      40.832000     18.750000     42.551000
25
Coordinates from ORCA-job job E -836.671801709763
  C      44.228700     20.759703     40.776635
  H      44.695398     21.240342     39.915823
  H      44.643712     20.908931     41.770076
  C      43.127009     19.997839     40.663539
  C      42.507450     19.455025     41.916857
  O      43.064453     19.360613     42.993366
  O      41.227336     19.106411     41.761719
  O      42.470465     19.656540     39.533010
  C      42.096618     20.674096     38.564341
  H      41.502368     20.089021     37.835330
  C      43.233900     21.349998     37.859917
  H      44.175129     20.819857     37.667158
  C      43.069080     22.575860     37.326001
  C      41.768740     23.256767     37.468740
  H      41.646560     24.156053     36.856331
  C      40.830479     22.814361     38.327253
  H      39.877939     23.335688     38.484476
  C      41.135942     21.651910     39.240189
  H      41.667477     22.068152     40.130596
  O      39.961239     20.978120     39.668862
  H      40.286876     20.206643     40.163820
  C      44.215580     23.266911     36.528056
  O      45.295532     22.640967     36.490990
  O      43.906807     24.373102     36.033699
  N      40.832000     18.750000     42.551000
25
Coordinates from ORCA-job job E -836.671978773362
  C      44.241275     20.750724     40.790429
  H      44.710314     21.230627     39.931063
  H      44.655563     20.897480     41.784625
  C      43.136632     19.994295     40.673816
  C      42.513707     19.451859     41.925970
  O      43.067069     19.350683     43.004458
  O      41.234886     19.107266     41.765757
  O      42.482809     19.653754     39.541558
  C      42.101312     20.674040     38.578867
  H      41.501736     20.091039     37.851895
  C      43.234857     21.352909     37.870619
  H      44.173705     20.826104     37.674084
  C      43.063311     22.575827     37.333680
  C      41.762535     23.250865     37.482404
  H      41.631937     24.145743     36.866218
  C      40.830393     22.808385     38.347287
  H      39.879281     23.324879     38.511460
  C      41.145139     21.652012     39.259843
  H      41.685029     22.073901     40.141390
  O      39.975780     20.981595     39.702130
  H      40.302284     20.215684     40.205168
  C      44.197728     23.268990     36.521654
  O      45.283576     22.652502     36.487284
  O      43.869820     24.365091     36.010167
  N      40.832000     18.750000     42.551000
25
Coordinates from ORCA-job job E -836.672061299838
  C      44.259516     20.738645     40.797571
  H      44.733648     21.214230     39.942671
  H      44.676891     20.881189     41.798918
  C      43.149772     19.987635     40.681679
  C      42.515767     19.448684     41.928249
  O      43.063451     19.343776     43.009121
  O      41.233158     19.111811     41.765117
  O      42.500289     19.646599     39.545991
  C      42.114864     20.669286     38.587436
  H      41.516086     20.087593     37.859268
  C      43.244346     21.358357     37.878964
  H      44.181112     20.839464     37.675249
  C      43.057485     22.579864     37.338338
  C      41.755146     23.244146     37.493710
  H      41.619043     24.136286     36.882870
  C      40.825204     22.793615     38.356484
  H      39.869921     23.301209     38.526012
  C      41.158228     21.641319     39.270568
  H      41.706097     22.071886     40.142106
  O      39.999506     20.963888     39.726562
  H      40.326022     20.204439     40.239653
  C      44.184134     23.282618     36.523088
  O      45.273023     22.675353     36.488087
  O      43.845533     24.373015     36.008211
  N      40.832000     18.750000     42.551000
25
Coordinates from ORCA-job job E -836.672215381035
  C      44.276815     20.722164     40.816117
  H      44.750095     21.201038     39.956894
  H      44.692635     20.864838     41.814965
  C      43.163108     19.979180     40.695883
  C      42.528006     19.439333     41.941677
  O      43.075530     19.325970     43.022999
  O      41.244342     19.111060     41.771366
  O      42.514959     19.641304     39.559231
  C      42.110437     20.664768     38.611750
  H      41.502213     20.084553     37.891457
  C      43.229211     21.353761     37.892808
  H      44.173942     20.839231     37.693459
  C      43.036433     22.571789     37.347587
  C      41.736779     23.232729     37.508793
  H      41.589450     24.118898     36.887144
  C      40.822540     22.785123     38.391027
  H      39.866874     23.289166     38.564612
  C      41.164480     21.640163     39.309194
  H      41.726726     22.075739     40.171412
  O      40.007402     20.972274     39.785052
  H      40.338288     20.219166     40.305565
  C      44.155725     23.271314     36.521271
  O      45.248938     22.671534     36.491615
  O      43.810334     24.351807     35.992882
  N      40.832000     18.750000     42.551000
25
Coordinates from ORCA-job job E -836.671953695665
  C      44.285181     20.709142     40.811194
  H      44.763162     21.187738     39.952567
  H      44.685653     20.872442     41.802898
  C      43.174824     19.966525     40.690565
  C      42.537554     19.433367     41.938253
  O      43.078681     19.334537     43.019395
  O      41.253379     19.099872     41.773223
  O      42.536677     19.625791     39.547899
  C      42.122607     20.652179     38.601440
  H      41.518479     20.067925     37.881558
  C      43.236736     21.354956     37.883351
  H      44.191235     20.850543     37.681159
  C      43.045978     22.577503     37.357400
  C      41.729860     23.228564     37.519413
  H      41.564635     24.117811     36.896926
  C      40.825900     22.769566     38.405380
  H      39.865323     23.267100     38.584671
  C      41.174337     21.620316     39.308457
  H      41.737252     22.050474     40.167328
  O      40.019453     20.962616     39.777871
  H      40.340509     20.212486     40.311506
  C      44.158836     23.291645     36.529846
  O      45.272110     22.712571     36.509190
  O      43.788288     24.364624     35.994891
  N      40.832000     18.750000     42.551000
25
Coordinates from ORCA-job job E -836.672303400569
  C      44.300851     20.699655     40.822195
  H      44.780305     21.171834     39.966860
  H      44.710896     20.848910     41.819588
  C      43.182460     19.962297     40.702523
  C      42.542027     19.428548     41.948590
  O      43.084928     19.315634     43.030371
  O      41.252832     19.109620     41.776218
  O      42.535828     19.624936     39.564911
  C      42.119915     20.653809     38.624021
  H      41.510153     20.073487     37.901628
  C      43.233782     21.354919     37.903856
  H      44.178008     20.847761     37.697148
  C      43.034732     22.573922     37.366467
  C      41.720809     23.223025     37.527188
  H      41.561880     24.107923     36.907619
  C      40.814609     22.767101     38.413175
  H      39.854703     23.262285     38.593345
  C      41.174471     21.624075     39.329413
  H      41.744328     22.062653     40.183339
  O      40.025561     20.954933     39.814366
  H      40.354552     20.209227     40.344917
  C      44.143183     23.282852     36.532901
  O      45.244718     22.696841     36.505367
  O      43.779286     24.355055     35.995698
  N      40.832000     18.750000     42.551000
25
Coordinates from ORCA-job job E -836.672190633241
  C      44.284805     20.710078     40.818991
  H      44.760179     21.188541     39.961501
  H      44.702282     20.852928     41.823879
  C      43.173627     19.967597     40.700210
  C      42.531404     19.429929     41.941778
  O      43.071639     19.314451     43.025964
  O      41.249505     19.102283     41.770288
  O      42.532848     19.629256     39.559142
  C      42.118139     20.651296     38.617733
  H      41.515927     20.068276     37.896543
  C      43.229372     21.357280     37.900074
  H      44.181209     20.854455     37.696127
  C      43.017577     22.577319     37.360444
  C      41.715260     23.223249     37.535422
  H      41.552100     24.110446     36.918311
  C      40.809057     22.760166     38.416938
  H      39.848366     23.251785     38.600802
  C      41.168544     21.613900     39.324801
  H      41.740027     22.049419     40.180069
  O      40.018739     20.942090     39.810015
  H      40.351016     20.193983     40.342027
  C      44.130331     23.295969     36.538510
  O      45.235165     22.714622     36.509911
  O      43.767548     24.371155     36.012912
  N      40.832000     18.750000     42.551000
25
Coordinates from ORCA-job job E -836.672357617193
  C      44.309609     20.680690     40.821026
  H      44.788247     21.153219     39.962685
  H      44.724934     20.827346     41.819488
  C      43.186052     19.952118     40.702238
  C      42.542790     19.419714     41.946058
  O      43.084096     19.299317     43.027771
  O      41.253765     19.107086     41.775083
  O      42.537107     19.619672     39.563416
  C      42.110627     20.649155     38.630423
  H      41.499177     20.069630     37.912310
  C      43.219552     21.355308     37.910030
  H      44.169494     20.853626     37.706052
  C      43.016189     22.574978     37.376610
  C      41.705085     23.218273     37.541934
  H      41.539174     24.101124     36.919581
  C      40.802949     22.758208     38.428915
  H      39.838167     23.246918     38.608864
  C      41.169792     21.617996     39.343196
  H      41.748573     22.060042     40.190829
  O      40.025535     20.950722     39.839569
  H      40.360990     20.204933     40.371066
  C      44.125338     23.289193     36.549324
  O      45.233072     22.711781     36.532616
  O      43.756326     24.355594     36.005921
  N      40.832000     18.750000     42.551000
25
Coordinates from ORCA-job job E -836.672290144977
  C      44.309929     20.682864     40.824280
  H      44.789390     21.154930     39.967320
  H      44.717038     20.834937     41.819664
  C      43.191207     19.948331     40.702364
  C      42.550858     19.416875     41.951094
  O      43.095930     19.301415     43.032859
  O      41.259508     19.102860     41.778823
  O      42.545516     19.614485     39.564735
  C      42.122312     20.645886     38.627398
  H      41.514869     20.064034     37.903842
  C      43.230119     21.357219     37.906324
  H      44.179313     20.856119     37.695759
  C      43.016766     22.578383     37.372217
  C      41.699975     23.219385     37.542176
  H      41.533053     24.106417     36.927442
  C      40.805516     22.754069     38.435715
  H      39.847759     23.242577     38.627363
  C      41.173814     21.607148     39.342214
  H      41.746138     22.038666     40.194962
  O      40.028215     20.935085     39.826211
  H      40.357309     20.192883     40.356957
  C      44.117811     23.299430     36.536855
  O      45.224155     22.725155     36.503412
  O      43.746709     24.371088     36.007700
  N      40.832000     18.750000     42.551000
25
Coordinates from ORCA-job job E -836.672388832153
  C      44.318304     20.664001     40.821136
  H      44.798184     21.133264     39.962796
  H      44.734047     20.809972     41.819146
  C      43.194847     19.937674     40.705565
  C      42.551305     19.408845     41.951221
  O      43.093302     19.284988     43.032021
  O      41.258609     19.104791     41.778039
  O      42.544847     19.607167     39.568965
  C      42.112814     20.638371     38.640187
  H      41.500614     20.059096     37.920011
  C      43.218394     21.351277     37.919496
  H      44.169842     20.853383     37.712872
  C      43.005932     22.571651     37.387749
  C      41.690235     23.208099     37.556558
  H      41.517095     24.090950     36.935102
  C      40.795515     22.742395     38.448905
  H      39.831589     23.225375     38.636053
  C      41.171245     21.601767     39.359791
  H      41.754047     22.042101     40.204575
  O      40.030788     20.931103     39.860716
  H      40.368721     20.189452     40.392567
  C      44.109957     23.293127     36.558937
  O      45.221618     22.724333     36.541569
  O      43.733642     24.357012     36.015060
  N      40.832000     18.750000     42.551000
25
Coordinates from ORCA-job job E -836.672281087984
  C      44.329299     20.662585     40.823327
  H      44.806411     21.134613     39.962773
  H      44.747259     20.808647     41.821197
  C      43.199355     19.940144     40.699922
  C      42.553302     19.407976     41.943094
  O      43.095910     19.287344     43.024108
  O      41.266732     19.096362     41.776411
  O      42.548504     19.612674     39.558092
  C      42.117082     20.641302     38.627582
  H      41.512110     20.059358     37.910868
  C      43.217978     21.357422     37.906136
  H      44.170095     20.861578     37.696056
  C      43.008854     22.581036     37.383856
  C      41.698194     23.217536     37.559136
  H      41.528193     24.103535     36.944477
  C      40.797993     22.746675     38.441906
  H      39.827743     23.228949     38.625272
  C      41.171214     21.600604     39.345735
  H      41.750186     22.036829     40.195034
  O      40.030104     20.927456     39.837484
  H      40.370480     20.178777     40.367816
  C      44.107943     23.306932     36.553215
  O      45.215949     22.737202     36.524866
  O      43.731591     24.374495     36.018981
  N      40.832000     18.750000     42.551000
25
Coordinates from ORCA-job job E -836.672348350425
  C      44.320565     20.648134     40.809169
  H      44.800753     21.112309     39.946559
  H      44.739428     20.799468     41.804209
  C      43.188240     19.932722     40.695875
  C      42.545114     19.407146     41.943934
  O      43.088363     19.276257     43.025497
  O      41.255603     19.103631     41.776092
  O      42.534130     19.605162     39.559805
  C      42.097549     20.639482     38.633667
  H      41.480514     20.061017     37.917972
  C      43.207483     21.350069     37.918914
  H      44.158286     20.849956     37.717491
  C      43.003657     22.572529     37.393666
  C      41.690061     23.212657     37.556600
  H      41.524052     24.095437     36.939369
  C      40.792145     22.748697     38.442414
  H      39.828032     23.232283     38.625039
  C      41.161934     21.608162     39.353012
  H      41.746105     22.052794     40.197155
  O      40.020430     20.941583     39.855655
  H      40.361746     20.203053     40.388734
  C      44.116305     23.291333     36.577254
  O      45.226323     22.721621     36.571268
  O      43.748071     24.352559     36.029675
  N      40.832000     18.750000     42.551000
25
Coordinates from ORCA-job job E -836.672037958231
  C      44.312551     20.654900     40.803907
  H      44.794600     21.119311     39.946681
  H      44.731279     20.795815     41.801689
  C      43.190858     19.928039     40.696315
  C      42.551021     19.402774     41.947165
  O      43.099035     19.279205     43.022597
  O      41.246327     19.110395     41.774668
  O      42.533805     19.602054     39.566063
  C      42.110740     20.638373     38.636255
  H      41.499114     20.061881     37.906156
  C      43.219183     21.353084     37.919889
  H      44.168481     20.853779     37.710263
  C      43.005578     22.576558     37.389925
  C      41.686898     23.212984     37.556289
  H      41.512942     24.099249     36.932155
  C      40.789221     22.743500     38.448324
  H      39.828808     23.225646     38.637139
  C      41.164887     21.598461     39.358124
  H      41.743165     22.029702     40.206428
  O      40.022892     20.921254     39.854360
  H      40.364381     20.177582     40.372207
  C      44.115490     23.302989     36.569882
  O      45.232903     22.737403     36.560926
  O      43.738161     24.370538     36.023675
  N      40.832000     18.750000     42.551000
25
Coordinates from ORCA-job job E -836.672426988102
  C      44.317416     20.654092     40.810219
  H      44.797255     21.122242     39.950531
  H      44.732514     20.803570     41.807057
  C      43.192708     19.929305     40.695280
  C      42.549631     19.403123     41.942617
  O      43.093229     19.278963     43.023672
  O      41.258336     19.097822     41.774453
  O      42.543059     19.599209     39.557991
  C      42.111687     20.632373     38.629357
  H      41.504889     20.051845     37.906441
  C      43.216452     21.352693     37.913788
  H      44.168584     20.857498     37.703659
  C      43.002887     22.576742     37.391819
  C      41.685525     23.210183     37.563125
  H      41.512848     24.097407     36.950081
  C      40.790170     22.736195     38.448770
  H      39.825085     23.216240     38.638483
  C      41.165498     21.589324     39.350955
  H      41.745945     22.025979     40.200368
  O      40.026508     20.911753     39.843336
  H      40.365685     20.169517     40.373762
  C      44.105462     23.306739     36.568645
  O      45.218244     22.742181     36.548139
  O      43.726958     24.372739     36.032799
  N      40.832000     18.750000     42.551000
25
Coordinates from ORCA-job job E -836.672425158444
  C      44.326161     20.643979     40.811564
  H      44.806469     21.106754     39.949068
  H      44.745365     20.794439     41.807368
  C      43.193781     19.927034     40.697512
  C      42.549222     19.402117     41.944763
  O      43.091762     19.276213     43.024114
  O      41.257003     19.099839     41.775155
  O      42.538733     19.600125     39.560964
  C      42.102645     20.632378     38.634572
  H      41.492026     20.052283     37.916163
  C      43.207321     21.348349     37.918750
  H      44.158165     20.850834     37.711395
  C      42.998337     22.573232     37.397811
  C      41.685464     23.210697     37.568230
  H      41.515157     24.097043     36.952330
  C      40.786333     22.738968     38.452020
  H      39.819261     23.219746     38.636640
  C      41.158915     21.591958     39.355686
  H      41.736986     22.027349     40.203979
  O      40.017865     20.917800     39.849192
  H      40.361361     20.176454     40.379977
  C      44.104723     23.298822     36.578024
  O      45.217115     22.732987     36.565879
  O      43.730419     24.362630     36.033594
  N      40.832000     18.750000     42.551000
25
Coordinates from ORCA-job job E -836.672449650910
  C      44.328704     20.638612     40.808813
  H      44.810123     21.104837     39.948383
  H      44.744983     20.787687     41.806477
  C      43.198588     19.918139     40.690204
  C      42.552197     19.392798     41.938015
  O      43.096020     19.267573     43.017894
  O      41.258947     19.091248     41.771491
  O      42.548350     19.591875     39.551126
  C      42.112097     20.626987     38.625637
  H      41.506433     20.046588     37.902238
  C      43.213821     21.352493     37.912230
  H      44.167237     20.860636     37.699175
  C      42.995958     22.578687     37.395921
  C      41.681257     23.209708     37.573342
  H      41.507742     24.099203     36.964315
  C      40.785756     22.729547     38.456068
  H      39.818417     23.206234     38.646479
  C      41.162876     21.578187     39.351311
  H      41.740602     22.010345     40.202871
  O      40.023839     20.896367     39.840015
  H      40.368410     20.154334     40.368651
  C      44.095530     23.316134     36.575238
  O      45.212904     22.758792     36.556150
  O      43.711982     24.381527     36.039992
  N      40.832000     18.750000     42.551000
25
Coordinates from ORCA-job job E -836.672035289054
  C      44.312923     20.640566     40.796659
  H      44.795034     21.098890     39.933693
  H      44.730453     20.792158     41.793974
  C      43.194079     19.917734     40.695247
  C      42.548378     19.398470     41.943872
  O      43.094230     19.265560     43.029286
  O      41.259712     19.094602     41.774256
  O      42.547237     19.588226     39.557466
  C      42.112864     20.624976     38.629968
  H      41.507567     20.044217     37.903979
  C      43.217358     21.352000     37.916947
  H      44.170112     20.858057     37.705529
  C      43.005840     22.578356     37.404189
  C      41.672645     23.206474     37.568787
  H      41.496359     24.098292     36.960381
  C      40.780367     22.725400     38.453842
  H      39.819756     23.203191     38.649467
  C      41.161357     21.574025     39.355824
  H      41.745379     22.016733     40.212170
  O      40.026741     20.884494     39.842785
  H      40.366263     20.154807     40.380831
  C      44.101704     23.315532     36.577230
  O      45.217068     22.758616     36.555770
  O      43.715095     24.378313     36.038352
  N      40.832000     18.750000     42.551000
25
Coordinates from ORCA-job job E -836.672473269032
  C      44.324634     20.636087     40.803720
  H      44.806409     21.097643     39.941621
  H      44.739526     20.790812     41.800136
  C      43.196745     19.915029     40.690716
  C      42.551080     19.394125     41.939450
  O      43.093618     19.271423     43.019908
  O      41.258748     19.090768     41.771505
  O      42.548608     19.584647     39.552686
  C      42.110722     20.618805     38.627107
  H      41.506657     20.037010     37.903230
  C      43.211798     21.346814     37.914443
  H      44.164510     20.855232     37.699527
  C      42.994213     22.573834     37.400894
  C      41.677276     23.204494     37.578734
  H      41.503029     24.096238     36.972133
  C      40.781956     22.721393     38.459837
  H      39.815238     23.197763     38.652417
  C      41.158796     21.567227     39.352421
  H      41.734020     21.998897     40.206801
  O      40.020680     20.881317     39.835548
  H      40.363546     20.143985     40.370560
  C      44.091932     23.311919     36.579101
  O      45.208024     22.754463     36.558037
  O      43.707257     24.376624     36.043721
  N      40.832000     18.750000     42.551000
25
Coordinates from ORCA-job job E -836.672478620241
  C      44.334098     20.622787     40.803908
  H      44.817992     21.083470     39.942253
  H      44.752307     20.773308     41.801237
  C      43.202118     19.907011     40.687340
  C      42.553458     19.385157     41.934983
  O      43.098423     19.258521     43.014850
  O      41.260423     19.084974     41.769669
  O      42.551135     19.584021     39.546366
  C      42.111011     20.619826     38.622715
  H      41.508223     20.038573     37.898654
  C      43.210593     21.350438     37.912151
  H      44.163436     20.860366     37.695745
  C      42.992920     22.579130     37.403722
  C      41.674576     23.208156     37.581558
  H      41.500676     24.102017     36.977030
  C      40.778277     22.721271     38.460000
  H      39.810389     23.195855     38.651513
  C      41.156026     21.563834     39.349609
  H      41.728872     21.993283     40.207003
  O      40.018396     20.873795     39.828563
  H      40.365776     20.134603     40.357820
  C      44.089559     23.321518     36.584903
  O      45.206816     22.767099     36.564038
  O      43.703052     24.386336     36.050414
  N      40.832000     18.750000     42.551000
25
Coordinates from ORCA-job job E -836.672481266131
  C      44.333296     20.614470     40.798250
  H      44.815237     21.068823     39.931763
  H      44.753002     20.770352     41.793907
  C      43.197031     19.902968     40.686438
  C      42.550146     19.387397     41.936039
  O      43.094967     19.259784     43.016787
  O      41.256692     19.088432     41.770193
  O      42.543503     19.574242     39.549302
  C      42.099937     20.607689     38.627579
  H      41.497219     20.025023     37.904154
  C      43.199314     21.338141     37.917899
  H      44.152627     20.847039     37.703195
  C      42.984083     22.567782     37.411545
  C      41.666993     23.197621     37.590905
  H      41.495665     24.092806     36.989858
  C      40.769669     22.709772     38.467755
  H      39.803140     23.185141     38.661016
  C      41.144902     21.551500     39.356005
  H      41.717496     21.979897     40.214680
  O      40.005455     20.862334     39.834584
  H      40.353808     20.129112     40.371747
  C      44.087393     23.309032     36.599982
  O      45.208216     22.755514     36.590219
  O      43.703600     24.371448     36.060741
  N      40.832000     18.750000     42.551000
25
Coordinates from ORCA-job job E -836.672433224854
  C      44.327956     20.612134     40.785388
  H      44.811773     21.061039     39.918112
  H      44.743231     20.774385     41.778575
  C      43.194871     19.899194     40.680480
  C      42.550376     19.387822     41.933920
  O      43.091531     19.266891     43.013603
  O      41.256192     19.088174     41.768358
  O      42.548782     19.564863     39.546904
  C      42.107735     20.604818     38.625854
  H      41.504789     20.024130     37.896015
  C      43.209614     21.342704     37.920354
  H      44.165675     20.855961     37.702817
  C      42.985259     22.571501     37.410498
  C      41.669337     23.198605     37.594547
  H      41.497051     24.095039     36.996486
  C      40.775502     22.707081     38.471654
  H      39.807325     23.180719     38.667296
  C      41.150939     21.547327     39.354662
  H      41.720369     21.975879     40.215444
  O      40.014907     20.851351     39.828699
  H      40.363956     20.122332     40.373083
  C      44.083447     23.316664     36.594141
  O      45.203993     22.765467     36.579990
  O      43.695588     24.378157     36.055795
  N      40.832000     18.750000     42.551000
25
Coordinates from ORCA-job job E -836.672478467836
  C      44.333515     20.609614     40.795270
  H      44.820537     21.061670     39.931356
  H      44.751235     20.765995     41.790881
  C      43.201335     19.896664     40.687311
  C      42.553707     19.381765     41.937232
  O      43.095221     19.259471     43.016882
  O      41.260037     19.083302     41.769519
  O      42.549244     19.568808     39.550168
  C      42.102170     20.603591     38.628910
  H      41.499931     20.021363     37.903626
  C      43.200011     21.337251     37.919392
  H      44.151887     20.847346     37.700273
  C      42.984153     22.568306     37.416563
  C      41.666265     23.197481     37.596993
  H      41.491818     24.094597     36.995344
  C      40.767953     22.706537     38.470956
  H      39.799505     23.181106     38.663411
  C      41.142874     21.544135     39.355393
  H      41.709624     21.969904     40.217636
  O      40.005340     20.849516     39.824048
  H      40.350270     20.115702     40.361144
  C      44.082039     23.310331     36.600776
  O      45.196093     22.754313     36.581057
  O      43.696820     24.373882     36.063470
  N      40.832000     18.750000     42.551000
25
Coordinates from ORCA-job job E -836.672344523854
  C      44.339646     20.607591     40.795880
  H      44.818976     21.060179     39.925276
  H      44.760184     20.766006     41.792052
  C      43.200283     19.897850     40.681618
  C      42.547278     19.386188     41.929402
  O      43.094461     19.257637     43.011921
  O      41.253593     19.086126     41.767573
  O      42.548692     19.571321     39.536505
  C      42.107453     20.604492     38.615963
  H      41.512018     20.021194     37.893885
  C      43.205143     21.340286     37.911086
  H      44.159412     20.853373     37.694194
  C      42.986938     22.570820     37.411118
  C      41.666577     23.196535     37.594288
  H      41.493330     24.095344     36.999095
  C      40.769159     22.701240     38.467339
  H      39.804131     23.174482     38.665438
  C      41.147132     21.538401     39.348735
  H      41.717284     21.963651     40.211292
  O      40.006592     20.843382     39.824895
  H      40.360067     20.115367     40.366831
  C      44.080099     23.319842     36.592998
  O      45.207426     22.775440     36.579031
  O      43.686700     24.381135     36.055738
  N      40.832000     18.750000     42.551000
25
Coordinates from ORCA-job job E -836.672521050278
  C      44.338070     20.597618     40.787719
  H      44.822479     21.047557     39.921081
  H      44.757855     20.754474     41.782539
  C      43.201618     19.888390     40.678336
  C      42.554631     19.377271     41.930082
  O      43.100334     19.253856     43.009703
  O      41.260078     19.080643     41.767671
  O      42.549203     19.560314     39.541381
  C      42.103665     20.597633     38.622454
  H      41.504517     20.015752     37.894203
  C      43.200494     21.337260     37.916576
  H      44.154902     20.850959     37.696064
  C      42.979688     22.568949     37.416106
  C      41.661208     23.194434     37.600365
  H      41.487855     24.093819     37.005313
  C      40.765552     22.698171     38.474018
  H      39.797840     23.170494     38.670995
  C      41.142592     21.533609     39.353394
  H      41.709816     21.957161     40.217753
  O      40.005825     20.834994     39.820976
  H      40.354911     20.103213     40.359150
  C      44.077269     23.317638     36.603742
  O      45.198485     22.768347     36.588609
  O      43.687933     24.380152     36.068918
  N      40.832000     18.750000     42.551000
25
Coordinates from ORCA-job job E -836.672517148742
  C      44.338283     20.594844     40.790149
  H      44.827537     21.042577     39.924591
  H      44.753946     20.754851     41.785685
  C      43.202124     19.886494     40.679852
  C      42.550224     19.376854     41.930721
  O      43.090134     19.254263     43.011759
  O      41.255513     19.080044     41.765458
  O      42.555928     19.557806     39.538960
  C      42.107562     20.594501     38.620107
  H      41.510343     20.011953     37.892170
  C      43.203074     21.337939     37.915353
  H      44.158510     20.855134     37.692941
  C      42.976121     22.568760     37.414959
  C      41.655503     23.190382     37.602043
  H      41.476845     24.090256     37.007119
  C      40.761253     22.690283     38.474448
  H      39.791798     23.160014     38.672400
  C      41.142310     21.524600     39.351024
  H      41.707116     21.949683     40.215534
  O      40.007682     20.821167     39.817521
  H      40.357501     20.093558     40.361893
  C      44.063918     23.321955     36.594253
  O      45.186159     22.778394     36.571932
  O      43.665562     24.382124     36.057726
  N      40.832000     18.750000     42.551000
25
Coordinates from ORCA-job job E -836.672533577406
  C      44.342646     20.577252     40.777814
  H      44.828534     21.021358     39.908087
  H      44.764509     20.734940     41.771431
  C      43.202199     19.874325     40.673751
  C      42.553987     19.368299     41.927144
  O      43.098194     19.242804     43.006568
  O      41.256897     19.078324     41.765534
  O      42.546627     19.548096     39.537169
  C      42.096227     20.587276     38.622397
  H      41.497702     20.006679     37.893764
  C      43.192853     21.330963     37.920562
  H      44.148195     20.847160     37.699649
  C      42.970571     22.564086     37.424930
  C      41.650606     23.186227     37.610390
  H      41.474934     24.087044     37.017202
  C      40.754616     22.685313     38.480866
  H      39.784661     23.155114     38.677304
  C      41.132661     21.518663     39.356136
  H      41.698197     21.941081     40.222485
  O      39.996242     20.816399     39.822596
  H      40.350775     20.087856     40.363915
  C      44.066178     23.316515     36.613924
  O      45.188486     22.771549     36.601079
  O      43.673712     24.376400     36.074709
  N      40.832000     18.750000     42.551000
25
Coordinates from ORCA-job job E -836.672368918491
  C      44.345144     20.581089     40.782990
  H      44.827552     21.029354     39.915993
  H      44.769402     20.733635     41.777970
  C      43.205592     19.874600     40.669744
  C      42.560515     19.368074     41.922140
  O      43.114708     19.246583     43.001548
  O      41.267826     19.071726     41.766737
  O      42.550396     19.546532     39.535279
  C      42.102142     20.585665     38.620141
  H      41.507952     20.002614     37.887590
  C      43.190553     21.333750     37.912508
  H      44.146212     20.851463     37.686800
  C      42.963172     22.565486     37.414172
  C      41.644297     23.186027     37.604293
  H      41.470661     24.088223     37.017125
  C      40.754778     22.683331     38.481395
  H      39.790348     23.153408     38.686969
  C      41.136519     21.514927     39.355820
  H      41.701078     21.932853     40.224906
  O      40.003030     20.810140     39.812436
  H      40.348676     20.078114     40.347685
  C      44.058763     23.320429     36.603547
  O      45.187572     22.777592     36.590801
  O      43.665614     24.382568     36.077548
  N      40.832000     18.750000     42.551000
25
Coordinates from ORCA-job job E -836.672535469477
  C      44.345921     20.569407     40.772589
  H      44.832173     21.015399     39.904291
  H      44.767492     20.725473     41.766528
  C      43.205940     19.866453     40.665882
  C      42.558104     19.361550     41.920324
  O      43.106161     19.239176     42.998342
  O      41.260053     19.072308     41.763554
  O      42.551977     19.541421     39.528035
  C      42.101769     20.580754     38.613557
  H      41.508276     19.998942     37.881996
  C      43.194633     21.332023     37.912736
  H      44.150759     20.852546     37.685972
  C      42.968327     22.566747     37.423198
  C      41.646767     23.184266     37.613365
  H      41.468956     24.088218     37.025592
  C      40.752471     22.676277     38.481742
  H      39.782751     23.142910     38.683321
  C      41.133688     21.505579     39.349898
  H      41.697934     21.924164     40.219026
  O      39.998910     20.797495     39.810439
  H      40.352436     20.066829     40.347721
  C      44.059616     23.327570     36.613087
  O      45.183215     22.786576     36.593232
  O      43.661463     24.389317     36.082727
  N      40.832000     18.750000     42.551000
25
Coordinates from ORCA-job job E -836.672533101909
  C      44.344511     20.567721     40.775187
  H      44.833962     21.006636     39.905532
  H      44.766684     20.727576     41.768815
  C      43.201642     19.867726     40.671917
  C      42.551411     19.364561     41.925608
  O      43.092926     19.239636     43.006267
  O      41.256196     19.073472     41.763798
  O      42.548175     19.540177     39.535050
  C      42.094588     20.580264     38.621832
  H      41.497560     19.999465     37.890758
  C      43.189940     21.327828     37.923379
  H      44.146553     20.846287     37.701951
  C      42.963746     22.561180     37.429065
  C      41.642766     23.181366     37.615371
  H      41.465388     24.084151     37.025234
  C      40.746743     22.676099     38.482469
  H      39.776395     23.144600     38.679764
  C      41.126314     21.506025     39.354833
  H      41.686190     21.927530     40.224725
  O      39.991799     20.797703     39.813249
  H      40.345635     20.072845     40.359292
  C      44.056831     23.317117     36.618707
  O      45.183427     22.777535     36.608236
  O      43.659738     24.374943     36.077481
  N      40.832000     18.750000     42.551000
25
Coordinates from ORCA-job job E -836.672547573719
  C      44.351532     20.543815     40.761563
  H      44.839650     20.981430     39.890461
  H      44.779043     20.698578     41.753270
  C      43.203552     19.852483     40.660783
  C      42.555157     19.355070     41.917098
  O      43.102702     19.229115     42.994905
  O      41.255962     19.073389     41.762628
  O      42.542348     19.529501     39.526553
  C      42.088534     20.572374     38.617632
  H      41.492138     19.993839     37.885472
  C      43.182196     21.325163     37.920808
  H      44.139998     20.846989     37.697745
  C      42.957253     22.560943     37.433700
  C      41.633946     23.176293     37.620129
  H      41.454148     24.079289     37.031094
  C      40.739043     22.666876     38.486664
  H      39.768007     23.131604     38.686177
  C      41.122435     21.496904     39.356577
  H      41.687284     21.916952     40.224205
  O      39.990059     20.788510     39.819541
  H      40.345714     20.061821     40.359586
  C      44.052458     23.321978     36.629879
  O      45.178732     22.784332     36.623063
  O      43.654864     24.379106     36.089878
  N      40.832000     18.750000     42.551000
25
Coordinates from ORCA-job job E -836.672548815422
  C      44.349369     20.548516     40.763083
  H      44.836462     20.989364     39.893062
  H      44.773770     20.704053     41.756018
  C      43.205887     19.851028     40.659783
  C      42.558814     19.350816     41.916103
  O      43.107590     19.227743     42.994195
  O      41.260168     19.065408     41.761118
  O      42.548830     19.527431     39.523027
  C      42.095372     20.569449     38.612666
  H      41.503689     19.989066     37.878048
  C      43.186250     21.326243     37.915992
  H      44.142895     20.849539     37.687453
  C      42.955729     22.562052     37.429757
  C      41.632917     23.176129     37.621787
  H      41.453703     24.082137     37.038799
  C      40.740744     22.662159     38.488925
  H      39.770025     23.126310     38.692331
  C      41.123595     21.488080     39.351950
  H      41.684704     21.903452     40.224509
  O      39.989922     20.775552     39.806546
  H      40.345619     20.047255     40.346779
  C      44.045062     23.327566     36.621913
  O      45.172363     22.792201     36.604967
  O      43.643979     24.387526     36.090961
  N      40.832000     18.750000     42.551000
25
Coordinates from ORCA-job job E -836.672554528378
  C      44.352786     20.534379     40.754202
  H      44.842069     20.970329     39.882972
  H      44.780331     20.689735     41.746282
  C      43.204542     19.843023     40.653897
  C      42.556362     19.346528     41.911413
  O      43.105039     19.222353     42.989148
  O      41.257572     19.063848     41.759355
  O      42.545367     19.520800     39.518388
  C      42.091453     20.565153     38.610020
  H      41.499534     19.986447     37.873329
  C      43.183844     21.324046     37.918353
  H      44.142342     20.848851     37.691928
  C      42.954975     22.561303     37.436074
  C      41.631429     23.174308     37.625618
  H      41.451921     24.081411     37.043305
  C      40.735999     22.657757     38.487123
  H      39.764189     23.120804     38.688274
  C      41.118617     21.481971     39.349211
  H      41.677409     21.897558     40.223398
  O      39.985947     20.766429     39.801040
  H      40.343132     20.039911     40.341684
  C      44.047132     23.329301     36.634687
  O      45.176448     22.796587     36.624214
  O      43.645588     24.387799     36.100156
  N      40.832000     18.750000     42.551000
25
Coordinates from ORCA-job job E -836.672550965399
  C      44.351472     20.536337     40.759845
  H      44.841574     20.970869     39.887890
  H      44.777107     20.694119     41.751432
  C      43.202697     19.845816     40.660419
  C      42.553826     19.351461     41.917533
  O      43.099130     19.228088     42.996436
  O      41.255133     19.068476     41.761297
  O      42.543351     19.520049     39.526408
  C      42.085700     20.561219     38.618290
  H      41.492857     19.981278     37.884925
  C      43.177201     21.318132     37.923039
  H      44.135892     20.842128     37.697646
  C      42.948445     22.554357     37.438435
  C      41.625125     23.167826     37.628965
  H      41.444007     24.073486     37.044378
  C      40.730610     22.653490     38.492964
  H      39.759690     23.117375     38.694965
  C      41.113773     21.479453     39.357259
  H      41.673544     21.896225     40.229586
  O      39.980588     20.765845     39.811532
  H      40.334610     20.042499     40.357767
  C      44.039372     23.318538     36.632521
  O      45.166780     22.783948     36.622128
  O      43.637827     24.375390     36.093653
  N      40.832000     18.750000     42.551000
25
Coordinates from ORCA-job job E -836.672551948307
  C      44.355261     20.522379     40.750988
  H      44.843026     20.958603     39.878806
  H      44.785379     20.672560     41.741457
  C      43.204355     19.836747     40.652785
  C      42.557514     19.342436     41.910974
  O      43.107396     19.217882     42.987829
  O      41.256374     19.064700     41.759435
  O      42.538675     19.519212     39.518398
  C      42.086706     20.565254     38.612362
  H      41.494575     19.989610     37.876442
  C      43.179811     21.323938     37.920795
  H      44.138114     20.849476     37.695638
  C      42.950079     22.560253     37.435986
  C      41.624634     23.171033     37.622887
  H      41.443253     24.075424     37.037699
  C      40.731839     22.655838     38.488692
  H      39.759614     23.118021     38.689175
  C      41.116245     21.483549     39.353326
  H      41.678125     21.899337     40.224384
  O      39.983800     20.771099     39.810397
  H      40.340195     20.043727     40.350661
  C      44.042635     23.326882     36.633938
  O      45.169032     22.792421     36.624592
  O      43.643047     24.384549     36.097082
  N      40.832000     18.750000     42.551000
25
Coordinates from ORCA-job job E -836.672509702857
  C      44.354389     20.534975     40.754723
  H      44.842656     20.972030     39.884487
  H      44.782257     20.687955     41.748895
  C      43.209283     19.839265     40.653844
  C      42.561365     19.340928     41.911166
  O      43.111053     19.218523     42.989873
  O      41.264442     19.055334     41.758453
  O      42.552110     19.517498     39.516554
  C      42.093364     20.562923     38.610750
  H      41.500385     19.983972     37.872133
  C      43.180299     21.323371     37.915523
  H      44.136206     20.848647     37.684565
  C      42.946308     22.558914     37.430736
  C      41.623282     23.170680     37.624992
  H      41.442516     24.077463     37.044587
  C      40.734515     22.653555     38.493462
  H      39.762032     23.116080     38.697241
  C      41.119487     21.477110     39.353322
  H      41.677546     21.889944     40.229927
  O      39.985655     20.762392     39.801335
  H      40.343618     20.035849     40.345143
  C      44.033374     23.328539     36.623065
  O      45.166682     22.800106     36.608532
  O      43.628505     24.386866     36.092834
  N      40.832000     18.750000     42.551000
25
Coordinates from ORCA-job job E -836.672558068534
  C      44.355534     20.522177     40.749329
  H      44.846129     20.955490     39.877402
  H      44.785609     20.674656     41.740517
  C      43.202896     19.837195     40.650824
  C      42.555564     19.343969     41.909898
  O      43.104948     19.219991     42.987253
  O      41.256034     19.063798     41.759182
  O      42.540494     19.516994     39.517216
  C      42.086711     20.562221     38.610922
  H      41.494044     19.985515     37.873202
  C      43.179180     21.321745     37.920224
  H      44.139397     20.848026     37.695912
  C      42.950116     22.558360     37.437308
  C      41.625922     23.169554     37.625418
  H      41.444444     24.075165     37.040991
  C      40.730583     22.653243     38.487230
  H      39.758460     23.115540     38.687550
  C      41.114591     21.479003     39.351007
  H      41.674238     21.895510     40.224630
  O      39.982012     20.763737     39.804013
  H      40.338103     20.038521     40.346458
  C      44.042513     23.326345     36.636350
  O      45.172264     22.794900     36.628747
  O      43.640342     24.383390     36.098882
  N      40.832000     18.750000     42.551000
25
Coordinates from ORCA-job job E -836.672543277231
  C      44.354454     20.528285     40.756479
  H      44.843256     20.966698     39.885585
  H      44.779071     20.681973     41.748081
  C      43.207106     19.837324     40.655113
  C      42.557749     19.342722     41.911657
  O      43.105481     19.222208     42.990056
  O      41.257535     19.060270     41.757918
  O      42.547724     19.515807     39.518458
  C      42.092748     20.558962     38.611126
  H      41.505799     19.979603     37.875209
  C      43.182159     21.322563     37.917583
  H      44.140235     20.850376     37.686661
  C      42.946877     22.558858     37.434333
  C      41.621349     23.167388     37.628129
  H      41.438495     24.074677     37.047854
  C      40.730592     22.647649     38.493534
  H      39.759135     23.108657     38.699117
  C      41.116243     21.471503     39.352118
  H      41.673803     21.883819     40.227065
  O      39.983591     20.753597     39.800794
  H      40.336711     20.027343     40.344296
  C      44.032457     23.329725     36.626604
  O      45.159267     22.797225     36.607191
  O      43.627187     24.389063     36.096954
  N      40.832000     18.750000     42.551000
25
Coordinates from ORCA-job job E -836.672556498542
  C      44.359466     20.508073     40.744052
  H      44.849159     20.940066     39.871054
  H      44.792669     20.656039     41.734110
  C      43.204263     19.828955     40.649016
  C      42.556920     19.337417     41.908379
  O      43.106294     19.212030     42.985321
  O      41.256008     19.061906     41.758100
  O      42.535996     19.514162     39.515544
  C      42.082034     20.562421     38.612864
  H      41.487675     19.988976     37.875838
  C      43.174919     21.321423     37.922766
  H      44.133592     20.847844     37.699028
  C      42.944330     22.557343     37.437245
  C      41.618262     23.167011     37.622539
  H      41.435686     24.070241     37.035912
  C      40.726267     22.652000     38.488919
  H      39.752975     23.113176     38.687823
  C      41.112152     21.480362     39.354950
  H      41.673526     21.897065     40.225933
  O      39.980113     20.767793     39.811912
  H      40.337550     20.042199     40.355032
  C      44.036953     23.324521     36.636267
  O      45.166331     22.793599     36.632560
  O      43.635743     24.379732     36.094950
  N      40.832000     18.750000     42.551000
25
Coordinates from ORCA-job job E -836.672485162052
  C      44.356799     20.520378     40.748832
  H      44.850641     20.951116     39.878118
  H      44.787835     20.673575     41.741747
  C      43.201835     19.836024     40.647411
  C      42.555455     19.343990     41.908510
  O      43.106488     19.220173     42.985959
  O      41.257465     19.061704     41.759930
  O      42.543725     19.513033     39.515087
  C      42.087188     20.557830     38.608990
  H      41.493596     19.979647     37.867271
  C      43.176754     21.320113     37.918157
  H      44.140935     20.848665     37.694264
  C      42.946525     22.556576     37.438009
  C      41.623819     23.166411     37.630257
  H      41.440133     24.073306     37.046980
  C      40.727478     22.647542     38.488890
  H      39.754794     23.108472     38.690807
  C      41.113219     21.471135     39.350229
  H      41.672463     21.888299     40.227015
  O      39.981091     20.752258     39.799467
  H      40.337855     20.029138     40.342875
  C      44.035766     23.327934     36.635442
  O      45.170206     22.801893     36.625700
  O      43.628360     24.384421     36.100229
  N      40.832000     18.750000     42.551000
25
Coordinates from ORCA-job job E -836.672553646858
  C      44.351436     20.524992     40.748442
  H      44.842170     20.957940     39.876479
  H      44.777969     20.682098     41.740277
  C      43.202885     19.834437     40.651219
  C      42.554461     19.341885     41.909161
  O      43.101733     19.222500     42.987839
  O      41.255944     19.056867     41.756061
  O      42.543524     19.510001     39.515942
  C      42.088420     20.552362     38.607781
  H      41.502077     19.972603     37.868424
  C      43.179903     21.315831     37.919807
  H      44.137231     20.842012     37.690295
  C      42.950219     22.554454     37.441994
  C      41.625753     23.165751     37.633352
  H      41.447347     24.076449     37.057436
  C      40.729138     22.643597     38.490553
  H      39.757557     23.106346     38.693283
  C      41.108453     21.462736     39.345853
  H      41.659643     21.872699     40.227232
  O      39.973126     20.742021     39.784696
  H      40.327347     20.017592     40.330877
  C      44.042009     23.325629     36.643621
  O      45.171201     22.793267     36.630373
  O      43.640373     24.386069     36.113725
  N      40.832000     18.750000     42.551000
25
Coordinates from ORCA-job job E -836.672561637665
  C      44.358179     20.512503     40.747240
  H      44.848111     20.946320     39.874948
  H      44.787844     20.663489     41.737974
  C      43.205141     19.829343     40.649071
  C      42.556715     19.338224     41.907872
  O      43.105811     19.215740     42.985672
  O      41.256149     19.059387     41.757319
  O      42.541505     19.510423     39.514753
  C      42.087173     20.556776     38.609958
  H      41.497442     19.980534     37.871667
  C      43.178487     21.319469     37.920621
  H      44.138740     20.847541     37.694444
  C      42.946611     22.556579     37.438941
  C      41.621023     23.165240     37.628107
  H      41.438451     24.071715     37.045667
  C      40.727366     22.645993     38.490289
  H      39.754361     23.106557     38.691612
  C      41.112324     21.470355     39.351209
  H      41.669603     21.883660     40.226370
  O      39.979847     20.753061     39.800141
  H      40.334861     20.027867     40.343876
  C      44.037247     23.327013     36.637944
  O      45.165745     22.795588     36.627957
  O      43.634354     24.384708     36.102809
  N      40.832000     18.750000     42.551000
25
Coordinates from ORCA-job job E -836.672552902972
  C      44.364488     20.498976     40.741065
  H      44.856118     20.929119     39.868397
  H      44.799155     20.644672     41.730900
  C      43.206859     19.823745     40.647351
  C      42.559928     19.333231     41.907345
  O      43.110924     19.207913     42.983128
  O      41.258303     19.060014     41.758174
  O      42.536998     19.512360     39.514174
  C      42.084092     20.560581     38.612271
  H      41.489510     19.988249     37.874256
  C      43.176970     21.321111     37.922393
  H      44.134663     20.848471     37.697469
  C      42.945299     22.556514     37.436988
  C      41.618517     23.164469     37.622576
  H      41.435185     24.067066     37.036220
  C      40.727785     22.648757     38.490018
  H      39.755010     23.108912     38.690195
  C      41.114555     21.477777     39.355285
  H      41.677820     21.895651     40.226140
  O      39.982706     20.764861     39.813670
  H      40.340804     20.039265     40.356171
  C      44.036403     23.325914     36.635959
  O      45.167992     22.798470     36.631833
  O      43.633227     24.380617     36.095968
  N      40.832000     18.750000     42.551000
25
Coordinates from ORCA-job job E -836.672554020948
  C      44.357452     20.509287     40.742655
  H      44.850310     20.939385     39.870891
  H      44.789595     20.659405     41.734053
  C      43.201781     19.828888     40.646176
  C      42.555133     19.338705     41.906670
  O      43.105122     19.216974     42.983932
  O      41.255867     19.058512     41.757061
  O      42.537712     19.510386     39.513383
  C      42.084356     20.555997     38.608397
  H      41.493271     19.980208     37.867251
  C      43.176529     21.318201     37.920299
  H      44.136378     20.845563     37.695235
  C      42.947356     22.555195     37.439586
  C      41.622406     23.164572     37.627598
  H      41.441090     24.071045     37.045398
  C      40.726823     22.645768     38.487829
  H      39.754338     23.106941     38.688227
  C      41.109612     21.469764     39.349034
  H      41.666991     21.884233     40.226499
  O      39.975255     20.752726     39.796448
  H      40.330396     20.028363     40.340994
  C      44.039981     23.325841     36.641437
  O      45.171495     22.796634     36.633744
  O      43.637403     24.383786     36.106646
  N      40.832000     18.750000     42.551000
25
Coordinates from ORCA-job job E -836.672318725099
  C      44.365815     20.495231     40.746465
  H      44.850372     20.934387     39.871862
  H      44.797473     20.639492     41.734784
  C      43.206188     19.822313     40.642462
  C      42.555748     19.336359     41.902214
  O      43.107473     19.210484     42.981827
  O      41.251920     19.062349     41.757674
  O      42.539351     19.504774     39.510890
  C      42.087115     20.559568     38.610315
  H      41.497044     19.986130     37.873089
  C      43.176936     21.321894     37.920528
  H      44.149243     20.853715     37.702122
  C      42.944922     22.559758     37.438445
  C      41.620819     23.166644     37.627406
  H      41.432264     24.070662     37.035606
  C      40.724801     22.649677     38.488384
  H      39.747722     23.107343     38.685890
  C      41.115882     21.476704     39.355246
  H      41.673949     21.887079     40.224665
  O      39.986069     20.761052     39.807649
  H      40.335906     20.034498     40.348291
  C      44.037069     23.327754     36.636244
  O      45.156824     22.788856     36.628083
  O      43.633977     24.383986     36.094330
  N      40.832000     18.750000     42.551000
25
Coordinates from ORCA-job job E -836.672562804967
  C      44.358957     20.509986     40.746195
  H      44.850244     20.942240     39.874063
  H      44.788119     20.661902     41.737227
  C      43.205544     19.827557     40.648725
  C      42.556450     19.337334     41.907613
  O      43.104547     19.215550     42.985763
  O      41.256317     19.057924     41.756666
  O      42.542813     19.508413     39.513805
  C      42.087202     20.554272     38.609274
  H      41.497383     19.977526     37.871087
  C      43.177999     21.317357     37.919590
  H      44.137538     20.845518     37.692292
  C      42.944376     22.554059     37.437185
  C      41.618686     23.162532     37.627341
  H      41.436001     24.069210     37.045660
  C      40.726004     22.642923     38.489967
  H      39.752976     23.103077     38.692013
  C      41.111395     21.466663     39.350089
  H      41.667608     21.880264     40.226078
  O      39.979156     20.747796     39.797345
  H      40.334466     20.023567     40.343012
  C      44.033057     23.325324     36.634680
  O      45.163280     22.795914     36.624089
  O      43.627971     24.382502     36.099816
  N      40.832000     18.750000     42.551000
25
Coordinates from ORCA-job job E -836.672558331239
  C      44.363486     20.497059     40.740227
  H      44.855781     20.927188     39.868019
  H      44.799025     20.641320     41.730549
  C      43.204092     19.823301     40.644528
  C      42.557578     19.334176     41.905408
  O      43.109590     19.210195     42.981547
  O      41.256435     19.059107     41.757594
  O      42.535079     19.510661     39.512664
  C      42.083945     20.559351     38.610153
  H      41.490828     19.986835     37.869231
  C      43.176742     21.320988     37.921765
  H      44.137339     20.849124     37.698574
  C      42.947111     22.557018     37.438781
  C      41.620972     23.164706     37.624654
  H      41.437480     24.068217     37.038435
  C      40.727571     22.647915     38.488910
  H      39.754182     23.107804     38.688137
  C      41.112942     21.475613     39.353337
  H      41.674685     21.891463     40.226767
  O      39.979390     20.762387     39.807775
  H      40.335240     20.036693     40.349805
  C      44.039554     23.326626     36.639391
  O      45.169647     22.797283     36.633364
  O      43.637627     24.383043     36.101578
  N      40.832000     18.750000     42.551000
25
Coordinates from ORCA-job job E -836.672557140493
  C      44.366458     20.477856     40.728180
  H      44.858133     20.905141     39.853710
  H      44.802506     20.623281     41.716851
  C      43.204922     19.808909     40.636193
  C      42.558530     19.325390     41.898710
  O      43.111673     19.202373     42.974481
  O      41.255238     19.054826     41.754491
  O      42.532574     19.496793     39.505069
  C      42.082351     20.546278     38.603445
  H      41.490439     19.974871     37.862997
  C      43.176771     21.308208     37.918979
  H      44.136938     20.836263     37.695863
  C      42.947914     22.545851     37.438210
  C      41.622068     23.154494     37.622338
  H      41.440766     24.059915     37.038240
  C      40.726198     22.635963     38.482229
  H      39.752740     23.095993     38.680203
  C      41.109355     21.460896     39.344556
  H      41.666802     21.875416     40.220093
  O      39.976783     20.743240     39.793354
  H      40.333538     20.018504     40.336692
  C      44.042770     23.316347     36.644275
  O      45.173710     22.787443     36.645211
  O      43.641730     24.371865     36.104244
  N      40.832000     18.750000     42.551000
25
Coordinates from ORCA-job job E -836.672563256047
  C      44.365301     20.490213     40.738296
  H      44.858099     20.918829     39.865350
  H      44.797030     20.639990     41.728525
  C      43.207282     19.815015     40.643007
  C      42.557641     19.329318     41.903522
  O      43.106501     19.207501     42.981306
  O      41.256510     19.054013     41.755247
  O      42.541687     19.498279     39.509197
  C      42.086223     20.546237     38.606767
  H      41.496547     19.971106     37.866861
  C      43.177414     21.311352     37.919777
  H      44.138107     20.840854     37.693123
  C      42.943848     22.549044     37.439857
  C      41.617131     23.155993     37.629209
  H      41.433889     24.063090     37.048186
  C      40.723901     22.634479     38.490192
  H      39.749882     23.093131     38.691551
  C      41.109873     21.457188     39.349193
  H      41.665504     21.869635     40.225839
  O      39.977658     20.737442     39.795046
  H      40.333490     20.014242     40.341726
  C      44.033723     23.322477     36.640792
  O      45.164827     22.795114     36.633501
  O      43.627659     24.378520     36.103911
  N      40.832000     18.750000     42.551000
25
Coordinates from ORCA-job job E -836.672544101147
  C      44.362542     20.486343     40.733222
  H      44.857017     20.912784     39.860912
  H      44.797174     20.632990     41.724397
  C      43.202004     19.813603     40.638401
  C      42.553990     19.330863     41.901160
  O      43.105175     19.213598     42.978385
  O      41.253937     19.053417     41.754643
  O      42.535644     19.495757     39.506952
  C      42.085119     20.542267     38.601396
  H      41.495389     19.967639     37.858297
  C      43.178227     21.304508     37.915034
  H      44.138813     20.831620     37.691430
  C      42.951813     22.541997     37.435838
  C      41.625948     23.151210     37.622329
  H      41.445352     24.057807     37.040063
  C      40.729654     22.632418     38.482759
  H      39.756097     23.093588     38.680793
  C      41.109308     21.455681     39.343176
  H      41.664732     21.866387     40.222977
  O      39.971155     20.741974     39.786495
  H      40.323455     20.018864     40.334038
  C      44.045992     23.311588     36.638232
  O      45.173276     22.779247     36.628559
  O      43.646305     24.370414     36.103125
  N      40.832000     18.750000     42.551000
25
Coordinates from ORCA-job job E -836.672560882639
  C      44.365415     20.493706     40.743002
  H      44.858352     20.923742     39.870623
  H      44.796235     20.642602     41.734166
  C      43.208464     19.816453     40.646055
  C      42.559761     19.330364     41.906766
  O      43.109390     19.209312     42.984544
  O      41.258408     19.054845     41.757014
  O      42.544064     19.499056     39.512648
  C      42.089260     20.545196     38.608620
  H      41.498067     19.969781     37.869475
  C      43.179703     21.307542     37.918314
  H      44.139858     20.835724     37.692639
  C      42.946896     22.543119     37.434737
  C      41.622157     23.151094     37.624808
  H      41.438161     24.056218     37.040613
  C      40.729332     22.632909     38.488172
  H      39.756530     23.092611     38.689731
  C      41.114519     21.458055     39.349531
  H      41.672245     21.872882     40.225866
  O      39.981950     20.739756     39.797407
  H      40.336674     20.016813     40.344020
  C      44.034756     23.313364     36.630492
  O      45.165931     22.785313     36.620604
  O      43.629914     24.369736     36.094898
  N      40.832000     18.750000     42.551000
25
Coordinates from ORCA-job job E -836.672541129624
  C      44.363525     20.489080     40.733055
  H      44.855119     20.916906     39.859196
  H      44.796135     20.639015     41.721910
  C      43.205093     19.815741     40.640484
  C      42.554865     19.330815     41.900482
  O      43.103025     19.209546     42.978457
  O      41.253852     19.055246     41.753344
  O      42.536407     19.499874     39.506693
  C      42.085319     20.548375     38.603032
  H      41.495252     19.974229     37.864753
  C      43.180928     21.309661     37.917808
  H      44.140015     20.836487     37.693287
  C      42.950286     22.547618     37.435010
  C      41.623039     23.157855     37.618993
  H      41.443573     24.064266     37.036620
  C      40.727764     22.639961     38.479714
  H      39.753838     23.101128     38.677412
  C      41.110625     21.463794     39.342482
  H      41.664458     21.876616     40.217705
  O      39.977011     20.747094     39.789142
  H      40.332131     20.022842     40.335939
  C      44.045645     23.317474     36.639995
  O      45.174590     22.785865     36.638126
  O      43.643119     24.373322     36.099086
  N      40.832000     18.750000     42.551000
25
Coordinates from ORCA-job job E -836.672563063892
  C      44.368150     20.487156     40.739108
  H      44.861576     20.915955     39.866761
  H      44.803106     20.631449     41.729160
  C      43.207259     19.816249     40.644249
  C      42.558643     19.329181     41.904859
  O      43.108703     19.204630     42.981877
  O      41.257029     19.056356     41.756629
  O      42.537951     19.504844     39.511406
  C      42.086374     20.554876     38.609701
  H      41.493673     19.982505     37.869243
  C      43.179213     21.317176     37.921381
  H      44.139688     20.845727     37.697608
  C      42.947235     22.553123     37.437222
  C      41.620523     23.160142     37.623312
  H      41.436297     24.063353     37.036810
  C      40.727936     22.643117     38.488030
  H      39.753926     23.101964     38.687483
  C      41.115022     21.470787     39.352754
  H      41.676368     21.886604     40.225380
  O      39.982620     20.756519     39.807211
  H      40.338397     20.031169     40.350546
  C      44.038546     23.323768     36.637100
  O      45.169698     22.796085     36.631613
  O      43.634585     24.379200     36.098162
  N      40.832000     18.750000     42.551000
25
Coordinates from ORCA-job job E -836.672562555086
  C      44.361625     20.498721     40.741449
  H      44.853748     20.929186     39.868665
  H      44.792561     20.648485     41.732154
  C      43.205259     19.820748     40.645425
  C      42.556993     19.333793     41.905859
  O      43.106813     19.213614     42.983650
  O      41.256138     19.055735     41.756121
  O      42.540356     19.502829     39.512165
  C      42.087671     20.548684     38.607097
  H      41.498201     19.972921     37.867521
  C      43.179360     21.310528     37.918300
  H      44.138923     20.837718     37.692522
  C      42.949510     22.547450     37.436792
  C      41.624907     23.156936     37.625436
  H      41.443471     24.063329     37.042725
  C      40.730012     22.638383     38.486642
  H      39.757391     23.099138     38.687237
  C      41.112133     21.462114     39.347015
  H      41.668032     21.874529     40.224788
  O      39.977610     20.744700     39.792183
  H      40.330934     20.020078     40.337568
  C      44.040532     23.317203     36.636155
  O      45.169512     22.785797     36.625916
  O      43.638843     24.375743     36.102507
  N      40.832000     18.750000     42.551000
25
Coordinates from ORCA-job job E -836.672561411223
  C      44.368697     20.491834     40.744692
  H      44.862133     20.920646     39.872424
  H      44.800014     20.640616     41.735841
  C      43.210717     19.816680     40.646913
  C      42.559888     19.331193     41.907252
  O      43.108394     19.210707     42.985258
  O      41.259325     19.054832     41.757275
  O      42.547292     19.499305     39.512897
  C      42.092425     20.545005     38.608850
  H      41.499916     19.969247     37.871092
  C      43.183268     21.305755     37.917303
  H      44.143953     20.833577     37.692413
  C      42.949127     22.540341     37.430720
  C      41.623466     23.149045     37.619962
  H      41.439716     24.053090     37.034526
  C      40.732961     22.633015     38.486744
  H      39.759583     23.092939     38.687514
  C      41.118834     21.459373     39.349832
  H      41.676601     21.874938     40.224576
  O      39.985888     20.743087     39.799482
  H      40.340903     20.020742     40.347572
  C      44.035026     23.308783     36.622364
  O      45.164976     22.779694     36.611264
  O      43.627777     24.363634     36.083498
  N      40.832000     18.750000     42.551000
25
Coordinates from ORCA-job job E -836.672486851133
  C      44.362990     20.496488     40.741299
  H      44.859587     20.923459     39.872032
  H      44.792978     20.647463     41.733215
  C      43.206264     19.815811     40.646269
  C      42.554120     19.330522     41.905348
  O      43.096243     19.210579     42.986522
  O      41.256083     19.053270     41.754178
  O      42.542360     19.495281     39.511315
  C      42.089320     20.544011     38.604700
  H      41.499327     19.967269     37.861783
  C      43.185161     21.308683     37.917102
  H      44.143834     20.835859     37.692150
  C      42.950683     22.544470     37.430551
  C      41.620741     23.150832     37.616440
  H      41.436329     24.055340     37.032271
  C      40.724351     22.632763     38.477607
  H      39.749164     23.092395     38.676142
  C      41.113148     21.459274     39.345448
  H      41.669794     21.875807     40.220018
  O      39.979340     20.744572     39.796659
  H      40.333691     20.023436     40.347686
  C      44.047642     23.316169     36.634938
  O      45.181117     22.788577     36.628881
  O      43.643365     24.372456     36.096655
  N      40.832000     18.750000     42.551000
25
Coordinates from ORCA-job job E -836.672563578277
  C      44.368734     20.492047     40.744064
  H      44.861611     20.921343     39.871256
  H      44.800751     20.639847     41.734319
  C      43.210522     19.817336     40.648718
  C      42.560658     19.330552     41.908496
  O      43.109250     19.207776     42.986515
  O      41.259229     19.056058     41.757650
  O      42.544075     19.502422     39.515062
  C      42.089761     20.550166     38.612100
  H      41.497714     19.975394     37.874004
  C      43.180762     21.311922     37.920622
  H      44.139785     20.839556     37.694336
  C      42.947932     22.547315     37.435592
  C      41.622446     23.155378     37.625113
  H      41.438354     24.059229     37.039496
  C      40.730694     22.638754     38.490954
  H      39.757764     23.098392     38.692676
  C      41.117164     21.465530     39.354357
  H      41.676691     21.880316     40.228079
  O      39.984282     20.750302     39.806311
  H      40.339106     20.026033     40.351723
  C      44.036701     23.316437     36.630691
  O      45.166890     22.787322     36.620589
  O      43.631965     24.372203     36.093536
  N      40.832000     18.750000     42.551000
25
Coordinates from ORCA-job job E -836.672557601798
  C      44.362598     20.491947     40.737725
  H      44.855867     20.920773     39.865359
  H      44.796125     20.639615     41.728357
  C      43.203181     19.818845     40.640900
  C      42.554403     19.332947     41.901924
  O      43.104527     19.212051     42.979125
  O      41.253957     19.055257     41.754651
  O      42.537115     19.503188     39.507864
  C      42.087410     20.550086     38.603335
  H      41.496797     19.976057     37.862444
  C      43.181648     21.310907     37.917792
  H      44.143768     20.838671     37.695725
  C      42.951756     22.547771     37.435008
  C      41.625720     23.157406     37.619116
  H      41.444790     24.062964     37.035043
  C      40.730844     22.639685     38.480046
  H      39.756582     23.099943     38.677168
  C      41.112883     21.464311     39.342296
  H      41.669032     21.878724     40.219112
  O      39.979027     20.747262     39.788795
  H      40.333601     20.022292     40.333293
  C      44.043986     23.317454     36.636837
  O      45.173220     22.786113     36.630760
  O      43.641599     24.374904     36.099539
  N      40.832000     18.750000     42.551000
25
Coordinates from ORCA-job job E -836.672558268838
  C      44.360644     20.485929     40.728564
  H      44.853678     20.913220     39.855040
  H      44.792427     20.635119     41.718850
  C      43.202019     19.811347     40.635847
  C      42.554308     19.330329     41.898941
  O      43.105214     19.213787     42.976715
  O      41.252710     19.055242     41.753461
  O      42.535042     19.492504     39.503744
  C      42.086685     20.538925     38.595833
  H      41.495106     19.964613     37.856453
  C      43.181946     21.296142     37.907547
  H      44.139940     20.820532     37.684913
  C      42.956038     22.531953     37.421982
  C      41.632335     23.144546     37.606201
  H      41.453448     24.049316     37.019978
  C      40.733597     22.630844     38.466524
  H      39.761669     23.094601     38.662880
  C      41.112549     21.456574     39.332579
  H      41.666889     21.871391     40.210071
  O      39.976272     20.741807     39.778069
  H      40.328735     20.019289     40.327001
  C      44.052027     23.297112     36.623189
  O      45.180630     22.763621     36.619374
  O      43.654825     24.354666     36.084893
  N      40.832000     18.750000     42.551000
25
Coordinates from ORCA-job job E -836.672565195946
  C      44.366645     20.487954     40.738842
  H      44.860145     20.915738     39.866075
  H      44.797643     20.637809     41.729413
  C      43.208742     19.812095     40.644299
  C      42.559004     19.329153     41.905448
  O      43.107584     19.210625     42.984025
  O      41.257853     19.053986     41.756041
  O      42.542979     19.493271     39.511359
  C      42.090908     20.538545     38.604736
  H      41.499724     19.962491     37.866340
  C      43.183969     21.297937     37.913755
  H      44.142641     20.823550     37.689354
  C      42.953847     22.533200     37.427340
  C      41.628593     23.143426     37.614504
  H      41.446848     24.047599     37.028775
  C      40.734156     22.628535     38.478766
  H      39.761532     23.090284     38.678040
  C      41.116778     21.455067     39.343610
  H      41.673507     21.869931     40.219345
  O      39.981652     20.740915     39.792126
  H      40.334587     20.018361     40.340966
  C      44.045683     23.299746     36.623846
  O      45.174676     22.768031     36.614909
  O      43.643707     24.356209     36.085729
  N      40.832000     18.750000     42.551000
25
Coordinates from ORCA-job job E -836.672550058696
  C      44.364030     20.480286     40.729808
  H      44.857358     20.906771     39.856673
  H      44.799618     20.627424     41.719407
  C      43.202133     19.811324     40.635932
  C      42.553772     19.329318     41.898561
  O      43.104174     19.209531     42.975569
  O      41.252621     19.054503     41.753304
  O      42.531786     19.496029     39.504532
  C      42.085415     20.541764     38.598197
  H      41.493729     19.967699     37.858779
  C      43.182528     21.298514     37.911461
  H      44.144550     20.823968     37.692930
  C      42.954385     22.534521     37.423603
  C      41.627282     23.145887     37.602621
  H      41.447745     24.048700     37.014651
  C      40.732762     22.632908     38.466964
  H      39.758064     23.094512     38.660787
  C      41.113593     21.461410     39.334903
  H      41.672065     21.878357     40.208263
  O      39.978727     20.749957     39.786889
  H      40.332207     20.024701     40.332385
  C      44.049576     23.299998     36.625200
  O      45.177486     22.766513     36.623221
  O      43.648556     24.355729     36.081853
  N      40.832000     18.750000     42.551000
25
Coordinates from ORCA-job job E -836.672564441047
  C      44.368613     20.484838     40.739364
  H      44.862722     20.912058     39.866321
  H      44.800869     20.633878     41.730040
  C      43.209171     19.811806     40.643742
  C      42.558335     19.328734     41.904904
  O      43.106727     19.208468     42.983135
  O      41.257314     19.053791     41.755795
  O      42.544119     19.494544     39.510691
  C      42.091826     20.540548     38.605256
  H      41.499475     19.965006     37.867266
  C      43.184051     21.299550     37.914109
  H      44.144245     20.826035     37.690677
  C      42.952891     22.534276     37.426843
  C      41.627990     23.144317     37.613430
  H      41.445275     24.047570     37.026049
  C      40.734827     22.629984     38.478517
  H      39.761616     23.090733     38.677350
  C      41.118952     21.457330     39.344140
  H      41.676812     21.873693     40.218592
  O      39.985329     20.742133     39.794665
  H      40.339625     20.019132     40.342047
  C      44.042064     23.300709     36.620944
  O      45.171889     22.770170     36.612794
  O      43.638251     24.356035     36.081528
  N      40.832000     18.750000     42.551000
25
Coordinates from ORCA-job job E -836.672539260769
  C      44.363780     20.482556     40.728427
  H      44.855930     20.909978     39.854768
  H      44.796642     20.629952     41.717244
  C      43.204555     19.809046     40.638886
  C      42.558362     19.327150     41.901428
  O      43.109970     19.208680     42.979023
  O      41.255393     19.055553     41.754922
  O      42.532180     19.493791     39.507188
  C      42.084951     20.541823     38.599950
  H      41.493894     19.968368     37.860365
  C      43.181502     21.300197     37.910949
  H      44.137000     20.824133     37.686673
  C      42.955116     22.536197     37.424744
  C      41.629875     23.147197     37.609125
  H      41.450305     24.050795     37.022547
  C      40.731712     22.633621     38.471636
  H      39.760000     23.096952     38.669351
  C      41.112391     21.461445     39.338984
  H      41.670558     21.875758     40.213687
  O      39.975625     20.751459     39.789759
  H      40.327323     20.026947     40.336792
  C      44.054000     23.302126     36.628223
  O      45.182118     22.768867     36.623632
  O      43.657791     24.359781     36.090140
  N      40.832000     18.750000     42.551000
25
Coordinates from ORCA-job job E -836.672566439708
  C      44.369273     20.484563     40.739941
  H      44.863166     20.911746     39.866937
  H      44.800843     20.634587     41.730388
  C      43.210528     19.810216     40.644889
  C      42.559965     19.327378     41.905856
  O      43.108297     19.208050     42.984280
  O      41.258720     19.052351     41.756065
  O      42.545035     19.492293     39.511751
  C      42.093644     20.537713     38.605134
  H      41.502779     19.961697     37.866488
  C      43.186979     21.297319     37.915116
  H      44.146508     20.823390     37.691216
  C      42.956619     22.532748     37.429020
  C      41.631259     23.142880     37.615359
  H      41.449543     24.047033     37.029526
  C      40.736836     22.627578     38.479018
  H      39.763745     23.088719     38.677836
  C      41.119480     21.454028     39.343477
  H      41.676345     21.869080     40.219122
  O      39.984862     20.739346     39.792067
  H      40.338295     20.016257     40.339849
  C      44.047905     23.299726     36.625734
  O      45.177006     22.768203     36.616910
  O      43.645464     24.356122     36.087605
  N      40.832000     18.750000     42.551000
25
Coordinates from ORCA-job job E -836.672562549103
  C      44.363700     20.482893     40.730155
  H      44.856948     20.909429     39.856302
  H      44.798259     20.630472     41.719964
  C      43.202656     19.812533     40.637395
  C      42.554058     19.330363     41.899910
  O      43.104442     19.210266     42.977320
  O      41.252847     19.055860     41.753929
  O      42.533805     19.496818     39.505820
  C      42.084747     20.544144     38.600442
  H      41.492004     19.970266     37.861619
  C      43.179176     21.301437     37.911269
  H      44.138805     20.826761     37.689567
  C      42.951967     22.537201     37.424968
  C      41.627326     23.148778     37.607943
  H      41.446940     24.051843     37.019645
  C      40.731597     22.635711     38.471316
  H      39.758493     23.097618     38.667576
  C      41.113446     21.463491     39.338898
  H      41.671922     21.879596     40.212752
  O      39.978579     20.750673     39.790558
  H      40.332079     20.026177     40.336515
  C      44.046141     23.302592     36.624660
  O      45.175169     22.770158     36.621744
  O      43.646475     24.358811     36.084050
  N      40.832000     18.750000     42.551000
25
Coordinates from ORCA-job job E -836.672560043425
  C      44.371811     20.484099     40.745189
  H      44.866184     20.910294     39.871925
  H      44.803323     20.634023     41.736019
  C      43.212837     19.811220     40.649047
  C      42.559775     19.328260     41.909050
  O      43.105036     19.206008     42.988679
  O      41.258939     19.054264     41.756506
  O      42.549000     19.493820     39.514627
  C      42.093838     20.540091     38.610632
  H      41.500932     19.963170     37.874503
  C      43.183103     21.299290     37.915081
  H      44.141679     20.826002     37.688632
  C      42.948789     22.532621     37.424936
  C      41.624100     23.141824     37.614587
  H      41.439596     24.043520     37.025830
  C      40.734621     22.628793     38.484399
  H      39.761713     23.088745     38.685868
  C      41.122691     21.458111     39.351925
  H      41.683593     21.875482     40.223520
  O      39.990403     20.744179     39.807208
  H      40.345278     20.020745     40.353967
  C      44.034010     23.298194     36.612194
  O      45.164062     22.768143     36.600059
  O      43.626618     24.352180     36.072258
  N      40.832000     18.750000     42.551000
25
Coordinates from ORCA-job job E -836.672489921545
  C      44.369106     20.494853     40.748253
  H      44.861561     20.925112     39.877173
  H      44.798108     20.646616     41.738212
  C      43.213936     19.813308     40.651616
  C      42.569315     19.327310     41.913220
  O      43.121363     19.211901     42.990308
  O      41.266501     19.050825     41.761247
  O      42.546442     19.495164     39.517929
  C      42.095073     20.536770     38.607377
  H      41.506141     19.958473     37.868302
  C      43.190435     21.298898     37.915270
  H      44.149360     20.825217     37.688252
  C      42.952445     22.532101     37.424845
  C      41.624534     23.139328     37.617274
  H      41.439730     24.043466     37.034449
  C      40.733988     22.622210     38.485548
  H      39.761068     23.082691     38.689590
  C      41.118035     21.449536     39.345503
  H      41.677377     21.864476     40.222623
  O      39.982205     20.738667     39.793628
  H      40.333489     20.015365     40.342172
  C      44.040067     23.301182     36.615730
  O      45.168046     22.770864     36.591871
  O      43.633595     24.358683     36.083442
  N      40.832000     18.750000     42.551000
25
Coordinates from ORCA-job job E -836.672566410039
  C      44.371018     20.483349     40.740533
  H      44.865343     20.909489     39.867146
  H      44.802991     20.633504     41.730776
  C      43.211475     19.810282     40.645818
  C      42.560234     19.327862     41.906613
  O      43.108465     19.208282     42.985040
  O      41.259179     19.052966     41.756605
  O      42.546005     19.492965     39.512696
  C      42.094065     20.538649     38.606411
  H      41.502091     19.962791     37.868597
  C      43.187027     21.297546     37.915124
  H      44.146610     20.823658     37.691000
  C      42.956263     22.532378     37.427867
  C      41.631127     23.142783     37.614528
  H      41.448828     24.046128     37.027377
  C      40.737601     22.628558     38.479665
  H      39.764617     23.089680     38.678750
  C      41.121036     21.455860     39.344956
  H      41.678823     21.871603     40.219492
  O      39.986629     20.741835     39.795438
  H      40.340341     20.018611     40.342879
  C      44.046593     23.298440     36.622466
  O      45.175595     22.766781     36.612838
  O      43.643856     24.354475     36.084045
  N      40.832000     18.750000     42.551000
25
Coordinates from ORCA-job job E -836.672561871242
  C      44.363893     20.496881     40.745322
  H      44.856944     20.925444     39.872640
  H      44.791536     20.652013     41.737121
  C      43.210139     19.814733     40.648048
  C      42.558403     19.331040     41.908171
  O      43.103585     19.213953     42.988424
  O      41.258615     19.051366     41.755228
  O      42.550277     19.490476     39.513213
  C      42.095210     20.532965     38.605167
  H      41.507526     19.952712     37.867130
  C      43.184844     21.294359     37.912450
  H      44.143276     20.820669     37.684541
  C      42.952391     22.529828     37.427312
  C      41.627806     23.139774     37.618054
  H      41.446136     24.045901     37.035462
  C      40.734293     22.622395     38.481273
  H      39.761784     23.083473     38.683009
  C      41.117618     21.446573     39.343328
  H      41.671886     21.859802     40.221318
  O      39.983118     20.728603     39.787501
  H      40.335789     20.005846     40.336295
  C      44.039994     23.297776     36.619667
  O      45.168750     22.765125     36.603703
  O      43.635042     24.355947     36.086460
  N      40.832000     18.750000     42.551000
25
Coordinates from ORCA-job job E -836.672564522417
  C      44.363902     20.480593     40.729762
  H      44.857533     20.905575     39.855716
  H      44.797230     20.630594     41.719682
  C      43.203533     19.808812     40.637061
  C      42.555737     19.329269     41.900861
  O      43.106318     19.211788     42.978502
  O      41.254296     19.055148     41.754657
  O      42.535701     19.490103     39.505686
  C      42.082344     20.535023     38.599901
  H      41.489200     19.958821     37.862768
  C      43.174106     21.293119     37.906435
  H      44.133493     20.819025     37.682128
  C      42.942400     22.526997     37.417265
  C      41.617519     23.137274     37.605059
  H      41.434406     24.039780     37.016917
  C      40.725566     22.624282     38.472631
  H      39.752838     23.085610     38.672302
  C      41.110078     21.452691     39.339254
  H      41.669172     21.869570     40.213142
  O      39.975556     20.739654     39.791232
  H      40.329114     20.017146     40.339786
  C      44.031295     23.292055     36.608904
  O      45.160818     22.761160     36.599533
  O      43.627161     24.346856     36.068918
  N      40.832000     18.750000     42.551000
25
Coordinates from ORCA-job job E -836.672565608445
  C      44.370685     20.476354     40.732939
  H      44.864602     20.901174     39.858545
  H      44.804569     20.625910     41.722181
  C      43.209398     19.806188     40.640741
  C      42.559187     19.325508     41.902643
  O      43.109097     19.205765     42.980213
  O      41.257294     19.052595     41.755347
  O      42.540871     19.490489     39.508670
  C      42.089107     20.537259     38.603391
  H      41.496689     19.962419     37.865561
  C      43.182533     21.296632     37.913000
  H      44.142236     20.823169     37.689072
  C      42.951546     22.531746     37.426108
  C      41.625987     23.141568     37.612070
  H      41.443323     24.044635     37.024684
  C      40.732600     22.626940     38.477103
  H      39.759220     23.087468     38.675849
  C      41.116702     21.454601     39.342512
  H      41.675188     21.870693     40.216231
  O      39.982918     20.740822     39.794291
  H      40.337463     20.017273     40.340972
  C      44.042430     23.298443     36.622155
  O      45.171898     22.767794     36.614695
  O      43.639519     24.353674     36.082268
  N      40.832000     18.750000     42.551000
25
Coordinates from ORCA-job job E -836.672566760497
  C      44.369115     20.483119     40.737753
  H      44.862990     20.908608     39.863970
  H      44.800336     20.635136     41.728160
  C      43.210771     19.808030     40.643875
  C      42.559314     19.327615     41.905251
  O      43.106997     19.210432     42.984288
  O      41.258559     19.051916     41.755655
  O      42.546093     19.487805     39.510935
  C      42.094547     20.531760     38.602400
  H      41.502364     19.954604     37.865739
  C      43.187655     21.288399     37.909202
  H      44.146407     20.813011     37.685645
  C      42.957369     22.522072     37.418849
  C      41.632821     23.133873     37.605002
  H      41.451081     24.036383     37.016496
  C      40.739000     22.622057     38.471206
  H      39.766405     23.084565     38.669356
  C      41.121510     21.450577     39.338955
  H      41.678410     21.867661     40.213401
  O      39.986625     20.737407     39.789462
  H      40.339691     20.015279     40.338824
  C      44.047833     23.285362     36.610851
  O      45.176040     22.752061     36.600382
  O      43.645540     24.341012     36.070967
  N      40.832000     18.750000     42.551000
25
Coordinates from ORCA-job job E -836.672564365981
  C      44.371505     20.476332     40.738250
  H      44.866246     20.901054     39.864628
  H      44.803651     20.627149     41.728638
  C      43.211208     19.804318     40.643196
  C      42.561021     19.324098     41.905637
  O      43.109233     19.205398     42.984179
  O      41.259491     19.050212     41.755873
  O      42.545861     19.485454     39.510817
  C      42.093205     20.530342     38.604780
  H      41.502690     19.953813     37.865514
  C      43.185258     21.291078     37.914698
  H      44.145410     20.817971     37.690024
  C      42.954981     22.526913     37.430347
  C      41.629746     23.136482     37.617679
  H      41.447540     24.041134     37.032549
  C      40.735426     22.619920     38.480746
  H      39.762414     23.080377     38.680485
  C      41.118508     21.445551     39.344024
  H      41.675585     21.859987     40.220423
  O      39.983836     20.729728     39.791880
  H      40.337595     20.007290     40.339947
  C      44.045581     23.294333     36.626832
  O      45.175132     22.763081     36.617758
  O      43.642788     24.350919     36.089715
  N      40.832000     18.750000     42.551000
25
Coordinates from ORCA-job job E -836.672566670947
  C      44.365852     20.482472     40.733437
  H      44.858870     20.907934     39.859000
  H      44.797996     20.635021     41.723261
  C      43.207229     19.808062     40.640379
  C      42.557737     19.327557     41.902985
  O      43.106451     19.209900     42.981378
  O      41.256398     19.052187     41.754518
  O      42.540999     19.487997     39.508097
  C      42.088098     20.532033     38.600875
  H      41.497154     19.954295     37.863970
  C      43.179715     21.290932     37.907710
  H      44.138725     20.816847     37.682418
  C      42.948111     22.525451     37.419437
  C      41.623122     23.135756     37.606948
  H      41.440656     24.038933     37.019977
  C      40.730352     22.621698     38.473002
  H      39.757578     23.082837     38.672882
  C      41.114579     21.449549     39.339054
  H      41.672589     21.865694     40.213215
  O      39.980501     20.735480     39.790141
  H      40.334221     20.012046     40.337470
  C      44.037090     23.290854     36.611629
  O      45.166026     22.758682     36.600526
  O      43.633370     24.346811     36.073508
  N      40.832000     18.750000     42.551000
25
Coordinates from ORCA-job job E -836.672563183576
  C      44.373567     20.473929     40.734437
  H      44.868356     20.897543     39.860125
  H      44.806490     20.624610     41.724217
  C      43.212856     19.802621     40.642510
  C      42.560053     19.323837     41.903369
  O      43.108560     19.205639     42.981985
  O      41.258957     19.050219     41.755340
  O      42.546197     19.485387     39.509717
  C      42.095003     20.531755     38.602747
  H      41.502202     19.956660     37.865026
  C      43.189302     21.289459     37.912388
  H      44.148253     20.814769     37.689224
  C      42.959417     22.524036     37.424134
  C      41.634498     23.135266     37.609319
  H      41.452798     24.038230     37.021315
  C      40.739876     22.622064     38.473744
  H      39.766498     23.083819     38.670816
  C      41.122126     21.449725     39.340188
  H      41.678764     21.866281     40.214925
  O      39.987545     20.736376     39.790049
  H      40.341428     20.014503     40.339277
  C      44.051820     23.289348     36.620334
  O      45.180480     22.757536     36.612610
  O      43.649960     24.344604     36.079318
  N      40.832000     18.750000     42.551000
25
Coordinates from ORCA-job job E -836.672566882632
  C      44.371119     20.482511     40.740929
  H      44.865706     20.907716     39.867267
  H      44.802031     20.634599     41.731257
  C      43.212075     19.808460     40.646138
  C      42.560268     19.328026     41.907539
  O      43.107396     19.210902     42.986732
  O      41.259261     19.052615     41.756593
  O      42.547552     19.488282     39.513297
  C      42.098619     20.531291     38.602850
  H      41.505660     19.954146     37.867010
  C      43.193552     21.285140     37.908961
  H      44.152448     20.808474     37.687384
  C      42.965098     22.518230     37.416061
  C      41.640923     23.131747     37.599677
  H      41.460287     24.032875     37.008697
  C      40.746241     22.622892     38.466865
  H      39.774098     23.086737     38.663462
  C      41.127204     21.453331     39.337441
  H      41.685293     21.871889     40.210555
  O      39.991456     20.742967     39.790443
  H      40.343729     20.020375     40.339543
  C      44.056853     23.278433     36.607309
  O      45.184166     22.742914     36.598139
  O      43.657170     24.334421     36.066559
  N      40.832000     18.750000     42.551000
25
Coordinates from ORCA-job job E -836.672567101074
  C      44.371328     20.475425     40.736187
  H      44.865780     20.899442     39.861906
  H      44.802263     20.628953     41.726398
  C      43.212374     19.801569     40.642440
  C      42.560617     19.323377     41.904676
  O      43.107731     19.206656     42.984020
  O      41.259174     19.049071     41.754776
  O      42.547762     19.480096     39.509762
  C      42.096009     20.523247     38.600958
  H      41.505662     19.945027     37.863684
  C      43.188573     21.281256     37.908596
  H      44.147483     20.806396     37.684273
  C      42.958837     22.516058     37.420563
  C      41.634100     23.127404     37.606683
  H      41.453042     24.030951     37.019825
  C      40.739446     22.613814     38.471103
  H      39.766852     23.075805     38.669765
  C      41.121581     21.441175     39.337446
  H      41.678018     21.857059     40.212685
  O      39.986572     20.727087     39.786503
  H      40.339599     20.004948     40.335883
  C      44.049677     23.280502     36.614286
  O      45.178153     22.747203     36.604493
  O      43.647469     24.336740     36.075618
  N      40.832000     18.750000     42.551000
25
Coordinates from ORCA-job job E -836.672566195935
  C      44.365895     20.483066     40.733540
  H      44.859684     20.907219     39.858972
  H      44.797439     20.637481     41.723723
  C      43.208017     19.807457     40.641239
  C      42.557232     19.329009     41.903591
  O      43.105240     19.213430     42.982889
  O      41.256939     19.051855     41.754651
  O      42.542944     19.485182     39.508956
  C      42.092716     20.527636     38.598156
  H      41.500208     19.948973     37.862196
  C      43.185985     21.281246     37.902862
  H      44.143833     20.804206     37.679989
  C      42.957594     22.514293     37.409970
  C      41.634160     23.127966     37.594548
  H      41.453867     24.029182     37.003898
  C      40.739435     22.619099     38.461538
  H      39.767230     23.082960     38.658416
  C      41.120868     21.449736     39.332590
  H      41.679494     21.868535     40.205500
  O      39.985059     20.739799     39.786068
  H      40.337052     20.016937     40.335240
  C      44.049787     23.275194     36.601266
  O      45.177072     22.739735     36.590570
  O      43.648805     24.331259     36.060792
  N      40.832000     18.750000     42.551000
25
Coordinates from ORCA-job job E -836.672559810220
  C      44.374762     20.462913     40.728711
  H      44.870745     20.882623     39.853259
  H      44.809990     20.612883     41.717688
  C      43.209922     19.797505     40.638290
  C      42.558541     19.322527     41.901781
  O      43.108303     19.205981     42.979607
  O      41.256555     19.051491     41.755461
  O      42.540488     19.481305     39.507170
  C      42.092123     20.527167     38.598377
  H      41.496959     19.952967     37.862088
  C      43.189371     21.281134     37.907063
  H      44.148986     20.805150     37.687066
  C      42.960315     22.514046     37.413739
  C      41.635804     23.127125     37.595631
  H      41.454240     24.027360     37.002790
  C      40.741390     22.618449     38.463081
  H      39.768173     23.081622     38.657673
  C      41.122422     21.449535     39.334055
  H      41.681963     21.869291     40.206664
  O      39.986927     20.740924     39.788530
  H      40.340122     20.019447     40.338267
  C      44.053136     23.275038     36.607360
  O      45.181257     22.741924     36.602248
  O      43.654512     24.329679     36.063794
  N      40.832000     18.750000     42.551000
25
Coordinates from ORCA-job job E -836.672564218734
  C      44.368265     20.481458     40.735635
  H      44.861461     20.905513     39.860669
  H      44.798757     20.636627     41.725306
  C      43.209819     19.806165     40.642119
  C      42.559427     19.327417     41.905271
  O      43.106754     19.212614     42.984258
  O      41.257792     19.051754     41.755220
  O      42.544983     19.483028     39.510166
  C      42.095145     20.523938     38.598408
  H      41.503793     19.944858     37.863834
  C      43.189512     21.278628     37.903509
  H      44.148338     20.802160     37.680656
  C      42.960202     22.511812     37.410684
  C      41.635451     23.125132     37.594813
  H      41.454721     24.026756     37.004686
  C      40.741171     22.615521     38.462147
  H      39.769274     23.079233     38.659804
  C      41.122712     21.445673     39.332458
  H      41.680006     21.863936     40.205530
  O      39.987430     20.734188     39.785138
  H      40.339881     20.011815     40.334520
  C      44.050409     23.271591     36.600277
  O      45.177627     22.735328     36.590179
  O      43.650912     24.328054     36.061000
  N      40.832000     18.750000     42.551000
25
Coordinates from ORCA-job job E -836.672524323634
  C      44.373499     20.467177     40.730494
  H      44.868788     20.889943     39.856021
  H      44.806483     20.620059     41.720977
  C      43.215159     19.794790     40.639760
  C      42.562292     19.319632     41.901618
  O      43.110388     19.201523     42.981860
  O      41.262303     19.044717     41.753234
  O      42.548884     19.474509     39.507253
  C      42.097470     20.519308     38.599735
  H      41.505688     19.940614     37.860314
  C      43.186283     21.274363     37.904448
  H      44.143280     20.798139     37.679932
  C      42.960587     22.509149     37.416684
  C      41.637828     23.121438     37.602326
  H      41.458854     24.023546     37.014171
  C      40.741850     22.610336     38.466461
  H      39.769542     23.072610     38.664628
  C      41.124777     21.439915     39.336080
  H      41.684636     21.856505     40.208441
  O      39.988976     20.728693     39.789908
  H      40.341263     20.004908     40.338429
  C      44.056091     23.274351     36.613352
  O      45.184296     22.741215     36.603494
  O      43.650176     24.329266     36.071252
  N      40.832000     18.750000     42.551000
25
Coordinates from ORCA-job job E -836.672568556876
  C      44.373495     20.469953     40.734060
  H      44.868798     20.891455     39.859036
  H      44.804897     20.624352     41.723991
  C      43.213292     19.797900     40.641722
  C      42.560450     19.322536     41.904328
  O      43.107366     19.207427     42.983992
  O      41.259119     19.048558     41.754755
  O      42.548179     19.475971     39.509518
  C      42.098981     20.518305     38.598157
  H      41.506998     19.940069     37.862172
  C      43.193706     21.272199     37.904479
  H      44.152028     20.795242     37.682462
  C      42.965890     22.505626     37.412079
  C      41.642028     23.119496     37.595333
  H      41.462267     24.021040     37.004807
  C      40.746400     22.610324     38.461292
  H      39.774093     23.074264     38.657329
  C      41.126621     21.440353     39.331938
  H      41.684052     21.858755     40.205621
  O      39.990592     20.730105     39.783788
  H      40.342586     20.008467     40.334369
  C      44.058627     23.266088     36.604504
  O      45.185943     22.730569     36.596080
  O      43.659013     24.321998     36.063256
  N      40.832000     18.750000     42.551000
25
Coordinates from ORCA-job job E -836.672568852475
  C      44.376061     20.458553     40.728604
  H      44.872059     20.877672     39.852883
  H      44.808073     20.613271     41.718133
  C      43.214194     19.789161     40.637696
  C      42.561345     19.317682     41.901832
  O      43.108774     19.204028     42.981412
  O      41.259292     19.046212     41.753816
  O      42.547875     19.466608     39.506334
  C      42.098666     20.508458     38.594568
  H      41.506464     19.930068     37.858851
  C      43.193451     21.261928     37.900580
  H      44.151932     20.784826     37.679089
  C      42.965914     22.495123     37.407567
  C      41.641825     23.109063     37.590245
  H      41.462081     24.010250     36.999215
  C      40.746147     22.600425     38.456543
  H      39.773906     23.064487     38.652304
  C      41.126215     21.430836     39.327807
  H      41.683372     21.849563     40.201338
  O      39.989983     20.720616     39.779782
  H      40.342082     20.000209     40.332065
  C      44.058757     23.254876     36.599511
  O      45.186328     22.719743     36.592509
  O      43.658951     24.309841     36.056669
  N      40.832000     18.750000     42.551000
25
Coordinates from ORCA-job job E -836.672544809183
  C      44.372758     20.462223     40.731282
  H      44.869752     20.879038     39.855179
  H      44.807161     20.616416     41.720710
  C      43.209020     19.796283     40.638986
  C      42.559564     19.323725     41.905815
  O      43.108209     19.211442     42.984587
  O      41.259606     19.048447     41.755749
  O      42.540157     19.476977     39.507745
  C      42.098871     20.519305     38.592368
  H      41.505162     19.941502     37.856460
  C      43.197195     21.266275     37.897151
  H      44.157566     20.787218     37.680636
  C      42.975115     22.498497     37.399574
  C      41.651045     23.116271     37.574297
  H      41.474981     24.013897     36.977465
  C      40.753838     22.613978     38.443039
  H      39.782731     23.080152     38.636416
  C      41.132006     21.449875     39.320786
  H      41.696160     21.870760     40.187807
  O      39.993470     20.746623     39.784722
  H      40.343047     20.021405     40.332919
  C      44.072585     23.254200     36.593552
  O      45.197207     22.713328     36.585409
  O      43.680258     24.313617     36.055802
  N      40.832000     18.750000     42.551000
25
Coordinates from ORCA-job job E -836.672569348896
  C      44.376595     20.464110     40.733923
  H      44.873348     20.883079     39.858537
  H      44.806696     20.620733     41.723966
  C      43.216034     19.792484     40.641890
  C      42.561517     19.321202     41.905255
  O      43.107366     19.209466     42.985886
  O      41.260428     19.047457     41.754921
  O      42.551867     19.467639     39.509982
  C      42.106655     20.507111     38.593547
  H      41.513041     19.927622     37.859719
  C      43.204089     21.254360     37.896934
  H      44.161725     20.773892     37.678580
  C      42.979954     22.485730     37.397851
  C      41.657069     23.103716     37.576582
  H      41.479916     24.002501     36.981085
  C      40.759538     22.601442     38.444762
  H      39.788287     23.068830     38.637463
  C      41.136433     21.435352     39.321993
  H      41.694284     21.857070     40.193456
  O      39.998384     20.729828     39.777401
  H      40.348370     20.009376     40.331014
  C      44.075489     23.239418     36.587515
  O      45.200807     22.699553     36.580545
  O      43.679785     24.295141     36.043153
  N      40.832000     18.750000     42.551000
25
Coordinates from ORCA-job job E -836.672570010459
  C      44.380034     20.451095     40.730706
  H      44.877547     20.866984     39.854189
  H      44.811137     20.608771     41.720448
  C      43.217786     19.782546     40.639747
  C      42.562669     19.314340     41.904130
  O      43.107693     19.202676     42.984948
  O      41.260867     19.042680     41.753673
  O      42.553018     19.457999     39.507972
  C      42.106220     20.498208     38.592988
  H      41.515315     19.918035     37.857786
  C      43.202579     21.249055     37.898704
  H      44.160504     20.770213     37.678506
  C      42.977301     22.481960     37.403605
  C      41.654378     23.098341     37.583747
  H      41.477155     23.998994     36.991258
  C      40.756745     22.592125     38.449302
  H      39.784980     23.057792     38.643285
  C      41.133994     21.423581     39.322923
  H      41.691645     21.842993     40.196207
  O      39.996301     20.716572     39.775255
  H      40.346202     19.995720     40.328028
  C      44.071995     23.239299     36.595890
  O      45.198120     22.701375     36.588453
  O      43.675076     24.295793     36.053863
  N      40.832000     18.750000     42.551000
25
Coordinates from ORCA-job job E -836.672571313219
  C      44.385621     20.438633     40.728530
  H      44.884779     20.851607     39.851634
  H      44.816260     20.597245     41.718128
  C      43.221924     19.772354     40.638544
  C      42.564835     19.308886     41.903508
  O      43.109202     19.199428     42.984988
  O      41.262659     19.039460     41.753321
  O      42.557167     19.446506     39.507091
  C      42.112523     20.485659     38.589611
  H      41.521031     19.905260     37.854939
  C      43.210661     21.233731     37.895056
  H      44.168386     20.753313     37.676999
  C      42.987582     22.465932     37.397450
  C      41.664754     23.084177     37.574769
  H      41.489031     23.983885     36.980333
  C      40.765563     22.580724     38.440438
  H      39.794067     23.047981     38.632270
  C      41.140569     21.413370     39.316659
  H      41.697054     21.833787     40.189671
  O      40.001645     20.707715     39.769120
  H      40.350815     19.988611     40.324942
  C      44.084506     23.220278     36.589755
  O      45.209886     22.680750     36.584679
  O      43.689690     24.276220     36.045200
  N      40.832000     18.750000     42.551000
25
Coordinates from ORCA-job job E -836.672571657442
  C      44.382798     20.443690     40.727741
  H      44.882011     20.855669     39.850479
  H      44.813026     20.603872     41.717168
  C      43.219410     19.776633     40.638385
  C      42.562429     19.313968     41.903452
  O      43.107151     19.206229     42.985130
  O      41.260835     19.042391     41.753514
  O      42.554696     19.449597     39.507453
  C      42.112923     20.487286     38.587182
  H      41.519636     19.906392     37.853931
  C      43.212885     21.230616     37.890235
  H      44.169605     20.747733     37.674100
  C      42.991903     22.461062     37.387457
  C      41.670185     23.082317     37.562141
  H      41.496124     23.979834     36.963688
  C      40.770302     22.584066     38.430129
  H      39.799400     23.053701     38.619735
  C      41.143762     21.419993     39.311533
  H      41.702193     21.843322     40.182158
  O      40.003598     20.719029     39.768349
  H      40.351365     19.999116     40.324056
  C      44.090654     23.210834     36.577785
  O      45.214575     22.667956     36.573101
  O      43.698887     24.267370     36.032105
  N      40.832000     18.750000     42.551000
25
Coordinates from ORCA-job job E -836.672568663849
  C      44.391572     20.421614     40.725736
  H      44.893608     20.826720     39.846716
  H      44.822678     20.583642     41.714728
  C      43.224109     19.761487     40.637356
  C      42.564193     19.305085     41.903259
  O      43.107168     19.198185     42.985778
  O      41.261809     19.036187     41.752241
  O      42.558989     19.435765     39.506567
  C      42.118211     20.474275     38.587130
  H      41.528009     19.893003     37.851709
  C      43.218903     21.220168     37.894057
  H      44.175595     20.738317     37.677025
  C      42.998876     22.452289     37.395014
  C      41.678025     23.073551     37.568949
  H      41.506180     23.972931     36.972631
  C      40.776291     22.572519     38.432996
  H      39.805031     23.041233     38.622384
  C      41.148194     21.406283     39.311935
  H      41.707741     21.827630     40.184229
  O      40.007077     20.707091     39.766111
  H      40.353004     19.985551     40.319999
  C      44.099381     23.205363     36.591200
  O      45.223521     22.662844     36.587736
  O      43.709361     24.264572     36.049361
  N      40.832000     18.750000     42.551000
25
Coordinates from ORCA-job job E -836.672165229503
  C      44.392317     20.414225     40.721610
  H      44.903702     20.821245     39.851772
  H      44.822243     20.569587     41.707240
  C      43.219168     19.757790     40.635165
  C      42.553198     19.311211     41.892809
  O      43.111297     19.198463     42.973876
  O      41.252504     19.051296     41.757150
  O      42.552759     19.433965     39.507382
  C      42.118781     20.476453     38.587672
  H      41.520767     19.900021     37.839712
  C      43.223762     21.223442     37.898954
  H      44.176564     20.740847     37.681111
  C      43.002970     22.454100     37.397127
  C      41.676291     23.072863     37.564356
  H      41.502690     23.971276     36.962926
  C      40.776250     22.572485     38.432905
  H      39.798587     23.041539     38.612868
  C      41.147534     21.406566     39.313324
  H      41.701518     21.827257     40.188889
  O      40.000811     20.701637     39.768910
  H      40.357494     19.985851     40.329748
  C      44.107282     23.208120     36.592674
  O      45.237325     22.671245     36.600950
  O      43.717860     24.263666     36.046890
  N      40.832000     18.750000     42.551000
25
Coordinates from ORCA-job job E -836.672572299064
  C      44.392370     20.420818     40.724958
  H      44.894292     20.827884     39.846830
  H      44.823592     20.580490     41.714118
  C      43.224953     19.760687     40.636541
  C      42.565440     19.303624     41.902470
  O      43.108996     19.196387     42.984614
  O      41.262789     19.036345     41.752436
  O      42.559057     19.435543     39.505776
  C      42.118652     20.474659     38.586353
  H      41.527162     19.894758     37.851140
  C      43.219982     21.219793     37.893541
  H      44.177435     20.737760     37.678165
  C      43.000822     22.451960     37.394463
  C      41.678876     23.072968     37.567264
  H      41.506412     23.971941     36.970526
  C      40.776713     22.572381     38.431441
  H      39.805410     23.041335     38.620089
  C      41.148354     21.406256     39.310684
  H      41.706001     21.827583     40.182915
  O      40.007420     20.705137     39.764429
  H      40.354262     19.985577     40.320870
  C      44.102362     23.204238     36.591051
  O      45.226589     22.662227     36.589856
  O      43.712203     24.261713     36.046095
  N      40.832000     18.750000     42.551000
25
Coordinates from ORCA-job job E -836.672573585746
  C      44.394845     20.417718     40.727209
  H      44.897738     20.823400     39.849012
  H      44.824788     20.578881     41.716765
  C      43.227690     19.757352     40.638198
  C      42.566571     19.302211     41.904067
  O      43.108498     19.196519     42.987186
  O      41.264030     19.034788     41.752518
  O      42.563157     19.430512     39.507015
  C      42.124656     20.468263     38.585104
  H      41.533143     19.887505     37.850649
  C      43.227199     21.210609     37.891346
  H      44.184029     20.726821     37.677360
  C      43.009609     22.441982     37.389390
  C      41.688473     23.065063     37.560496
  H      41.517624     23.963228     36.962186
  C      40.785204     22.567262     38.425127
  H      39.814406     23.037868     38.612337
  C      41.154798     21.402339     39.306920
  H      41.712147     21.824744     40.178837
  O      40.012868     20.703164     39.760996
  H      40.358483     19.984016     40.318790
  C      44.112223     23.191189     36.584791
  O      45.235334     22.646805     36.583719
  O      43.724062     24.249051     36.039059
  N      40.832000     18.750000     42.551000
25
Coordinates from ORCA-job job E -836.672575178545
  C      44.398372     20.411752     40.728385
  H      44.902673     20.814932     39.849872
  H      44.826742     20.575136     41.718273
  C      43.231133     19.751557     40.639303
  C      42.567902     19.300090     41.905452
  O      43.107954     19.197295     42.989792
  O      41.265496     19.032879     41.752524
  O      42.568145     19.421916     39.507936
  C      42.131903     20.457445     38.582493
  H      41.539969     19.875389     37.849469
  C      43.236045     21.195642     37.886882
  H      44.191968     20.709289     37.674921
  C      43.020745     22.425723     37.380585
  C      41.700671     23.051750     37.549403
  H      41.531906     23.948603     36.948611
  C      40.796030     22.558244     38.415098
  H      39.826104     23.031338     38.600365
  C      41.162775     21.395191     39.300710
  H      41.719619     21.819296     40.172145
  O      40.019237     20.699006     39.755302
  H      40.362980     19.980947     40.315701
  C      44.124872     23.170380     36.573810
  O      45.246510     22.622867     36.573035
  O      43.739232     24.228377     36.026360
  N      40.832000     18.750000     42.551000
25
Coordinates from ORCA-job job E -836.672577090658
  C      44.405995     20.401221     40.732778
  H      44.913041     20.800637     39.854060
  H      44.832030     20.567708     41.723098
  C      43.238220     19.742018     40.643050
  C      42.570883     19.295710     41.908884
  O      43.107814     19.196183     42.995104
  O      41.268658     19.029252     41.753037
  O      42.577882     19.409194     39.511144
  C      42.145798     20.441973     38.580556
  H      41.553829     19.858243     37.848830
  C      43.252968     21.174655     37.883731
  H      44.207968     20.684921     37.674985
  C      43.041716     22.403427     37.372490
  C      41.722952     23.033648     37.536872
  H      41.557690     23.928942     36.932687
  C      40.815426     22.545625     38.402722
  H      39.846425     23.022039     38.584590
  C      41.177554     21.384897     39.293181
  H      41.733736     21.810890     40.163996
  O      40.031434     20.693151     39.748431
  H      40.372384     19.976156     40.311926
  C      44.149084     23.142382     36.564748
  O      45.268566     22.590380     36.565082
  O      43.767909     24.201221     36.015763
  N      40.832000     18.750000     42.551000
25
Coordinates from ORCA-job job E -836.672460812656
  C      44.399482     20.428321     40.752776
  H      44.911070     20.824118     39.879093
  H      44.811047     20.599217     41.746057
  C      43.240361     19.758894     40.656241
  C      42.564372     19.319878     41.916156
  O      43.092607     19.239559     43.008457
  O      41.265796     19.041106     41.754782
  O      42.591329     19.415414     39.519739
  C      42.158465     20.443895     38.588243
  H      41.557510     19.861162     37.864382
  C      43.263931     21.163751     37.878081
  H      44.209872     20.662863     37.669257
  C      43.051374     22.382470     37.347035
  C      41.737592     23.021910     37.522931
  H      41.571494     23.915728     36.919331
  C      40.838095     22.549244     38.402378
  H      39.874209     23.034950     38.590547
  C      41.194389     21.390003     39.295098
  H      41.741624     21.815548     40.167044
  O      40.042320     20.702973     39.741071
  H      40.373861     19.986608     40.312104
  C      44.145443     23.103549     36.508889
  O      45.256552     22.537797     36.482406
  O      43.763089     24.165553     35.969096
  N      40.832000     18.750000     42.551000
25
Coordinates from ORCA-job job E -836.672574077722
  C      44.405088     20.410940     40.739712
  H      44.913883     20.808328     39.861142
  H      44.827314     20.581146     41.730976
  C      43.239240     19.748661     40.648574
  C      42.569346     19.304596     41.913843
  O      43.103048     19.210365     43.002129
  O      41.268535     19.033832     41.754481
  O      42.582429     19.410825     39.516100
  C      42.154674     20.439187     38.578974
  H      41.558596     19.853652     37.852278
  C      43.264565     21.160521     37.874433
  H      44.217145     20.664384     37.670060
  C      43.056856     22.384432     37.349703
  C      41.740917     23.021624     37.510968
  H      41.578294     23.912074     36.898851
  C      40.833222     22.546139     38.383759
  H      39.866701     23.028602     38.562716
  C      41.191319     21.392073     39.284954
  H      41.749108     21.823780     40.151834
  O      40.042421     20.708825     39.746344
  H      40.379477     19.992280     40.312866
  C      44.164928     23.110836     36.531440
  O      45.280383     22.550635     36.528412
  O      43.788296     24.169731     35.978824
  N      40.832000     18.750000     42.551000
25
Coordinates from ORCA-job job E -836.672575894949
  C      44.415138     20.371713     40.723979
  H      44.924598     20.764587     39.843582
  H      44.841846     20.541263     41.713560
  C      43.244128     19.717655     40.637012
  C      42.574379     19.280925     41.904978
  O      43.110619     19.184841     42.991925
  O      41.271102     19.019326     41.750798
  O      42.583511     19.382631     39.505908
  C      42.150133     20.414336     38.574531
  H      41.560838     19.828827     37.841684
  C      43.256880     21.149201     37.879948
  H      44.212012     20.660134     37.670357
  C      43.045566     22.378776     37.371461
  C      41.726911     23.008501     37.535907
  H      41.562418     23.905537     36.934338
  C      40.818013     22.517727     38.398335
  H      39.848764     22.993545     38.580279
  C      41.178556     21.354542     39.285670
  H      41.731954     21.778395     40.159597
  O      40.031394     20.661005     39.735305
  H      40.371926     19.945974     40.301532
  C      44.153031     23.119387     36.565691
  O      45.272994     22.568824     36.566484
  O      43.771103     24.177900     36.017152
  N      40.832000     18.750000     42.551000
25
Coordinates from ORCA-job job E -836.672582220897
  C      44.425211     20.352536     40.726119
  H      44.939130     20.736586     39.844351
  H      44.847890     20.529582     41.716060
  C      43.253400     19.700091     40.640044
  C      42.577250     19.275899     41.908968
  O      43.108430     19.189185     42.999312
  O      41.274317     19.014782     41.751040
  O      42.596453     19.356774     39.509241
  C      42.172265     20.381192     38.565479
  H      41.580231     19.791775     37.838130
  C      43.285441     21.100302     37.864027
  H      44.237731     20.602155     37.662402
  C      43.082601     22.324678     37.339008
  C      41.767428     22.964930     37.493766
  H      41.609731     23.855915     36.881133
  C      40.853974     22.490728     38.360988
  H      39.887380     22.975167     38.535253
  C      41.205403     21.336197     39.263557
  H      41.759292     21.767459     40.133226
  O      40.052944     20.655238     39.719454
  H      40.387143     19.942769     40.292938
  C      44.195854     23.048420     36.525374
  O      45.310511     22.486710     36.528031
  O      43.823351     24.107060     35.970103
  N      40.832000     18.750000     42.551000
25
Coordinates from ORCA-job job E -836.672583957999
  C      44.437326     20.339177     40.735984
  H      44.955058     20.718261     39.854345
  H      44.856684     20.520051     41.726528
  C      43.264705     19.688407     40.648036
  C      42.582199     19.270475     41.915522
  O      43.108550     19.187762     43.008413
  O      41.279620     19.010094     41.752513
  O      42.611551     19.341622     39.516262
  C      42.194965     20.362136     38.564885
  H      41.602593     19.771042     37.839400
  C      43.313496     21.072237     37.862535
  H      44.264238     20.568707     37.666567
  C      43.117968     22.294682     37.330312
  C      41.805083     22.941745     37.477245
  H      41.653610     23.830215     36.859424
  C      40.886531     22.476323     38.343985
  H      39.921751     22.966151     38.512535
  C      41.230294     21.325620     39.254418
  H      41.783543     21.760000     40.122816
  O      40.073986     20.652124     39.711642
  H      40.403719     19.940647     40.288734
  C      44.237417     23.009252     36.516979
  O      45.348411     22.440168     36.522960
  O      43.872957     24.069171     35.958661
  N      40.832000     18.750000     42.551000
25
Coordinates from ORCA-job job E -836.672526237609
  C      44.426631     20.310329     40.702018
  H      44.940426     20.675831     39.814058
  H      44.857626     20.490567     41.686692
  C      43.244094     19.676035     40.627252
  C      42.570421     19.272752     41.901851
  O      43.104422     19.195721     42.989165
  O      41.265012     19.018866     41.749545
  O      42.573400     19.332770     39.505010
  C      42.156302     20.351628     38.555207
  H      41.551468     19.764087     37.841057
  C      43.273611     21.049976     37.839124
  H      44.222823     20.543162     37.648464
  C      43.076329     22.263635     37.286618
  C      41.765186     22.913082     37.431835
  H      41.609606     23.789651     36.798411
  C      40.855959     22.464091     38.317665
  H      39.894742     22.956262     38.486577
  C      41.207051     21.329098     39.247586
  H      41.772701     21.777795     40.101665
  O      40.054823     20.667495     39.728922
  H      40.386166     19.958808     40.306068
  C      44.192162     22.963581     36.455929
  O      45.303078     22.394703     36.470583
  O      43.825642     24.012294     35.875341
  N      40.832000     18.750000     42.551000
25
Coordinates from ORCA-job job E -836.672581269206
  C      44.427880     20.314864     40.698427
  H      44.942473     20.685953     39.811390
  H      44.854236     20.499036     41.685466
  C      43.251077     19.670275     40.622322
  C      42.575896     19.264483     41.898195
  O      43.109454     19.188328     42.988342
  O      41.271410     19.008164     41.746792
  O      42.588172     19.320010     39.496989
  C      42.167665     20.337317     38.544042
  H      41.570456     19.743920     37.824338
  C      43.283179     21.042859     37.831808
  H      44.233254     20.538088     37.635810
  C      43.083842     22.260678     37.289270
  C      41.770858     22.907699     37.437575
  H      41.614756     23.790375     36.811990
  C      40.857969     22.449179     38.314466
  H      39.893264     22.939192     38.483722
  C      41.207300     21.305934     39.233174
  H      41.765622     21.747169     40.095314
  O      40.052773     20.636764     39.701825
  H      40.384550     19.928014     40.281608
  C      44.197822     22.969095     36.462329
  O      45.310036     22.402078     36.467955
  O      43.828158     24.022695     35.894919
  N      40.832000     18.750000     42.551000
25
Coordinates from ORCA-job job E -836.672582692611
  C      44.441242     20.307673     40.720363
  H      44.960120     20.678229     39.836233
  H      44.863215     20.491291     41.709421
  C      43.263911     19.664671     40.637342
  C      42.581469     19.258013     41.908189
  O      43.108751     19.179431     43.000672
  O      41.277420     19.002398     41.749140
  O      42.607622     19.316466     39.507822
  C      42.191160     20.335973     38.555793
  H      41.599015     19.744649     37.830506
  C      43.309528     21.045917     37.854564
  H      44.260039     20.542596     37.659148
  C      43.114551     22.267723     37.322438
  C      41.802372     22.914870     37.468788
  H      41.651522     23.803048     36.851461
  C      40.883649     22.449561     38.334320
  H      39.919055     22.939334     38.502349
  C      41.226449     21.299112     39.244492
  H      41.778824     21.733375     40.113345
  O      40.069980     20.626198     39.699854
  H      40.399508     19.917597     40.280237
  C      44.234470     22.981370     36.510185
  O      45.345643     22.413371     36.519853
  O      43.870230     24.039092     35.948652
  N      40.832000     18.750000     42.551000
25
Coordinates from ORCA-job job E -836.672587082901
  C      44.463383     20.294663     40.747178
  H      44.989887     20.660505     39.864968
  H      44.877651     20.481693     41.738813
  C      43.285875     19.652601     40.657656
  C      42.591312     19.251775     41.924339
  O      43.108353     19.176575     43.022305
  O      41.288413     18.997465     41.753502
  O      42.638152     19.300210     39.524514
  C      42.232513     20.315833     38.562916
  H      41.640860     19.722521     37.838381
  C      43.359371     21.014008     37.862178
  H      44.307895     20.502971     37.675022
  C      43.174979     22.234311     37.320962
  C      41.865947     22.891315     37.456331
  H      41.724275     23.777388     36.832296
  C      40.938781     22.437114     38.319941
  H      39.976175     22.934692     38.479374
  C      41.269197     21.289904     39.239678
  H      41.819270     21.726736     40.109063
  O      40.105784     20.626415     39.693513
  H      40.428001     19.919252     40.280172
  C      44.304656     22.936582     36.510869
  O      45.410652     22.358095     36.524382
  O      43.952360     23.997886     35.947191
  N      40.832000     18.750000     42.551000
25
Coordinates from ORCA-job job E -836.672590316330
  C      44.457187     20.271215     40.719321
  H      44.981775     20.630592     39.833584
  H      44.876868     20.460534     41.708146
  C      43.276147     19.634833     40.638059
  C      42.586705     19.244330     41.910523
  O      43.109401     19.174542     43.005926
  O      41.282058     18.993942     41.748840
  O      42.620866     19.280484     39.509729
  C      42.213700     20.294022     38.546891
  H      41.620139     19.699513     37.825467
  C      43.338998     20.990222     37.841527
  H      44.287375     20.478964     37.654609
  C      43.152715     22.208117     37.295221
  C      41.843311     22.864520     37.430486
  H      41.699452     23.747447     36.802734
  C      40.918931     22.413580     38.298855
  H      39.956612     22.910916     38.458584
  C      41.252458     21.270562     39.223254
  H      41.805098     21.711220     40.089328
  O      40.090473     20.608840     39.682867
  H      40.413955     19.903534     40.270746
  C      44.279749     22.907520     36.479028
  O      45.386908     22.331118     36.494536
  O      43.924368     23.964578     35.909145
  N      40.832000     18.750000     42.551000
25
Coordinates from ORCA-job job E -836.672532516026
  C      44.470129     20.247396     40.735740
  H      45.002461     20.601175     39.854805
  H      44.886372     20.433293     41.726373
  C      43.284219     19.621556     40.646608
  C      42.587003     19.237328     41.914478
  O      43.105552     19.169785     43.010611
  O      41.282160     18.990033     41.749474
  O      42.633300     19.273988     39.513872
  C      42.236332     20.292294     38.553640
  H      41.645975     19.704349     37.825685
  C      43.366616     20.990829     37.862141
  H      44.315176     20.481128     37.679087
  C      43.186874     22.210481     37.323839
  C      41.878812     22.867505     37.454291
  H      41.742550     23.754327     36.835238
  C      40.949382     22.413050     38.311836
  H      39.989299     22.911132     38.470355
  C      41.274755     21.265017     39.229366
  H      41.822698     21.699512     40.100161
  O      40.110381     20.603617     39.675891
  H      40.428299     19.896731     40.262455
  C      44.319865     22.913506     36.523499
  O      45.425448     22.336380     36.545916
  O      43.970711     23.973687     35.958934
  N      40.832000     18.750000     42.551000
25
Coordinates from ORCA-job job E -836.672590315571
  C      44.475607     20.260353     40.745736
  H      45.006995     20.617732     39.863308
  H      44.889391     20.449027     41.737072
  C      43.293452     19.626826     40.656451
  C      42.593966     19.238142     41.923633
  O      43.108631     19.167985     43.022539
  O      41.290020     18.989621     41.752413
  O      42.645447     19.274067     39.523647
  C      42.246098     20.289043     38.558789
  H      41.656114     19.696233     37.833228
  C      43.377249     20.984070     37.862046
  H      44.325472     20.471052     37.679205
  C      43.198384     22.204397     37.319486
  C      41.890428     22.864609     37.448431
  H      41.754172     23.750666     36.823811
  C      40.958659     22.413195     38.308320
  H      39.997364     22.913302     38.463989
  C      41.282803     21.266313     39.230741
  H      41.830913     21.703100     40.101501
  O      40.116492     20.606113     39.680837
  H      40.434934     19.900369     40.270470
  C      44.333650     22.903669     36.515101
  O      45.438284     22.322843     36.535286
  O      43.986692     23.965468     35.948979
  N      40.832000     18.750000     42.551000
25
Coordinates from ORCA-job job E -836.672592323533
  C      44.471208     20.250035     40.729413
  H      45.001399     20.603419     39.844772
  H      44.887365     20.440664     41.719535
  C      43.287400     19.619266     40.645286
  C      42.590809     19.235978     41.916178
  O      43.108040     19.168793     43.014558
  O      41.286199     18.988580     41.749561
  O      42.635994     19.264359     39.514756
  C      42.234912     20.277382     38.549036
  H      41.642385     19.683260     37.826149
  C      43.364590     20.969531     37.847252
  H      44.311981     20.455482     37.664533
  C      43.183814     22.186979     37.298909
  C      41.876118     22.847428     37.428889
  H      41.737201     23.730286     36.800171
  C      40.947340     22.400101     38.293904
  H      39.985754     22.900568     38.449509
  C      41.273708     21.257075     39.220086
  H      41.823761     21.697012     40.087777
  O      40.107858     20.599610     39.675268
  H      40.426833     19.895473     40.267348
  C      44.315586     22.882618     36.486586
  O      45.420584     22.302552     36.505346
  O      43.965863     23.941113     35.916479
  N      40.832000     18.750000     42.551000
25
Coordinates from ORCA-job job E -836.672536508696
  C      44.463191     20.248826     40.703317
  H      44.983875     20.602114     39.810435
  H      44.887198     20.450281     41.687663
  C      43.281877     19.608349     40.630169
  C      42.592654     19.227256     41.905654
  O      43.117396     19.162795     42.998242
  O      41.286259     18.978766     41.747292
  O      42.625170     19.244338     39.507174
  C      42.212376     20.251220     38.536384
  H      41.623987     19.649935     37.819276
  C      43.334801     20.952243     37.830344
  H      44.285002     20.443366     37.637881
  C      43.148375     22.174183     37.292542
  C      41.839196     22.830348     37.429161
  H      41.699429     23.717896     36.807885
  C      40.912008     22.372073     38.291707
  H      39.951998     22.868187     38.455126
  C      41.246438     21.225321     39.212673
  H      41.797190     21.665376     40.081529
  O      40.087872     20.556296     39.669910
  H      40.416704     19.855401     40.257381
  C      44.278650     22.876392     36.482183
  O      45.385739     22.298643     36.500574
  O      43.925783     23.935292     35.911977
  N      40.832000     18.750000     42.551000
25
Coordinates from ORCA-job job E -836.672592225114
  C      44.467663     20.243008     40.717266
  H      44.995696     20.595127     39.830820
  H      44.886831     20.435132     41.705759
  C      43.283388     19.612569     40.637034
  C      42.590013     19.232098     41.910170
  O      43.110563     19.166493     43.006800
  O      41.284620     18.985802     41.747841
  O      42.628519     19.256189     39.509145
  C      42.225760     20.267697     38.542374
  H      41.633154     19.672363     37.820868
  C      43.354164     20.960155     37.838735
  H      44.301878     20.446621     37.655140
  C      43.172266     22.177404     37.290260
  C      41.864122     22.836953     37.420630
  H      41.724210     23.719180     36.791403
  C      40.936143     22.389399     38.286572
  H      39.974605     22.889147     38.442803
  C      41.264576     21.247424     39.213671
  H      41.815683     21.688477     40.080448
  O      40.100024     20.589114     39.671070
  H      40.420750     19.885781     40.262636
  C      44.303350     22.872910     36.476776
  O      45.409085     22.294028     36.496769
  O      43.952181     23.929780     35.904266
  N      40.832000     18.750000     42.551000
25
Coordinates from ORCA-job job E -836.672593630967
  C      44.473581     20.231072     40.719039
  H      45.004418     20.579350     39.832717
  H      44.891294     20.424069     41.708097
  C      43.287284     19.604434     40.638456
  C      42.590903     19.228626     41.911673
  O      43.109224     19.164825     43.009712
  O      41.285362     18.984283     41.747810
  O      42.633704     19.247298     39.509861
  C      42.234179     20.257910     38.541003
  H      41.641079     19.662482     37.819744
  C      43.364747     20.946616     37.837233
  H      44.311674     20.431020     37.656461
  C      43.185356     22.162465     37.284855
  C      41.878153     22.824449     37.412131
  H      41.740227     23.705090     36.780333
  C      40.948857     22.381021     38.278623
  H      39.987799     22.882817     38.432317
  C      41.274071     21.240860     39.208903
  H      41.824685     21.682975     40.075224
  O      40.107586     20.586090     39.666197
  H      40.425899     19.883700     40.260635
  C      44.318169     22.854117     36.470532
  O      45.422797     22.273389     36.492415
  O      43.969310     23.910393     35.895638
  N      40.832000     18.750000     42.551000
25
Coordinates from ORCA-job job E -836.672595050567
  C      44.480905     20.212866     40.718974
  H      45.014423     20.556063     39.832302
  H      44.897619     20.407923     41.708034
  C      43.292651     19.590038     40.638676
  C      42.593100     19.221357     41.912286
  O      43.109329     19.160977     43.011528
  O      41.287222     18.979534     41.747302
  O      42.639712     19.231040     39.510272
  C      42.244355     20.239693     38.537660
  H      41.651162     19.643533     37.817099
  C      43.377810     20.923636     37.833801
  H      44.323908     20.405244     37.656536
  C      43.202072     22.138055     37.277023
  C      41.896111     22.803355     37.399884
  H      41.761115     23.682309     36.764992
  C      40.964254     22.364816     38.266158
  H      40.003977     22.869275     38.416469
  C      41.285260     21.226918     39.200757
  H      41.835290     21.670659     40.066677
  O      40.116457     20.576293     39.658057
  H      40.432119     19.875227     40.255498
  C      44.337831     22.824645     36.462560
  O      45.440924     22.241061     36.487415
  O      43.992578     23.880494     35.884673
  N      40.832000     18.750000     42.551000
25
Coordinates from ORCA-job job E -836.672589996641
  C      44.492536     20.191639     40.730752
  H      45.031183     20.530941     39.847034
  H      44.907295     20.382685     41.721188
  C      43.300912     19.578011     40.646407
  C      42.596620     19.214540     41.917583
  O      43.109737     19.154385     43.018363
  O      41.290712     18.977605     41.748748
  O      42.647701     19.222538     39.516988
  C      42.265225     20.231008     38.540240
  H      41.670277     19.637392     37.818328
  C      43.407145     20.903542     37.838454
  H      44.351667     20.379133     37.671996
  C      43.240090     22.114305     37.271023
  C      41.935962     22.785509     37.381375
  H      41.805579     23.658340     36.736286
  C      40.998494     22.359719     38.248198
  H      40.038774     22.869168     38.388613
  C      41.310890     21.228712     39.193927
  H      41.862106     21.675663     40.057660
  O      40.136433     20.589096     39.653735
  H      40.445688     19.887604     40.253718
  C      44.382877     22.789880     36.457776
  O      45.483863     22.203137     36.493802
  O      44.044545     23.842337     35.869877
  N      40.832000     18.750000     42.551000
25
Coordinates from ORCA-job job E -836.672598743038
  C      44.505979     20.157198     40.724622
  H      45.048751     20.485100     39.837746
  H      44.919002     20.357571     41.714145
  C      43.311162     19.547343     40.643775
  C      42.600705     19.199499     41.917240
  O      43.109803     19.147869     43.020327
  O      41.293889     18.966195     41.747289
  O      42.661017     19.183781     39.515172
  C      42.279850     20.186898     38.531224
  H      41.686874     19.589062     37.811805
  C      43.423146     20.856019     37.828687
  H      44.366619     20.328991     37.663027
  C      43.259923     22.066422     37.259260
  C      41.957824     22.742074     37.367049
  H      41.832925     23.615861     36.722817
  C      41.017052     22.318657     38.231420
  H      40.059312     22.831366     38.370516
  C      41.323860     21.187383     39.179008
  H      41.871731     21.635163     40.044338
  O      40.147269     20.549716     39.635002
  H      40.454047     19.852386     40.241449
  C      44.406209     22.737389     36.446472
  O      45.504608     22.145408     36.482976
  O      44.072859     23.791481     35.858129
  N      40.832000     18.750000     42.551000
25
Coordinates from ORCA-job job E -836.672600060510
  C      44.519455     20.128856     40.729346
  H      45.067080     20.449149     39.842619
  H      44.930298     20.331819     41.719247
  C      43.321447     19.525395     40.647528
  C      42.604964     19.187805     41.920441
  O      43.110022     19.140274     43.025565
  O      41.297748     18.958920     41.747394
  O      42.673331     19.159738     39.518383
  C      42.298714     20.160480     38.529463
  H      41.706496     19.561916     37.810092
  C      43.446500     20.823574     37.828476
  H      44.388788     20.292905     37.667868
  C      43.288957     22.032426     37.254150
  C      41.988727     22.712615     37.355230
  H      41.868730     23.584626     36.707671
  C      41.043713     22.295259     38.217878
  H      40.087198     22.811526     38.352070
  C      41.343554     21.166197     39.170323
  H      41.889732     21.615095     40.036231
  O      40.163285     20.533796     39.624063
  H      40.465764     19.838348     40.234805
  C      44.440060     22.696962     36.442906
  O      45.536297     22.101393     36.484566
  O      44.112178     23.750463     35.850481
  N      40.832000     18.750000     42.551000
25
Coordinates from ORCA-job job E -836.672533647625
  C      44.538014     20.126139     40.770830
  H      45.091355     20.447938     39.889622
  H      44.941548     20.327089     41.764084
  C      43.340541     19.523378     40.675577
  C      42.613049     19.180747     41.938563
  O      43.109468     19.125617     43.045663
  O      41.307094     18.955142     41.752873
  O      42.703964     19.161429     39.538658
  C      42.328799     20.166581     38.555834
  H      41.745842     19.570093     37.828578
  C      43.475133     20.843114     37.868925
  H      44.418673     20.319155     37.703336
  C      43.315475     22.057266     37.311008
  C      42.015487     22.731849     37.415994
  H      41.898130     23.612299     36.783267
  C      41.069423     22.299741     38.266695
  H      40.113642     22.810688     38.405891
  C      41.365712     21.158325     39.201587
  H      41.903362     21.595373     40.079300
  O      40.185681     20.513745     39.633075
  H      40.486959     19.817796     40.241078
  C      44.466072     22.734703     36.512382
  O      45.563908     22.146112     36.554785
  O      44.136073     23.789208     35.927136
  N      40.832000     18.750000     42.551000
25
Coordinates from ORCA-job job E -836.672598278434
  C      44.531341     20.129974     40.756286
  H      45.083729     20.452911     39.873940
  H      44.936922     20.329023     41.749175
  C      43.333624     19.527687     40.665711
  C      42.610125     19.185541     41.932865
  O      43.108845     19.132390     43.040584
  O      41.303618     18.958839     41.751186
  O      42.691836     19.166031     39.531519
  C      42.319374     20.171000     38.546443
  H      41.731850     19.574831     37.821008
  C      43.469332     20.839604     37.854992
  H      44.412498     20.310965     37.694849
  C      43.313621     22.052067     37.288959
  C      42.012866     22.730687     37.388908
  H      41.895214     23.607126     36.747350
  C      41.064109     22.306769     38.243592
  H      40.106612     22.821436     38.377044
  C      41.359617     21.170979     39.188251
  H      41.900583     21.613275     40.060629
  O      40.177146     20.534500     39.629933
  H      40.477033     19.838089     40.240833
  C      44.467621     22.722713     36.487686
  O      45.564728     22.129581     36.532723
  O      44.140981     23.778152     35.898820
  N      40.832000     18.750000     42.551000
25
Coordinates from ORCA-job job E -836.672601404709
  C      44.535718     20.106369     40.747471
  H      45.090263     20.419427     39.862788
  H      44.941543     20.312247     41.738892
  C      43.334952     19.509024     40.660840
  C      42.609294     19.180142     41.930370
  O      43.108008     19.135243     43.038190
  O      41.302430     18.955489     41.750495
  O      42.692386     19.141394     39.529244
  C      42.329416     20.139376     38.532784
  H      41.738605     19.540332     37.812834
  C      43.484844     20.793318     37.835331
  H      44.425755     20.257544     37.682847
  C      43.336885     22.000293     37.254171
  C      42.039439     22.687504     37.343668
  H      41.928382     23.556821     36.691218
  C      41.087400     22.279322     38.203152
  H      40.133127     22.800911     38.329509
  C      41.375995     21.153532     39.163197
  H      41.919425     21.604292     40.029908
  O      40.190351     20.529003     39.613468
  H      40.485652     19.834593     40.228279
  C      44.496563     22.655225     36.446760
  O      45.589471     22.054175     36.498488
  O      44.177922     23.707467     35.846803
  N      40.832000     18.750000     42.551000
25
Coordinates from ORCA-job job E -836.672603200707
  C      44.556612     20.065904     40.757634
  H      45.118339     20.369059     39.873775
  H      44.958529     20.274876     41.750027
  C      43.351817     19.477163     40.668586
  C      42.617017     19.161773     41.936606
  O      43.108844     19.121438     43.047866
  O      41.309469     18.943989     41.750950
  O      42.712916     19.106920     39.535627
  C      42.357845     20.102202     38.533821
  H      41.768977     19.502358     37.812817
  C      43.519159     20.749575     37.840270
  H      44.458465     20.209394     37.694079
  C      43.378870     21.955190     37.254942
  C      42.083847     22.647846     37.336196
  H      41.979089     23.515906     36.680987
  C      41.125424     22.245847     38.191353
  H      40.172288     22.771615     38.311218
  C      41.404082     21.121259     39.155320
  H      41.943808     21.571708     40.024491
  O      40.212861     20.502720     39.599457
  H      40.502139     19.811315     40.221077
  C      44.544748     22.602734     36.450877
  O      45.635167     21.997868     36.509762
  O      44.232749     23.653981     35.845816
  N      40.832000     18.750000     42.551000
25
Coordinates from ORCA-job job E -836.672600941626
  C      44.545373     20.104101     40.763355
  H      45.102772     20.419172     39.881361
  H      44.947814     20.306927     41.756560
  C      43.344880     19.507235     40.671141
  C      42.614763     19.175368     41.937191
  O      43.109191     19.126757     43.046894
  O      41.308276     18.952920     41.751879
  O      42.705801     19.142700     39.536584
  C      42.343599     20.143229     38.543600
  H      41.755377     19.545824     37.819875
  C      43.499799     20.800707     37.851818
  H      44.440925     20.266260     37.699442
  C      43.351869     22.009094     37.274851
  C      42.054181     22.694741     37.364303
  H      41.943178     23.566256     36.714932
  C      41.100556     22.282659     38.219316
  H      40.145308     22.802889     38.345093
  C      41.387157     21.153209     39.174538
  H      41.927392     21.600259     40.045183
  O      40.199999     20.526363     39.617482
  H      40.493911     19.831496     40.232634
  C      44.511769     22.667551     36.471846
  O      45.605364     22.069008     36.524247
  O      44.192313     23.719878     35.873756
  N      40.832000     18.750000     42.551000
25
Coordinates from ORCA-job job E -836.672603679087
  C      44.556406     20.074477     40.766223
  H      45.118580     20.379535     39.883767
  H      44.956409     20.283363     41.759314
  C      43.353047     19.483277     40.674244
  C      42.616938     19.165008     41.940196
  O      43.107599     19.122925     43.051684
  O      41.310244     18.946685     41.752309
  O      42.716240     19.113294     39.540265
  C      42.364195     20.108021     38.537484
  H      41.775410     19.508395     37.816227
  C      43.526803     20.753512     37.844753
  H      44.465773     20.212715     37.700126
  C      43.387745     21.958026     37.257012
  C      42.093475     22.651593     37.335626
  H      41.990051     23.518321     36.678621
  C      41.134362     22.251813     38.190601
  H      40.181676     22.778231     38.308587
  C      41.411254     21.128826     39.156815
  H      41.950692     21.580664     40.025557
  O      40.219505     20.511876     39.601044
  H      40.507220     19.819554     40.221629
  C      44.554842     22.603026     36.452896
  O      45.644466     21.997737     36.513939
  O      44.244156     23.652630     35.845106
  N      40.832000     18.750000     42.551000
25
Coordinates from ORCA-job job E -836.672604671544
  C      44.562048     20.063043     40.768337
  H      45.126477     20.364768     39.885867
  H      44.960770     20.273635     41.761700
  C      43.357583     19.474139     40.676262
  C      42.618680     19.160567     41.942175
  O      43.107256     19.120402     43.054811
  O      41.311580     18.944338     41.752649
  O      42.721775     19.102621     39.542048
  C      42.372988     20.096104     38.536377
  H      41.784253     19.495998     37.815438
  C      43.538165     20.737926     37.844248
  H      44.476550     20.194946     37.702540
  C      43.402805     21.941728     37.254015
  C      42.109447     22.638072     37.328905
  H      42.008933     23.503850     36.670038
  C      41.147592     22.241698     38.182846
  H      40.195574     22.770311     38.298035
  C      41.420571     21.120021     39.151885
  H      41.959083     21.572615     40.020667
  O      40.226600     20.506413     39.595375
  H      40.511994     19.815378     40.219039
  C      44.572615     22.582581     36.450300
  O      45.661245     21.975103     36.515197
  O      44.265095     23.631541     35.839112
  N      40.832000     18.750000     42.551000
25
Coordinates from ORCA-job job E -836.672605102914
  C      44.579706     20.030262     40.779745
  H      45.150477     20.323070     39.898310
  H      44.974502     20.244655     41.773801
  C      43.372202     19.447797     40.684807
  C      42.624811     19.146166     41.948723
  O      43.107455     19.110217     43.064069
  O      41.317617     18.935919     41.753862
  O      42.740278     19.073238     39.549531
  C      42.401603     20.062703     38.536611
  H      41.813774     19.461411     37.815918
  C      43.573251     20.695176     37.846725
  H      44.509688     20.147034     37.712414
  C      43.446050     21.895944     37.248332
  C      42.155738     22.598764     37.312756
  H      42.062341     23.461053     36.648160
  C      41.188043     22.211988     38.164408
  H      40.237909     22.745594     38.271842
  C      41.450908     21.094609     39.141342
  H      41.987031     21.549792     40.010398
  O      40.251790     20.489117     39.582110
  H      40.530583     19.800235     40.210934
  C      44.622510     22.526189     36.445785
  O      45.707849     21.914153     36.519081
  O      44.322512     23.572422     35.826490
  N      40.832000     18.750000     42.551000
25
Coordinates from ORCA-job job E -836.672578671812
  C      44.574373     20.088111     40.814321
  H      45.142838     20.401484     39.939605
  H      44.963632     20.293238     41.812032
  C      43.376245     19.489515     40.705979
  C      42.627762     19.160740     41.961420
  O      43.107202     19.108299     43.077374
  O      41.322541     18.947277     41.758456
  O      42.751662     19.123761     39.563875
  C      42.407946     20.121670     38.562964
  H      41.826146     19.524125     37.834108
  C      43.575680     20.769976     37.884357
  H      44.514756     20.230369     37.743777
  C      43.441181     21.975995     37.301431
  C      42.147241     22.668972     37.372473
  H      42.049337     23.538487     36.719036
  C      41.181086     22.264958     38.215690
  H      40.227580     22.790610     38.327509
  C      41.449038     21.137552     39.177199
  H      41.979933     21.584783     40.053510
  O      40.252974     20.518620     39.605496
  H      40.534457     19.824230     40.225941
  C      44.612455     22.623204     36.507401
  O      45.702704     22.022409     36.577916
  O      44.303648     23.669412     35.896176
  N      40.832000     18.750000     42.551000
25
Coordinates from ORCA-job job E -836.672604655970
  C      44.569131     20.078399     40.794803
  H      45.136626     20.386606     39.916883
  H      44.962456     20.284799     41.791027
  C      43.367317     19.485728     40.693522
  C      42.622821     19.163259     41.953667
  O      43.106090     19.116030     43.068440
  O      41.316829     18.948086     41.756252
  O      42.737626     19.118341     39.554577
  C      42.392752     20.115123     38.551431
  H      41.807326     19.517184     37.825781
  C      43.560509     20.759622     37.866898
  H      44.499488     20.217809     37.727180
  C      43.426803     21.965016     37.280166
  C      42.132980     22.660344     37.351870
  H      42.034571     23.528061     36.695226
  C      41.167986     22.260738     38.200211
  H      40.215086     22.788471     38.312824
  C      41.437349     21.135982     39.166120
  H      41.971996     21.585591     40.038768
  O      40.241609     20.520496     39.601948
  H      40.524358     19.827365     40.224325
  C      44.599024     22.608999     36.483086
  O      45.688356     22.004034     36.552250
  O      44.292334     23.657580     35.871906
  N      40.832000     18.750000     42.551000
25
Coordinates from ORCA-job job E -836.672605927320
  C      44.577535     20.056801     40.796948
  H      45.148472     20.358188     39.918660
  H      44.969077     20.267320     41.793129
  C      43.373734     19.468084     40.695815
  C      42.624884     19.155120     41.955926
  O      43.105246     19.112201     43.072007
  O      41.318561     18.943291     41.756549
  O      42.745798     19.097052     39.557134
  C      42.407280     20.090297     38.547918
  H      41.822093     19.490981     37.823432
  C      43.579221     20.727921     37.863825
  H      44.516971     20.182301     37.729069
  C      43.451624     21.931375     37.271578
  C      42.159977     22.631613     37.336482
  H      42.066871     23.497001     36.676100
  C      41.190775     22.238812     38.183517
  H      40.239589     22.770352     38.291363
  C      41.453391     21.117297     39.155334
  H      41.986755     21.569203     40.027591
  O      40.254390     20.507656     39.590454
  H      40.533058     19.816602     40.217079
  C      44.628691     22.567353     36.474832
  O      45.715661     21.958367     36.550479
  O      44.327654     23.614168     35.857179
  N      40.832000     18.750000     42.551000
25
Coordinates from ORCA-job job E -836.672606021313
  C      44.589127     20.035717     40.805537
  H      45.164441     20.331531     39.928168
  H      44.977872     20.248490     41.802318
  C      43.383434     19.451147     40.702204
  C      42.628771     19.145784     41.960794
  O      43.104920     19.105182     43.078803
  O      41.322311     18.938299     41.757505
  O      42.758170     19.078304     39.562641
  C      42.426850     20.069048     38.548587
  H      41.842409     19.469093     37.824003
  C      43.603465     20.700298     37.866509
  H      44.539969     20.151165     37.737227
  C      43.481730     21.901778     37.268859
  C      42.192018     22.606366     37.326184
  H      42.103928     23.469386     36.661867
  C      41.218530     22.220017     38.171312
  H      40.268516     22.754959     38.273487
  C      41.473996     21.101424     39.148528
  H      42.005523     21.555003     40.021069
  O      40.271354     20.497342     39.581495
  H      40.545364     19.807701     40.211763
  C      44.663567     22.530650     36.473415
  O      45.748504     21.918924     36.555733
  O      44.367741     23.575373     35.849778
  N      40.832000     18.750000     42.551000
25
Coordinates from ORCA-job job E -836.672600083701
  C      44.579081     20.077731     40.808891
  H      45.150177     20.386849     39.932595
  H      44.969623     20.282851     41.805927
  C      43.376896     19.484668     40.703017
  C      42.626671     19.161639     41.960691
  O      43.106101     19.111056     43.076682
  O      41.320816     18.951973     41.758923
  O      42.750420     19.119378     39.562302
  C      42.415002     20.115325     38.555090
  H      41.830624     19.517675     37.828706
  C      43.587933     20.754547     37.873462
  H      44.526910     20.210481     37.741671
  C      43.458476     21.957400     37.278409
  C      42.165148     22.655159     37.339651
  H      42.071877     23.519073     36.676564
  C      41.196615     22.262080     38.187535
  H      40.244633     22.792102     38.293182
  C      41.460765     21.142715     39.162576
  H      41.994068     21.597372     40.033689
  O      40.262811     20.532131     39.599428
  H      40.541262     19.837591     40.221538
  C      44.635033     22.596512     36.482740
  O      45.723716     21.992556     36.562090
  O      44.331468     23.640543     35.861966
  N      40.832000     18.750000     42.551000
25
Coordinates from ORCA-job job E -836.672606423232
  C      44.576479     20.069170     40.803387
  H      45.147246     20.374922     39.926399
  H      44.967103     20.277206     41.800373
  C      43.374124     19.477688     40.699616
  C      42.625004     19.159129     41.958291
  O      43.104825     19.112627     43.074502
  O      41.319002     18.947014     41.757454
  O      42.747365     19.108931     39.559599
  C      42.408994     20.103924     38.552141
  H      41.824761     19.505530     37.826087
  C      43.580897     20.743810     37.870030
  H      44.519366     20.199412     37.735458
  C      43.452206     21.947987     37.279182
  C      42.159625     22.646601     37.344004
  H      42.065974     23.512704     36.684446
  C      41.190494     22.251594     38.190100
  H      40.238590     22.781975     38.297879
  C      41.453874     21.129101     39.160748
  H      41.986502     21.580434     40.033796
  O      40.255333     20.517600     39.594588
  H      40.534236     19.825136     40.219494
  C      44.629049     22.586823     36.484313
  O      45.717030     21.979988     36.560687
  O      44.326742     23.633488     35.867195
  N      40.832000     18.750000     42.551000
25
Coordinates from ORCA-job job E -836.672606391468
  C      44.583919     20.056917     40.810721
  H      45.157588     20.359670     39.934553
  H      44.972313     20.266605     41.808236
  C      43.380837     19.467267     40.704935
  C      42.627589     19.153155     41.962243
  O      43.104297     19.107523     43.079736
  O      41.321575     18.944207     41.758360
  O      42.756539     19.097139     39.564101
  C      42.423192     20.090450     38.553381
  H      41.840128     19.491561     37.826869
  C      43.598354     20.726773     37.873629
  H      44.536179     20.180380     37.742941
  C      43.473766     21.929899     37.279911
  C      42.182422     22.631078     37.339309
  H      42.092479     23.495923     36.677665
  C      41.209921     22.239604     38.183108
  H      40.258790     22.771964     38.286945
  C      41.468150     21.118681     39.156877
  H      41.998812     21.570890     40.030661
  O      40.267129     20.510331     39.588155
  H      40.542755     19.818891     40.215611
  C      44.654192     22.564450     36.486935
  O      45.741069     21.956471     36.569296
  O      44.355274     23.609113     35.864799
  N      40.832000     18.750000     42.551000
25
Coordinates from ORCA-job job E -836.672606215366
  C      44.575769     20.083611     40.814527
  H      45.146812     20.395016     39.939414
  H      44.964204     20.289844     41.812781
  C      43.375944     19.487600     40.706610
  C      42.625254     19.162818     41.962888
  O      43.103294     19.111055     43.079419
  O      41.319537     18.951738     41.759103
  O      42.752448     19.120402     39.564537
  C      42.415039     20.117061     38.558449
  H      41.834066     19.519336     37.829425
  C      43.587658     20.761241     37.881717
  H      44.527521     20.218950     37.748486
  C      43.458799     21.967100     37.294609
  C      42.164936     22.663220     37.357775
  H      42.071997     23.531139     36.700679
  C      41.193852     22.263671     38.199460
  H      40.241023     22.792104     38.306374
  C      41.456408     21.138785     39.167454
  H      41.985651     21.588516     40.043325
  O      40.257829     20.523772     39.595994
  H      40.536220     19.830514     40.220271
  C      44.637026     22.610077     36.505131
  O      45.726866     22.007368     36.587521
  O      44.333513     23.654925     35.885266
  N      40.832000     18.750000     42.551000
25
Coordinates from ORCA-job job E -836.672606533060
  C      44.584100     20.071404     40.823786
  H      45.158604     20.379797     39.950047
  H      44.969796     20.278442     41.822988
  C      43.383216     19.478180     40.713105
  C      42.627835     19.157463     41.967551
  O      43.102359     19.106454     43.085787
  O      41.322182     18.949176     41.760114
  O      42.762311     19.110346     39.569597
  C      42.430289     20.105836     38.560473
  H      41.850234     19.507959     37.830703
  C      43.606405     20.745925     37.885749
  H      44.545618     20.201328     37.756847
  C      43.481580     21.950528     37.295016
  C      42.188796     22.649385     37.352582
  H      42.099291     23.515747     36.692900
  C      41.214534     22.254104     38.192670
  H      40.262289     22.784744     38.295418
  C      41.471921     21.130931     39.164193
  H      41.999497     21.581436     40.040736
  O      40.270564     20.519552     39.590435
  H      40.545397     19.826995     40.217167
  C      44.663177     22.589089     36.507039
  O      45.751808     21.984871     36.594324
  O      44.363347     23.632670     35.883485
  N      40.832000     18.750000     42.551000
25
Coordinates from ORCA-job job E -836.672605176952
  C      44.581598     20.069540     40.814715
  H      45.154462     20.376092     39.939886
  H      44.969727     20.275812     41.812997
  C      43.379173     19.479198     40.707072
  C      42.627199     19.158756     41.963200
  O      43.104667     19.110136     43.080533
  O      41.321693     18.947241     41.758872
  O      42.754717     19.112367     39.564960
  C      42.418975     20.108418     38.557860
  H      41.835633     19.510960     37.830147
  C      43.592543     20.747707     37.877959
  H      44.531130     20.203059     37.745684
  C      43.464825     21.951536     37.286009
  C      42.172070     22.650286     37.348094
  H      42.079038     23.515797     36.687447
  C      41.201876     22.256303     38.193336
  H      40.249403     22.786806     38.298971
  C      41.463277     21.133906     39.164608
  H      41.994694     21.584809     40.038649
  O      40.263466     20.523177     39.596302
  H      40.540710     19.830093     40.221272
  C      44.642913     22.590048     36.492884
  O      45.730999     21.983866     36.571427
  O      44.341502     23.636215     35.874966
  N      40.832000     18.750000     42.551000
25
Coordinates from ORCA-job job E -836.672606288351
  C      44.572744     20.079090     40.805705
  H      45.142804     20.388475     39.929288
  H      44.962888     20.286264     41.803233
  C      43.372224     19.484127     40.700610
  C      42.623292     19.162356     41.958765
  O      43.103020     19.113510     43.074923
  O      41.317147     18.950541     41.757607
  O      42.746449     19.115596     39.559844
  C      42.407636     20.111286     38.552869
  H      41.825005     19.512906     37.825544
  C      43.579193     20.753798     37.872529
  H      44.518571     20.210575     37.738157
  C      43.449485     21.958835     37.283594
  C      42.155936     22.655736     37.348698
  H      42.062089     23.522923     36.690878
  C      41.186370     22.257971     38.193122
  H      40.234072     22.787185     38.301336
  C      41.450457     21.134218     39.162387
  H      41.981659     21.584824     40.036757
  O      40.252356     20.520295     39.594035
  H      40.531519     19.827412     40.218525
  C      44.625866     22.600202     36.490143
  O      45.715093     21.995833     36.568319
  O      44.322007     23.646090     35.872394
  N      40.832000     18.750000     42.551000
25
Coordinates from ORCA-job job E -836.672605683908
  C      44.577439     20.075088     40.811060
  H      45.148699     20.383819     39.935084
  H      44.966540     20.282880     41.808705
  C      43.376560     19.480850     40.704712
  C      42.625653     19.159641     41.961804
  O      43.103886     19.109311     43.078214
  O      41.319649     18.949913     41.758745
  O      42.752409     19.112402     39.563515
  C      42.415694     20.107648     38.555882
  H      41.834161     19.509246     37.828004
  C      43.588791     20.749923     37.878151
  H      44.528243     20.206771     37.745818
  C      43.460902     21.954846     37.289033
  C      42.167617     22.651988     37.350959
  H      42.075267     23.518705     36.692198
  C      41.196278     22.254573     38.193350
  H      40.243832     22.783738     38.299390
  C      41.458017     21.131271     39.163278
  H      41.987660     21.582209     40.038258
  O      40.259004     20.518038     39.593054
  H      40.536913     19.825800     40.218644
  C      44.639713     22.595322     36.498302
  O      45.729288     21.992100     36.582754
  O      44.336823     23.638709     35.875387
  N      40.832000     18.750000     42.551000
25
Coordinates from ORCA-job job E -836.672606690758
  C      44.578418     20.076153     40.814057
  H      45.150270     20.385052     39.938849
  H      44.966680     20.283116     41.812209
  C      43.377495     19.482477     40.706525
  C      42.626031     19.160359     41.962873
  O      43.103729     19.110080     43.079747
  O      41.320321     18.949576     41.758919
  O      42.753795     19.114801     39.564548
  C      42.417180     20.110702     38.557462
  H      41.835550     19.512675     37.829095
  C      43.590284     20.752825     37.879494
  H      44.529694     20.209566     37.747054
  C      43.462002     21.957670     37.290041
  C      42.168558     22.654831     37.352246
  H      42.075760     23.521561     36.693450
  C      41.197593     22.257717     38.195200
  H      40.244912     22.786966     38.301310
  C      41.459460     21.134129     39.164952
  H      41.989248     21.584629     40.040139
  O      40.260264     20.520924     39.594570
  H      40.538022     19.828132     40.219675
  C      44.640340     22.598529     36.499021
  O      45.729597     21.994770     36.580876
  O      44.337619     23.643248     35.878808
  N      40.832000     18.750000     42.551000
25
Coordinates from ORCA-job job E -836.672606730702
  C      44.578753     20.077133     40.815489
  H      45.150813     20.386339     39.940551
  H      44.966630     20.283939     41.813830
  C      43.377947     19.483314     40.707437
  C      42.626177     19.160705     41.963467
  O      43.103618     19.110044     43.080449
  O      41.320519     18.949871     41.759116
  O      42.754642     19.115805     39.565181
  C      42.418135     20.111870     38.558227
  H      41.836765     19.513917     37.829578
  C      43.591315     20.754289     37.880642
  H      44.530891     20.211229     37.748440
  C      43.462935     21.959173     37.291260
  C      42.169338     22.656091     37.353247
  H      42.076498     23.522870     36.694508
  C      41.198276     22.258745     38.195996
  H      40.245463     22.787813     38.301990
  C      41.460091     21.135038     39.165630
  H      41.989572     21.585472     40.041042
  O      40.260877     20.521569     39.594834
  H      40.538568     19.828725     40.219900
  C      44.641328     22.600328     36.500578
  O      45.730746     21.996871     36.582812
  O      44.338514     23.644959     35.880236
  N      40.832000     18.750000     42.551000
