24
Coordinates from ORCA-job neb_NEB-CI_converged.QMRegion
  C          42.78511261839487     15.25792469164711     60.67838214760065
  H          43.38986122644904     14.35588411717259     60.61169124026598
  H          43.22985185864226     16.16933137968683     61.07545329207981
  C          41.39713392354488     15.18471237923926     60.58107686003427
  C          40.53928693417400     16.43080731796708     60.91158770613733
  O          41.11720026269460     17.44400787102425     61.38256356221407
  O          39.30395770676336     16.37008277894272     60.71553740953581
  O          40.81506550060005     14.14798330785816     60.12039757272183
  C          41.06278147885610     14.13635595052524     57.93957277074402
  H          40.52248812801241     13.19924084669892     57.79694597790912
  C          42.44336991399647     14.13665437596867     58.00599663053634
  H          42.99864721541113     13.19880163035325     58.06431078831860
  C          43.13496860204374     15.33681438216098     58.21895044266243
  C          42.42194212511338     16.60371084105191     58.03436088500389
  H          43.00814686406041     17.51893779368548     58.10785818114512
  C          41.09655804440135     16.63141714360212     57.82373026146855
  H          40.56853907446423     17.58439902220554     57.75731719551747
  C          40.26292227200479     15.38865964736005     57.67379618660429
  H          39.44452281001296     15.42320496515007     58.41122136903976
  O          39.73460667157348     15.30696271152726     56.35510105595485
  H          38.83155695135466     15.75637760106187     56.35484026450755
  C          44.66504020301408     15.33253368610353     58.14944370449851
  O          45.29327103176748     14.34079518584542     58.60371593543360
  O          45.20185234028632     16.33152284248717     57.61258907130870
