24
Coordinates from ORCA-job neb_initial_path.QMRegion E   0.000000000000
  C      42.553000     15.330000     61.203000
  H      43.194000     14.471000     61.000000
  H      42.937000     16.154000     61.803000
  C      41.308000     15.408000     60.719000
  C      40.409000     16.597000     61.027000
  O      40.960000     17.636000     61.475000
  O      39.176000     16.492000     60.838000
  O      40.772000     14.385000     59.959000
  C      41.034000     14.417000     58.508000
  H      40.492000     13.540000     58.123000
  C      42.512000     14.286000     58.278000
  H      42.984000     13.314000     58.443000
  C      43.274000     15.371000     58.024000
  C      42.638000     16.686000     57.869000
  H      43.306000     17.540000     57.774000
  C      41.305000     16.843000     57.887000
  H      40.871000     17.846000     57.845000
  C      40.369000     15.664000     57.893000
  H      39.499000     15.880000     58.532000
  O      39.944000     15.386000     56.566000
  H      39.008000     15.740000     56.469000
  C      44.800000     15.323000     58.013000
  O      45.389000     14.329000     58.515000
  O      45.377000     16.338000     57.549000
24
Coordinates from ORCA-job neb_initial_path.QMRegion E   0.000000000000
  C      42.595057     15.300451     61.098719
  H      43.238455     14.446606     60.882506
  H      43.000240     16.146263     61.655885
  C      41.331908     15.362892     60.660688
  C      40.438292     16.553478     60.995632
  O      40.993167     17.586531     61.452486
  O      39.203441     16.458068     60.812080
  O      40.777175     14.337647     59.915129
  C      41.020708     14.363494     58.461814
  H      40.487203     13.479994     58.084281
  C      42.498020     14.253795     58.223824
  H      42.981049     13.282741     58.359027
  C      43.248129     15.356624     58.021096
  C      42.593862     16.666410     57.895622
  H      43.245429     17.537765     57.843839
  C      41.257262     16.799721     57.879843
  H      40.806531     17.794578     57.837741
  C      40.337731     15.606911     57.861403
  H      39.470572     15.799316     58.511402
  O      39.904248     15.352306     56.532207
  H      38.977433     15.733693     56.443394
  C      44.773813     15.324839     58.024799
  O      45.367550     14.336087     58.534829
  O      45.348063     16.341786     57.559229
24
Coordinates from ORCA-job neb_initial_path.QMRegion E   0.000000000000
  C      42.634161     15.272628     60.996692
  H      43.277664     14.421572     60.769816
  H      43.057036     16.139396     61.507988
  C      41.353957     15.319946     60.606716
  C      40.467781     16.511987     60.962760
  O      41.026957     17.538115     61.429907
  O      39.231012     16.424908     60.785344
  O      40.783317     14.292170     59.874886
  C      41.009690     14.311611     58.414450
  H      40.483383     13.419832     58.046914
  C      42.485515     14.223208     58.167707
  H      42.980650     13.254556     58.273376
  C      43.222181     15.343515     58.017813
  C      42.548817     16.646625     57.920129
  H      43.183876     17.531666     57.912229
  C      41.210619     16.756752     57.871142
  H      40.741658     17.743065     57.825936
  C      40.307626     15.551904     57.829022
  H      39.443861     15.720910     58.490238
  O      39.866196     15.321011     56.498795
  H      38.949141     15.727185     56.419619
  C      44.746515     15.326381     58.037497
  O      45.343199     14.342367     58.554581
  O      45.317377     16.343785     57.569992
24
Coordinates from ORCA-job neb_initial_path.QMRegion E   0.000000000000
  C      42.676989     15.243107     60.883782
  H      43.319411     14.392429     60.652425
  H      43.117444     16.133258     61.336896
  C      41.378589     15.272564     60.552063
  C      40.501842     16.467319     60.925691
  O      41.066583     17.484832     61.405215
  O      39.262796     16.388134     60.756040
  O      40.790988     14.241503     59.837602
  C      41.000759     14.255113     58.354098
  H      40.481642     13.352241     58.001817
  C      42.472920     14.191986     58.103041
  H      42.981610     13.227655     58.178705
  C      43.192474     15.330780     58.020130
  C      42.497271     16.624603     57.948499
  H      43.112334     17.522500     57.990556
  C      41.159109     16.710131     57.860502
  H      40.669683     17.685618     57.808630
  C      40.275324     15.493006     57.791032
  H      39.416511     15.632454     58.465895
  O      39.822953     15.289221     56.460766
  H      38.917031     15.721545     56.394379
  C      44.714571     15.327993     58.054902
  O      45.314181     14.348183     58.577665
  O      45.281557     16.344934     57.583606
24
Coordinates from ORCA-job neb_initial_path.QMRegion E   0.000000000000
  C      42.715075     15.224805     60.786762
  H      43.353748     14.368168     60.570217
  H      43.174231     16.135370     61.175838
  C      41.398977     15.231934     60.516515
  C      40.530254     16.432050     60.899309
  O      41.100886     17.443072     61.386025
  O      39.289170     16.362090     60.733279
  O      40.801702     14.196771     59.824489
  C      40.998207     14.205733     58.283993
  H      40.484429     13.291568     57.951160
  C      42.461652     14.167464     58.051339
  H      42.983298     13.209144     58.102476
  C      43.163742     15.322186     58.047698
  C      42.452970     16.608290     57.981992
  H      43.051723     17.515337     58.057628
  C      41.117584     16.671613     57.849146
  H      40.611232     17.636967     57.785683
  C      40.252014     15.444211     57.753290
  H      39.401753     15.551082     58.443382
  O      39.784308     15.274472     56.423526
  H      38.884016     15.723832     56.372767
  C      44.684326     15.328044     58.081570
  O      45.291214     14.349570     58.598063
  O      45.244697     16.342413     57.599012
24
Coordinates from ORCA-job neb_initial_path.QMRegion E   0.000000000000
  C      42.750496     15.232886     60.707465
  H      43.373368     14.353065     60.550830
  H      43.220522     16.150045     61.062188
  C      41.405290     15.204124     60.527963
  C      40.543812     16.420782     60.897825
  O      41.118744     17.432002     61.379245
  O      39.302542     16.358071     60.725672
  O      40.809048     14.166285     59.916340
  C      41.013116     14.171685     58.154495
  H      40.487657     13.245210     57.893852
  C      42.447824     14.153324     58.023954
  H      42.980668     13.202319     58.072989
  C      43.139839     15.324413     58.129186
  C      42.428987     16.606017     58.017174
  H      43.023283     17.516463     58.091518
  C      41.099872     16.653282     57.837432
  H      40.584843     17.612576     57.762402
  C      40.247614     15.419355     57.718666
  H      39.410999     15.494756     58.428049
  O      39.758526     15.287104     56.391003
  H      38.854790     15.736584     56.358913
  C      44.663493     15.327383     58.122869
  O      45.283357     14.343904     58.609639
  O      45.210901     16.333328     57.610374
24
Coordinates from ORCA-job neb_initial_path.QMRegion E   0.000000000000
  C      42.786591     15.249322     60.626580
  H      43.382636     14.341664     60.560615
  H      43.246557     16.160489     61.003334
  C      41.398110     15.185311     60.557720
  C      40.544541     16.424183     60.905627
  O      41.126727     17.434047     61.377702
  O      39.306289     16.360997     60.726428
  O      40.808522     14.151101     60.092580
  C      41.041346     14.151579     57.978862
  H      40.490528     13.219728     57.845900
  C      42.425981     14.141801     58.010763
  H      42.974613     13.200258     58.070797
  C      43.123583     15.335796     58.227560
  C      42.420572     16.609812     58.036187
  H      43.015300     17.520041     58.102697
  C      41.096467     16.647076     57.827728
  H      40.578418     17.604392     57.748676
  C      40.253392     15.408366     57.691757
  H      39.426516     15.464634     58.418601
  O      39.743403     15.304606     56.368217
  H      38.837224     15.747559     56.351798
  C      44.653577     15.328257     58.154572
  O      45.282020     14.338700     58.613133
  O      45.190849     16.325075     57.614451
24
Coordinates from ORCA-job neb_initial_path.QMRegion E   0.000000000000
  C      42.828653     15.267389     60.464484
  H      43.382256     14.332962     60.569214
  H      43.258798     16.157094     60.938626
  C      41.393638     15.177153     60.546705
  C      40.543870     16.424682     60.910606
  O      41.135105     17.427844     61.379716
  O      39.307294     16.360540     60.733491
  O      40.804003     14.143937     60.185091
  C      41.059568     14.141466     57.898987
  H      40.497806     13.210619     57.806964
  C      42.411957     14.135972     58.022891
  H      42.970155     13.198306     58.077180
  C      43.110687     15.348414     58.380199
  C      42.414641     16.615592     58.060448
  H      43.010767     17.526033     58.111218
  C      41.097473     16.644087     57.823713
  H      40.579070     17.601143     57.731043
  C      40.256323     15.401170     57.683422
  H      39.430063     15.451627     58.415362
  O      39.738120     15.313961     56.362086
  H      38.831990     15.753047     56.350916
  C      44.647185     15.331583     58.187994
  O      45.285489     14.335363     58.616495
  O      45.172840     16.316668     57.616165
24
Coordinates from ORCA-job neb_initial_path.QMRegion E   0.000000000000
  C      42.869782     15.276209     60.267320
  H      43.373201     14.340364     60.560835
  H      43.268319     16.141717     60.832235
  C      41.391785     15.168698     60.515696
  C      40.548822     16.421817     60.914053
  O      41.149688     17.416426     61.385595
  O      39.314359     16.354967     60.742132
  O      40.804358     14.130131     60.282094
  C      41.078035     14.132753     57.833099
  H      40.517226     13.201243     57.737977
  C      42.405550     14.131489     58.038436
  H      42.968352     13.195957     58.081019
  C      43.098023     15.356890     58.548229
  C      42.405762     16.615632     58.100385
  H      42.996706     17.530653     58.131849
  C      41.097494     16.634396     57.822736
  H      40.577977     17.589347     57.704832
  C      40.259773     15.388886     57.668728
  H      39.437003     15.424803     58.408129
  O      39.728699     15.325560     56.351466
  H      38.822228     15.763256     56.349494
  C      44.635277     15.334348     58.224439
  O      45.286440     14.334289     58.624786
  O      45.144392     16.307854     57.619455
24
Coordinates from ORCA-job neb_initial_path.QMRegion E   0.000000000000
  C      42.885000     15.258000     60.167000
  H      43.422000     14.364000     60.518000
  H      43.291000     16.162000     60.639000
  C      41.424000     15.123000     60.544000
  C      40.588000     16.382000     60.944000
  O      41.206000     17.359000     61.423000
  O      39.350000     16.322000     60.788000
  O      40.875000     14.037000     60.517000
  C      41.175000     14.130000     57.518000
  H      40.706000     13.219000     57.152000
  C      42.430000     14.130000     57.973000
  H      43.022000     13.212000     58.002000
  C      43.067000     15.349000     58.592000
  C      42.357000     16.611000     58.167000
  H      42.893000     17.550000     58.310000
  C      41.084000     16.600000     57.765000
  H      40.546000     17.538000     57.618000
  C      40.295000     15.345000     57.499000
  H      39.533000     15.235000     58.299000
  O      39.662000     15.408000     56.233000
  H      38.768000     15.864000     56.330000
  C      44.599000     15.348000     58.253000
  O      45.271000     14.362000     58.662000
  O      45.081000     16.313000     57.620000
