24
Coordinates from ORCA-job neb_MEP.QMRegion E -1075.797996181230
  C      42.553000     15.330000     61.203000
  H      43.194000     14.471000     61.000000
  H      42.937000     16.154000     61.803000
  C      41.308000     15.408000     60.719000
  C      40.409000     16.597000     61.027000
  O      40.960000     17.636000     61.475000
  O      39.176000     16.492000     60.838000
  O      40.772000     14.385000     59.959000
  C      41.034000     14.417000     58.508000
  H      40.492000     13.540000     58.123000
  C      42.512000     14.286000     58.278000
  H      42.984000     13.314000     58.443000
  C      43.274000     15.371000     58.024000
  C      42.638000     16.686000     57.869000
  H      43.306000     17.540000     57.774000
  C      41.305000     16.843000     57.887000
  H      40.871000     17.846000     57.845000
  C      40.369000     15.664000     57.893000
  H      39.499000     15.880000     58.532000
  O      39.944000     15.386000     56.566000
  H      39.008000     15.740000     56.469000
  C      44.800000     15.323000     58.013000
  O      45.389000     14.329000     58.515000
  O      45.377000     16.338000     57.549000
24
Coordinates from ORCA-job neb_MEP.QMRegion E -1075.801899207696
  C      42.587017     15.252397     61.134961
  H      43.228209     14.398393     60.913173
  H      42.980998     16.072834     61.734310
  C      41.334799     15.334842     60.671333
  C      40.443732     16.526355     61.001662
  O      41.002695     17.559638     61.452731
  O      39.208482     16.427387     60.822582
  O      40.783512     14.319195     59.911557
  C      41.021717     14.360278     58.454678
  H      40.483724     13.480230     58.073865
  C      42.498255     14.248445     58.210692
  H      42.979663     13.278073     58.356547
  C      43.248861     15.347816     57.992080
  C      42.596012     16.657624     57.862162
  H      43.251808     17.524446     57.794279
  C      41.259949     16.796964     57.873005
  H      40.812194     17.793423     57.847055
  C      40.337306     15.606521     57.862855
  H      39.472167     15.801305     58.514742
  O      39.899177     15.342514     56.536498
  H      38.975770     15.728652     56.443624
  C      44.775287     15.316844     57.999140
  O      45.367998     14.325590     58.505233
  O      45.350111     16.340051     57.548071
24
Coordinates from ORCA-job neb_MEP.QMRegion E -1075.801045466147
  C      42.657165     15.173548     60.959259
  H      43.304377     14.337000     60.694596
  H      43.070390     16.007784     61.524756
  C      41.380700     15.240284     60.563149
  C      40.504161     16.434766     60.929214
  O      41.073094     17.448564     61.410212
  O      39.267412     16.359404     60.742765
  O      40.804833     14.223659     59.822148
  C      40.998330     14.250887     58.347394
  H      40.472498     13.351955     57.996026
  C      42.469457     14.181868     58.075775
  H      42.976503     13.218500     58.168784
  C      43.191768     15.313515     57.940376
  C      42.497587     16.607956     57.863313
  H      43.122073     17.500797     57.868187
  C      41.156574     16.700437     57.842262
  H      40.669066     17.678248     57.846245
  C      40.269541     15.483820     57.788719
  H      39.410111     15.632041     58.459487
  O      39.817147     15.251080     56.462661
  H      38.918311     15.690353     56.381974
  C      44.718095     15.316134     57.987637
  O      45.314667     14.334048     58.510043
  O      45.288839     16.348162     57.554266
24
Coordinates from ORCA-job neb_MEP.QMRegion E -1075.792761042201
  C      42.713893     15.215412     60.812087
  H      43.368185     14.373810     60.588385
  H      43.156639     16.119546     61.232424
  C      41.405431     15.220996     60.508270
  C      40.533768     16.422530     60.890915
  O      41.103975     17.431099     61.383889
  O      39.295042     16.360723     60.709164
  O      40.821142     14.186534     59.799022
  C      41.010480     14.182139     58.263660
  H      40.510064     13.260691     57.928068
  C      42.473071     14.156031     58.025819
  H      43.004444     13.202524     58.060342
  C      43.164358     15.316423     58.031088
  C      42.438709     16.595967     57.975131
  H      43.027244     17.509329     58.062727
  C      41.102078     16.646245     57.844353
  H      40.581221     17.605321     57.801844
  C      40.248842     15.411672     57.735511
  H      39.403005     15.497365     58.431195
  O      39.767080     15.256901     56.408708
  H      38.873047     15.718880     56.368353
  C      44.686288     15.330890     58.066675
  O      45.296830     14.353334     58.582322
  O      45.245518     16.350770     57.595319
24
Coordinates from ORCA-job neb_MEP.QMRegion E -1075.781113709875
  C      42.740879     15.233212     60.768000
  H      43.379036     14.367457     60.593507
  H      43.194591     16.149551     61.147549
  C      41.405505     15.204874     60.537093
  C      40.539593     16.424303     60.898879
  O      41.110983     17.436580     61.383335
  O      39.301055     16.364557     60.710552
  O      40.820262     14.168505     59.901783
  C      41.029130     14.159472     58.143067
  H      40.515587     13.227338     57.872335
  C      42.466703     14.149093     58.011628
  H      43.005280     13.201426     58.059404
  C      43.151760     15.322446     58.104305
  C      42.428707     16.598442     58.009663
  H      43.014756     17.513630     58.091681
  C      41.097368     16.637955     57.837933
  H      40.572359     17.592784     57.775623
  C      40.252988     15.400700     57.708699
  H      39.420607     15.460220     58.423080
  O      39.751885     15.280699     56.383865
  H      38.853190     15.739217     56.361944
  C      44.675598     15.330282     58.106909
  O      45.295116     14.347975     58.597662
  O      45.224052     16.342154     57.607403
24
Coordinates from ORCA-job neb_MEP.QMRegion E -1075.774718128281
  C      42.760764     15.244868     60.734640
  H      43.383837     14.362125     60.601413
  H      43.212016     16.160283     61.115111
  C      41.400182     15.193197     60.563033
  C      40.539455     16.427935     60.905452
  O      41.113301     17.441594     61.382545
  O      39.302402     16.368412     60.711850
  O      40.816779     14.159810     60.016622
  C      41.047362     14.146847     58.031070
  H      40.517163     13.210711     57.837807
  C      42.454991     14.142424     58.004280
  H      43.002251     13.200080     58.060444
  C      43.143640     15.328933     58.153310
  C      42.425823     16.600641     58.020069
  H      43.011889     17.515822     58.099113
  C      41.096712     16.634757     57.831217
  H      40.570212     17.588730     57.767414
  C      40.257968     15.394874     57.691062
  H      39.433012     15.441334     58.417838
  O      39.743261     15.293934     56.368560
  H      38.841808     15.747120     56.358153
  C      44.670724     15.331201     58.126439
  O      45.293447     14.344149     58.600002
  O      45.213765     16.337224     57.609419
24
Coordinates from ORCA-job neb_MEP.QMRegion E -1075.773217556225
  C      42.785113     15.257925     60.678382
  H      43.389861     14.355884     60.611691
  H      43.229852     16.169331     61.075453
  C      41.397134     15.184712     60.581077
  C      40.539287     16.430807     60.911588
  O      41.117200     17.444008     61.382564
  O      39.303958     16.370083     60.715537
  O      40.815066     14.147983     60.120398
  C      41.062781     14.136356     57.939573
  H      40.522488     13.199241     57.796946
  C      42.443370     14.136654     58.005997
  H      42.998647     13.198802     58.064311
  C      43.134969     15.336814     58.218950
  C      42.421942     16.603711     58.034361
  H      43.008147     17.518938     58.107858
  C      41.096558     16.631417     57.823730
  H      40.568539     17.584399     57.757317
  C      40.262922     15.388660     57.673796
  H      39.444523     15.423205     58.411221
  O      39.734607     15.306963     56.355101
  H      38.831557     15.756378     56.354840
  C      44.665040     15.332534     58.149444
  O      45.293271     14.340795     58.603716
  O      45.201852     16.331523     57.612589
24
Coordinates from ORCA-job neb_MEP.QMRegion E -1075.777873541265
  C      42.824829     15.275921     60.518259
  H      43.390026     14.349240     60.618546
  H      43.244407     16.165460     60.998655
  C      41.393957     15.180103     60.569095
  C      40.539525     16.432019     60.914129
  O      41.125890     17.438256     61.385087
  O      39.305555     16.367084     60.724484
  O      40.812707     14.138837     60.214002
  C      41.080299     14.129232     57.867928
  H      40.533718     13.192993     57.748263
  C      42.429639     14.132624     58.023226
  H      42.993340     13.198407     58.073931
  C      43.120961     15.348024     58.369936
  C      42.414786     16.609457     58.064959
  H      43.002525     17.525250     58.117898
  C      41.098134     16.627980     57.819848
  H      40.570193     17.580084     57.735568
  C      40.266643     15.382030     57.663089
  H      39.450773     15.408701     58.405778
  O      39.728678     15.317059     56.347537
  H      38.825262     15.763484     56.353510
  C      44.656388     15.333654     58.186119
  O      45.296903     14.336675     58.610063
  O      45.179210     16.321862     57.617128
24
Coordinates from ORCA-job neb_MEP.QMRegion E -1075.795608901577
  C      42.864704     15.287578     60.320761
  H      43.378732     14.360811     60.611158
  H      43.256184     16.153207     60.886181
  C      41.393108     15.180326     60.541746
  C      40.542533     16.432959     60.918507
  O      41.136340     17.430819     61.391901
  O      39.309182     16.363724     60.736953
  O      40.811341     14.129881     60.308669
  C      41.100676     14.125498     57.810665
  H      40.553150     13.189653     57.681940
  C      42.420746     14.130859     58.050804
  H      42.989907     13.198269     58.089760
  C      43.107752     15.358453     58.550368
  C      42.408408     16.612910     58.110829
  H      42.994750     17.531952     58.136334
  C      41.103004     16.622060     57.822235
  H      40.576483     17.572710     57.706290
  C      40.271888     15.374562     57.653911
  H      39.458206     15.391164     58.402105
  O      39.723831     15.329104     56.342420
  H      38.820068     15.773168     56.354319
  C      44.645178     15.336330     58.228644
  O      45.299715     14.334711     58.620973
  O      45.150286     16.310730     57.622806
24
Coordinates from ORCA-job neb_MEP.QMRegion E -1075.814650789251
  C      42.885000     15.258000     60.167000
  H      43.422000     14.364000     60.518000
  H      43.291000     16.162000     60.639000
  C      41.424000     15.123000     60.544000
  C      40.588000     16.382000     60.944000
  O      41.206000     17.359000     61.423000
  O      39.350000     16.322000     60.788000
  O      40.875000     14.037000     60.517000
  C      41.175000     14.130000     57.518000
  H      40.706000     13.219000     57.152000
  C      42.430000     14.130000     57.973000
  H      43.022000     13.212000     58.002000
  C      43.067000     15.349000     58.592000
  C      42.357000     16.611000     58.167000
  H      42.893000     17.550000     58.310000
  C      41.084000     16.600000     57.765000
  H      40.546000     17.538000     57.618000
  C      40.295000     15.345000     57.499000
  H      39.533000     15.235000     58.299000
  O      39.662000     15.408000     56.233000
  H      38.768000     15.864000     56.330000
  C      44.599000     15.348000     58.253000
  O      45.271000     14.362000     58.662000
  O      45.081000     16.313000     57.620000
