88
Image 0. Energy: -22844.177706993287 
C  52.848548524117284 32.94263170427586 68.2868755220017
H  52.135546995162024 33.76725878756195 68.36156950488892
H  52.91456255568223 32.21697085224479 69.09646759948117
C  53.60846874326869 32.79230949601449 67.19052818742622
C  54.5775688396587 31.627617383253135 67.05794223429767
O  54.9434265103644 31.058622621195248 68.12305344514478
O  55.00879841058285 31.329209575997712 65.90679619950258
O  53.43178625840686 33.67060502854835 66.15479406842111
C  54.49948257965844 34.135525231865465 65.3242681140125
H  54.78990223698781 33.31803229381336 64.64352976494432
C  55.74513837315631 34.56097292947015 66.03093409878876
H  56.326148645459504 33.74590063194371 66.55250376063465
C  56.43919726605796 35.695194173227726 65.83725598170655
C  55.83650160760193 36.75319907244344 65.02290871969247
H  56.36959651081558 37.701073712452654 64.94835670942972
C  54.67615033391609 36.54675174058282 64.37481972492395
H  54.23287519151787 37.33560265748889 63.75916907398688
C  53.87804690830807 35.276257244373625 64.4588504231571
H  52.93659328356426 35.52988098758636 64.98071855143404
O  53.50286755209956 34.78937143842516 63.1903881112878
H  54.20960871956669 34.96953895610339 62.55137014112252
C  57.8669552409889 35.87539442223646 66.37859431899629
O  58.41148016997705 34.88713038577025 66.95288056843009
O  58.41914072307834 36.98678659311111 66.2030268362932
C  64.9396 33.2655 44.4287
O  66.123425 33.327276 44.032163
O  64.228316 32.238117 44.461259
H  64.481621 34.20135 44.781461
C  57.4834 32.0504 67.3155
N  57.633977 32.43562 66.051446
H  57.32346 33.098122 66.7477
H  57.830146 31.480582 66.315113
N  57.074501 32.922804 68.232349
H  57.27067 31.967766 68.496016
H  57.188849 33.21534 67.272428
N  57.741721 30.792776 67.662705
H  57.85607 31.085311 66.702784
H  57.431204 31.455278 68.358959
C  57.2348 27.8772 45.8643
O  58.418625 27.938976 45.467763
O  56.523516 26.849817 45.896859
H  56.776821 28.81305 46.217061
C  70.6042 27.8801 55.8957
O  71.788025 27.941876 55.499163
O  69.892916 26.852717 55.928259
H  70.146221 28.81595 56.248461
C  56.6197 24.8739 63.1071
N  56.770277 25.25912 61.843046
H  56.45976 25.921622 62.5393
H  56.966446 24.304082 62.106713
N  56.210801 25.746304 64.023949
H  56.40697 24.791266 64.287616
H  56.325149 26.03884 63.064028
N  56.878021 23.616276 63.454305
H  56.99237 23.908811 62.494384
H  56.567504 24.278778 64.150559
C  67.6272 26.5328 48.4134
O  68.811025 26.594576 48.016863
O  66.915916 25.505417 48.445959
H  67.169221 27.46865 48.766161
C  67.2354 23.7803 55.3884
O  68.419225 23.842076 54.991863
O  66.524116 22.752917 55.420959
H  66.777421 24.71615 55.741161
C  52.0536 26.3403 62.6107
N  52.204177 26.72552 61.346646
H  51.89366 27.388022 62.0429
H  52.400346 25.770482 61.610313
N  51.644701 27.212704 63.527549
H  51.84087 26.257666 63.791216
H  51.759049 27.50524 62.567628
N  52.311921 25.082676 62.957905
H  52.42627 25.375211 61.997984
H  52.001404 25.745178 63.654159
C  60.9904 38.2021 66.1907
N  61.140977 38.58732 64.926646
H  60.83046 39.249822 65.6229
H  61.337146 37.632282 65.190313
N  60.581501 39.074504 67.107549
H  60.77767 38.119466 67.371216
H  60.695849 39.36704 66.147628
N  61.248721 36.944476 66.537905
H  61.36307 37.237011 65.577984
H  60.938204 37.606978 67.234159
C  60.5427 22.2881 53.7491
O  61.726525 22.349876 53.352563
O  59.831416 21.260717 53.781659
H  60.084721 23.22395 54.101861
88
Image 1. Energy: -22843.642342326406 
C  53.135693884747624 33.46746490445899 67.3667506455949
H  52.68028622037365 34.408288701791065 67.04968990738945
H  53.013318910187664 33.14061263953006 68.3999310928464
C  53.82688237669542 32.704399651976956 66.51077607357274
C  54.5422505176574 31.42062118407364 66.9518230375694
O  54.419881112697794 31.066593900305595 68.14306013080183
O  55.295164821965244 30.849750668657794 66.09472221840875
O  53.99159641502536 33.04557717936886 65.1856166123463
C  54.805711387940484 34.160660292110514 64.81268936293603
H  55.309894113208095 33.80858967300514 63.89112568910852
C  55.86566846532899 34.50261174434867 65.79459739934904
H  56.386005722261636 33.65168914726375 66.28039918255126
C  56.38690118068876 35.709598298116866 66.05652039782866
C  55.58211576250756 36.87534646080003 65.69611299022431
H  55.88648649210716 37.8327945002498 66.11853397892676
C  54.45286744840915 36.733130807407626 64.98004177174884
H  53.80636635029533 37.594487539192414 64.79428142341547
C  54.03476696370095 35.43888629917426 64.31941109535376
H  52.96398439247359 35.2589446691391 64.50504949666599
O  54.16237459318281 35.558245394242334 62.913920130379154
H  54.97731070180841 36.04287551941172 62.70338636491683
C  57.79649770461834 35.860402630846025 66.64994596393807
O  58.39916643384361 34.81547543466425 67.03163711805568
O  58.31379733827489 37.00257341984606 66.64939753610967
C  64.9396 33.2655 44.4287
O  66.123425 33.327276 44.032163
O  64.228316 32.238117 44.461259
H  64.481621 34.20135 44.781461
C  57.4834 32.0504 67.3155
N  57.633977 32.43562 66.051446
H  57.32346 33.098122 66.7477
H  57.830146 31.480582 66.315113
N  57.074501 32.922804 68.232349
H  57.27067 31.967766 68.496016
H  57.188849 33.21534 67.272428
N  57.741721 30.792776 67.662705
H  57.85607 31.085311 66.702784
H  57.431204 31.455278 68.358959
C  57.2348 27.8772 45.8643
O  58.418625 27.938976 45.467763
O  56.523516 26.849817 45.896859
H  56.776821 28.81305 46.217061
C  70.6042 27.8801 55.8957
O  71.788025 27.941876 55.499163
O  69.892916 26.852717 55.928259
H  70.146221 28.81595 56.248461
C  56.6197 24.8739 63.1071
N  56.770277 25.25912 61.843046
H  56.45976 25.921622 62.5393
H  56.966446 24.304082 62.106713
N  56.210801 25.746304 64.023949
H  56.40697 24.791266 64.287616
H  56.325149 26.03884 63.064028
N  56.878021 23.616276 63.454305
H  56.99237 23.908811 62.494384
H  56.567504 24.278778 64.150559
C  67.6272 26.5328 48.4134
O  68.811025 26.594576 48.016863
O  66.915916 25.505417 48.445959
H  67.169221 27.46865 48.766161
C  67.2354 23.7803 55.3884
O  68.419225 23.842076 54.991863
O  66.524116 22.752917 55.420959
H  66.777421 24.71615 55.741161
C  52.0536 26.3403 62.6107
N  52.204177 26.72552 61.346646
H  51.89366 27.388022 62.0429
H  52.400346 25.770482 61.610313
N  51.644701 27.212704 63.527549
H  51.84087 26.257666 63.791216
H  51.759049 27.50524 62.567628
N  52.311921 25.082676 62.957905
H  52.42627 25.375211 61.997984
H  52.001404 25.745178 63.654159
C  60.9904 38.2021 66.1907
N  61.140977 38.58732 64.926646
H  60.83046 39.249822 65.6229
H  61.337146 37.632282 65.190313
N  60.581501 39.074504 67.107549
H  60.77767 38.119466 67.371216
H  60.695849 39.36704 66.147628
N  61.248721 36.944476 66.537905
H  61.36307 37.237011 65.577984
H  60.938204 37.606978 67.234159
C  60.5427 22.2881 53.7491
O  61.726525 22.349876 53.352563
O  59.831416 21.260717 53.781659
H  60.084721 23.22395 54.101861
88
Image 2. Energy: -22843.106951131213 
C  53.306356260133974 33.6917768597269 67.26487119195727
H  53.004179677341014 34.697257232102885 66.97161980651171
H  53.065920171869244 33.33760945453972 68.26909594870763
C  53.936769754193115 32.87890683833815 66.40402050364604
C  54.449335655352535 31.49333580670971 66.91313808962279
O  54.140318971616004 31.165177804992396 68.07550023103288
O  55.23160018872637 30.836418841749868 66.1517672618666
O  54.17371499248839 33.19171538664791 65.0800381331648
C  54.897108420955796 34.37457268908774 64.52567746463545
H  55.14147338418294 33.96892558372726 63.530598182569534
C  56.14122446568751 34.584222820370975 65.30811148392758
H  56.81033795958129 33.72788673453801 65.24126499124637
C  56.497882488811996 35.70656670439527 65.97135510173082
C  55.66729697078227 36.89920537197159 65.84959355758573
H  55.96372262101336 37.773110477491116 66.43135043506848
C  54.62180777224322 36.92239285994272 65.00315018604128
H  54.07525722924043 37.855641868509466 64.83655824621295
C  54.17637378101143 35.73040051964565 64.18122546348175
H  53.09492167398424 35.602999477805284 64.33289736494167
O  54.31985516251788 36.016612477054935 62.795714712769445
H  55.165694340971804 36.458246086445776 62.61335580911087
C  57.83972762997611 35.80516801274554 66.7088091364577
O  58.41726671209584 34.728246055034404 67.0306564472056
O  58.32344016524346 36.941007456430256 66.92086782047626
C  64.9396 33.2655 44.4287
O  66.123425 33.327276 44.032163
O  64.228316 32.238117 44.461259
H  64.481621 34.20135 44.781461
C  57.4834 32.0504 67.3155
N  57.633977 32.43562 66.051446
H  57.32346 33.098122 66.7477
H  57.830146 31.480582 66.315113
N  57.074501 32.922804 68.232349
H  57.27067 31.967766 68.496016
H  57.188849 33.21534 67.272428
N  57.741721 30.792776 67.662705
H  57.85607 31.085311 66.702784
H  57.431204 31.455278 68.358959
C  57.2348 27.8772 45.8643
O  58.418625 27.938976 45.467763
O  56.523516 26.849817 45.896859
H  56.776821 28.81305 46.217061
C  70.6042 27.8801 55.8957
O  71.788025 27.941876 55.499163
O  69.892916 26.852717 55.928259
H  70.146221 28.81595 56.248461
C  56.6197 24.8739 63.1071
N  56.770277 25.25912 61.843046
H  56.45976 25.921622 62.5393
H  56.966446 24.304082 62.106713
N  56.210801 25.746304 64.023949
H  56.40697 24.791266 64.287616
H  56.325149 26.03884 63.064028
N  56.878021 23.616276 63.454305
H  56.99237 23.908811 62.494384
H  56.567504 24.278778 64.150559
C  67.6272 26.5328 48.4134
O  68.811025 26.594576 48.016863
O  66.915916 25.505417 48.445959
H  67.169221 27.46865 48.766161
C  67.2354 23.7803 55.3884
O  68.419225 23.842076 54.991863
O  66.524116 22.752917 55.420959
H  66.777421 24.71615 55.741161
C  52.0536 26.3403 62.6107
N  52.204177 26.72552 61.346646
H  51.89366 27.388022 62.0429
H  52.400346 25.770482 61.610313
N  51.644701 27.212704 63.527549
H  51.84087 26.257666 63.791216
H  51.759049 27.50524 62.567628
N  52.311921 25.082676 62.957905
H  52.42627 25.375211 61.997984
H  52.001404 25.745178 63.654159
C  60.9904 38.2021 66.1907
N  61.140977 38.58732 64.926646
H  60.83046 39.249822 65.6229
H  61.337146 37.632282 65.190313
N  60.581501 39.074504 67.107549
H  60.77767 38.119466 67.371216
H  60.695849 39.36704 66.147628
N  61.248721 36.944476 66.537905
H  61.36307 37.237011 65.577984
H  60.938204 37.606978 67.234159
C  60.5427 22.2881 53.7491
O  61.726525 22.349876 53.352563
O  59.831416 21.260717 53.781659
H  60.084721 23.22395 54.101861
88
Image 3. Energy: -22842.323490146056 
C  53.40789398928332 33.78392359402074 67.18371247493936
H  53.24185721910838 34.815058331107636 66.87180357884937
H  53.08580715066063 33.48249235733318 68.18198584498002
C  53.97746010738901 32.913002724707965 66.32067159613342
C  54.4528932541758 31.517429386220456 66.90501876371951
O  54.16868381528526 31.262350981115276 68.09129637147105
O  55.197747428155616 30.797248135790397 66.16487533484928
O  54.25824097260619 33.1894297319541 65.02449007414509
C  55.08440352974821 34.67016679491054 64.2748327093385
H  55.171345812334685 34.09297156492302 63.350678474347646
C  56.25139349623075 34.74530594472794 65.124802945159
H  56.85494796356514 33.83742204667219 65.1453527701624
C  56.57347702857665 35.83720599980481 65.87544228738217
C  55.820929816758046 37.07590509383883 65.74221414616017
H  56.11360251956178 37.91018869852187 66.38184417290702
C  54.84483005073275 37.188027503433254 64.82188297577135
H  54.34118384151921 38.145888922781424 64.65638324249028
C  54.38942840172753 36.02958196251574 63.96246102219101
H  53.31745954056472 35.89360493954314 64.16292851133383
O  54.459181745038 36.347689073101876 62.582881706895
H  55.31503060256963 36.74040271271462 62.34069441339171
C  57.84574512690137 35.85276943419638 66.71904011278708
O  58.3533066323033 34.740281657282786 67.03454087112739
O  58.36133353521656 36.956838588774424 67.00322114944913
C  64.9396 33.2655 44.4287
O  66.123425 33.327276 44.032163
O  64.228316 32.238117 44.461259
H  64.481621 34.20135 44.781461
C  57.4834 32.0504 67.3155
N  57.633977 32.43562 66.051446
H  57.32346 33.098122 66.7477
H  57.830146 31.480582 66.315113
N  57.074501 32.922804 68.232349
H  57.27067 31.967766 68.496016
H  57.188849 33.21534 67.272428
N  57.741721 30.792776 67.662705
H  57.85607 31.085311 66.702784
H  57.431204 31.455278 68.358959
C  57.2348 27.8772 45.8643
O  58.418625 27.938976 45.467763
O  56.523516 26.849817 45.896859
H  56.776821 28.81305 46.217061
C  70.6042 27.8801 55.8957
O  71.788025 27.941876 55.499163
O  69.892916 26.852717 55.928259
H  70.146221 28.81595 56.248461
C  56.6197 24.8739 63.1071
N  56.770277 25.25912 61.843046
H  56.45976 25.921622 62.5393
H  56.966446 24.304082 62.106713
N  56.210801 25.746304 64.023949
H  56.40697 24.791266 64.287616
H  56.325149 26.03884 63.064028
N  56.878021 23.616276 63.454305
H  56.99237 23.908811 62.494384
H  56.567504 24.278778 64.150559
C  67.6272 26.5328 48.4134
O  68.811025 26.594576 48.016863
O  66.915916 25.505417 48.445959
H  67.169221 27.46865 48.766161
C  67.2354 23.7803 55.3884
O  68.419225 23.842076 54.991863
O  66.524116 22.752917 55.420959
H  66.777421 24.71615 55.741161
C  52.0536 26.3403 62.6107
N  52.204177 26.72552 61.346646
H  51.89366 27.388022 62.0429
H  52.400346 25.770482 61.610313
N  51.644701 27.212704 63.527549
H  51.84087 26.257666 63.791216
H  51.759049 27.50524 62.567628
N  52.311921 25.082676 62.957905
H  52.42627 25.375211 61.997984
H  52.001404 25.745178 63.654159
C  60.9904 38.2021 66.1907
N  61.140977 38.58732 64.926646
H  60.83046 39.249822 65.6229
H  61.337146 37.632282 65.190313
N  60.581501 39.074504 67.107549
H  60.77767 38.119466 67.371216
H  60.695849 39.36704 66.147628
N  61.248721 36.944476 66.537905
H  61.36307 37.237011 65.577984
H  60.938204 37.606978 67.234159
C  60.5427 22.2881 53.7491
O  61.726525 22.349876 53.352563
O  59.831416 21.260717 53.781659
H  60.084721 23.22395 54.101861
88
Image 4. Energy: -22841.938255685924 
C  53.505259308125275 33.877616131623576 67.11183019821043
H  53.515937875761054 34.920343554764884 66.78706242426834
H  53.070509664006906 33.655487702344 68.08532902295345
C  53.97925197060074 32.896502187150936 66.2548475921892
C  54.485820567572254 31.543101302030802 66.8995406298433
O  54.28124871752475 31.346104542385643 68.11514107993575
O  55.19492465203632 30.799690974176553 66.14854370024729
O  54.201579414236804 33.063961333122606 65.00656583590441
C  55.372605799449005 35.03842733984066 63.95470103919645
H  55.23929360429315 34.2729134167835 63.1911170898528
C  56.34260287901676 34.924042822204065 64.93646272292503
H  56.88384095719172 33.97842793449102 65.01832493159034
C  56.65126547923844 35.99585772089817 65.78306219349041
C  55.96331456724081 37.248561965606854 65.64725816314699
H  56.247296546585346 38.057933779152094 66.32080065360404
C  55.03698442068493 37.430738060929095 64.67231554425767
H  54.5469629212759 38.39699963291645 64.52627154937034
C  54.628297044276785 36.32343892963185 63.74533339116529
H  53.57401344865648 36.091657880587796 64.02013730993885
O  54.56872808807346 36.71104180044428 62.39143459592575
H  55.44905630733344 36.9895601244395 62.090908231801976
C  57.86351640151509 35.92367673816005 66.69520392418475
O  58.29284290355178 34.779235426523314 67.00566775119606
O  58.419627161755564 36.99764761979503 67.0270139148084
C  64.9396 33.2655 44.4287
O  66.123425 33.327276 44.032163
O  64.228316 32.238117 44.461259
H  64.481621 34.20135 44.781461
C  57.4834 32.0504 67.3155
N  57.633977 32.43562 66.051446
H  57.32346 33.098122 66.7477
H  57.830146 31.480582 66.315113
N  57.074501 32.922804 68.232349
H  57.27067 31.967766 68.496016
H  57.188849 33.21534 67.272428
N  57.741721 30.792776 67.662705
H  57.85607 31.085311 66.702784
H  57.431204 31.455278 68.358959
C  57.2348 27.8772 45.8643
O  58.418625 27.938976 45.467763
O  56.523516 26.849817 45.896859
H  56.776821 28.81305 46.217061
C  70.6042 27.8801 55.8957
O  71.788025 27.941876 55.499163
O  69.892916 26.852717 55.928259
H  70.146221 28.81595 56.248461
C  56.6197 24.8739 63.1071
N  56.770277 25.25912 61.843046
H  56.45976 25.921622 62.5393
H  56.966446 24.304082 62.106713
N  56.210801 25.746304 64.023949
H  56.40697 24.791266 64.287616
H  56.325149 26.03884 63.064028
N  56.878021 23.616276 63.454305
H  56.99237 23.908811 62.494384
H  56.567504 24.278778 64.150559
C  67.6272 26.5328 48.4134
O  68.811025 26.594576 48.016863
O  66.915916 25.505417 48.445959
H  67.169221 27.46865 48.766161
C  67.2354 23.7803 55.3884
O  68.419225 23.842076 54.991863
O  66.524116 22.752917 55.420959
H  66.777421 24.71615 55.741161
C  52.0536 26.3403 62.6107
N  52.204177 26.72552 61.346646
H  51.89366 27.388022 62.0429
H  52.400346 25.770482 61.610313
N  51.644701 27.212704 63.527549
H  51.84087 26.257666 63.791216
H  51.759049 27.50524 62.567628
N  52.311921 25.082676 62.957905
H  52.42627 25.375211 61.997984
H  52.001404 25.745178 63.654159
C  60.9904 38.2021 66.1907
N  61.140977 38.58732 64.926646
H  60.83046 39.249822 65.6229
H  61.337146 37.632282 65.190313
N  60.581501 39.074504 67.107549
H  60.77767 38.119466 67.371216
H  60.695849 39.36704 66.147628
N  61.248721 36.944476 66.537905
H  61.36307 37.237011 65.577984
H  60.938204 37.606978 67.234159
C  60.5427 22.2881 53.7491
O  61.726525 22.349876 53.352563
O  59.831416 21.260717 53.781659
H  60.084721 23.22395 54.101861
88
Image 5. Energy: -22841.432454919017 
C  53.60665119744708 34.027199691045965 67.01127677201514
H  53.97126643954704 35.041913941696585 66.8527099393211
H  52.86578747739784 33.91670999589518 67.80308921438404
C  54.0125789103651 32.98736675380437 66.14261371936716
C  54.50432174378389 31.632796119331683 66.80244083182441
O  54.39839753509782 31.491903862256073 68.0403089262978
O  55.14391589262035 30.85143176796413 66.03311921770639
O  54.211047136320204 33.13989049891356 64.91065906147566
C  55.53918168744075 35.247325783508536 63.78211359852849
H  55.369519738952015 34.477235948040196 63.028988591439045
C  56.45188386872921 35.07544382831993 64.79779633204942
H  56.96684164574846 34.1163870457434 64.89254275113548
C  56.76114448972443 36.12598562616212 65.68590823588369
C  56.123105587482094 37.398205270827695 65.54068730268058
H  56.41029871496493 38.19597070186809 66.2274944520942
C  55.21480730682703 37.61659294715938 64.55067634830957
H  54.75118750736408 38.59631276634583 64.40851964143236
C  54.79676190833452 36.5343480637383 63.60023483332843
H  53.7441029167996 36.29571193799834 63.88209481288759
O  54.713939770486235 36.95236662323199 62.25759632547324
H  55.597287061187586 37.19988769278128 61.94050596312929
C  57.88754259038247 35.97267521099294 66.67713550891814
O  58.22999373213734 34.7995815767024 66.9933787997867
O  58.46981298086737 37.00750800567478 67.08480030053526
C  64.9396 33.2655 44.4287
O  66.123425 33.327276 44.032163
O  64.228316 32.238117 44.461259
H  64.481621 34.20135 44.781461
C  57.4834 32.0504 67.3155
N  57.633977 32.43562 66.051446
H  57.32346 33.098122 66.7477
H  57.830146 31.480582 66.315113
N  57.074501 32.922804 68.232349
H  57.27067 31.967766 68.496016
H  57.188849 33.21534 67.272428
N  57.741721 30.792776 67.662705
H  57.85607 31.085311 66.702784
H  57.431204 31.455278 68.358959
C  57.2348 27.8772 45.8643
O  58.418625 27.938976 45.467763
O  56.523516 26.849817 45.896859
H  56.776821 28.81305 46.217061
C  70.6042 27.8801 55.8957
O  71.788025 27.941876 55.499163
O  69.892916 26.852717 55.928259
H  70.146221 28.81595 56.248461
C  56.6197 24.8739 63.1071
N  56.770277 25.25912 61.843046
H  56.45976 25.921622 62.5393
H  56.966446 24.304082 62.106713
N  56.210801 25.746304 64.023949
H  56.40697 24.791266 64.287616
H  56.325149 26.03884 63.064028
N  56.878021 23.616276 63.454305
H  56.99237 23.908811 62.494384
H  56.567504 24.278778 64.150559
C  67.6272 26.5328 48.4134
O  68.811025 26.594576 48.016863
O  66.915916 25.505417 48.445959
H  67.169221 27.46865 48.766161
C  67.2354 23.7803 55.3884
O  68.419225 23.842076 54.991863
O  66.524116 22.752917 55.420959
H  66.777421 24.71615 55.741161
C  52.0536 26.3403 62.6107
N  52.204177 26.72552 61.346646
H  51.89366 27.388022 62.0429
H  52.400346 25.770482 61.610313
N  51.644701 27.212704 63.527549
H  51.84087 26.257666 63.791216
H  51.759049 27.50524 62.567628
N  52.311921 25.082676 62.957905
H  52.42627 25.375211 61.997984
H  52.001404 25.745178 63.654159
C  60.9904 38.2021 66.1907
N  61.140977 38.58732 64.926646
H  60.83046 39.249822 65.6229
H  61.337146 37.632282 65.190313
N  60.581501 39.074504 67.107549
H  60.77767 38.119466 67.371216
H  60.695849 39.36704 66.147628
N  61.248721 36.944476 66.537905
H  61.36307 37.237011 65.577984
H  60.938204 37.606978 67.234159
C  60.5427 22.2881 53.7491
O  61.726525 22.349876 53.352563
O  59.831416 21.260717 53.781659
H  60.084721 23.22395 54.101861
88
Image 6. Energy: -22840.810626965453 
C  53.70890937158546 34.19922622832307 66.92035416529532
H  54.36060710338026 35.06677473348558 67.0433103382548
H  52.74024007890165 34.24896385636031 67.4237152433757
C  54.075561425188965 33.10972424823951 66.0276380985666
C  54.57887106820365 31.75522560925677 66.68109115014522
O  54.51422964442056 31.64803398608952 67.92734149628285
O  55.18097031435426 30.95332147073743 65.9096096673501
O  54.200185495564234 33.235310753791445 64.80873868284333
C  55.67516627503497 35.42073897362177 63.647966468128395
H  55.496416244723285 34.65289443621867 62.892805341854015
C  56.565061477010154 35.226885443786 64.67351806279243
H  57.07553129265028 34.265084006691005 64.77252419347236
C  56.87905927932285 36.26396117510216 65.58423913195016
C  56.264598150998296 37.54596752216159 65.43088072592703
H  56.5490676131091 38.3414449120835 66.12270730631673
C  55.36079122669685 37.77978826883031 64.43720061276251
H  54.907237036612315 38.76498687667368 64.29756193515709
C  54.92561958304889 36.707124861617245 63.4813290474734
H  53.87476307517909 36.46993360432126 63.76333743658592
O  54.83577846295186 37.13949644549346 62.1417049959927
H  55.720986019258376 37.37245523593042 61.819857296822896
C  57.93618700119774 36.051208088182086 66.62155063899283
O  58.203810712538754 34.857679456477605 66.95646033416627
O  58.53832700809844 37.06230420653747 67.07306708947499
C  64.9396 33.2655 44.4287
O  66.123425 33.327276 44.032163
O  64.228316 32.238117 44.461259
H  64.481621 34.20135 44.781461
C  57.4834 32.0504 67.3155
N  57.633977 32.43562 66.051446
H  57.32346 33.098122 66.7477
H  57.830146 31.480582 66.315113
N  57.074501 32.922804 68.232349
H  57.27067 31.967766 68.496016
H  57.188849 33.21534 67.272428
N  57.741721 30.792776 67.662705
H  57.85607 31.085311 66.702784
H  57.431204 31.455278 68.358959
C  57.2348 27.8772 45.8643
O  58.418625 27.938976 45.467763
O  56.523516 26.849817 45.896859
H  56.776821 28.81305 46.217061
C  70.6042 27.8801 55.8957
O  71.788025 27.941876 55.499163
O  69.892916 26.852717 55.928259
H  70.146221 28.81595 56.248461
C  56.6197 24.8739 63.1071
N  56.770277 25.25912 61.843046
H  56.45976 25.921622 62.5393
H  56.966446 24.304082 62.106713
N  56.210801 25.746304 64.023949
H  56.40697 24.791266 64.287616
H  56.325149 26.03884 63.064028
N  56.878021 23.616276 63.454305
H  56.99237 23.908811 62.494384
H  56.567504 24.278778 64.150559
C  67.6272 26.5328 48.4134
O  68.811025 26.594576 48.016863
O  66.915916 25.505417 48.445959
H  67.169221 27.46865 48.766161
C  67.2354 23.7803 55.3884
O  68.419225 23.842076 54.991863
O  66.524116 22.752917 55.420959
H  66.777421 24.71615 55.741161
C  52.0536 26.3403 62.6107
N  52.204177 26.72552 61.346646
H  51.89366 27.388022 62.0429
H  52.400346 25.770482 61.610313
N  51.644701 27.212704 63.527549
H  51.84087 26.257666 63.791216
H  51.759049 27.50524 62.567628
N  52.311921 25.082676 62.957905
H  52.42627 25.375211 61.997984
H  52.001404 25.745178 63.654159
C  60.9904 38.2021 66.1907
N  61.140977 38.58732 64.926646
H  60.83046 39.249822 65.6229
H  61.337146 37.632282 65.190313
N  60.581501 39.074504 67.107549
H  60.77767 38.119466 67.371216
H  60.695849 39.36704 66.147628
N  61.248721 36.944476 66.537905
H  61.36307 37.237011 65.577984
H  60.938204 37.606978 67.234159
C  60.5427 22.2881 53.7491
O  61.726525 22.349876 53.352563
O  59.831416 21.260717 53.781659
H  60.084721 23.22395 54.101861
88
Image 7. Energy: -22840.946372972496 
C  53.8409726049206 34.346929368593244 66.8282552134174
H  54.55356122604394 34.87640743087481 67.45487237105996
H  52.8299772808658 34.74969300557644 66.83496138577561
C  54.20888979933141 33.274580291310116 65.93826397317682
C  54.738097481039304 31.935456866188602 66.56283183414996
O  54.628236926203606 31.80051305930391 67.80667300349096
O  55.25241601199748 31.080109513110372 65.78352648787448
O  54.07061403199825 33.33853413925845 64.71227542380885
C  55.812739439828235 35.58068332094963 63.50778717356988
H  55.62898827889967 34.81619800877012 62.75221491920553
C  56.66926984627651 35.36796897488247 64.550103624996
H  57.18610428931962 34.4119304812095 64.65918199938258
C  56.94372910958216 36.38844653975923 65.49750564362336
C  56.37615105329532 37.691452093349376 65.32844954765808
H  56.66616565962288 38.484212383328575 66.02173211967686
C  55.500252164406355 37.93866441808018 64.3145143747562
H  55.05091446290994 38.925816654079554 64.17235572405852
C  55.059991010204904 36.8642933287929 63.3680523699903
H  54.01200493878075 36.61576936219051 63.68812017081154
O  54.93785476487885 37.30401357832873 62.03637344386463
H  55.82168283557018 37.529666750835055 61.70341707948659
C  57.98910991774317 36.146650810336595 66.55115653821868
O  58.22878396036877 34.94990283322697 66.89190193060764
O  58.58806499593452 37.158423947683296 67.00580102729688
C  64.9396 33.2655 44.4287
O  66.123425 33.327276 44.032163
O  64.228316 32.238117 44.461259
H  64.481621 34.20135 44.781461
C  57.4834 32.0504 67.3155
N  57.633977 32.43562 66.051446
H  57.32346 33.098122 66.7477
H  57.830146 31.480582 66.315113
N  57.074501 32.922804 68.232349
H  57.27067 31.967766 68.496016
H  57.188849 33.21534 67.272428
N  57.741721 30.792776 67.662705
H  57.85607 31.085311 66.702784
H  57.431204 31.455278 68.358959
C  57.2348 27.8772 45.8643
O  58.418625 27.938976 45.467763
O  56.523516 26.849817 45.896859
H  56.776821 28.81305 46.217061
C  70.6042 27.8801 55.8957
O  71.788025 27.941876 55.499163
O  69.892916 26.852717 55.928259
H  70.146221 28.81595 56.248461
C  56.6197 24.8739 63.1071
N  56.770277 25.25912 61.843046
H  56.45976 25.921622 62.5393
H  56.966446 24.304082 62.106713
N  56.210801 25.746304 64.023949
H  56.40697 24.791266 64.287616
H  56.325149 26.03884 63.064028
N  56.878021 23.616276 63.454305
H  56.99237 23.908811 62.494384
H  56.567504 24.278778 64.150559
C  67.6272 26.5328 48.4134
O  68.811025 26.594576 48.016863
O  66.915916 25.505417 48.445959
H  67.169221 27.46865 48.766161
C  67.2354 23.7803 55.3884
O  68.419225 23.842076 54.991863
O  66.524116 22.752917 55.420959
H  66.777421 24.71615 55.741161
C  52.0536 26.3403 62.6107
N  52.204177 26.72552 61.346646
H  51.89366 27.388022 62.0429
H  52.400346 25.770482 61.610313
N  51.644701 27.212704 63.527549
H  51.84087 26.257666 63.791216
H  51.759049 27.50524 62.567628
N  52.311921 25.082676 62.957905
H  52.42627 25.375211 61.997984
H  52.001404 25.745178 63.654159
C  60.9904 38.2021 66.1907
N  61.140977 38.58732 64.926646
H  60.83046 39.249822 65.6229
H  61.337146 37.632282 65.190313
N  60.581501 39.074504 67.107549
H  60.77767 38.119466 67.371216
H  60.695849 39.36704 66.147628
N  61.248721 36.944476 66.537905
H  61.36307 37.237011 65.577984
H  60.938204 37.606978 67.234159
C  60.5427 22.2881 53.7491
O  61.726525 22.349876 53.352563
O  59.831416 21.260717 53.781659
H  60.084721 23.22395 54.101861
88
Image 8. Energy: -22841.482748401406 
C  54.01383356967034 34.524416444421355 66.70983883768638
H  54.541284191531744 34.72828146212086 67.63928459817235
H  53.19193796124621 35.201529160277786 66.46301115019419
C  54.30789829500163 33.45483413154474 65.83396687828093
C  54.779019968479226 32.085159745098466 66.43939257949084
O  54.655415882952674 31.926012329131165 67.6841450762184
O  55.256499551613295 31.211589170349907 65.65774426011187
O  54.143908327226 33.522342016307874 64.59208503304973
C  55.936878554174875 35.73744210987682 63.378940218960636
H  55.76885139509076 34.989112480806675 62.60427041626956
C  56.77123770066923 35.50340608051719 64.43803143362015
H  57.28530467430788 34.547322184829376 64.54606969677349
C  57.01578028707198 36.5030559710243 65.40621650362542
C  56.487980568236914 37.825268100810455 65.23647123797683
H  56.78148949400835 38.6093061709289 65.93841930669656
C  55.64661794271137 38.09700278334377 64.20034980870936
H  55.21924276865979 39.09296977692876 64.04862411922912
C  55.20568479073517 37.03209297869013 63.24634576815634
H  54.1658291544747 36.78204502829685 63.59634559725581
O  55.06066154175192 37.47687242581043 61.92467498466154
H  55.93811053928493 37.70150675214556 61.57445645599842
C  58.018058766847396 36.220342803654766 66.50242895602557
O  58.22908746678464 35.01852522995907 66.83258419887878
O  58.600555837463034 37.22366455312359 66.98844825394562
C  64.9396 33.2655 44.4287
O  66.123425 33.327276 44.032163
O  64.228316 32.238117 44.461259
H  64.481621 34.20135 44.781461
C  57.4834 32.0504 67.3155
N  57.633977 32.43562 66.051446
H  57.32346 33.098122 66.7477
H  57.830146 31.480582 66.315113
N  57.074501 32.922804 68.232349
H  57.27067 31.967766 68.496016
H  57.188849 33.21534 67.272428
N  57.741721 30.792776 67.662705
H  57.85607 31.085311 66.702784
H  57.431204 31.455278 68.358959
C  57.2348 27.8772 45.8643
O  58.418625 27.938976 45.467763
O  56.523516 26.849817 45.896859
H  56.776821 28.81305 46.217061
C  70.6042 27.8801 55.8957
O  71.788025 27.941876 55.499163
O  69.892916 26.852717 55.928259
H  70.146221 28.81595 56.248461
C  56.6197 24.8739 63.1071
N  56.770277 25.25912 61.843046
H  56.45976 25.921622 62.5393
H  56.966446 24.304082 62.106713
N  56.210801 25.746304 64.023949
H  56.40697 24.791266 64.287616
H  56.325149 26.03884 63.064028
N  56.878021 23.616276 63.454305
H  56.99237 23.908811 62.494384
H  56.567504 24.278778 64.150559
C  67.6272 26.5328 48.4134
O  68.811025 26.594576 48.016863
O  66.915916 25.505417 48.445959
H  67.169221 27.46865 48.766161
C  67.2354 23.7803 55.3884
O  68.419225 23.842076 54.991863
O  66.524116 22.752917 55.420959
H  66.777421 24.71615 55.741161
C  52.0536 26.3403 62.6107
N  52.204177 26.72552 61.346646
H  51.89366 27.388022 62.0429
H  52.400346 25.770482 61.610313
N  51.644701 27.212704 63.527549
H  51.84087 26.257666 63.791216
H  51.759049 27.50524 62.567628
N  52.311921 25.082676 62.957905
H  52.42627 25.375211 61.997984
H  52.001404 25.745178 63.654159
C  60.9904 38.2021 66.1907
N  61.140977 38.58732 64.926646
H  60.83046 39.249822 65.6229
H  61.337146 37.632282 65.190313
N  60.581501 39.074504 67.107549
H  60.77767 38.119466 67.371216
H  60.695849 39.36704 66.147628
N  61.248721 36.944476 66.537905
H  61.36307 37.237011 65.577984
H  60.938204 37.606978 67.234159
C  60.5427 22.2881 53.7491
O  61.726525 22.349876 53.352563
O  59.831416 21.260717 53.781659
H  60.084721 23.22395 54.101861
88
Image 9. Energy: -22841.84295245197 
C  54.25473738736001 34.73902867449903 66.592697738998
H  54.45235976930452 34.66918650567373 67.66259007877119
H  53.757744335771584 35.643357929954945 66.22802941103356
C  54.432252395794855 33.670429130783475 65.69735045278735
C  54.76339872463287 32.248713298739624 66.29546015190883
O  54.61886636060705 32.08257396793366 67.5395523265705
O  55.19675105699903 31.355005053123165 65.51412413919857
O  54.35633095555462 33.78540480456571 64.44800667917217
C  56.06163428828812 35.89420617295667 63.24446024114163
H  55.916819433143765 35.17295400990235 62.44091891745523
C  56.8480912927772 35.61751937919033 64.33325147848905
H  57.33666404479774 34.649052483078144 64.43571142199879
C  57.05712704249949 36.581263835311724 65.33956170145758
C  56.58040959142535 37.926601904519664 65.16805272352954
H  56.86667034312893 38.689863042248696 65.89593472258623
C  55.80635079943735 38.2464071885547 64.09602927753559
H  55.42606605767858 39.260723764575815 63.93292821623738
C  55.363641400650835 37.20672252911941 63.11702442907958
H  54.32751788558937 36.959851324092774 63.48114230143281
O  55.203068643333474 37.665304233867694 61.80657306171302
H  56.0735555710704 37.888367641816295 61.438612191574826
C  57.997726576287995 36.244725897100615 66.48127629364751
O  58.16242310395862 35.033309223742606 66.79422742853234
O  58.587559309894715 37.22131064466109 67.01044794517045
C  64.9396 33.2655 44.4287
O  66.123425 33.327276 44.032163
O  64.228316 32.238117 44.461259
H  64.481621 34.20135 44.781461
C  57.4834 32.0504 67.3155
N  57.633977 32.43562 66.051446
H  57.32346 33.098122 66.7477
H  57.830146 31.480582 66.315113
N  57.074501 32.922804 68.232349
H  57.27067 31.967766 68.496016
H  57.188849 33.21534 67.272428
N  57.741721 30.792776 67.662705
H  57.85607 31.085311 66.702784
H  57.431204 31.455278 68.358959
C  57.2348 27.8772 45.8643
O  58.418625 27.938976 45.467763
O  56.523516 26.849817 45.896859
H  56.776821 28.81305 46.217061
C  70.6042 27.8801 55.8957
O  71.788025 27.941876 55.499163
O  69.892916 26.852717 55.928259
H  70.146221 28.81595 56.248461
C  56.6197 24.8739 63.1071
N  56.770277 25.25912 61.843046
H  56.45976 25.921622 62.5393
H  56.966446 24.304082 62.106713
N  56.210801 25.746304 64.023949
H  56.40697 24.791266 64.287616
H  56.325149 26.03884 63.064028
N  56.878021 23.616276 63.454305
H  56.99237 23.908811 62.494384
H  56.567504 24.278778 64.150559
C  67.6272 26.5328 48.4134
O  68.811025 26.594576 48.016863
O  66.915916 25.505417 48.445959
H  67.169221 27.46865 48.766161
C  67.2354 23.7803 55.3884
O  68.419225 23.842076 54.991863
O  66.524116 22.752917 55.420959
H  66.777421 24.71615 55.741161
C  52.0536 26.3403 62.6107
N  52.204177 26.72552 61.346646
H  51.89366 27.388022 62.0429
H  52.400346 25.770482 61.610313
N  51.644701 27.212704 63.527549
H  51.84087 26.257666 63.791216
H  51.759049 27.50524 62.567628
N  52.311921 25.082676 62.957905
H  52.42627 25.375211 61.997984
H  52.001404 25.745178 63.654159
C  60.9904 38.2021 66.1907
N  61.140977 38.58732 64.926646
H  60.83046 39.249822 65.6229
H  61.337146 37.632282 65.190313
N  60.581501 39.074504 67.107549
H  60.77767 38.119466 67.371216
H  60.695849 39.36704 66.147628
N  61.248721 36.944476 66.537905
H  61.36307 37.237011 65.577984
H  60.938204 37.606978 67.234159
C  60.5427 22.2881 53.7491
O  61.726525 22.349876 53.352563
O  59.831416 21.260717 53.781659
H  60.084721 23.22395 54.101861
88
Image 10. Energy: -22841.966817494274 
C  54.571708692676104 35.08520706164746 66.40039600061898
H  54.61934080498125 34.93619491885405 67.4806080368833
H  54.286259280061465 36.070745825677285 66.02842096709657
C  54.57453861865808 33.995985289620336 65.50931610987963
C  54.74790957166379 32.54836083256917 66.11599917898499
O  54.57496007207386 32.41152570652624 67.35981252862982
O  55.09152721106489 31.611682856893896 65.34495777969238
O  54.495758019785406 34.11995133092533 64.26019903341228
C  56.21015940587818 36.00587400676565 63.11584474239885
H  56.124665359139335 35.332705595636796 62.26167211857617
C  56.917676247755345 35.66518526942276 64.23809501842761
H  57.38802916996322 34.685217960836944 64.3154699054419
C  57.02473575819341 36.55486941234697 65.32866238184837
C  56.58551686965726 37.9228391831275 65.17210667596687
H  56.83173957392192 38.64719584977314 65.95153422293242
C  55.918598325272576 38.313472067023135 64.05501002280506
H  55.59669876680987 39.34851719878202 63.89935428448902
C  55.51475821881966 37.32431409062344 63.006264057908915
H  54.46412062015043 37.06651252057348 63.3037895445417
O  55.41285285047203 37.840572818424604 61.7102552396219
H  56.29574540069179 38.06050756987807 61.37334038657899
C  57.95030990758988 36.196439608795075 66.47849949417018
O  58.11273378001461 34.983958096727044 66.78921699250549
O  58.56402096468283 37.16183033852753 67.00695657656318
C  64.9396 33.2655 44.4287
O  66.123425 33.327276 44.032163
O  64.228316 32.238117 44.461259
H  64.481621 34.20135 44.781461
C  57.4834 32.0504 67.3155
N  57.633977 32.43562 66.051446
H  57.32346 33.098122 66.7477
H  57.830146 31.480582 66.315113
N  57.074501 32.922804 68.232349
H  57.27067 31.967766 68.496016
H  57.188849 33.21534 67.272428
N  57.741721 30.792776 67.662705
H  57.85607 31.085311 66.702784
H  57.431204 31.455278 68.358959
C  57.2348 27.8772 45.8643
O  58.418625 27.938976 45.467763
O  56.523516 26.849817 45.896859
H  56.776821 28.81305 46.217061
C  70.6042 27.8801 55.8957
O  71.788025 27.941876 55.499163
O  69.892916 26.852717 55.928259
H  70.146221 28.81595 56.248461
C  56.6197 24.8739 63.1071
N  56.770277 25.25912 61.843046
H  56.45976 25.921622 62.5393
H  56.966446 24.304082 62.106713
N  56.210801 25.746304 64.023949
H  56.40697 24.791266 64.287616
H  56.325149 26.03884 63.064028
N  56.878021 23.616276 63.454305
H  56.99237 23.908811 62.494384
H  56.567504 24.278778 64.150559
C  67.6272 26.5328 48.4134
O  68.811025 26.594576 48.016863
O  66.915916 25.505417 48.445959
H  67.169221 27.46865 48.766161
C  67.2354 23.7803 55.3884
O  68.419225 23.842076 54.991863
O  66.524116 22.752917 55.420959
H  66.777421 24.71615 55.741161
C  52.0536 26.3403 62.6107
N  52.204177 26.72552 61.346646
H  51.89366 27.388022 62.0429
H  52.400346 25.770482 61.610313
N  51.644701 27.212704 63.527549
H  51.84087 26.257666 63.791216
H  51.759049 27.50524 62.567628
N  52.311921 25.082676 62.957905
H  52.42627 25.375211 61.997984
H  52.001404 25.745178 63.654159
C  60.9904 38.2021 66.1907
N  61.140977 38.58732 64.926646
H  60.83046 39.249822 65.6229
H  61.337146 37.632282 65.190313
N  60.581501 39.074504 67.107549
H  60.77767 38.119466 67.371216
H  60.695849 39.36704 66.147628
N  61.248721 36.944476 66.537905
H  61.36307 37.237011 65.577984
H  60.938204 37.606978 67.234159
C  60.5427 22.2881 53.7491
O  61.726525 22.349876 53.352563
O  59.831416 21.260717 53.781659
H  60.084721 23.22395 54.101861
88
Image 11. Energy: -22842.476121457483 
C  55.152694788616586 35.50896120695215 66.10603064633003
H  55.10381171722345 35.30264423136887 67.1964637548247
H  54.40249959901651 36.27198851005132 65.8687265859707
C  54.79958069777284 34.24733103848618 65.3288218352278
C  54.82868518333874 32.80389267642575 66.00261516989255
O  54.615634293788155 32.72960713773694 67.24062846440302
O  55.09241823655818 31.830956727206427 65.25338989560342
O  54.498363663485215 34.294365606861575 64.15278953045329
C  56.388472830668384 36.162130573151465 63.00030693325968
H  56.391062975826806 35.54060563434866 62.10144947714216
C  56.96981578988615 35.75394300654979 64.13786675065434
H  57.4962845855376 34.7976080629507 64.18584163703159
C  56.721248207643 36.449314028338 65.43761628549908
C  56.50326303904541 37.93345828546731 65.17791662897528
H  56.82299314335766 38.655257050888615 65.93698505337638
C  56.00553225438582 38.38921797964726 64.01447978626993
H  55.81809091139128 39.45475668677668 63.826451003546694
C  55.595964750712824 37.441593909726436 62.91862926150716
H  54.544954420743046 37.170680295627506 63.1461339484116
O  55.55279668154287 38.00944801264872 61.633138419992406
H  56.44853577962724 38.203843000951316 61.31754314872139
C  57.878463842047886 36.19471113241008 66.43560940688887
O  58.116803391656575 34.99778446176422 66.76924888721003
O  58.55298982609645 37.18334890366751 66.82891676880324
C  64.9396 33.2655 44.4287
O  66.123425 33.327276 44.032163
O  64.228316 32.238117 44.461259
H  64.481621 34.20135 44.781461
C  57.4834 32.0504 67.3155
N  57.633977 32.43562 66.051446
H  57.32346 33.098122 66.7477
H  57.830146 31.480582 66.315113
N  57.074501 32.922804 68.232349
H  57.27067 31.967766 68.496016
H  57.188849 33.21534 67.272428
N  57.741721 30.792776 67.662705
H  57.85607 31.085311 66.702784
H  57.431204 31.455278 68.358959
C  57.2348 27.8772 45.8643
O  58.418625 27.938976 45.467763
O  56.523516 26.849817 45.896859
H  56.776821 28.81305 46.217061
C  70.6042 27.8801 55.8957
O  71.788025 27.941876 55.499163
O  69.892916 26.852717 55.928259
H  70.146221 28.81595 56.248461
C  56.6197 24.8739 63.1071
N  56.770277 25.25912 61.843046
H  56.45976 25.921622 62.5393
H  56.966446 24.304082 62.106713
N  56.210801 25.746304 64.023949
H  56.40697 24.791266 64.287616
H  56.325149 26.03884 63.064028
N  56.878021 23.616276 63.454305
H  56.99237 23.908811 62.494384
H  56.567504 24.278778 64.150559
C  67.6272 26.5328 48.4134
O  68.811025 26.594576 48.016863
O  66.915916 25.505417 48.445959
H  67.169221 27.46865 48.766161
C  67.2354 23.7803 55.3884
O  68.419225 23.842076 54.991863
O  66.524116 22.752917 55.420959
H  66.777421 24.71615 55.741161
C  52.0536 26.3403 62.6107
N  52.204177 26.72552 61.346646
H  51.89366 27.388022 62.0429
H  52.400346 25.770482 61.610313
N  51.644701 27.212704 63.527549
H  51.84087 26.257666 63.791216
H  51.759049 27.50524 62.567628
N  52.311921 25.082676 62.957905
H  52.42627 25.375211 61.997984
H  52.001404 25.745178 63.654159
C  60.9904 38.2021 66.1907
N  61.140977 38.58732 64.926646
H  60.83046 39.249822 65.6229
H  61.337146 37.632282 65.190313
N  60.581501 39.074504 67.107549
H  60.77767 38.119466 67.371216
H  60.695849 39.36704 66.147628
N  61.248721 36.944476 66.537905
H  61.36307 37.237011 65.577984
H  60.938204 37.606978 67.234159
C  60.5427 22.2881 53.7491
O  61.726525 22.349876 53.352563
O  59.831416 21.260717 53.781659
H  60.084721 23.22395 54.101861
88
Image 12. Energy: -22843.388774565177 
C  55.30167276054892 35.7715718475936 65.83363250253483
H  55.318427227276416 35.6746655291754 66.92659274571875
H  54.497694064752174 36.47784804709658 65.57914784851394
C  54.87765217438872 34.44554753331618 65.20170721695168
C  54.78915543345003 33.166833810917446 66.10253909348054
O  54.54660648444191 33.366493028777406 67.31381407944706
O  54.98752757672371 32.0453030216699 65.55959603637078
O  54.563482850586475 34.3637071966462 64.03160285925733
C  56.69498888513205 36.326465582444214 62.81372414730084
H  56.915497917819664 35.828137312932235 61.86433595445266
C  57.08394823043956 35.815045560219 63.98418185207666
H  57.63167189775542 34.86768604255331 64.02508295486146
C  56.660383561991836 36.42936839732942 65.31244811211624
C  56.475167241049085 37.92830162663142 65.11982610820404
H  56.6270458197525 38.571028339873024 65.99130736004473
C  56.10935016788464 38.449405028582795 63.94387329686249
H  55.93743596648445 39.52311943367403 63.809842223620734
C  55.85111950144793 37.575378609552615 62.73762843690139
H  54.792433560003936 37.24762085330186 62.80313089915514
O  55.943398933985954 38.25188047700715 61.508867241137864
H  56.870694553542045 38.451076505979145 61.312875901637234
C  57.787723518282554 36.142946274274934 66.33288115079827
O  57.918265616375784 34.95744748337413 66.75906046035155
O  58.54621382589276 37.08835335708382 66.6617187481856
C  64.9396 33.2655 44.4287
O  66.123425 33.327276 44.032163
O  64.228316 32.238117 44.461259
H  64.481621 34.20135 44.781461
C  57.4834 32.0504 67.3155
N  57.633977 32.43562 66.051446
H  57.32346 33.098122 66.7477
H  57.830146 31.480582 66.315113
N  57.074501 32.922804 68.232349
H  57.27067 31.967766 68.496016
H  57.188849 33.21534 67.272428
N  57.741721 30.792776 67.662705
H  57.85607 31.085311 66.702784
H  57.431204 31.455278 68.358959
C  57.2348 27.8772 45.8643
O  58.418625 27.938976 45.467763
O  56.523516 26.849817 45.896859
H  56.776821 28.81305 46.217061
C  70.6042 27.8801 55.8957
O  71.788025 27.941876 55.499163
O  69.892916 26.852717 55.928259
H  70.146221 28.81595 56.248461
C  56.6197 24.8739 63.1071
N  56.770277 25.25912 61.843046
H  56.45976 25.921622 62.5393
H  56.966446 24.304082 62.106713
N  56.210801 25.746304 64.023949
H  56.40697 24.791266 64.287616
H  56.325149 26.03884 63.064028
N  56.878021 23.616276 63.454305
H  56.99237 23.908811 62.494384
H  56.567504 24.278778 64.150559
C  67.6272 26.5328 48.4134
O  68.811025 26.594576 48.016863
O  66.915916 25.505417 48.445959
H  67.169221 27.46865 48.766161
C  67.2354 23.7803 55.3884
O  68.419225 23.842076 54.991863
O  66.524116 22.752917 55.420959
H  66.777421 24.71615 55.741161
C  52.0536 26.3403 62.6107
N  52.204177 26.72552 61.346646
H  51.89366 27.388022 62.0429
H  52.400346 25.770482 61.610313
N  51.644701 27.212704 63.527549
H  51.84087 26.257666 63.791216
H  51.759049 27.50524 62.567628
N  52.311921 25.082676 62.957905
H  52.42627 25.375211 61.997984
H  52.001404 25.745178 63.654159
C  60.9904 38.2021 66.1907
N  61.140977 38.58732 64.926646
H  60.83046 39.249822 65.6229
H  61.337146 37.632282 65.190313
N  60.581501 39.074504 67.107549
H  60.77767 38.119466 67.371216
H  60.695849 39.36704 66.147628
N  61.248721 36.944476 66.537905
H  61.36307 37.237011 65.577984
H  60.938204 37.606978 67.234159
C  60.5427 22.2881 53.7491
O  61.726525 22.349876 53.352563
O  59.831416 21.260717 53.781659
H  60.084721 23.22395 54.101861
88
Image 13. Energy: -22843.7523886176 
C  55.1513657354282 35.6531538740823 65.33633003905567
H  54.79352991673162 35.951226527365876 66.32946286360854
H  54.40931280521759 36.008858824168534 64.60153527090054
C  55.13952759411289 34.141645501480276 65.23461106131613
C  54.674079476163215 33.32005434069242 66.50083174754613
O  54.14587811331914 33.951833387785406 67.42301589703774
O  54.92902889877847 32.06999212411009 66.47018522857746
O  55.45266454018226 33.54046820330311 64.2260211941036
C  57.01782680879269 36.77616730335194 62.57241204803092
H  57.41771473746063 36.41956760502472 61.6172397189361
C  57.054328236261185 35.996523249427426 63.660318953746376
H  57.472668136840596 34.98929709240872 63.58781118127614
C  56.48758306958208 36.40288108720121 65.0104896530553
C  56.17945432943334 37.88621147985264 65.0357117874568
H  55.92300133003154 38.30573150188673 66.0145800893454
C  56.13229337888621 38.65872447805124 63.945426558753
H  55.85351530780409 39.7149969584809 64.01855091532772
C  56.423493588263945 38.15814286117776 62.55441510215411
H  55.46931961495823 38.1183530724889 61.994504506368855
O  57.22184489294729 39.07306980549292 61.81855580000386
H  58.1300891269056 39.026754403968575 62.148988752474565
C  57.59875122875047 36.09722034595252 66.0573342098231
O  57.5800402594136 34.98178257704563 66.6585107712887
O  58.49684376374281 36.96035703520629 66.22439182982018
C  64.9396 33.2655 44.4287
O  66.123425 33.327276 44.032163
O  64.228316 32.238117 44.461259
H  64.481621 34.20135 44.781461
C  57.4834 32.0504 67.3155
N  57.633977 32.43562 66.051446
H  57.32346 33.098122 66.7477
H  57.830146 31.480582 66.315113
N  57.074501 32.922804 68.232349
H  57.27067 31.967766 68.496016
H  57.188849 33.21534 67.272428
N  57.741721 30.792776 67.662705
H  57.85607 31.085311 66.702784
H  57.431204 31.455278 68.358959
C  57.2348 27.8772 45.8643
O  58.418625 27.938976 45.467763
O  56.523516 26.849817 45.896859
H  56.776821 28.81305 46.217061
C  70.6042 27.8801 55.8957
O  71.788025 27.941876 55.499163
O  69.892916 26.852717 55.928259
H  70.146221 28.81595 56.248461
C  56.6197 24.8739 63.1071
N  56.770277 25.25912 61.843046
H  56.45976 25.921622 62.5393
H  56.966446 24.304082 62.106713
N  56.210801 25.746304 64.023949
H  56.40697 24.791266 64.287616
H  56.325149 26.03884 63.064028
N  56.878021 23.616276 63.454305
H  56.99237 23.908811 62.494384
H  56.567504 24.278778 64.150559
C  67.6272 26.5328 48.4134
O  68.811025 26.594576 48.016863
O  66.915916 25.505417 48.445959
H  67.169221 27.46865 48.766161
C  67.2354 23.7803 55.3884
O  68.419225 23.842076 54.991863
O  66.524116 22.752917 55.420959
H  66.777421 24.71615 55.741161
C  52.0536 26.3403 62.6107
N  52.204177 26.72552 61.346646
H  51.89366 27.388022 62.0429
H  52.400346 25.770482 61.610313
N  51.644701 27.212704 63.527549
H  51.84087 26.257666 63.791216
H  51.759049 27.50524 62.567628
N  52.311921 25.082676 62.957905
H  52.42627 25.375211 61.997984
H  52.001404 25.745178 63.654159
C  60.9904 38.2021 66.1907
N  61.140977 38.58732 64.926646
H  60.83046 39.249822 65.6229
H  61.337146 37.632282 65.190313
N  60.581501 39.074504 67.107549
H  60.77767 38.119466 67.371216
H  60.695849 39.36704 66.147628
N  61.248721 36.944476 66.537905
H  61.36307 37.237011 65.577984
H  60.938204 37.606978 67.234159
C  60.5427 22.2881 53.7491
O  61.726525 22.349876 53.352563
O  59.831416 21.260717 53.781659
H  60.084721 23.22395 54.101861
