88
-2 1 -839.5078103888991
C       52.84632210    32.95978983    68.26110047
H       52.10362744    33.76045991    68.30978770
H       52.94116381    32.26498617    69.09562859
C       53.61675196    32.79037243    67.17451856
C       54.58940463    31.62485418    67.08621409
O       54.94365373    31.07953687    68.16813704
O       55.03175925    31.29525243    65.94592543
O       53.42953945    33.61648968    66.09870925
C       54.50366751    34.13009005    65.30697461
H       54.82031922    33.33689499    64.60677006
C       55.73783058    34.55563312    66.03541919
H       56.31352420    33.73746917    66.55560703
C       56.43732005    35.68846181    65.84210993
C       55.84587478    36.74682465    65.02250956
H       56.38943196    37.68818574    64.94502051
C       54.68237905    36.54913992    64.37646484
H       54.24560418    37.33934346    63.75942498
C       53.87207597    35.28706218    64.46991378
H       52.94810251    35.54895198    65.01942741
O       53.45465098    34.81861338    63.20893866
H       54.15997278    34.97272007    62.56082958
C       57.86594969    35.86642985    66.38116937
O       58.40910090    34.87907393    66.95845142
O       58.42036545    36.97520212    66.19854960
C       64.93960000    33.26550000    44.42870000
O       66.12342500    33.32727600    44.03216300
O       64.22831600    32.23811700    44.46125900
H       64.48162100    34.20135000    44.78146100
C       57.48340000    32.05040000    67.31550000
N       57.63397700    32.43562000    66.05144600
H       57.32346000    33.09812200    66.74770000
H       57.83014600    31.48058200    66.31511300
N       57.07450100    32.92280400    68.23234900
H       57.27067000    31.96776600    68.49601600
H       57.18884900    33.21534000    67.27242800
N       57.74172100    30.79277600    67.66270500
H       57.85607000    31.08531100    66.70278400
H       57.43120400    31.45527800    68.35895900
C       57.23480000    27.87720000    45.86430000
O       58.41862500    27.93897600    45.46776300
O       56.52351600    26.84981700    45.89685900
H       56.77682100    28.81305000    46.21706100
C       70.60420000    27.88010000    55.89570000
O       71.78802500    27.94187600    55.49916300
O       69.89291600    26.85271700    55.92825900
H       70.14622100    28.81595000    56.24846100
C       56.61970000    24.87390000    63.10710000
N       56.77027700    25.25912000    61.84304600
H       56.45976000    25.92162200    62.53930000
H       56.96644600    24.30408200    62.10671300
N       56.21080100    25.74630400    64.02394900
H       56.40697000    24.79126600    64.28761600
H       56.32514900    26.03884000    63.06402800
N       56.87802100    23.61627600    63.45430500
H       56.99237000    23.90881100    62.49438400
H       56.56750400    24.27877800    64.15055900
C       67.62720000    26.53280000    48.41340000
O       68.81102500    26.59457600    48.01686300
O       66.91591600    25.50541700    48.44595900
H       67.16922100    27.46865000    48.76616100
C       67.23540000    23.78030000    55.38840000
O       68.41922500    23.84207600    54.99186300
O       66.52411600    22.75291700    55.42095900
H       66.77742100    24.71615000    55.74116100
C       52.05360000    26.34030000    62.61070000
N       52.20417700    26.72552000    61.34664600
H       51.89366000    27.38802200    62.04290000
H       52.40034600    25.77048200    61.61031300
N       51.64470100    27.21270400    63.52754900
H       51.84087000    26.25766600    63.79121600
H       51.75904900    27.50524000    62.56762800
N       52.31192100    25.08267600    62.95790500
H       52.42627000    25.37521100    61.99798400
H       52.00140400    25.74517800    63.65415900
C       60.99040000    38.20210000    66.19070000
N       61.14097700    38.58732000    64.92664600
H       60.83046000    39.24982200    65.62290000
H       61.33714600    37.63228200    65.19031300
N       60.58150100    39.07450400    67.10754900
H       60.77767000    38.11946600    67.37121600
H       60.69584900    39.36704000    66.14762800
N       61.24872100    36.94447600    66.53790500
H       61.36307000    37.23701100    65.57798400
H       60.93820400    37.60697800    67.23415900
C       60.54270000    22.28810000    53.74910000
O       61.72652500    22.34987600    53.35256300
O       59.83141600    21.26071700    53.78165900
H       60.08472100    23.22395000    54.10186100
