88
-2 1 -839.4923915129594
C       55.14855788    35.65686786    65.33519709
H       54.79160012    35.95380448    66.32894135
H       54.40805273    36.01424031    64.60036440
C       55.13528082    34.14578521    65.23384488
C       54.68403217    33.32584008    66.50520399
O       54.18487934    33.96236575    67.44107038
O       54.92548770    32.07270612    66.46813743
O       55.43862526    33.54399252    64.22169798
C       57.00464221    36.77200252    62.57060115
H       57.39550791    36.41146504    61.61348887
C       57.04646370    35.99482490    63.65945811
H       57.45989593    34.98570579    63.58593580
C       56.48579277    36.40430065    65.01030157
C       56.18278497    37.88826667    65.03571288
H       55.93132560    38.30955018    66.01495311
C       56.13656906    38.66028257    63.94586229
H       55.86231368    39.71748384    64.01936643
C       56.42156778    38.15838081    62.55465575
H       55.46666334    38.12987443    61.99590977
O       57.23130409    39.06528716    61.82081176
H       58.13993132    38.99856903    62.14839453
C       57.59743354    36.09574251    66.05496710
O       57.57632778    34.98058235    66.65576796
O       58.49911519    36.95509286    66.22059060
C       64.93960000    33.26550000    44.42870000
O       66.12342500    33.32727600    44.03216300
O       64.22831600    32.23811700    44.46125900
H       64.48162100    34.20135000    44.78146100
C       57.48340000    32.05040000    67.31550000
N       57.63397700    32.43562000    66.05144600
H       57.32346000    33.09812200    66.74770000
H       57.83014600    31.48058200    66.31511300
N       57.07450100    32.92280400    68.23234900
H       57.27067000    31.96776600    68.49601600
H       57.18884900    33.21534000    67.27242800
N       57.74172100    30.79277600    67.66270500
H       57.85607000    31.08531100    66.70278400
H       57.43120400    31.45527800    68.35895900
C       57.23480000    27.87720000    45.86430000
O       58.41862500    27.93897600    45.46776300
O       56.52351600    26.84981700    45.89685900
H       56.77682100    28.81305000    46.21706100
C       70.60420000    27.88010000    55.89570000
O       71.78802500    27.94187600    55.49916300
O       69.89291600    26.85271700    55.92825900
H       70.14622100    28.81595000    56.24846100
C       56.61970000    24.87390000    63.10710000
N       56.77027700    25.25912000    61.84304600
H       56.45976000    25.92162200    62.53930000
H       56.96644600    24.30408200    62.10671300
N       56.21080100    25.74630400    64.02394900
H       56.40697000    24.79126600    64.28761600
H       56.32514900    26.03884000    63.06402800
N       56.87802100    23.61627600    63.45430500
H       56.99237000    23.90881100    62.49438400
H       56.56750400    24.27877800    64.15055900
C       67.62720000    26.53280000    48.41340000
O       68.81102500    26.59457600    48.01686300
O       66.91591600    25.50541700    48.44595900
H       67.16922100    27.46865000    48.76616100
C       67.23540000    23.78030000    55.38840000
O       68.41922500    23.84207600    54.99186300
O       66.52411600    22.75291700    55.42095900
H       66.77742100    24.71615000    55.74116100
C       52.05360000    26.34030000    62.61070000
N       52.20417700    26.72552000    61.34664600
H       51.89366000    27.38802200    62.04290000
H       52.40034600    25.77048200    61.61031300
N       51.64470100    27.21270400    63.52754900
H       51.84087000    26.25766600    63.79121600
H       51.75904900    27.50524000    62.56762800
N       52.31192100    25.08267600    62.95790500
H       52.42627000    25.37521100    61.99798400
H       52.00140400    25.74517800    63.65415900
C       60.99040000    38.20210000    66.19070000
N       61.14097700    38.58732000    64.92664600
H       60.83046000    39.24982200    65.62290000
H       61.33714600    37.63228200    65.19031300
N       60.58150100    39.07450400    67.10754900
H       60.77767000    38.11946600    67.37121600
H       60.69584900    39.36704000    66.14762800
N       61.24872100    36.94447600    66.53790500
H       61.36307000    37.23701100    65.57798400
H       60.93820400    37.60697800    67.23415900
C       60.54270000    22.28810000    53.74910000
O       61.72652500    22.34987600    53.35256300
O       59.83141600    21.26071700    53.78165900
H       60.08472100    23.22395000    54.10186100
