24
Coordinates from ORCA-job neb_initial_path.QMRegion E   0.000000000000
  C      40.766000     20.891000     47.497000
  H      41.620000     20.423000     47.007000
  H      40.817000     21.947000     47.762000
  C      39.643000     20.220000     47.774000
  C      38.474000     20.858000     48.508000
  O      38.378000     22.114000     48.478000
  O      37.691000     20.093000     49.113000
  O      39.499000     18.879000     47.470000
  C      39.036000     18.535000     46.112000
  H      38.953000     17.439000     46.136000
  C      40.092000     18.972000     45.148000
  H      41.035000     18.425000     45.114000
  C      39.980000     20.119000     44.451000
  C      38.746000     20.908000     44.547000
  H      38.744000     21.888000     44.068000
  C      37.668000     20.466000     45.220000
  H      36.767000     21.084000     45.288000
  C      37.617000     19.088000     45.832000
  H      37.100000     19.134000     46.805000
  O      36.917000     18.235000     44.938000
  H      36.293000     17.634000     45.445000
  C      41.187000     20.659000     43.688000
  O      42.200000     19.929000     43.596000
  O      41.091000     21.831000     43.233000
24
Coordinates from ORCA-job neb_initial_path.QMRegion E   0.000000000000
  C      40.756200     20.867400     47.389200
  H      41.626000     20.392200     46.951600
  H      40.799400     21.929400     47.615800
  C      39.661800     20.193600     47.755200
  C      38.495800     20.848600     48.486000
  O      38.410000     22.105200     48.456200
  O      37.706400     20.091600     49.092600
  O      39.535200     18.865000     47.501600
  C      39.017600     18.480200     46.053800
  H      38.951600     17.389400     46.115600
  C      40.073400     18.941600     45.142400
  H      41.013400     18.395800     45.082600
  C      39.989000     20.134600     44.535400
  C      38.744600     20.910200     44.614600
  H      38.740800     21.899400     44.157600
  C      37.658400     20.440200     45.244000
  H      36.749000     21.044600     45.299800
  C      37.607600     19.052000     45.827800
  H      37.112000     19.084000     46.810800
  O      36.881400     18.223200     44.934800
  H      36.257200     17.623000     45.444600
  C      41.181600     20.664400     43.738200
  O      42.185400     19.926000     43.627000
  O      41.075400     21.824200     43.259600
24
Coordinates from ORCA-job neb_initial_path.QMRegion E   0.000000000000
  C      40.746400     20.843800     47.281400
  H      41.632000     20.361400     46.896200
  H      40.781800     21.911800     47.469600
  C      39.680600     20.167200     47.736400
  C      38.517600     20.839200     48.464000
  O      38.442000     22.096400     48.434400
  O      37.721800     20.090200     49.072200
  O      39.571400     18.851000     47.533200
  C      38.999200     18.425400     45.995600
  H      38.950200     17.339800     46.095200
  C      40.054800     18.911200     45.136800
  H      40.991800     18.366600     45.051200
  C      39.998000     20.150200     44.619800
  C      38.743200     20.912400     44.682200
  H      38.737600     21.910800     44.247200
  C      37.648800     20.414400     45.268000
  H      36.731000     21.005200     45.311600
  C      37.598200     19.016000     45.823600
  H      37.124000     19.034000     46.816600
  O      36.845800     18.211400     44.931600
  H      36.221400     17.612000     45.444200
  C      41.176200     20.669800     43.788400
  O      42.170800     19.923000     43.658000
  O      41.059800     21.817400     43.286200
24
Coordinates from ORCA-job neb_initial_path.QMRegion E   0.000000000000
  C      40.736600     20.820200     47.173600
  H      41.638000     20.330600     46.840800
  H      40.764200     21.894200     47.323400
  C      39.699400     20.140800     47.717600
  C      38.539400     20.829800     48.442000
  O      38.474000     22.087600     48.412600
  O      37.737200     20.088800     49.051800
  O      39.607600     18.837000     47.564800
  C      38.980800     18.370600     45.937400
  H      38.948800     17.290200     46.074800
  C      40.036200     18.880800     45.131200
  H      40.970200     18.337400     45.019800
  C      40.007000     20.165800     44.704200
  C      38.741800     20.914600     44.749800
  H      38.734400     21.922200     44.336800
  C      37.639200     20.388600     45.292000
  H      36.713000     20.965800     45.323400
  C      37.588800     18.980000     45.819400
  H      37.136000     18.984000     46.822400
  O      36.810200     18.199600     44.928400
  H      36.185600     17.601000     45.443800
  C      41.170800     20.675200     43.838600
  O      42.156200     19.920000     43.689000
  O      41.044200     21.810600     43.312800
24
Coordinates from ORCA-job neb_initial_path.QMRegion E   0.000000000000
  C      40.726800     20.796600     47.065800
  H      41.644000     20.299800     46.785400
  H      40.746600     21.876600     47.177200
  C      39.718200     20.114400     47.698800
  C      38.561200     20.820400     48.420000
  O      38.506000     22.078800     48.390800
  O      37.752600     20.087400     49.031400
  O      39.643800     18.823000     47.596400
  C      38.962400     18.315800     45.879200
  H      38.947400     17.240600     46.054400
  C      40.017600     18.850400     45.125600
  H      40.948600     18.308200     44.988400
  C      40.016000     20.181400     44.788600
  C      38.740400     20.916800     44.817400
  H      38.731200     21.933600     44.426400
  C      37.629600     20.362800     45.316000
  H      36.695000     20.926400     45.335200
  C      37.579400     18.944000     45.815200
  H      37.148000     18.934000     46.828200
  O      36.774600     18.187800     44.925200
  H      36.149800     17.590000     45.443400
  C      41.165400     20.680600     43.888800
  O      42.141600     19.917000     43.720000
  O      41.028600     21.803800     43.339400
24
Coordinates from ORCA-job neb_initial_path.QMRegion E   0.000000000000
  C      40.717000     20.773000     46.958000
  H      41.650000     20.269000     46.730000
  H      40.729000     21.859000     47.031000
  C      39.737000     20.088000     47.680000
  C      38.583000     20.811000     48.398000
  O      38.538000     22.070000     48.369000
  O      37.768000     20.086000     49.011000
  O      39.680000     18.809000     47.628000
  C      38.944000     18.261000     45.821000
  H      38.946000     17.191000     46.034000
  C      39.999000     18.820000     45.120000
  H      40.927000     18.279000     44.957000
  C      40.025000     20.197000     44.873000
  C      38.739000     20.919000     44.885000
  H      38.728000     21.945000     44.516000
  C      37.620000     20.337000     45.340000
  H      36.677000     20.887000     45.347000
  C      37.570000     18.908000     45.811000
  H      37.160000     18.884000     46.834000
  O      36.739000     18.176000     44.922000
  H      36.114000     17.579000     45.443000
  C      41.160000     20.686000     43.939000
  O      42.127000     19.914000     43.751000
  O      41.013000     21.797000     43.366000
24
Coordinates from ORCA-job neb_initial_path.QMRegion E   0.000000000000
  C      40.706750     20.741750     46.870250
  H      41.663500     20.273000     46.723750
  H      40.708750     21.826750     46.961750
  C      39.777500     20.071500     47.694750
  C      38.614000     20.803000     48.397500
  O      38.585000     22.060250     48.366500
  O      37.786250     20.080750     48.994250
  O      39.809750     18.837250     47.762000
  C      38.910500     18.221500     45.727000
  H      38.899750     17.146250     45.902000
  C      39.991000     18.795500     45.141500
  H      40.920250     18.253000     44.990500
  C      40.046250     20.202750     44.950000
  C      38.747000     20.911500     44.911000
  H      38.739750     21.941250     44.553750
  C      37.618000     20.320750     45.313500
  H      36.675500     20.870250     45.294500
  C      37.552500     18.887000     45.765500
  H      37.171500     18.857250     46.800000
  O      36.680000     18.186500     44.898000
  H      36.068250     17.587250     45.429500
  C      41.156750     20.671000     43.966000
  O      42.112500     19.889750     43.763500
  O      41.007250     21.778500     43.387250
24
Coordinates from ORCA-job neb_initial_path.QMRegion E   0.000000000000
  C      40.696500     20.710500     46.782500
  H      41.677000     20.277000     46.717500
  H      40.688500     21.794500     46.892500
  C      39.818000     20.055000     47.709500
  C      38.645000     20.795000     48.397000
  O      38.632000     22.050500     48.364000
  O      37.804500     20.075500     48.977500
  O      39.939500     18.865500     47.896000
  C      38.877000     18.182000     45.633000
  H      38.853500     17.101500     45.770000
  C      39.983000     18.771000     45.163000
  H      40.913500     18.227000     45.024000
  C      40.067500     20.208500     45.027000
  C      38.755000     20.904000     44.937000
  H      38.751500     21.937500     44.591500
  C      37.616000     20.304500     45.287000
  H      36.674000     20.853500     45.242000
  C      37.535000     18.866000     45.720000
  H      37.183000     18.830500     46.766000
  O      36.621000     18.197000     44.874000
  H      36.022500     17.595500     45.416000
  C      41.153500     20.656000     43.993000
  O      42.098000     19.865500     43.776000
  O      41.001500     21.760000     43.408500
24
Coordinates from ORCA-job neb_initial_path.QMRegion E   0.000000000000
  C      40.686250     20.679250     46.694750
  H      41.690500     20.281000     46.711250
  H      40.668250     21.762250     46.823250
  C      39.858500     20.038500     47.724250
  C      38.676000     20.787000     48.396500
  O      38.679000     22.040750     48.361500
  O      37.822750     20.070250     48.960750
  O      40.069250     18.893750     48.030000
  C      38.843500     18.142500     45.539000
  H      38.807250     17.056750     45.638000
  C      39.975000     18.746500     45.184500
  H      40.906750     18.201000     45.057500
  C      40.088750     20.214250     45.104000
  C      38.763000     20.896500     44.963000
  H      38.763250     21.933750     44.629250
  C      37.614000     20.288250     45.260500
  H      36.672500     20.836750     45.189500
  C      37.517500     18.845000     45.674500
  H      37.194500     18.803750     46.732000
  O      36.562000     18.207500     44.850000
  H      35.976750     17.603750     45.402500
  C      41.150250     20.641000     44.020000
  O      42.083500     19.841250     43.788500
  O      40.995750     21.741500     43.429750
24
Coordinates from ORCA-job neb_initial_path.QMRegion E   0.000000000000
  C      40.676000     20.648000     46.607000
  H      41.704000     20.285000     46.705000
  H      40.648000     21.730000     46.754000
  C      39.899000     20.022000     47.739000
  C      38.707000     20.779000     48.396000
  O      38.726000     22.031000     48.359000
  O      37.841000     20.065000     48.944000
  O      40.199000     18.922000     48.164000
  C      38.810000     18.103000     45.445000
  H      38.761000     17.012000     45.506000
  C      39.967000     18.722000     45.206000
  H      40.900000     18.175000     45.091000
  C      40.110000     20.220000     45.181000
  C      38.771000     20.889000     44.989000
  H      38.775000     21.930000     44.667000
  C      37.612000     20.272000     45.234000
  H      36.671000     20.820000     45.137000
  C      37.500000     18.824000     45.629000
  H      37.206000     18.777000     46.698000
  O      36.503000     18.218000     44.826000
  H      35.931000     17.612000     45.389000
  C      41.147000     20.626000     44.047000
  O      42.069000     19.817000     43.801000
  O      40.990000     21.723000     43.451000
