24
Coordinates from ORCA-job neb_MEP.QMRegion E -1076.125350381704
  C      40.766000     20.891000     47.497000
  H      41.620000     20.423000     47.007000
  H      40.817000     21.947000     47.762000
  C      39.643000     20.220000     47.774000
  C      38.474000     20.858000     48.508000
  O      38.378000     22.114000     48.478000
  O      37.691000     20.093000     49.113000
  O      39.499000     18.879000     47.470000
  C      39.036000     18.535000     46.112000
  H      38.953000     17.439000     46.136000
  C      40.092000     18.972000     45.148000
  H      41.035000     18.425000     45.114000
  C      39.980000     20.119000     44.451000
  C      38.746000     20.908000     44.547000
  H      38.744000     21.888000     44.068000
  C      37.668000     20.466000     45.220000
  H      36.767000     21.084000     45.288000
  C      37.617000     19.088000     45.832000
  H      37.100000     19.134000     46.805000
  O      36.917000     18.235000     44.938000
  H      36.293000     17.634000     45.445000
  C      41.187000     20.659000     43.688000
  O      42.200000     19.929000     43.596000
  O      41.091000     21.831000     43.233000
24
Coordinates from ORCA-job neb_MEP.QMRegion E -1076.127132267533
  C      40.787786     20.797076     47.347310
  H      41.618901     20.316421     46.835018
  H      40.832944     21.868399     47.540867
  C      39.682939     20.132895     47.702344
  C      38.538861     20.802626     48.445852
  O      38.466381     22.060681     48.412895
  O      37.745468     20.058399     49.064862
  O      39.525253     18.782696     47.442350
  C      39.018016     18.415575     46.097788
  H      38.950517     17.318752     46.131901
  C      40.033673     18.873495     45.105031
  H      40.971399     18.327528     45.011917
  C      39.920014     20.064857     44.485013
  C      38.694215     20.854342     44.658769
  H      38.688333     21.867192     44.253038
  C      37.627343     20.371271     45.321584
  H      36.724880     20.976719     45.439169
  C      37.592216     18.965727     45.869151
  H      37.098117     18.969151     46.853893
  O      36.879567     18.142465     44.958122
  H      36.213757     17.578079     45.454064
  C      41.125962     20.628227     43.734159
  O      42.144578     19.904074     43.644192
  O      41.031686     21.802487     43.285606
24
Coordinates from ORCA-job neb_MEP.QMRegion E -1076.115294995107
  C      40.780606     20.817255     47.231831
  H      41.650917     20.350948     46.776277
  H      40.750645     21.906705     47.288556
  C      39.725508     20.114373     47.682708
  C      38.573595     20.799097     48.416863
  O      38.500785     22.058153     48.383831
  O      37.767772     20.064021     49.032942
  O      39.587515     18.758764     47.458688
  C      39.006053     18.340249     46.027549
  H      38.957166     17.239093     46.078052
  C      40.025499     18.839009     45.095645
  H      40.948403     18.281001     44.959737
  C      39.955094     20.100745     44.618492
  C      38.723624     20.880117     44.793880
  H      38.722855     21.914803     44.448871
  C      37.620439     20.336274     45.336627
  H      36.687813     20.903983     45.390105
  C      37.578906     18.916803     45.839552
  H      37.140334     18.904827     46.847017
  O      36.785858     18.151479     44.943850
  H      36.123719     17.584643     45.453337
  C      41.141757     20.651664     43.832843
  O      42.144106     19.910676     43.708474
  O      41.034016     21.805319     43.338192
24
Coordinates from ORCA-job neb_MEP.QMRegion E -1076.101495763313
  C      40.780928     20.835254     47.196194
  H      41.667592     20.358718     46.786158
  H      40.742216     21.923081     47.233616
  C      39.754515     20.113160     47.720075
  C      38.580583     20.804903     48.424074
  O      38.500170     22.063231     48.378836
  O      37.768801     20.070044     49.033021
  O      39.669884     18.790881     47.579028
  C      38.965620     18.290058     45.898633
  H      38.947031     17.203404     46.043088
  C      40.015883     18.825201     45.098987
  H      40.945039     18.277157     44.970698
  C      39.970022     20.122765     44.677289
  C      38.728130     20.888067     44.810392
  H      38.725609     21.919547     44.457402
  C      37.617786     20.333221     45.325814
  H      36.683318     20.896722     45.372198
  C      37.570732     18.909722     45.810639
  H      37.161719     18.892346     46.831709
  O      36.744435     18.163803     44.926979
  H      36.100753     17.584437     45.448257
  C      41.148343     20.659611     43.861716
  O      42.138076     19.906678     43.718682
  O      41.029751     21.801820     43.344936
24
Coordinates from ORCA-job neb_MEP.QMRegion E -1076.096336567101
  C      40.776663     20.844524     47.149645
  H      41.680764     20.360884     46.792288
  H      40.735847     21.930516     47.191300
  C      39.774171     20.110553     47.746023
  C      38.584187     20.808955     48.430239
  O      38.500014     22.066473     48.374096
  O      37.769413     20.074155     49.032613
  O      39.738122     18.819912     47.681340
  C      38.934910     18.250654     45.796355
  H      38.937779     17.179561     46.012391
  C      40.006439     18.812876     45.107396
  H      40.941410     18.274302     44.979063
  C      39.983227     20.144678     44.730877
  C      38.731014     20.894270     44.823172
  H      38.727204     21.923619     44.464788
  C      37.615767     20.329463     45.316941
  H      36.680677     20.892100     45.361620
  C      37.566788     18.902052     45.788304
  H      37.177358     18.882972     46.819443
  O      36.713882     18.171989     44.915522
  H      36.086735     17.582634     45.445621
  C      41.152035     20.665898     43.882481
  O      42.132078     19.903594     43.724758
  O      41.026303     21.799003     43.348368
24
Coordinates from ORCA-job neb_MEP.QMRegion E -1076.095138833951
  C      40.765572     20.845164     47.085067
  H      41.694181     20.362836     46.797009
  H      40.726233     21.930292     47.140473
  C      39.789002     20.108449     47.758371
  C      38.588549     20.810574     48.432730
  O      38.503666     22.066841     48.368324
  O      37.773780     20.075567     49.032614
  O      39.795115     18.839613     47.759894
  C      38.915347     18.222961     45.727503
  H      38.926327     17.159340     45.973256
  C      40.001426     18.804575     45.120565
  H      40.939414     18.271291     44.989610
  C      40.001247     20.168537     44.793544
  C      38.734935     20.900215     44.839003
  H      38.729020     21.927799     44.475744
  C      37.614987     20.324546     45.307971
  H      36.677897     20.884475     45.345663
  C      37.563291     18.893576     45.768243
  H      37.190110     18.872694     46.807031
  O      36.686057     18.180535     44.905670
  H      36.072624     17.582422     45.441869
  C      41.156144     20.671724     43.905302
  O      42.126855     19.900847     43.732356
  O      41.023156     21.795807     43.354310
24
Coordinates from ORCA-job neb_MEP.QMRegion E -1076.097491734998
  C      40.731326     20.825351     46.959491
  H      41.699910     20.359011     46.801982
  H      40.710620     21.909571     47.075131
  C      39.790593     20.101443     47.750719
  C      38.591393     20.811839     48.432914
  O      38.513540     22.066923     48.365576
  O      37.781274     20.077193     49.036388
  O      39.838396     18.858251     47.825040
  C      38.904985     18.206292     45.678486
  H      38.917412     17.145362     45.935242
  C      40.000431     18.801843     45.143921
  H      40.938740     18.270448     45.003183
  C      40.037917     20.211126     44.903609
  C      38.741188     20.910292     44.865908
  H      38.729719     21.932884     44.488300
  C      37.617828     20.322162     45.303738
  H      36.676546     20.876700     45.325156
  C      37.562551     18.888477     45.758850
  H      37.196589     18.865132     46.801341
  O      36.668616     18.189659     44.902145
  H      36.065802     17.584394     45.440661
  C      41.162806     20.681473     43.938118
  O      42.119866     19.899470     43.742033
  O      41.017262     21.791693     43.362782
24
Coordinates from ORCA-job neb_MEP.QMRegion E -1076.105732057137
  C      40.691698     20.793370     46.818347
  H      41.692794     20.357094     46.804483
  H      40.694447     21.875661     47.010650
  C      39.785406     20.091638     47.733717
  C      38.594131     20.813354     48.432073
  O      38.524249     22.066287     48.364408
  O      37.788941     20.077250     49.039160
  O      39.873798     18.874961     47.879047
  C      38.900515     18.196530     45.642263
  H      38.910149     17.134423     45.898244
  C      40.002005     18.801680     45.167773
  H      40.939027     18.269344     45.014775
  C      40.081879     20.258478     45.024704
  C      38.749177     20.919038     44.893165
  H      38.730177     21.935917     44.498461
  C      37.623617     20.319951     45.301324
  H      36.677452     20.868506     45.304518
  C      37.563027     18.883832     45.753040
  H      37.200320     18.857934     46.797249
  O      36.656399     18.197054     44.899922
  H      36.061435     17.585926     45.438950
  C      41.168864     20.690190     43.967318
  O      42.112438     19.897428     43.749335
  O      41.011011     21.786653     43.369718
24
Coordinates from ORCA-job neb_MEP.QMRegion E -1076.123506065858
  C      40.650236     20.742287     46.671676
  H      41.669553     20.349911     46.787691
  H      40.656781     21.820498     46.891561
  C      39.786148     20.078224     47.712309
  C      38.606595     20.813542     48.427676
  O      38.551604     22.065995     48.362053
  O      37.803017     20.080134     49.037113
  O      39.949477     18.900033     47.975399
  C      38.890433     18.181553     45.590158
  H      38.889592     17.109804     45.803725
  C      40.008014     18.801695     45.199907
  H      40.941970     18.265926     45.043990
  C      40.125354     20.297270     45.146243
  C      38.766990     20.929688     44.939999
  H      38.739181     21.943299     44.536844
  C      37.633130     20.315676     45.297037
  H      36.681593     20.854599     45.258223
  C      37.560841     18.875479     45.735843
  H      37.210871     18.841600     46.786013
  O      36.628460     18.213860     44.892467
  H      36.046284     17.593227     45.432852
  C      41.174525     20.696145     44.010733
  O      42.101787     19.891609     43.769222
  O      41.002115     21.778076     43.390091
24
Coordinates from ORCA-job neb_MEP.QMRegion E -1076.133327760646
  C      40.676000     20.648000     46.607000
  H      41.704000     20.285000     46.705000
  H      40.648000     21.730000     46.754000
  C      39.899000     20.022000     47.739000
  C      38.707000     20.779000     48.396000
  O      38.726000     22.031000     48.359000
  O      37.841000     20.065000     48.944000
  O      40.199000     18.922000     48.164000
  C      38.810000     18.103000     45.445000
  H      38.761000     17.012000     45.506000
  C      39.967000     18.722000     45.206000
  H      40.900000     18.175000     45.091000
  C      40.110000     20.220000     45.181000
  C      38.771000     20.889000     44.989000
  H      38.775000     21.930000     44.667000
  C      37.612000     20.272000     45.234000
  H      36.671000     20.820000     45.137000
  C      37.500000     18.824000     45.629000
  H      37.206000     18.777000     46.698000
  O      36.503000     18.218000     44.826000
  H      35.931000     17.612000     45.389000
  C      41.147000     20.626000     44.047000
  O      42.069000     19.817000     43.801000
  O      40.990000     21.723000     43.451000
