24
frame 54144 P, aligned onto 20000 on 8 atoms
C      48.13335175    28.19836478    56.00520313
H      49.02807232    27.58950115    56.16926770
H      48.16301801    29.08308794    56.64512643
C      46.96403209    27.35815726    56.45661410
C      45.70023416    28.02582185    57.07516141
O      45.85232651    29.12583864    57.65487252
O      44.63529095    27.38137020    56.97203997
O      46.99513426    26.14593753    56.35571325
C      46.52825608    26.93951510    53.33159314
H      46.35566310    25.97654268    52.84241138
C      47.75268019    27.29769567    53.72072456
H      48.61210018    26.64340641    53.59334380
C      48.04084051    28.57620152    54.46063294
C      46.91616727    29.56747878    54.28793239
H      47.12947535    30.60993420    54.52280975
C      45.68804736    29.20895204    53.90429836
H      44.89249507    29.95701517    53.85241290
C      45.30941652    27.80762148    53.50657441
H      44.67008546    27.37996322    54.30643078
O      44.58641167    27.86868478    52.29019073
H      43.80234653    27.23989393    52.32558734
C      49.43297886    29.16242841    53.96621424
O      50.30063026    28.33918177    53.59943497
O      49.59302425    30.41046448    53.95812519
