24
frame 54144 R, aligned onto 20000 on 8 atoms
C      47.94213522    28.00588168    56.89156394
H      48.86129725    27.60047181    56.46821539
H      48.00360925    28.79807140    57.63763256
C      46.73172616    27.57787139    56.51764402
C      45.45200783    28.10339660    57.14891676
O      45.49440850    29.23198363    57.70761659
O      44.44069157    27.36986291    57.08969908
O      46.56850416    26.57728663    55.57763246
C      46.55779692    26.97383716    54.15654062
H      46.36530497    26.03069615    53.62539761
C      47.91360496    27.50944958    53.82441882
H      48.75516418    26.81796761    53.76745606
C      48.15462269    28.83330376    53.76712515
C      47.04317712    29.77973123    53.92028121
H      47.29770359    30.83795896    53.99249855
C      45.76409419    29.36998677    54.00048930
H      44.95736025    30.09836597    54.13084684
C      45.37647379    27.92153348    53.83386843
H      44.56956654    27.67041566    54.54237003
O      44.93823768    27.73427854    52.49606064
H      44.12477200    27.14656406    52.47389563
C      49.59434031    29.33536841    53.69121563
O      50.50315871    28.49252426    53.51459212
O      49.77143044    30.57323460    53.85292955
