24
frame 54144 TS, aligned onto 20000 on 8 atoms
C      48.07574582    28.14284829    56.52389820
H      48.99552062    27.62011621    56.28162221
H      48.12588461    29.07235669    57.08569930
C      46.86289259    27.45189914    56.48713382
C      45.57999938    28.06646013    57.09155748
O      45.64440611    29.20732435    57.62432526
O      44.54356209    27.36896535    57.03460649
O      46.74461192    26.34632621    55.87582190
C      46.54365274    26.89690488    53.65290938
H      46.36780609    25.86382809    53.34690905
C      47.82168494    27.39774803    53.69768695
H      48.69247633    26.76101296    53.56481709
C      48.06419993    28.72423766    54.08362166
C      46.93389604    29.65039259    54.15856213
H      47.15048024    30.70130358    54.34987004
C      45.67109377    29.22218420    53.99249791
H      44.83508841    29.92188167    54.06029454
C      45.32867033    27.79292897    53.67285309
H      44.62786296    27.42028876    54.44017907
O      44.72746551    27.75720362    52.38472412
H      43.91436411    27.15689188    52.39108572
C      49.49362744    29.26074792    53.87183308
O      50.38606273    28.42741337    53.59696144
O      49.66367254    30.50716116    53.92060505
