24
frame 47641 P, aligned onto 20000 on 8 atoms
C      48.07889635    28.34490463    56.10126086
H      48.97228955    27.73666637    56.28757992
H      48.10311427    29.25989240    56.70581761
C      46.87776781    27.53141325    56.47957688
C      45.73075845    28.20543353    57.25934300
O      46.08011276    29.08356729    58.07356881
O      44.57379375    27.77757620    57.02563212
O      46.81591369    26.35073480    56.19285497
C      46.63570165    27.11307323    53.30493587
H      46.48586114    26.16856722    52.78065138
C      47.84337373    27.47693739    53.74393590
H      48.71298584    26.82865855    53.61127344
C      48.05673965    28.72084603    54.57056718
C      46.93434923    29.70659115    54.35873633
H      47.14170074    30.74062984    54.64659453
C      45.72436002    29.33924773    53.92848419
H      44.92078039    30.07612004    53.85941189
C      45.38316930    27.92268221    53.52939522
H      44.81898959    27.46937062    54.37000087
O      44.58475952    27.91710011    52.35889034
H      43.75387570    27.37879835    52.48735936
C      49.45183629    29.32788811    54.24371048
O      50.46020611    28.65924598    54.64176700
O      49.52258091    30.43425448    53.67971877
