24
frame 47641 R, aligned onto 20000 on 8 atoms
C      48.08577333    28.01159769    56.73698815
H      48.95013767    27.62041281    56.21158385
H      48.21971715    28.77716630    57.50116991
C      46.83765522    27.59671840    56.49595421
C      45.66204823    28.19274889    57.25941794
O      45.92887542    29.06051878    58.11476388
O      44.51096319    27.76451142    56.96126883
O      46.54420151    26.62030103    55.56496602
C      46.53905839    26.96977630    54.13159182
H      46.33822614    26.01355066    53.62983498
C      47.90471418    27.49500814    53.82315583
H      48.73447636    26.78463894    53.81471000
C      48.15070684    28.81866857    53.86800763
C      47.03078431    29.76629330    53.95008620
H      47.28896921    30.82443879    54.03191327
C      45.74837888    29.36276224    53.95002860
H      44.94280167    30.09797784    54.02414592
C      45.35450067    27.91347201    53.81420969
H      44.59055288    27.68792549    54.57486043
O      44.84575216    27.67991145    52.50847104
H      43.95796306    27.22297920    52.55912109
C      49.55631003    29.37945010    53.95626727
O      50.45158892    28.68893512    54.54178051
O      49.73932691    30.53320140    53.51653581
