24
frame 47641 TS, aligned onto 20000 on 8 atoms
C      48.12832430    28.10668541    56.49410522
H      48.99827566    27.56764359    56.14188225
H      48.25837786    28.99539537    57.11009142
C      46.87232908    27.52636293    56.46040008
C      45.71449657    28.21050885    57.20165712
O      46.01842710    29.09146991    58.03407412
O      44.55241759    27.79560151    56.93639432
O      46.62403279    26.49031853    55.74538731
C      46.55499190    26.95429634    53.75144706
H      46.37965401    25.92350626    53.43877065
C      47.84659352    27.47303342    53.71851129
H      48.70267667    26.80735329    53.59696609
C      48.06789440    28.77000279    54.17734699
C      46.93148696    29.69903589    54.22925311
H      47.15873945    30.74369092    54.44984963
C      45.67261828    29.28041760    54.01879076
H      44.84163642    29.98819698    54.06170388
C      45.32575268    27.84633038    53.71972834
H      44.64016100    27.49676394    54.50829396
O      44.70969064    27.75213051    52.44144193
H      43.83503038    27.26510064    52.50674648
C      49.47329427    29.35116059    54.14893112
O      50.44162909    28.65378970    54.58703413
O      49.58890107    30.50977283    53.70150474
