24
Coordinates from ORCA-job neb_MEP.QMRegion E -1075.722746337852
  C      42.453000     16.838000     52.467000
  H      42.950000     16.189000     51.744000
  H      43.037000     17.571000     53.027000
  C      41.133000     16.774000     52.677000
  C      40.436000     17.688000     53.686000
  O      41.131000     18.568000     54.230000
  O      39.205000     17.486000     53.896000
  O      40.348000     15.843000     52.019000
  C      39.822000     16.159000     50.680000
  H      39.352000     15.216000     50.366000
  C      40.958000     16.515000     49.770000
  H      41.622000     15.723000     49.415000
  C      41.266000     17.803000     49.514000
  C      40.402000     18.870000     50.030000
  H      40.757000     19.894000     49.911000
  C      39.229000     18.608000     50.633000
  H      38.619000     19.427000     51.017000
  C      38.693000     17.209000     50.781000
  H      38.273000     17.105000     51.791000
  O      37.691000     16.965000     49.795000
  H      36.839000     16.680000     50.232000
  C      42.551000     18.188000     48.784000
  O      43.356000     17.279000     48.475000
  O      42.724000     19.422000     48.567000
24
Coordinates from ORCA-job neb_MEP.QMRegion E -1075.721601652158
  C      42.415164     17.101404     52.095695
  H      42.908814     16.525842     51.312888
  H      42.935583     17.957833     52.525622
  C      41.157181     16.851694     52.490430
  C      40.488893     17.702261     53.575649
  O      41.194558     18.558606     54.145652
  O      39.265518     17.487498     53.820507
  O      40.395221     15.853228     51.909803
  C      39.772340     16.102615     50.566248
  H      39.334727     15.128844     50.303822
  C      40.858566     16.500847     49.627770
  H      41.496555     15.733126     49.185517
  C      41.217881     17.798985     49.538488
  C      40.366253     18.830333     50.147043
  H      40.746603     19.853274     50.159090
  C      39.164649     18.533269     50.672945
  H      38.531199     19.322013     51.081087
  C      38.628812     17.127621     50.730735
  H      38.240790     16.961281     51.744508
  O      37.600178     16.938118     49.765066
  H      36.746233     16.666948     50.214641
  C      42.524823     18.205120     48.866591
  O      43.366389     17.306430     48.627327
  O      42.685140     19.432794     48.620020
24
Coordinates from ORCA-job neb_MEP.QMRegion E -1075.706287988913
  C      42.399564     17.183008     51.988635
  H      42.928313     16.555796     51.271600
  H      42.881973     18.102921     52.322852
  C      41.182167     16.843074     52.483162
  C      40.508329     17.714150     53.559837
  O      41.211295     18.573844     54.129606
  O      39.284248     17.499678     53.805910
  O      40.472851     15.811244     51.971178
  C      39.723341     16.087710     50.430050
  H      39.319212     15.087164     50.229032
  C      40.837074     16.491249     49.601598
  H      41.479439     15.735583     49.147954
  C      41.255982     17.785969     49.649591
  C      40.382852     18.815309     50.226598
  H      40.761742     19.838583     50.258139
  C      39.152869     18.514099     50.676335
  H      38.495650     19.297184     51.055737
  C      38.610149     17.111766     50.692934
  H      38.263545     16.901112     51.711697
  O      37.539697     16.983056     49.761894
  H      36.694018     16.690905     50.224000
  C      42.544796     18.197035     48.946529
  O      43.378837     17.301435     48.680550
  O      42.673621     19.418570     48.658861
24
Coordinates from ORCA-job neb_MEP.QMRegion E -1075.698491766827
  C      42.386432     17.229666     51.916243
  H      42.945939     16.545637     51.281202
  H      42.871450     18.141857     52.263964
  C      41.197429     16.820208     52.517863
  C      40.512068     17.724406     53.569986
  O      41.215226     18.586508     54.133571
  O      39.288239     17.508185     53.806963
  O      40.588267     15.761348     52.141554
  C      39.646114     16.102137     50.243463
  H      39.295840     15.071017     50.177626
  C      40.813546     16.476195     49.601122
  H      41.474190     15.731948     49.154583
  C      41.294027     17.781869     49.745846
  C      40.388451     18.816582     50.248721
  H      40.762729     19.841257     50.271237
  C      39.147996     18.512975     50.667293
  H      38.487726     19.295165     51.043486
  C      38.601076     17.112822     50.662025
  H      38.279095     16.881402     51.687713
  O      37.502658     17.014654     49.756694
  H      36.670264     16.698542     50.226680
  C      42.555359     18.193199     48.981174
  O      43.376287     17.296897     48.684090
  O      42.663083     19.410167     48.667101
24
Coordinates from ORCA-job neb_MEP.QMRegion E -1075.702718555257
  C      42.333201     17.282821     51.782273
  H      42.952776     16.537775     51.286911
  H      42.843734     18.160379     52.194952
  C      41.190452     16.817634     52.514099
  C      40.512528     17.727820     53.571379
  O      41.224486     18.585282     54.129480
  O      39.293003     17.507264     53.812835
  O      40.647994     15.732714     52.227440
  C      39.619285     16.108804     50.168228
  H      39.279510     15.072781     50.134576
  C      40.811163     16.465399     49.621810
  H      41.474476     15.727335     49.167010
  C      41.356466     17.769517     49.873342
  C      40.399589     18.815735     50.279398
  H      40.764209     19.844058     50.284853
  C      39.150137     18.511824     50.661998
  H      38.482983     19.295749     51.023898
  C      38.599134     17.111718     50.649445
  H      38.283238     16.872161     51.676684
  O      37.488149     17.031738     49.757132
  H      36.662149     16.703547     50.228197
  C      42.567734     18.189429     49.013993
  O      43.377469     17.294410     48.685571
  O      42.652342     19.401469     48.675271
24
Coordinates from ORCA-job neb_MEP.QMRegion E -1075.719543122178
  C      42.256666     17.336315     51.618877
  H      42.942423     16.544277     51.295227
  H      42.796179     18.169378     52.103651
  C      41.174837     16.822530     52.498046
  C      40.514896     17.730485     53.572417
  O      41.236707     18.581222     54.125220
  O      39.299451     17.505076     53.820001
  O      40.706619     15.705673     52.309767
  C      39.605354     16.115628     50.113745
  H      39.261767     15.079640     50.080715
  C      40.818787     16.456156     49.649412
  H      41.477819     15.721817     49.182578
  C      41.438084     17.752046     50.024476
  C      40.419216     18.810655     50.320440
  H      40.767518     19.845212     50.302546
  C      39.158350     18.509147     50.658581
  H      38.480701     19.296385     50.997153
  C      38.599554     17.110120     50.639151
  H      38.288403     16.861985     51.667396
  O      37.476782     17.049585     49.759770
  H      36.656242     16.709559     50.230568
  C      42.580447     18.185926     49.048179
  O      43.378465     17.292649     48.687729
  O      42.638484     19.391711     48.684703
24
Coordinates from ORCA-job neb_MEP.QMRegion E -1075.740275688880
  C      42.202458     17.368322     51.505579
  H      42.942797     16.582642     51.287520
  H      42.705750     18.241995     51.946687
  C      41.194251     16.810254     52.495864
  C      40.533782     17.721662     53.563778
  O      41.270175     18.562199     54.110897
  O      39.320902     17.496937     53.821193
  O      40.866054     15.636756     52.447920
  C      39.574744     16.138583     49.993811
  H      39.189253     15.128657     49.846937
  C      40.831467     16.445346     49.662077
  H      41.496887     15.709235     49.206459
  C      41.482230     17.727747     50.113265
  C      40.451527     18.796810     50.378824
  H      40.806188     19.829675     50.400748
  C      39.172622     18.507383     50.642757
  H      38.485007     19.304031     50.932738
  C      38.594898     17.116986     50.586000
  H      38.328505     16.824855     51.617730
  O      37.431750     17.109560     49.764920
  H      36.628184     16.755444     50.253192
  C      42.589208     18.176924     49.088378
  O      43.390880     17.292633     48.713933
  O      42.620446     19.378963     48.712033
24
Coordinates from ORCA-job neb_MEP.QMRegion E -1075.748934766310
  C      42.208088     17.366120     51.487556
  H      42.970579     16.602650     51.273405
  H      42.681479     18.265197     51.905640
  C      41.223915     16.787702     52.490121
  C      40.553352     17.701349     53.549232
  O      41.292150     18.539615     54.096946
  O      39.338459     17.482508     53.801074
  O      40.942462     15.601494     52.471783
  C      39.551365     16.161983     49.896870
  H      39.136456     15.181542     49.660386
  C      40.829615     16.446272     49.636616
  H      41.495827     15.712735     49.177785
  C      41.484911     17.716217     50.115491
  C      40.462190     18.788334     50.394780
  H      40.830992     19.814036     50.462495
  C      39.174349     18.510148     50.620782
  H      38.487112     19.310234     50.901321
  C      38.586306     17.125252     50.535953
  H      38.359867     16.798581     51.567941
  O      37.393173     17.144201     49.763929
  H      36.602488     16.798273     50.275950
  C      42.591004     18.173344     49.093211
  O      43.397838     17.293802     48.719280
  O      42.615786     19.375681     48.719660
24
Coordinates from ORCA-job neb_MEP.QMRegion E -1075.754037887831
  C      42.214805     17.359752     51.478572
  H      42.984874     16.604716     51.261780
  H      42.679413     18.263459     51.896640
  C      41.237069     16.773922     52.481268
  C      40.563812     17.687531     53.538084
  O      41.303338     18.524464     54.086965
  O      39.347145     17.473143     53.785288
  O      40.964549     15.584143     52.464247
  C      39.539546     16.176797     49.844020
  H      39.112042     15.213605     49.562394
  C      40.826342     16.450423     49.615202
  H      41.490373     15.720786     49.146988
  C      41.486305     17.711341     50.112857
  C      40.466132     18.784410     50.398965
  H      40.840628     19.806463     50.487144
  C      39.174185     18.512056     50.607996
  H      38.487527     19.313341     50.886902
  C      38.581325     17.129707     50.508823
  H      38.374638     16.785386     51.539564
  O      37.373488     17.158983     49.761708
  H      36.589787     16.821482     50.287840
  C      42.591847     18.172478     49.091186
  O      43.399616     17.294382     48.715777
  O      42.614988     19.375452     48.720660
24
Coordinates from ORCA-job neb_MEP.QMRegion E -1075.756097195334
  C      42.221000     17.350000     51.473000
  H      43.002000     16.604000     51.262000
  H      42.667000     18.259000     51.898000
  C      41.243000     16.756000     52.466000
  C      40.568000     17.675000     53.519000
  O      41.310000     18.507000     54.072000
  O      39.349000     17.467000     53.759000
  O      40.974000     15.567000     52.445000
  C      39.530000     16.189000     49.790000
  H      39.093000     15.244000     49.463000
  C      40.824000     16.450000     49.593000
  H      41.483000     15.721000     49.117000
  C      41.488000     17.701000     50.112000
  C      40.472000     18.774000     50.407000
  H      40.855000     19.788000     50.530000
  C      39.175000     18.511000     50.593000
  H      38.493000     19.317000     50.869000
  C      38.577000     17.131000     50.477000
  H      38.390000     16.769000     51.506000
  O      37.354000     17.168000     49.755000
  H      36.580000     16.840000     50.299000
  C      42.591000     18.168000     49.091000
  O      43.399000     17.292000     48.712000
  O      42.613000     19.372000     48.725000
