24
Coordinates from ORCA-job neb_NEB-CI_converged.QMRegion
  C          42.38643192214113     17.22966596289771     51.91624276035938
  H          42.94593886368250     16.54563689552055     51.28120213371681
  H          42.87145025066532     18.14185652669785     52.26396418042424
  C          41.19742856227539     16.82020809671720     52.51786286796369
  C          40.51206777528249     17.72440551811615     53.56998600417648
  O          41.21522586356414     18.58650758128871     54.13357084939970
  O          39.28823911142564     17.50818481672534     53.80696325488184
  O          40.58826675167191     15.76134762064367     52.14155376070190
  C          39.64611383840720     16.10213711027261     50.24346344015386
  H          39.29583971616425     15.07101705865902     50.17762582160775
  C          40.81354618546776     16.47619512245699     49.60112199147498
  H          41.47419013774105     15.73194822214249     49.15458321869981
  C          41.29402658239591     17.78186896619721     49.74584581262706
  C          40.38845113182117     18.81658222070903     50.24872144969439
  H          40.76272878610982     19.84125656847701     50.27123746149005
  C          39.14799645180065     18.51297466333465     50.66729328186425
  H          38.48772633431356     19.29516497560538     51.04348602263623
  C          38.60107593601741     17.11282198714528     50.66202498399835
  H          38.27909463681721     16.88140200357233     51.68771265895933
  O          37.50265757256107     17.01465398699516     49.75669356117643
  H          36.67026444736191     16.69854150401915     50.22668045409119
  C          42.55535900937821     18.19319865950720     48.98117365372025
  O          43.37628714750674     17.29689707188261     48.68409040854328
  O          42.66308323793776     19.41016661266204     48.66710079336685
