24
frame 54144 P
C     40.676000    20.648000    46.607000
H     41.704000    20.285000    46.705000
H     40.648000    21.730000    46.754000
C     39.899000    20.022000    47.739000
C     38.707000    20.779000    48.396000
O     38.726000    22.031000    48.359000
O     37.841000    20.065000    48.944000
O     40.199000    18.922000    48.164000
C     38.810000    18.103000    45.445000
H     38.761000    17.012000    45.506000
C     39.967000    18.722000    45.206000
H     40.900000    18.175000    45.091000
C     40.110000    20.220000    45.181000
C     38.771000    20.889000    44.989000
H     38.775000    21.930000    44.667000
C     37.612000    20.272000    45.234000
H     36.671000    20.820000    45.137000
C     37.500000    18.824000    45.629000
H     37.206000    18.777000    46.698000
O     36.503000    18.218000    44.826000
H     35.931000    17.612000    45.389000
C     41.147000    20.626000    44.047000
O     42.069000    19.817000    43.801000
O     40.990000    21.723000    43.451000
