24
frame 54144 R
C     40.766000    20.891000    47.497000
H     41.620000    20.423000    47.007000
H     40.817000    21.947000    47.762000
C     39.643000    20.220000    47.774000
C     38.474000    20.858000    48.508000
O     38.378000    22.114000    48.478000
O     37.691000    20.093000    49.113000
O     39.499000    18.879000    47.470000
C     39.036000    18.535000    46.112000
H     38.953000    17.439000    46.136000
C     40.092000    18.972000    45.148000
H     41.035000    18.425000    45.114000
C     39.980000    20.119000    44.451000
C     38.746000    20.908000    44.547000
H     38.744000    21.888000    44.068000
C     37.668000    20.466000    45.220000
H     36.767000    21.084000    45.288000
C     37.617000    19.088000    45.832000
H     37.100000    19.134000    46.805000
O     36.917000    18.235000    44.938000
H     36.293000    17.634000    45.445000
C     41.187000    20.659000    43.688000
O     42.200000    19.929000    43.596000
O     41.091000    21.831000    43.233000
