24
Coordinates from ORCA-job neb_NEB-CI_converged.QMRegion
  C          40.76557219833708     20.84516408214976     47.08506720306168
  H          41.69418074551940     20.36283567246554     46.79700881046853
  H          40.72623344417115     21.93029215327715     47.14047261734162
  C          39.78900225215114     20.10844919021982     47.75837072032103
  C          38.58854875513428     20.81057393773294     48.43272997762936
  O          38.50366596550910     22.06684127450653     48.36832352263821
  O          37.77377985384189     20.07556678197163     49.03261392963861
  O          39.79511481192222     18.83961334587754     47.75989361878466
  C          38.91534699297193     18.22296117647286     45.72750334372920
  H          38.92632661125212     17.15933952394283     45.97325593080308
  C          40.00142552421971     18.80457511519156     45.12056524928998
  H          40.93941389347750     18.27129090848637     44.98960964120234
  C          40.00124670573393     20.16853661668585     44.79354405608830
  C          38.73493457038882     20.90021481573481     44.83900271054161
  H          38.72902033348426     21.92779921414271     44.47574430586632
  C          37.61498653140260     20.32454594513485     45.30797079726530
  H          36.67789683500342     20.88447462204278     45.34566269508520
  C          37.56329116875693     18.89357620099688     45.76824280407804
  H          37.19010996710006     18.87269366759235     46.80703083556356
  O          36.68605715633542     18.18053499804553     44.90566961900385
  H          36.07262403041920     17.58242236742900     45.44186885483148
  C          41.15614410773065     20.67172437577521     43.90530156273263
  O          42.12685514473421     19.90084731855780     43.73235562472664
  O          41.02315596171567     21.79580726468530     43.35430990836762
