38
-2 1 None
C       59.79254584    36.52513646    58.80207476
H       60.58844813    36.43872888    58.05983174
H       59.74345117    37.40770828    59.45489358
C       58.82225231    35.59824754    58.95772921
C       57.76753741    35.83735767    60.04242973
O       57.67941132    36.92609116    60.60064323
O       56.91381144    34.88219502    60.39287956
O       58.80494865    34.41191854    58.29695890
C       58.11020435    34.25565064    57.02703406
H       58.20072561    33.17067812    56.84542043
C       58.87049800    35.01127725    55.98488733
H       59.90941962    34.69869619    55.82086652
C       58.36075207    36.07926585    55.32988133
C       56.99642646    36.53866446    55.64839517
H       56.69080662    37.48464943    55.19090924
C       56.17770865    35.85740378    56.48141198
H       55.16737411    36.22261093    56.70732679
C       56.57699467    34.53002458    57.08087126
H       56.26335161    34.48927384    58.14289139
O       55.89655470    33.49833554    56.34858636
H       55.87812703    32.72867453    56.92234267
C       59.21158442    36.87463336    54.29559158
O       60.39019829    36.48298656    54.13840070
O       58.62873644    37.84179887    53.74745881
C       57.49940000    32.31300000    60.99950000
N       57.64997700    32.69822000    59.73544600
H       57.33946000    33.36072200    60.43170000
H       57.84614600    31.74318200    59.99911300
N       57.09050100    33.18540400    61.91634900
H       57.28667000    32.23036600    62.18001600
H       57.20484900    33.47794000    60.95642800
N       57.75772100    31.05537600    61.34670500
H       57.87207000    31.34791100    60.38678400
H       57.44720400    31.71787800    62.04295900
C       63.00440000    29.11630000    52.22560000
O       64.18822500    29.17807600    51.82906300
O       62.29311600    28.08891700    52.25815900
H       62.54642100    30.05215000    52.57836100
