24
Coordinates from ORCA-job neb_initial_path.QMRegion E   0.000000000000
  C      47.964000     29.467000     57.600000
  H      48.887000     29.074000     57.175000
  H      47.988000     30.378000     58.197000
  C      46.783000     28.881000     57.363000
  C      45.484000     29.438000     57.935000
  O      45.501000     30.630000     58.344000
  O      44.489000     28.681000     57.971000
  O      46.686000     27.728000     56.614000
  C      46.576000     27.852000     55.143000
  H      46.521000     26.812000     54.795000
  C      47.812000     28.539000     54.661000
  H      48.752000     27.986000     54.633000
  C      47.828000     29.880000     54.524000
  C      46.581000     30.646000     54.635000
  H      46.675000     31.733000     54.600000
  C      45.391000     30.045000     54.804000
  H      44.479000     30.630000     54.939000
  C      45.260000     28.544000     54.752000
  H      44.503000     28.222000     55.482000
  O      44.900000     28.146000     53.436000
  H      43.965000     27.778000     53.442000
  C      49.143000     30.647000     54.510000
  O      50.224000     30.014000     54.397000
  O      49.026000     31.885000     54.697000
24
Coordinates from ORCA-job neb_initial_path.QMRegion E   0.000000000000
  C      47.966800     29.481000     57.535600
  H      48.891000     29.079200     57.124600
  H      47.991800     30.407600     58.104400
  C      46.791000     28.868800     57.353200
  C      45.494400     29.432800     57.926400
  O      45.514000     30.625000     58.335200
  O      44.496600     28.679400     57.964000
  O      46.695200     27.710200     56.633000
  C      46.583200     27.830000     55.101200
  H      46.541200     26.783800     54.779000
  C      47.807600     28.530600     54.652800
  H      48.752800     27.989400     54.609600
  C      47.813400     29.873600     54.583400
  C      46.557600     30.626000     54.681600
  H      46.639800     31.713400     54.662000
  C      45.373400     30.011200     54.812200
  H      44.452600     30.583600     54.932400
  C      45.259000     28.511400     54.737000
  H      44.511600     28.170200     55.466400
  O      44.894600     28.129200     53.417800
  H      43.956200     27.767000     53.422200
  C      49.120400     30.653800     54.564000
  O      50.204200     30.026600     54.443400
  O      48.995400     31.891400     54.746400
24
Coordinates from ORCA-job neb_initial_path.QMRegion E   0.000000000000
  C      47.969600     29.495000     57.471200
  H      48.895000     29.084400     57.074200
  H      47.995600     30.437200     58.011800
  C      46.799000     28.856600     57.343400
  C      45.504800     29.427600     57.917800
  O      45.527000     30.620000     58.326400
  O      44.504200     28.677800     57.957000
  O      46.704400     27.692400     56.652000
  C      46.590400     27.808000     55.059400
  H      46.561400     26.755600     54.763000
  C      47.803200     28.522200     54.644600
  H      48.753600     27.992800     54.586200
  C      47.798800     29.867200     54.642800
  C      46.534200     30.606000     54.728200
  H      46.604600     31.693800     54.724000
  C      45.355800     29.977400     54.820400
  H      44.426200     30.537200     54.925800
  C      45.258000     28.478800     54.722000
  H      44.520200     28.118400     55.450800
  O      44.889200     28.112400     53.399600
  H      43.947400     27.756000     53.402400
  C      49.097800     30.660600     54.618000
  O      50.184400     30.039200     54.489800
  O      48.964800     31.897800     54.795800
24
Coordinates from ORCA-job neb_initial_path.QMRegion E   0.000000000000
  C      47.972400     29.509000     57.406800
  H      48.899000     29.089600     57.023800
  H      47.999400     30.466800     57.919200
  C      46.807000     28.844400     57.333600
  C      45.515200     29.422400     57.909200
  O      45.540000     30.615000     58.317600
  O      44.511800     28.676200     57.950000
  O      46.713600     27.674600     56.671000
  C      46.597600     27.786000     55.017600
  H      46.581600     26.727400     54.747000
  C      47.798800     28.513800     54.636400
  H      48.754400     27.996200     54.562800
  C      47.784200     29.860800     54.702200
  C      46.510800     30.586000     54.774800
  H      46.569400     31.674200     54.786000
  C      45.338200     29.943600     54.828600
  H      44.399800     30.490800     54.919200
  C      45.257000     28.446200     54.707000
  H      44.528800     28.066600     55.435200
  O      44.883800     28.095600     53.381400
  H      43.938600     27.745000     53.382600
  C      49.075200     30.667400     54.672000
  O      50.164600     30.051800     54.536200
  O      48.934200     31.904200     54.845200
24
Coordinates from ORCA-job neb_initial_path.QMRegion E   0.000000000000
  C      47.975200     29.523000     57.342400
  H      48.903000     29.094800     56.973400
  H      48.003200     30.496400     57.826600
  C      46.815000     28.832200     57.323800
  C      45.525600     29.417200     57.900600
  O      45.553000     30.610000     58.308800
  O      44.519400     28.674600     57.943000
  O      46.722800     27.656800     56.690000
  C      46.604800     27.764000     54.975800
  H      46.601800     26.699200     54.731000
  C      47.794400     28.505400     54.628200
  H      48.755200     27.999600     54.539400
  C      47.769600     29.854400     54.761600
  C      46.487400     30.566000     54.821400
  H      46.534200     31.654600     54.848000
  C      45.320600     29.909800     54.836800
  H      44.373400     30.444400     54.912600
  C      45.256000     28.413600     54.692000
  H      44.537400     28.014800     55.419600
  O      44.878400     28.078800     53.363200
  H      43.929800     27.734000     53.362800
  C      49.052600     30.674200     54.726000
  O      50.144800     30.064400     54.582600
  O      48.903600     31.910600     54.894600
24
Coordinates from ORCA-job neb_initial_path.QMRegion E   0.000000000000
  C      47.978000     29.537000     57.278000
  H      48.907000     29.100000     56.923000
  H      48.007000     30.526000     57.734000
  C      46.823000     28.820000     57.314000
  C      45.536000     29.412000     57.892000
  O      45.566000     30.605000     58.300000
  O      44.527000     28.673000     57.936000
  O      46.732000     27.639000     56.709000
  C      46.612000     27.742000     54.934000
  H      46.622000     26.671000     54.715000
  C      47.790000     28.497000     54.620000
  H      48.756000     28.003000     54.516000
  C      47.755000     29.848000     54.821000
  C      46.464000     30.546000     54.868000
  H      46.499000     31.635000     54.910000
  C      45.303000     29.876000     54.845000
  H      44.347000     30.398000     54.906000
  C      45.255000     28.381000     54.677000
  H      44.546000     27.963000     55.404000
  O      44.873000     28.062000     53.345000
  H      43.921000     27.723000     53.343000
  C      49.030000     30.681000     54.780000
  O      50.125000     30.077000     54.629000
  O      48.873000     31.917000     54.944000
24
Coordinates from ORCA-job neb_initial_path.QMRegion E   0.000000000000
  C      47.966500     29.544750     57.190250
  H      48.906250     29.096000     56.967000
  H      47.987000     30.537000     57.643250
  C      46.830750     28.791750     57.366000
  C      45.539000     29.398500     57.935750
  O      45.568250     30.602750     58.296500
  O      44.541000     28.654000     58.017250
  O      46.793750     27.603750     56.916750
  C      46.647750     27.714000     54.789500
  H      46.679250     26.659000     54.524250
  C      47.799750     28.455250     54.649000
  H      48.775000     27.978500     54.551000
  C      47.752000     29.809750     54.955000
  C      46.445750     30.489250     54.926750
  H      46.449750     31.574750     54.996000
  C      45.304750     29.808750     54.826750
  H      44.343500     30.322000     54.863500
  C      45.277500     28.321500     54.614750
  H      44.610250     27.866250     55.356250
  O      44.840000     28.026750     53.299250
  H      43.882000     27.717000     53.325250
  C      49.007000     30.667000     54.826250
  O      50.102000     30.076000     54.642250
  O      48.835000     31.902000     54.974000
24
Coordinates from ORCA-job neb_initial_path.QMRegion E   0.000000000000
  C      47.955000     29.552500     57.102500
  H      48.905500     29.092000     57.011000
  H      47.967000     30.548000     57.552500
  C      46.838500     28.763500     57.418000
  C      45.542000     29.385000     57.979500
  O      45.570500     30.600500     58.293000
  O      44.555000     28.635000     58.098500
  O      46.855500     27.568500     57.124500
  C      46.683500     27.686000     54.645000
  H      46.736500     26.647000     54.333500
  C      47.809500     28.413500     54.678000
  H      48.794000     27.954000     54.586000
  C      47.749000     29.771500     55.089000
  C      46.427500     30.432500     54.985500
  H      46.400500     31.514500     55.082000
  C      45.306500     29.741500     54.808500
  H      44.340000     30.246000     54.821000
  C      45.300000     28.262000     54.552500
  H      44.674500     27.769500     55.308500
  O      44.807000     27.991500     53.253500
  H      43.843000     27.711000     53.307500
  C      48.984000     30.653000     54.872500
  O      50.079000     30.075000     54.655500
  O      48.797000     31.887000     55.004000
24
Coordinates from ORCA-job neb_initial_path.QMRegion E   0.000000000000
  C      47.943500     29.560250     57.014750
  H      48.904750     29.088000     57.055000
  H      47.947000     30.559000     57.461750
  C      46.846250     28.735250     57.470000
  C      45.545000     29.371500     58.023250
  O      45.572750     30.598250     58.289500
  O      44.569000     28.616000     58.179750
  O      46.917250     27.533250     57.332250
  C      46.719250     27.658000     54.500500
  H      46.793750     26.635000     54.142750
  C      47.819250     28.371750     54.707000
  H      48.813000     27.929500     54.621000
  C      47.746000     29.733250     55.223000
  C      46.409250     30.375750     55.044250
  H      46.351250     31.454250     55.168000
  C      45.308250     29.674250     54.790250
  H      44.336500     30.170000     54.778500
  C      45.322500     28.202500     54.490250
  H      44.738750     27.672750     55.260750
  O      44.774000     27.956250     53.207750
  H      43.804000     27.705000     53.289750
  C      48.961000     30.639000     54.918750
  O      50.056000     30.074000     54.668750
  O      48.759000     31.872000     55.034000
24
Coordinates from ORCA-job neb_initial_path.QMRegion E   0.000000000000
  C      47.932000     29.568000     56.927000
  H      48.904000     29.084000     57.099000
  H      47.927000     30.570000     57.371000
  C      46.854000     28.707000     57.522000
  C      45.548000     29.358000     58.067000
  O      45.575000     30.596000     58.286000
  O      44.583000     28.597000     58.261000
  O      46.979000     27.498000     57.540000
  C      46.755000     27.630000     54.356000
  H      46.851000     26.623000     53.952000
  C      47.829000     28.330000     54.736000
  H      48.832000     27.905000     54.656000
  C      47.743000     29.695000     55.357000
  C      46.391000     30.319000     55.103000
  H      46.302000     31.394000     55.254000
  C      45.310000     29.607000     54.772000
  H      44.333000     30.094000     54.736000
  C      45.345000     28.143000     54.428000
  H      44.803000     27.576000     55.213000
  O      44.741000     27.921000     53.162000
  H      43.765000     27.699000     53.272000
  C      48.938000     30.625000     54.965000
  O      50.033000     30.073000     54.682000
  O      48.721000     31.857000     55.064000
