24
Coordinates from ORCA-job neb_MEP.QMRegion E -1075.521953251624
  C      47.964000     29.467000     57.600000
  H      48.887000     29.074000     57.175000
  H      47.988000     30.378000     58.197000
  C      46.783000     28.881000     57.363000
  C      45.484000     29.438000     57.935000
  O      45.501000     30.630000     58.344000
  O      44.489000     28.681000     57.971000
  O      46.686000     27.728000     56.614000
  C      46.576000     27.852000     55.143000
  H      46.521000     26.812000     54.795000
  C      47.812000     28.539000     54.661000
  H      48.752000     27.986000     54.633000
  C      47.828000     29.880000     54.524000
  C      46.581000     30.646000     54.635000
  H      46.675000     31.733000     54.600000
  C      45.391000     30.045000     54.804000
  H      44.479000     30.630000     54.939000
  C      45.260000     28.544000     54.752000
  H      44.503000     28.222000     55.482000
  O      44.900000     28.146000     53.436000
  H      43.965000     27.778000     53.442000
  C      49.143000     30.647000     54.510000
  O      50.224000     30.014000     54.397000
  O      49.026000     31.885000     54.697000
24
Coordinates from ORCA-job neb_MEP.QMRegion E -1075.525930944407
  C      47.969346     29.469159     57.563967
  H      48.890429     29.079176     57.132553
  H      47.993219     30.394327     58.138412
  C      46.789926     28.873559     57.347440
  C      45.493730     29.431721     57.922372
  O      45.513478     30.623123     58.333770
  O      44.497303     28.676920     57.961587
  O      46.690964     27.715708     56.605849
  C      46.581019     27.832093     55.131163
  H      46.535798     26.789651     54.788262
  C      47.808269     28.533878     54.650333
  H      48.754276     27.990510     54.611601
  C      47.812839     29.877426     54.540971
  C      46.557590     30.629234     54.661906
  H      46.641180     31.717660     54.649638
  C      45.372628     30.013795     54.811886
  H      44.453111     30.587083     54.946225
  C      45.257103     28.511898     54.742883
  H      44.503581     28.174841     55.468995
  O      44.903372     28.119959     53.423152
  H      43.962518     27.766474     53.423030
  C      49.120853     30.656136     54.545416
  O      50.207160     30.029739     54.435894
  O      48.993957     31.890667     54.747327
24
Coordinates from ORCA-job neb_MEP.QMRegion E -1075.529521024228
  C      47.974775     29.471392     57.525907
  H      48.893494     29.084756     57.086579
  H      47.997815     30.409864     58.078243
  C      46.796784     28.865005     57.330975
  C      45.503346     29.424248     57.911074
  O      45.525487     30.615254     58.324219
  O      44.505664     28.671446     57.953377
  O      46.695738     27.702577     56.596407
  C      46.585966     27.811447     55.118283
  H      46.553606     26.767017     54.780217
  C      47.803824     28.528812     54.638541
  H      48.755063     27.995561     54.588648
  C      47.795515     29.874837     54.558969
  C      46.531609     30.610453     54.689909
  H      46.602765     31.699456     54.702208
  C      45.352417     29.979460     54.819146
  H      44.424382     30.538844     54.953401
  C      45.254982     28.477309     54.731984
  H      44.505385     28.124622     55.454587
  O      44.906768     28.092590     53.408994
  H      43.960885     27.752080     53.403302
  C      49.096975     30.664604     54.584458
  O      50.187809     30.045082     54.477597
  O      48.960335     31.895859     54.801299
24
Coordinates from ORCA-job neb_MEP.QMRegion E -1075.533049739143
  C      47.981244     29.473253     57.477483
  H      48.898356     29.088691     57.033309
  H      48.001546     30.431996     57.993919
  C      46.805903     28.851977     57.311063
  C      45.516322     29.414019     57.898172
  O      45.541532     30.605161     58.311450
  O      44.517185     28.663411     57.947526
  O      46.702532     27.684020     56.585270
  C      46.594564     27.783575     55.099653
  H      46.580814     26.736870     54.766751
  C      47.799607     28.522087     54.624501
  H      48.757697     28.002653     54.560035
  C      47.773510     29.870295     54.587217
  C      46.497952     30.583226     54.729564
  H      46.551322     31.671885     54.774078
  C      45.326841     29.932103     54.827636
  H      44.387405     30.473012     54.957631
  C      45.253688     28.430624     54.716170
  H      44.511521     28.055950     55.434910
  O      44.908731     28.057304     53.389399
  H      43.956234     27.734493     53.378437
  C      49.065449     30.674562     54.637597
  O      50.161966     30.063783     54.533450
  O      48.916541     31.901691     54.870525
24
Coordinates from ORCA-job neb_MEP.QMRegion E -1075.524525793843
  C      47.989934     29.500297     57.365097
  H      48.919436     29.087119     56.978045
  H      47.999094     30.524224     57.738768
  C      46.829943     28.809687     57.310789
  C      45.543583     29.395809     57.900007
  O      45.569664     30.597201     58.286693
  O      44.541474     28.651265     57.981591
  O      46.735308     27.627748     56.640065
  C      46.630755     27.714585     54.983526
  H      46.661982     26.655717     54.690572
  C      47.804904     28.493235     54.612227
  H      48.775529     28.004464     54.521073
  C      47.743389     29.842343     54.740887
  C      46.444452     30.512783     54.860458
  H      46.459699     31.598998     54.952967
  C      45.291271     29.826476     54.837904
  H      44.327483     30.333090     54.911449
  C      45.264577     28.332915     54.660886
  H      44.566668     27.898389     55.387003
  O      44.870229     28.014730     53.331669
  H      43.905293     27.716416     53.336224
  C      49.010943     30.682747     54.779535
  O      50.113755     30.088066     54.652722
  O      48.840811     31.912343     54.981705
24
Coordinates from ORCA-job neb_MEP.QMRegion E -1075.516049720363
  C      47.993990     29.528169     57.325946
  H      48.928085     29.086673     56.985486
  H      48.004807     30.551988     57.694744
  C      46.836869     28.796850     57.343304
  C      45.543523     29.401948     57.910355
  O      45.568444     30.605999     58.286736
  O      44.539001     28.659480     57.983112
  O      46.762136     27.618815     56.768112
  C      46.637059     27.713358     54.854304
  H      46.667776     26.639098     54.653366
  C      47.798424     28.479762     54.606839
  H      48.773792     28.000131     54.522314
  C      47.741874     29.838408     54.808331
  C      46.444414     30.513132     54.879578
  H      46.459959     31.599864     54.963801
  C      45.293109     29.825231     54.833287
  H      44.328655     30.331527     54.900244
  C      45.268041     28.334532     54.641035
  H      44.586153     27.891438     55.378761
  O      44.847975     28.031069     53.314523
  H      43.887020     27.718922     53.331314
  C      49.010628     30.682217     54.804970
  O      50.109674     30.085686     54.657764
  O      48.841696     31.915166     54.977815
24
Coordinates from ORCA-job neb_MEP.QMRegion E -1075.514808270432
  C      47.995853     29.552067     57.275378
  H      48.935819     29.084776     56.993330
  H      48.008702     30.569383     57.661013
  C      46.839484     28.788130     57.364943
  C      45.541148     29.405206     57.918077
  O      45.568676     30.611195     58.286835
  O      44.537841     28.663506     57.986559
  O      46.784564     27.609702     56.872756
  C      46.641153     27.711866     54.759821
  H      46.670588     26.630732     54.619370
  C      47.792108     28.466758     54.610801
  H      48.771800     27.995457     54.527005
  C      47.741466     29.835799     54.874738
  C      46.444076     30.513277     54.895179
  H      46.458899     31.600541     54.970779
  C      45.295093     29.823346     54.828890
  H      44.329986     30.329493     54.891939
  C      45.271612     28.334269     54.625387
  H      44.599928     27.886078     55.371564
  O      44.830943     28.041812     53.302063
  H      43.873617     27.720146     53.327918
  C      49.010042     30.681577     54.824649
  O      50.105791     30.084137     54.660191
  O      48.842024     31.917458     54.974932
24
Coordinates from ORCA-job neb_MEP.QMRegion E -1075.521338131641
  C      47.982391     29.594864     57.087993
  H      48.936409     29.077354     57.003982
  H      48.008710     30.571465     57.579358
  C      46.832499     28.777570     57.363848
  C      45.537292     29.404005     57.926496
  O      45.576866     30.609038     58.290019
  O      44.538746     28.660399     57.996408
  O      46.809127     27.594829     56.992803
  C      46.651191     27.709250     54.672596
  H      46.675659     26.625778     54.556343
  C      47.787993     28.445385     54.642157
  H      48.770907     27.983504     54.540477
  C      47.755443     29.825321     55.061830
  C      46.446348     30.508379     54.937321
  H      46.456651     31.597960     54.983785
  C      45.304526     29.818093     54.825622
  H      44.337841     30.325320     54.867948
  C      45.278576     28.328772     54.611925
  H      44.612653     27.875226     55.363105
  O      44.813717     28.052297     53.292876
  H      43.860874     27.720984     53.326221
  C      49.013043     30.679832     54.857052
  O      50.102230     30.081650     54.657902
  O      48.844428     31.919267     54.964214
24
Coordinates from ORCA-job neb_MEP.QMRegion E -1075.553783937242
  C      47.946508     29.606929     56.908032
  H      48.904647     29.088672     57.052199
  H      47.962158     30.585855     57.402516
  C      46.835526     28.746046     57.427582
  C      45.539793     29.387289     57.998437
  O      45.581539     30.607535     58.298161
  O      44.559909     28.630995     58.124516
  O      46.903408     27.542162     57.312276
  C      46.705836     27.672245     54.493706
  H      46.760489     26.620125     54.215153
  C      47.812576     28.387048     54.716776
  H      48.804989     27.944348     54.618203
  C      47.764232     29.765801     55.298273
  C      46.429902     30.423075     55.046193
  H      46.393573     31.510235     55.124705
  C      45.317967     29.722117     54.804829
  H      44.346040     30.220599     54.786905
  C      45.315631     28.243700     54.523004
  H      44.709384     27.736370     55.295871
  O      44.767081     28.007004     53.231923
  H      43.803495     27.719090     53.305992
  C      48.981295     30.660769     54.919321
  O      50.070263     30.084125     54.667305
  O      48.787720     31.898585     54.998551
24
Coordinates from ORCA-job neb_MEP.QMRegion E -1075.559443731648
  C      47.932000     29.568000     56.927000
  H      48.904000     29.084000     57.099000
  H      47.927000     30.570000     57.371000
  C      46.854000     28.707000     57.522000
  C      45.548000     29.358000     58.067000
  O      45.575000     30.596000     58.286000
  O      44.583000     28.597000     58.261000
  O      46.979000     27.498000     57.540000
  C      46.755000     27.630000     54.356000
  H      46.851000     26.623000     53.952000
  C      47.829000     28.330000     54.736000
  H      48.832000     27.905000     54.656000
  C      47.743000     29.695000     55.357000
  C      46.391000     30.319000     55.103000
  H      46.302000     31.394000     55.254000
  C      45.310000     29.607000     54.772000
  H      44.333000     30.094000     54.736000
  C      45.345000     28.143000     54.428000
  H      44.803000     27.576000     55.213000
  O      44.741000     27.921000     53.162000
  H      43.765000     27.699000     53.272000
  C      48.938000     30.625000     54.965000
  O      50.033000     30.073000     54.682000
  O      48.721000     31.857000     55.064000
