24
Coordinates from ORCA-job neb_initial_path.QMRegion E   0.000000000000
  C      41.394000     21.032000     46.699000
  H      42.190000     20.479000     46.198000
  H      41.565000     22.061000     47.011000
  C      40.186000     20.499000     46.914000
  C      39.072000     21.298000     47.586000
  O      39.312000     22.497000     47.840000
  O      37.992000     20.689000     47.830000
  O      39.899000     19.196000     46.561000
  C      39.429000     18.894000     45.197000
  H      39.381000     17.797000     45.182000
  C      40.452000     19.409000     44.236000
  H      41.398000     18.876000     44.127000
  C      40.305000     20.617000     43.658000
  C      39.056000     21.367000     43.844000
  H      39.028000     22.385000     43.450000
  C      37.991000     20.834000     44.467000
  H      37.071000     21.415000     44.576000
  C      37.993000     19.412000     44.966000
  H      37.491000     19.385000     45.943000
  O      37.314000     18.588000     44.028000
  H      36.654000     18.006000     44.518000
  C      41.459000     21.273000     42.913000
  O      42.551000     20.661000     42.840000
  O      41.237000     22.427000     42.454000
24
Coordinates from ORCA-job neb_initial_path.QMRegion E   0.000000000000
  C      41.369400     21.042600     46.567000
  H      42.179600     20.486600     46.099200
  H      41.526000     22.081600     46.836200
  C      40.199400     20.491800     46.885000
  C      39.095000     21.302000     47.565600
  O      39.343600     22.500800     47.813400
  O      38.016000     20.698600     47.825400
  O      39.935600     19.196600     46.588400
  C      39.412800     18.848600     45.134800
  H      39.381400     17.756600     45.162400
  C      40.434800     19.379600     44.220600
  H      41.376800     18.847000     44.090800
  C      40.317000     20.624400     43.726400
  C      39.060000     21.365200     43.898000
  H      39.032000     22.388800     43.521800
  C      37.987600     20.813400     44.484200
  H      37.061400     21.385000     44.583200
  C      37.986400     19.385000     44.960200
  H      37.507200     19.347400     45.946800
  O      37.277200     18.583000     44.028400
  H      36.621800     17.998600     44.524200
  C      41.459800     21.273200     42.955800
  O      42.547400     20.655800     42.870400
  O      41.229600     22.417200     42.478800
24
Coordinates from ORCA-job neb_initial_path.QMRegion E   0.000000000000
  C      41.344800     21.053200     46.435000
  H      42.169200     20.494200     46.000400
  H      41.487000     22.102200     46.661400
  C      40.212800     20.484600     46.856000
  C      39.118000     21.306000     47.545200
  O      39.375200     22.504600     47.786800
  O      38.040000     20.708200     47.820800
  O      39.972200     19.197200     46.615800
  C      39.396600     18.803200     45.072600
  H      39.381800     17.716200     45.142800
  C      40.417600     19.350200     44.205200
  H      41.355600     18.818000     44.054600
  C      40.329000     20.631800     43.794800
  C      39.064000     21.363400     43.952000
  H      39.036000     22.392600     43.593600
  C      37.984200     20.792800     44.501400
  H      37.051800     21.355000     44.590400
  C      37.979800     19.358000     44.954400
  H      37.523400     19.309800     45.950600
  O      37.240400     18.578000     44.028800
  H      36.589600     17.991200     44.530400
  C      41.460600     21.273400     42.998600
  O      42.543800     20.650600     42.900800
  O      41.222200     22.407400     42.503600
24
Coordinates from ORCA-job neb_initial_path.QMRegion E   0.000000000000
  C      41.320200     21.063800     46.303000
  H      42.158800     20.501800     45.901600
  H      41.448000     22.122800     46.486600
  C      40.226200     20.477400     46.827000
  C      39.141000     21.310000     47.524800
  O      39.406800     22.508400     47.760200
  O      38.064000     20.717800     47.816200
  O      40.008800     19.197800     46.643200
  C      39.380400     18.757800     45.010400
  H      39.382200     17.675800     45.123200
  C      40.400400     19.320800     44.189800
  H      41.334400     18.789000     44.018400
  C      40.341000     20.639200     43.863200
  C      39.068000     21.361600     44.006000
  H      39.040000     22.396400     43.665400
  C      37.980800     20.772200     44.518600
  H      37.042200     21.325000     44.597600
  C      37.973200     19.331000     44.948600
  H      37.539600     19.272200     45.954400
  O      37.203600     18.573000     44.029200
  H      36.557400     17.983800     44.536600
  C      41.461400     21.273600     43.041400
  O      42.540200     20.645400     42.931200
  O      41.214800     22.397600     42.528400
24
Coordinates from ORCA-job neb_initial_path.QMRegion E   0.000000000000
  C      41.295600     21.074400     46.171000
  H      42.148400     20.509400     45.802800
  H      41.409000     22.143400     46.311800
  C      40.239600     20.470200     46.798000
  C      39.164000     21.314000     47.504400
  O      39.438400     22.512200     47.733600
  O      38.088000     20.727400     47.811600
  O      40.045400     19.198400     46.670600
  C      39.364200     18.712400     44.948200
  H      39.382600     17.635400     45.103600
  C      40.383200     19.291400     44.174400
  H      41.313200     18.760000     43.982200
  C      40.353000     20.646600     43.931600
  C      39.072000     21.359800     44.060000
  H      39.044000     22.400200     43.737200
  C      37.977400     20.751600     44.535800
  H      37.032600     21.295000     44.604800
  C      37.966600     19.304000     44.942800
  H      37.555800     19.234600     45.958200
  O      37.166800     18.568000     44.029600
  H      36.525200     17.976400     44.542800
  C      41.462200     21.273800     43.084200
  O      42.536600     20.640200     42.961600
  O      41.207400     22.387800     42.553200
24
Coordinates from ORCA-job neb_initial_path.QMRegion E   0.000000000000
  C      41.271000     21.085000     46.039000
  H      42.138000     20.517000     45.704000
  H      41.370000     22.164000     46.137000
  C      40.253000     20.463000     46.769000
  C      39.187000     21.318000     47.484000
  O      39.470000     22.516000     47.707000
  O      38.112000     20.737000     47.807000
  O      40.082000     19.199000     46.698000
  C      39.348000     18.667000     44.886000
  H      39.383000     17.595000     45.084000
  C      40.366000     19.262000     44.159000
  H      41.292000     18.731000     43.946000
  C      40.365000     20.654000     44.000000
  C      39.076000     21.358000     44.114000
  H      39.048000     22.404000     43.809000
  C      37.974000     20.731000     44.553000
  H      37.023000     21.265000     44.612000
  C      37.960000     19.277000     44.937000
  H      37.572000     19.197000     45.962000
  O      37.130000     18.563000     44.030000
  H      36.493000     17.969000     44.549000
  C      41.463000     21.274000     43.127000
  O      42.533000     20.635000     42.992000
  O      41.200000     22.378000     42.578000
24
Coordinates from ORCA-job neb_initial_path.QMRegion E   0.000000000000
  C      41.256750     21.061750     45.955000
  H      42.153500     20.513500     45.701750
  H      41.358500     22.139500     46.069750
  C      40.289750     20.451750     46.785500
  C      39.214000     21.310000     47.486750
  O      39.496250     22.509500     47.696750
  O      38.142000     20.726750     47.810250
  O      40.209500     19.219250     46.829000
  C      39.332500     18.632250     44.778250
  H      39.352750     17.555750     44.922250
  C      40.377750     19.245000     44.166750
  H      41.305250     18.717000     43.951000
  C      40.405000     20.663500     44.076250
  C      39.097750     21.352750     44.149000
  H      39.069250     22.402250     43.858250
  C      37.988250     20.716000     44.539250
  H      37.034500     21.247000     44.578500
  C      37.964750     19.256500     44.900500
  H      37.623000     19.167750     45.939500
  O      37.082000     18.572000     44.032000
  H      36.455000     17.985250     44.567750
  C      41.469250     21.270500     43.146000
  O      42.535750     20.631500     42.991750
  O      41.191000     22.365500     42.589250
24
Coordinates from ORCA-job neb_initial_path.QMRegion E   0.000000000000
  C      41.242500     21.038500     45.871000
  H      42.169000     20.510000     45.699500
  H      41.347000     22.115000     46.002500
  C      40.326500     20.440500     46.802000
  C      39.241000     21.302000     47.489500
  O      39.522500     22.503000     47.686500
  O      38.172000     20.716500     47.813500
  O      40.337000     19.239500     46.960000
  C      39.317000     18.597500     44.670500
  H      39.322500     17.516500     44.760500
  C      40.389500     19.228000     44.174500
  H      41.318500     18.703000     43.956000
  C      40.445000     20.673000     44.152500
  C      39.119500     21.347500     44.184000
  H      39.090500     22.400500     43.907500
  C      38.002500     20.701000     44.525500
  H      37.046000     21.229000     44.545000
  C      37.969500     19.236000     44.864000
  H      37.674000     19.138500     45.917000
  O      37.034000     18.581000     44.034000
  H      36.417000     18.001500     44.586500
  C      41.475500     21.267000     43.165000
  O      42.538500     20.628000     42.991500
  O      41.182000     22.353000     42.600500
24
Coordinates from ORCA-job neb_initial_path.QMRegion E   0.000000000000
  C      41.228250     21.015250     45.787000
  H      42.184500     20.506500     45.697250
  H      41.335500     22.090500     45.935250
  C      40.363250     20.429250     46.818500
  C      39.268000     21.294000     47.492250
  O      39.548750     22.496500     47.676250
  O      38.202000     20.706250     47.816750
  O      40.464500     19.259750     47.091000
  C      39.301500     18.562750     44.562750
  H      39.292250     17.477250     44.598750
  C      40.401250     19.211000     44.182250
  H      41.331750     18.689000     43.961000
  C      40.485000     20.682500     44.228750
  C      39.141250     21.342250     44.219000
  H      39.111750     22.398750     43.956750
  C      38.016750     20.686000     44.511750
  H      37.057500     21.211000     44.511500
  C      37.974250     19.215500     44.827500
  H      37.725000     19.109250     45.894500
  O      36.986000     18.590000     44.036000
  H      36.379000     18.017750     44.605250
  C      41.481750     21.263500     43.184000
  O      42.541250     20.624500     42.991250
  O      41.173000     22.340500     42.611750
24
Coordinates from ORCA-job neb_initial_path.QMRegion E   0.000000000000
  C      41.214000     20.992000     45.703000
  H      42.200000     20.503000     45.695000
  H      41.324000     22.066000     45.868000
  C      40.400000     20.418000     46.835000
  C      39.295000     21.286000     47.495000
  O      39.575000     22.490000     47.666000
  O      38.232000     20.696000     47.820000
  O      40.592000     19.280000     47.222000
  C      39.286000     18.528000     44.455000
  H      39.262000     17.438000     44.437000
  C      40.413000     19.194000     44.190000
  H      41.345000     18.675000     43.966000
  C      40.525000     20.692000     44.305000
  C      39.163000     21.337000     44.254000
  H      39.133000     22.397000     44.006000
  C      38.031000     20.671000     44.498000
  H      37.069000     21.193000     44.478000
  C      37.979000     19.195000     44.791000
  H      37.776000     19.080000     45.872000
  O      36.938000     18.599000     44.038000
  H      36.341000     18.034000     44.624000
  C      41.488000     21.260000     43.203000
  O      42.544000     20.621000     42.991000
  O      41.164000     22.328000     42.623000
