24
Coordinates from ORCA-job neb_MEP.QMRegion E -1075.621577953329
  C      41.394000     21.032000     46.699000
  H      42.190000     20.479000     46.198000
  H      41.565000     22.061000     47.011000
  C      40.186000     20.499000     46.914000
  C      39.072000     21.298000     47.586000
  O      39.312000     22.497000     47.840000
  O      37.992000     20.689000     47.830000
  O      39.899000     19.196000     46.561000
  C      39.429000     18.894000     45.197000
  H      39.381000     17.797000     45.182000
  C      40.452000     19.409000     44.236000
  H      41.398000     18.876000     44.127000
  C      40.305000     20.617000     43.658000
  C      39.056000     21.367000     43.844000
  H      39.028000     22.385000     43.450000
  C      37.991000     20.834000     44.467000
  H      37.071000     21.415000     44.576000
  C      37.993000     19.412000     44.966000
  H      37.491000     19.385000     45.943000
  O      37.314000     18.588000     44.028000
  H      36.654000     18.006000     44.518000
  C      41.459000     21.273000     42.913000
  O      42.551000     20.661000     42.840000
  O      41.237000     22.427000     42.454000
24
Coordinates from ORCA-job neb_MEP.QMRegion E -1075.623865202848
  C      41.381912     21.050953     46.478946
  H      42.147027     20.515261     45.917170
  H      41.531037     22.101193     46.720949
  C      40.213088     20.492838     46.816451
  C      39.133767     21.296467     47.538708
  O      39.391767     22.492314     47.787645
  O      38.053719     20.700168     47.815910
  O      39.923913     19.175992     46.521288
  C      39.416913     18.829055     45.168829
  H      39.377256     17.731541     45.184285
  C      40.409715     19.339607     44.179556
  H      41.342981     18.797872     44.028284
  C      40.273333     20.575891     43.659532
  C      39.037098     21.332133     43.897194
  H      39.014784     22.366668     43.552401
  C      37.973743     20.780983     44.508970
  H      37.057419     21.360620     44.648431
  C      37.976721     19.348699     44.975066
  H      37.498667     19.307591     45.963039
  O      37.273181     18.543204     44.041494
  H      36.604806     17.971950     44.535556
  C      41.433550     21.248044     42.938196
  O      42.532766     20.644861     42.878530
  O      41.215419     22.405421     42.487313
24
Coordinates from ORCA-job neb_MEP.QMRegion E -1075.619217640696
  C      41.364816     21.061628     46.308149
  H      42.132025     20.532677     45.745006
  H      41.465352     22.136542     46.439412
  C      40.237726     20.480466     46.743931
  C      39.180612     21.298253     47.488480
  O      39.449690     22.494721     47.728086
  O      38.102890     20.711766     47.796691
  O      39.954846     19.152244     46.490930
  C      39.416988     18.770078     45.132109
  H      39.391219     17.671391     45.158952
  C      40.388818     19.292487     44.140079
  H      41.308462     18.745577     43.942075
  C      40.273876     20.565818     43.707509
  C      39.045052     21.320217     43.984512
  H      39.030638     22.373440     43.702907
  C      37.968493     20.737454     44.542418
  H      37.038158     21.297962     44.666475
  C      37.971520     19.294947     44.972558
  H      37.530187     19.239591     45.975634
  O      37.216990     18.524369     44.050891
  H      36.542546     17.963833     44.554445
  C      41.432936     21.244522     42.994788
  O      42.532914     20.641331     42.937521
  O      41.213414     22.397760     42.535563
24
Coordinates from ORCA-job neb_MEP.QMRegion E -1075.607575004854
  C      41.352064     21.088792     46.241968
  H      42.151930     20.542166     45.744074
  H      41.434593     22.170776     46.322619
  C      40.264110     20.477451     46.765713
  C      39.190601     21.311093     47.485972
  O      39.455388     22.510135     47.721905
  O      38.111211     20.725849     47.794413
  O      40.021665     19.158267     46.567940
  C      39.395216     18.719628     45.032582
  H      39.392487     17.624027     45.112572
  C      40.387588     19.278565     44.138262
  H      41.308465     18.736037     43.936472
  C      40.306389     20.593288     43.804126
  C      39.061363     21.333398     44.037475
  H      39.044611     22.387470     43.758265
  C      37.970485     20.729921     44.540010
  H      37.029413     21.276879     44.641769
  C      37.965963     19.281064     44.945092
  H      37.567059     19.213314     45.964083
  O      37.160422     18.543112     44.037415
  H      36.499692     17.970518     44.554130
  C      41.448812     21.256711     43.051671
  O      42.536789     20.637935     42.962752
  O      41.212049     22.391302     42.555903
24
Coordinates from ORCA-job neb_MEP.QMRegion E -1075.599051278904
  C      41.345477     21.102643     46.199911
  H      42.162193     20.543273     45.745752
  H      41.422240     22.184837     46.272323
  C      40.279661     20.474276     46.791276
  C      39.194708     21.317010     47.491311
  O      39.457986     22.517991     47.718183
  O      38.113831     20.731362     47.792456
  O      40.081141     19.186405     46.669974
  C      39.361914     18.678813     44.918926
  H      39.388223     17.598889     45.086674
  C      40.377953     19.264496     44.137963
  H      41.307275     18.732809     43.943298
  C      40.323120     20.612064     43.863175
  C      39.067179     21.339781     44.059797
  H      39.046890     22.390938     43.770976
  C      37.971643     20.726685     44.538850
  H      37.027423     21.269390     44.629791
  C      37.962869     19.274928     44.928386
  H      37.582317     19.203315     45.955838
  O      37.132983     18.550595     44.029816
  H      36.485087     17.970257     44.554399
  C      41.455596     21.262900     43.077147
  O      42.535975     20.635804     42.970034
  O      41.210579     22.386859     42.561859
24
Coordinates from ORCA-job neb_MEP.QMRegion E -1075.597101048916
  C      41.330570     21.111555     46.140814
  H      42.173134     20.543037     45.750156
  H      41.412949     22.191928     46.228267
  C      40.291348     20.472493     46.813567
  C      39.196355     21.322831     47.497024
  O      39.460336     22.524940     47.715395
  O      38.116541     20.735547     47.793194
  O      40.142658     19.207988     46.766423
  C      39.336344     18.646471     44.830062
  H      39.379588     17.579796     45.053737
  C      40.372192     19.253566     44.147851
  H      41.306184     18.729634     43.951940
  C      40.343070     20.633316     43.926433
  C      39.071973     21.344771     44.076080
  H      39.048622     22.393812     43.781253
  C      37.972718     20.722532     44.533180
  H      37.027047     21.263312     44.619886
  C      37.960814     19.268352     44.911308
  H      37.597174     19.192765     45.946270
  O      37.105454     18.559604     44.022482
  H      36.472223     17.968922     44.553496
  C      41.460419     21.267935     43.099454
  O      42.533802     20.632659     42.975925
  O      41.207392     22.382231     42.567274
24
Coordinates from ORCA-job neb_MEP.QMRegion E -1075.599339032436
  C      41.290669     21.106674     46.033260
  H      42.177675     20.540688     45.753399
  H      41.395344     22.181339     46.172506
  C      40.290257     20.470106     46.813760
  C      39.197378     21.325979     47.497753
  O      39.467114     22.527185     47.713265
  O      38.122442     20.737511     47.798919
  O      40.190810     19.224032     46.841015
  C      39.323165     18.627029     44.773832
  H      39.371201     17.565846     45.018224
  C      40.372492     19.248026     44.164977
  H      41.307243     18.727474     43.964834
  C      40.381382     20.666524     44.024858
  C      39.080882     21.353357     44.103940
  H      39.050151     22.397407     43.792229
  C      37.976793     20.720660     44.529404
  H      37.026875     21.257598     44.602790
  C      37.961668     19.263979     44.901747
  H      37.605062     19.185046     45.939969
  O      37.088600     18.568127     44.019531
  H      36.465624     17.970611     44.553815
  C      41.468621     21.274942     43.124746
  O      42.533772     20.631214     42.978948
  O      41.203706     22.376209     42.571935
24
Coordinates from ORCA-job neb_MEP.QMRegion E -1075.607611032778
  C      41.239345     21.092040     45.904754
  H      42.172081     20.541730     45.757016
  H      41.375766     22.158384     46.116756
  C      40.283969     20.463792     46.806010
  C      39.199938     21.329096     47.500552
  O      39.474014     22.527866     47.711907
  O      38.128587     20.738400     47.804743
  O      40.230389     19.239271     46.899942
  C      39.317941     18.615276     44.733999
  H      39.363842     17.553911     44.983624
  C      40.377056     19.245864     44.185739
  H      41.310581     18.724246     43.975871
  C      40.431382     20.705297     44.138530
  C      39.091700     21.361027     44.131871
  H      39.052342     22.400258     43.804158
  C      37.982803     20.718901     44.525791
  H      37.027841     21.251950     44.585231
  C      37.963689     19.260169     44.897055
  H      37.610161     19.178024     45.937532
  O      37.076955     18.576114     44.018864
  H      36.460273     17.973716     44.553533
  C      41.476965     21.282012     43.146918
  O      42.533676     20.629701     42.979533
  O      41.200080     22.369545     42.574408
24
Coordinates from ORCA-job neb_MEP.QMRegion E -1075.625743548049
  C      41.173350     21.063959     45.769010
  H      42.141195     20.539622     45.753691
  H      41.326860     22.125392     46.007126
  C      40.271950     20.467862     46.800869
  C      39.197943     21.335127     47.505219
  O      39.485959     22.531771     47.710440
  O      38.131472     20.745953     47.820219
  O      40.308450     19.269129     47.018837
  C      39.311785     18.606462     44.685617
  H      39.348899     17.538838     44.908229
  C      40.389080     19.249011     44.219006
  H      41.322091     18.726679     44.007155
  C      40.482807     20.743482     44.252620
  C      39.111932     21.372653     44.170402
  H      39.064506     22.410640     43.836832
  C      37.996948     20.719500     44.520861
  H      37.036281     21.246393     44.546229
  C      37.967598     19.258724     44.886898
  H      37.627147     19.169103     45.934750
  O      37.056168     18.599504     44.016495
  H      36.456689     17.983256     44.551199
  C      41.483403     21.291163     43.177864
  O      42.531239     20.631130     42.988364
  O      41.190589     22.363269     42.584512
24
Coordinates from ORCA-job neb_MEP.QMRegion E -1075.639517841890
  C      41.214000     20.992000     45.703000
  H      42.200000     20.503000     45.695000
  H      41.324000     22.066000     45.868000
  C      40.400000     20.418000     46.835000
  C      39.295000     21.286000     47.495000
  O      39.575000     22.490000     47.666000
  O      38.232000     20.696000     47.820000
  O      40.592000     19.280000     47.222000
  C      39.286000     18.528000     44.455000
  H      39.262000     17.438000     44.437000
  C      40.413000     19.194000     44.190000
  H      41.345000     18.675000     43.966000
  C      40.525000     20.692000     44.305000
  C      39.163000     21.337000     44.254000
  H      39.133000     22.397000     44.006000
  C      38.031000     20.671000     44.498000
  H      37.069000     21.193000     44.478000
  C      37.979000     19.195000     44.791000
  H      37.776000     19.080000     45.872000
  O      36.938000     18.599000     44.038000
  H      36.341000     18.034000     44.624000
  C      41.488000     21.260000     43.203000
  O      42.544000     20.621000     42.991000
  O      41.164000     22.328000     42.623000
