24
frame 56098 P
C     42.131000    21.181000    42.026000
H     43.089000    20.667000    41.880000
H     42.270000    22.273000    42.006000
C     41.584000    20.717000    43.353000
C     40.771000    21.651000    44.286000
O     41.231000    22.805000    44.422000
O     39.771000    21.167000    44.871000
O     41.802000    19.575000    43.708000
C     39.721000    18.815000    41.469000
H     39.496000    17.746000    41.538000
C     40.859000    19.255000    40.929000
H     41.613000    18.561000    40.548000
C     41.194000    20.731000    40.842000
C     39.940000    21.570000    40.904000
H     40.003000    22.571000    40.467000
C     38.828000    21.137000    41.503000
H     37.943000    21.774000    41.604000
C     38.705000    19.749000    42.081000
H     38.931000    19.820000    43.166000
O     37.385000    19.310000    41.906000
H     37.233000    18.440000    42.476000
C     41.955000    20.911000    39.497000
O     43.135000    20.454000    39.447000
O     41.366000    21.458000    38.552000
