24
frame 56098 R
C     42.476000    21.271000    42.812000
H     42.998000    20.647000    42.086000
H     42.789000    22.304000    42.969000
C     41.422000    20.811000    43.500000
C     40.655000    21.689000    44.480000
O     41.068000    22.860000    44.629000
O     39.657000    21.184000    45.061000
O     40.970000    19.519000    43.386000
C     40.150000    19.135000    42.232000
H     39.897000    18.085000    42.440000
C     40.997000    19.276000    41.013000
H     41.812000    18.564000    40.862000
C     40.908000    20.376000    40.241000
C     39.853000    21.371000    40.474000
H     39.877000    22.268000    39.851000
C     38.914000    21.199000    41.419000
H     38.131000    21.946000    41.584000
C     38.816000    19.910000    42.196000
H     38.556000    20.124000    43.247000
O     37.830000    19.124000    41.565000
H     37.419000    18.469000    42.267000
C     41.936000    20.664000    39.171000
O     43.130000    20.298000    39.398000
O     41.563000    21.289000    38.158000
