24
Coordinates from ORCA-job neb.QMRegion
  C          42.37270416557324     17.22678950843155     51.89527840681066
  H          42.94475103576358     16.52704374519980     51.28879921630175
  H          42.85546028846702     18.14313518201440     52.23345035566309
  C          41.18703557809663     16.82007138963192     52.51045925349893
  C          40.50973371635815     17.72215557019365     53.56744955023424
  O          41.21939147284817     18.58034962938581     54.12876922615906
  O          39.28834075579391     17.50361863583187     53.81523317664952
  O          40.57537925019714     15.76320529921522     52.13623396080438
  C          39.65175520370320     16.09629457948123     50.25347856322657
  H          39.30204240192234     15.06515343061627     50.18674614477668
  C          40.81372336975856     16.47230683536276     49.60353377762511
  H          41.47386045191901     15.73026643167196     49.15195457879383
  C          41.30038405582108     17.77613158118880     49.76246400293743
  C          40.38830943143652     18.81235005775204     50.25664550138671
  H          40.75925985834697     19.83833831638268     50.27421179675000
  C          39.14797112913708     18.50730626777013     50.67180756347697
  H          38.48472045487552     19.29096994724906     51.03933724155274
  C          38.60281374969536     17.10610567352677     50.66852028741680
  H          38.27330424719095     16.87752073395997     51.69258011036136
  O          37.51095966687435     17.00412568338307     49.75580938734510
  H          36.67770312247485     16.68723453351968     50.22199541366378
  C          42.55727875877230     18.19006682529243     48.99043238638478
  O          43.37912914337822     17.29560991770793     48.69105891081451
  O          42.66061870749422     19.40653735879671     48.67369695200255
