24
Coordinates from ORCA-job neb.QMRegion E -1075.697979649721
  C      42.360682     17.238036     51.876472
  H      42.928338     16.539369     51.264619
  H      42.847710     18.151353     52.216682
  C      41.181115     16.828793     52.502034
  C      40.508617     17.727234     53.564362
  O      41.220640     18.582782     54.125988
  O      39.287991     17.507968     53.816318
  O      40.568335     15.771960     52.130448
  C      39.651402     16.104693     50.261383
  H      39.300474     15.074238     50.195972
  C      40.813550     16.478694     49.610763
  H      41.473710     15.734625     49.163066
  C      41.306381     17.779331     49.776560
  C      40.393888     18.818632     50.264866
  H      40.766663     19.844015     50.282102
  C      39.150322     18.517303     50.672640
  H      38.485748     19.303949     51.031114
  C      38.603457     17.116551     50.672961
  H      38.271031     16.891747     51.697071
  O      37.514343     17.011545     49.757978
  H      36.681338     16.692785     50.222819
  C      42.560080     18.191107     48.997174
  O      43.379857     17.295551     48.695275
  O      42.662016     19.406490     48.675571
24
Coordinates from ORCA-job neb.QMRegion E -1075.698191684365
  C      42.371313     17.229722     51.893675
  H      42.943843     16.530432     51.287041
  H      42.853471     18.146483     52.231262
  C      41.186769     16.823186     52.509528
  C      40.509807     17.724159     53.567084
  O      41.219860     18.581632     54.128525
  O      39.288648     17.505198     53.816412
  O      40.572722     15.767207     52.132706
  C      39.650868     16.101537     50.256637
  H      39.299482     15.071365     50.187821
  C      40.811034     16.477447     49.601895
  H      41.470762     15.734166     49.152173
  C      41.301544     17.778145     49.766551
  C      40.389716     18.816292     50.258004
  H      40.762644     19.841543     50.277713
  C      39.147389     18.513603     50.668599
  H      38.483943     19.298850     51.032166
  C      38.601348     17.112646     50.667488
  H      38.270052     16.886225     51.691330
  O      37.511179     17.008865     49.753415
  H      36.678026     16.691185     50.219135
  C      42.558125     18.190767     48.993093
  O      43.379221     17.295717     48.693186
  O      42.661356     19.406716     48.674342
24
Coordinates from ORCA-job neb.QMRegion E -1075.698286647383
  C      42.372704     17.226790     51.895278
  H      42.944751     16.527044     51.288799
  H      42.855460     18.143135     52.233450
  C      41.187036     16.820071     52.510459
  C      40.509734     17.722156     53.567450
  O      41.219391     18.580350     54.128769
  O      39.288341     17.503619     53.815233
  O      40.575379     15.763205     52.136234
  C      39.651755     16.096295     50.253479
  H      39.302042     15.065153     50.186746
  C      40.813723     16.472307     49.603534
  H      41.473860     15.730266     49.151955
  C      41.300384     17.776132     49.762464
  C      40.388309     18.812350     50.256646
  H      40.759260     19.838338     50.274212
  C      39.147971     18.507306     50.671808
  H      38.484720     19.290970     51.039337
  C      38.602814     17.106106     50.668520
  H      38.273304     16.877521     51.692580
  O      37.510960     17.004126     49.755809
  H      36.677703     16.687235     50.221995
  C      42.557279     18.190067     48.990432
  O      43.379129     17.295610     48.691059
  O      42.660619     19.406537     48.673697
