24
Coordinates from ORCA-job neb_initial_path.QMRegion E   0.000000000000
  C      42.453000     16.838000     52.467000
  H      42.950000     16.189000     51.744000
  H      43.037000     17.571000     53.027000
  C      41.133000     16.774000     52.677000
  C      40.436000     17.688000     53.686000
  O      41.131000     18.568000     54.230000
  O      39.205000     17.486000     53.896000
  O      40.348000     15.843000     52.019000
  C      39.822000     16.159000     50.680000
  H      39.352000     15.216000     50.366000
  C      40.958000     16.515000     49.770000
  H      41.622000     15.723000     49.415000
  C      41.266000     17.803000     49.514000
  C      40.402000     18.870000     50.030000
  H      40.757000     19.894000     49.911000
  C      39.229000     18.608000     50.633000
  H      38.619000     19.427000     51.017000
  C      38.693000     17.209000     50.781000
  H      38.273000     17.105000     51.791000
  O      37.691000     16.965000     49.795000
  H      36.839000     16.680000     50.232000
  C      42.551000     18.188000     48.784000
  O      43.356000     17.279000     48.475000
  O      42.724000     19.422000     48.567000
24
Coordinates from ORCA-job neb_initial_path.QMRegion E   0.000000000000
  C      42.413667     16.978000     52.252667
  H      42.942000     16.308000     51.579000
  H      42.967667     17.768667     52.744000
  C      41.145333     16.794667     52.610667
  C      40.460667     17.700333     53.642667
  O      41.163667     18.570000     54.193000
  O      39.233667     17.492333     53.869667
  O      40.414000     15.825000     52.041333
  C      39.769667     16.139333     50.549333
  H      39.335667     15.169333     50.307333
  C      40.911000     16.503667     49.719333
  H      41.571667     15.727667     49.330000
  C      41.286667     17.792333     49.617000
  C      40.401000     18.852000     50.114333
  H      40.760333     19.877333     50.038333
  C      39.203333     18.577000     50.647333
  H      38.573000     19.385667     51.017333
  C      38.663667     17.177333     50.747333
  H      38.270333     17.033000     51.761000
  O      37.634000     16.979333     49.783333
  H      36.787333     16.684333     50.228667
  C      42.555667     18.188333     48.860667
  O      43.364333     17.284333     48.549667
  O      42.701333     19.415333     48.605667
24
Coordinates from ORCA-job neb_initial_path.QMRegion E   0.000000000000
  C      42.374333     17.118000     52.038333
  H      42.934000     16.427000     51.414000
  H      42.898333     17.966333     52.461000
  C      41.157667     16.815333     52.544333
  C      40.485333     17.712667     53.599333
  O      41.196333     18.572000     54.156000
  O      39.262333     17.498667     53.843333
  O      40.480000     15.807000     52.063667
  C      39.717333     16.119667     50.418667
  H      39.319333     15.122667     50.248667
  C      40.864000     16.492333     49.668667
  H      41.521333     15.732333     49.245000
  C      41.307333     17.781667     49.720000
  C      40.400000     18.834000     50.198667
  H      40.763667     19.860667     50.165667
  C      39.177667     18.546000     50.661667
  H      38.527000     19.344333     51.017667
  C      38.634333     17.145667     50.713667
  H      38.267667     16.961000     51.731000
  O      37.577000     16.993667     49.771667
  H      36.735667     16.688667     50.225333
  C      42.560333     18.188667     48.937333
  O      43.372667     17.289667     48.624333
  O      42.678667     19.408667     48.644333
24
Coordinates from ORCA-job neb_initial_path.QMRegion E   0.000000000000
  C      42.335000     17.258000     51.824000
  H      42.926000     16.546000     51.249000
  H      42.829000     18.164000     52.178000
  C      41.170000     16.836000     52.478000
  C      40.510000     17.725000     53.556000
  O      41.229000     18.574000     54.119000
  O      39.291000     17.505000     53.817000
  O      40.546000     15.789000     52.086000
  C      39.665000     16.100000     50.288000
  H      39.303000     15.076000     50.190000
  C      40.817000     16.481000     49.618000
  H      41.471000     15.737000     49.160000
  C      41.328000     17.771000     49.823000
  C      40.399000     18.816000     50.283000
  H      40.767000     19.844000     50.293000
  C      39.152000     18.515000     50.676000
  H      38.481000     19.303000     51.018000
  C      38.605000     17.114000     50.680000
  H      38.265000     16.889000     51.701000
  O      37.520000     17.008000     49.760000
  H      36.684000     16.693000     50.222000
  C      42.565000     18.189000     49.014000
  O      43.381000     17.295000     48.699000
  O      42.656000     19.402000     48.683000
24
Coordinates from ORCA-job neb_initial_path.QMRegion E   0.000000000000
  C      42.316000     17.273333     51.765500
  H      42.938667     16.555667     51.251167
  H      42.802000     18.179833     52.131333
  C      41.182167     16.822667     52.476000
  C      40.519667     17.716667     53.549833
  O      41.242500     18.562833     54.111167
  O      39.300667     17.498667     53.807333
  O      40.617333     15.752000     52.145833
  C      39.642500     16.114833     50.205000
  H      39.268000     15.104000     50.068833
  C      40.818167     16.475833     49.613833
  H      41.473000     15.734333     49.152833
  C      41.354667     17.759333     49.871167
  C      40.411167     18.809000     50.303667
  H      40.781667     19.834667     50.332500
  C      39.155833     18.514333     50.662167
  H      38.483000     19.305333     50.993167
  C      38.600333     17.116833     50.646167
  H      38.285833     16.869000     51.668500
  O      37.492333     17.034667     49.759167
  H      36.666667     16.717500     50.234833
  C      42.569333     18.185500     49.026833
  O      43.384000     17.294500     48.701167
  O      42.648833     19.397000     48.690000
24
Coordinates from ORCA-job neb_initial_path.QMRegion E   0.000000000000
  C      42.297000     17.288667     51.707000
  H      42.951333     16.565333     51.253333
  H      42.775000     18.195667     52.084667
  C      41.194333     16.809333     52.474000
  C      40.529333     17.708333     53.543667
  O      41.256000     18.551667     54.103333
  O      39.310333     17.492333     53.797667
  O      40.688667     15.715000     52.205667
  C      39.620000     16.129667     50.122000
  H      39.233000     15.132000     49.947667
  C      40.819333     16.470667     49.609667
  H      41.475000     15.731667     49.145667
  C      41.381333     17.747667     49.919333
  C      40.423333     18.802000     50.324333
  H      40.796333     19.825333     50.372000
  C      39.159667     18.513667     50.648333
  H      38.485000     19.307667     50.968333
  C      38.595667     17.119667     50.612333
  H      38.306667     16.849000     51.636000
  O      37.464667     17.061333     49.758333
  H      36.649333     16.742000     50.247667
  C      42.573667     18.182000     49.039667
  O      43.387000     17.294000     48.703333
  O      42.641667     19.392000     48.697000
24
Coordinates from ORCA-job neb_initial_path.QMRegion E   0.000000000000
  C      42.278000     17.304000     51.648500
  H      42.964000     16.575000     51.255500
  H      42.748000     18.211500     52.038000
  C      41.206500     16.796000     52.472000
  C      40.539000     17.700000     53.537500
  O      41.269500     18.540500     54.095500
  O      39.320000     17.486000     53.788000
  O      40.760000     15.678000     52.265500
  C      39.597500     16.144500     50.039000
  H      39.198000     15.160000     49.826500
  C      40.820500     16.465500     49.605500
  H      41.477000     15.729000     49.138500
  C      41.408000     17.736000     49.967500
  C      40.435500     18.795000     50.345000
  H      40.811000     19.816000     50.411500
  C      39.163500     18.513000     50.634500
  H      38.487000     19.310000     50.943500
  C      38.591000     17.122500     50.578500
  H      38.327500     16.829000     51.603500
  O      37.437000     17.088000     49.757500
  H      36.632000     16.766500     50.260500
  C      42.578000     18.178500     49.052500
  O      43.390000     17.293500     48.705500
  O      42.634500     19.387000     48.704000
24
Coordinates from ORCA-job neb_initial_path.QMRegion E   0.000000000000
  C      42.259000     17.319333     51.590000
  H      42.976667     16.584667     51.257667
  H      42.721000     18.227333     51.991333
  C      41.218667     16.782667     52.470000
  C      40.548667     17.691667     53.531333
  O      41.283000     18.529333     54.087667
  O      39.329667     17.479667     53.778333
  O      40.831333     15.641000     52.325333
  C      39.575000     16.159333     49.956000
  H      39.163000     15.188000     49.705333
  C      40.821667     16.460333     49.601333
  H      41.479000     15.726333     49.131333
  C      41.434667     17.724333     50.015667
  C      40.447667     18.788000     50.365667
  H      40.825667     19.806667     50.451000
  C      39.167333     18.512333     50.620667
  H      38.489000     19.312333     50.918667
  C      38.586333     17.125333     50.544667
  H      38.348333     16.809000     51.571000
  O      37.409333     17.114667     49.756667
  H      36.614667     16.791000     50.273333
  C      42.582333     18.175000     49.065333
  O      43.393000     17.293000     48.707667
  O      42.627333     19.382000     48.711000
24
Coordinates from ORCA-job neb_initial_path.QMRegion E   0.000000000000
  C      42.240000     17.334667     51.531500
  H      42.989333     16.594333     51.259833
  H      42.694000     18.243167     51.944667
  C      41.230833     16.769333     52.468000
  C      40.558333     17.683333     53.525167
  O      41.296500     18.518167     54.079833
  O      39.339333     17.473333     53.768667
  O      40.902667     15.604000     52.385167
  C      39.552500     16.174167     49.873000
  H      39.128000     15.216000     49.584167
  C      40.822833     16.455167     49.597167
  H      41.481000     15.723667     49.124167
  C      41.461333     17.712667     50.063833
  C      40.459833     18.781000     50.386333
  H      40.840333     19.797333     50.490500
  C      39.171167     18.511667     50.606833
  H      38.491000     19.314667     50.893833
  C      38.581667     17.128167     50.510833
  H      38.369167     16.789000     51.538500
  O      37.381667     17.141333     49.755833
  H      36.597333     16.815500     50.286167
  C      42.586667     18.171500     49.078167
  O      43.396000     17.292500     48.709833
  O      42.620167     19.377000     48.718000
24
Coordinates from ORCA-job neb_initial_path.QMRegion E   0.000000000000
  C      42.221000     17.350000     51.473000
  H      43.002000     16.604000     51.262000
  H      42.667000     18.259000     51.898000
  C      41.243000     16.756000     52.466000
  C      40.568000     17.675000     53.519000
  O      41.310000     18.507000     54.072000
  O      39.349000     17.467000     53.759000
  O      40.974000     15.567000     52.445000
  C      39.530000     16.189000     49.790000
  H      39.093000     15.244000     49.463000
  C      40.824000     16.450000     49.593000
  H      41.483000     15.721000     49.117000
  C      41.488000     17.701000     50.112000
  C      40.472000     18.774000     50.407000
  H      40.855000     19.788000     50.530000
  C      39.175000     18.511000     50.593000
  H      38.493000     19.317000     50.869000
  C      38.577000     17.131000     50.477000
  H      38.390000     16.769000     51.506000
  O      37.354000     17.168000     49.755000
  H      36.580000     16.840000     50.299000
  C      42.591000     18.168000     49.091000
  O      43.399000     17.292000     48.712000
  O      42.613000     19.372000     48.725000
