24
Coordinates from ORCA-job neb_MEP.QMRegion E -1075.722746337852
  C      42.453000     16.838000     52.467000
  H      42.950000     16.189000     51.744000
  H      43.037000     17.571000     53.027000
  C      41.133000     16.774000     52.677000
  C      40.436000     17.688000     53.686000
  O      41.131000     18.568000     54.230000
  O      39.205000     17.486000     53.896000
  O      40.348000     15.843000     52.019000
  C      39.822000     16.159000     50.680000
  H      39.352000     15.216000     50.366000
  C      40.958000     16.515000     49.770000
  H      41.622000     15.723000     49.415000
  C      41.266000     17.803000     49.514000
  C      40.402000     18.870000     50.030000
  H      40.757000     19.894000     49.911000
  C      39.229000     18.608000     50.633000
  H      38.619000     19.427000     51.017000
  C      38.693000     17.209000     50.781000
  H      38.273000     17.105000     51.791000
  O      37.691000     16.965000     49.795000
  H      36.839000     16.680000     50.232000
  C      42.551000     18.188000     48.784000
  O      43.356000     17.279000     48.475000
  O      42.724000     19.422000     48.567000
24
Coordinates from ORCA-job neb_MEP.QMRegion E -1075.720614579539
  C      42.412331     17.060645     52.141079
  H      42.917372     16.445310     51.396495
  H      42.933642     17.928769     52.545626
  C      41.146307     16.833075     52.523860
  C      40.478008     17.701898     53.594313
  O      41.185588     18.562912     54.155543
  O      39.254638     17.489548     53.841690
  O      40.379399     15.840563     51.937997
  C      39.779073     16.106190     50.582307
  H      39.335785     15.139597     50.300596
  C      40.886508     16.498634     49.669596
  H      41.527247     15.727860     49.237003
  C      41.253235     17.794725     49.584597
  C      40.395533     18.834798     50.166256
  H      40.768748     19.860285     50.153227
  C      39.183151     18.546383     50.670698
  H      38.538097     19.345194     51.038909
  C      38.642057     17.143728     50.737673
  H      38.255187     16.982183     51.752664
  O      37.608567     16.964598     49.774985
  H      36.756623     16.683119     50.222991
  C      42.546753     18.195579     48.888834
  O      43.376362     17.294861     48.621748
  O      42.699076     19.422475     48.632942
24
Coordinates from ORCA-job neb_MEP.QMRegion E -1075.709268090927
  C      42.386966     17.163624     51.996518
  H      42.913052     16.527860     51.285168
  H      42.874645     18.082709     52.323981
  C      41.165739     16.845591     52.483610
  C      40.500393     17.712913     53.564010
  O      41.209528     18.570488     54.129787
  O      39.278439     17.497862     53.820166
  O      40.438103     15.819863     51.954431
  C      39.738508     16.090522     50.477890
  H      39.321883     15.099918     50.248575
  C      40.849211     16.494076     49.624748
  H      41.489489     15.734989     49.173615
  C      41.265045     17.786013     49.659445
  C      40.393163     18.820121     50.231436
  H      40.768989     19.844933     50.249485
  C      39.161237     18.523711     50.678362
  H      38.501386     19.313890     51.037878
  C      38.617349     17.121389     50.706581
  H      38.258756     16.923372     51.724116
  O      37.558093     16.982936     49.765474
  H      36.711197     16.688478     50.221642
  C      42.550476     18.193969     48.951416
  O      43.382006     17.297638     48.679389
  O      42.679051     19.415522     48.662975
24
Coordinates from ORCA-job neb_MEP.QMRegion E -1075.697973362985
  C      42.360682     17.238036     51.876472
  H      42.928338     16.539369     51.264619
  H      42.847710     18.151353     52.216682
  C      41.181115     16.828793     52.502034
  C      40.508617     17.727234     53.564362
  O      41.220640     18.582782     54.125988
  O      39.287991     17.507968     53.816318
  O      40.568335     15.771960     52.130448
  C      39.651402     16.104693     50.261383
  H      39.300474     15.074238     50.195972
  C      40.813550     16.478694     49.610763
  H      41.473710     15.734625     49.163066
  C      41.306381     17.779331     49.776560
  C      40.393888     18.818632     50.264866
  H      40.766663     19.844015     50.282102
  C      39.150322     18.517303     50.672640
  H      38.485748     19.303949     51.031114
  C      38.603457     17.116551     50.672961
  H      38.271031     16.891747     51.697071
  O      37.514343     17.011545     49.757978
  H      36.681338     16.692785     50.222819
  C      42.560080     18.191107     48.997174
  O      43.379857     17.295551     48.695275
  O      42.662016     19.406490     48.675571
24
Coordinates from ORCA-job neb_MEP.QMRegion E -1075.707960332580
  C      42.288390     17.308176     51.692652
  H      42.938424     16.537624     51.273017
  H      42.811485     18.166787     52.135359
  C      41.170649     16.824397     52.490327
  C      40.511766     17.727912     53.564980
  O      41.235485     18.577025     54.119860
  O      39.296226     17.505295     53.819507
  O      40.641735     15.737711     52.229264
  C      39.618486     16.113941     50.159447
  H      39.278071     15.077909     50.129892
  C      40.810728     16.466000     49.628939
  H      41.472760     15.730445     49.168305
  C      41.393292     17.762450     49.944329
  C      40.408888     18.816369     50.301542
  H      40.769993     19.846207     50.302508
  C      39.154521     18.514733     50.664242
  H      38.481926     19.302777     51.008058
  C      38.601612     17.114222     50.653977
  H      38.279722     16.877444     51.680591
  O      37.493087     17.033417     49.758709
  H      36.668461     16.702505     50.227565
  C      42.574478     18.188417     49.033075
  O      43.381342     17.294434     48.695147
  O      42.648568     19.397415     48.682488
24
Coordinates from ORCA-job neb_MEP.QMRegion E -1075.727183821346
  C      42.229930     17.349534     51.556930
  H      42.934530     16.551588     51.277099
  H      42.766958     18.181385     52.049637
  C      41.162958     16.821968     52.473147
  C      40.518644     17.725178     53.561872
  O      41.251823     18.567588     54.112991
  O      39.306235     17.500774     53.819804
  O      40.708390     15.704843     52.303311
  C      39.599441     16.123659     50.087774
  H      39.250337     15.090176     50.040170
  C      40.819164     16.460128     49.644976
  H      41.476094     15.727330     49.172409
  C      41.459637     17.746800     50.062986
  C      40.429541     18.809963     50.339934
  H      40.778373     19.844735     50.331503
  C      39.162928     18.511262     50.656736
  H      38.481393     19.302188     50.978882
  C      38.600143     17.113341     50.631912
  H      38.293204     16.861151     51.661232
  O      37.471740     17.057782     49.760410
  H      36.654741     16.717737     50.235142
  C      42.585490     18.185758     49.061492
  O      43.383627     17.294234     48.697029
  O      42.635879     19.389544     48.691157
24
Coordinates from ORCA-job neb_MEP.QMRegion E -1075.742573083798
  C      42.208044     17.360185     51.494466
  H      42.948138     16.576567     51.271149
  H      42.713859     18.223117     51.952409
  C      41.183437     16.801475     52.464102
  C      40.537656     17.709150     53.547456
  O      41.280449     18.543304     54.097790
  O      39.325626     17.488627     53.806761
  O      40.821579     15.647390     52.378710
  C      39.573259     16.145278     49.973911
  H      39.186994     15.136157     49.820175
  C      40.829221     16.455834     49.639884
  H      41.486626     15.725443     49.164503
  C      41.486428     17.730281     50.105825
  C      40.455179     18.797881     50.380557
  H      40.809145     19.830742     50.408183
  C      39.174057     18.508613     50.637354
  H      38.486546     19.305416     50.928621
  C      38.594314     17.118190     50.577677
  H      38.331416     16.825879     51.610370
  O      37.426611     17.106488     49.762198
  H      36.624825     16.763513     50.258729
  C      42.593399     18.180242     49.082859
  O      43.392189     17.294824     48.705437
  O      42.624462     19.382157     48.707777
24
Coordinates from ORCA-job neb_MEP.QMRegion E -1075.748970163706
  C      42.211809     17.358096     51.485150
  H      42.965726     16.587030     51.266261
  H      42.698009     18.239015     51.927466
  C      41.203652     16.784982     52.464765
  C      40.548569     17.696507     53.538845
  O      41.291818     18.530344     54.089116
  O      39.334661     17.480637     53.792433
  O      40.876270     15.618973     52.402548
  C      39.557891     16.159385     49.910578
  H      39.151380     15.170162     49.694479
  C      40.829050     16.454188     49.625724
  H      41.488170     15.725324     49.150040
  C      41.488443     17.721195     50.108605
  C      40.462169     18.790853     50.390679
  H      40.825864     19.818936     50.449431
  C      39.175225     18.509234     50.622659
  H      38.488277     19.308672     50.907348
  C      38.588552     17.122555     50.544161
  H      38.352354     16.806581     51.576930
  O      37.400776     17.129757     49.760991
  H      36.607637     16.791180     50.272710
  C      42.593889     18.176795     49.086023
  O      43.395700     17.294570     48.707804
  O      42.620856     19.379272     48.713765
24
Coordinates from ORCA-job neb_MEP.QMRegion E -1075.753753803735
  C      42.216392     17.354804     51.478728
  H      42.982570     16.595658     51.261621
  H      42.686003     18.249457     51.910327
  C      41.223061     16.769916     52.466795
  C      40.558389     17.685085     53.531212
  O      41.300604     18.519458     54.081732
  O      39.342281     17.473393     53.778164
  O      40.924663     15.594608     52.424269
  C      39.543795     16.173633     49.852702
  H      39.121029     15.204804     49.582879
  C      40.827168     16.452881     49.610771
  H      41.487345     15.725338     49.134228
  C      41.488955     17.712493     50.110011
  C      40.466865     18.784026     50.398131
  H      40.839399     19.806859     50.484598
  C      39.175017     18.510186     50.608732
  H      38.489138     19.311678     50.889941
  C      38.582746     17.126948     50.512986
  H      38.370294     16.789213     51.544460
  O      37.377958     17.149113     49.759157
  H      36.592985     16.815522     50.285094
  C      42.593507     18.173263     49.088021
  O      43.398090     17.293931     48.709254
  O      42.617437     19.376402     48.718647
24
Coordinates from ORCA-job neb_MEP.QMRegion E -1075.756097195334
  C      42.221000     17.350000     51.473000
  H      43.002000     16.604000     51.262000
  H      42.667000     18.259000     51.898000
  C      41.243000     16.756000     52.466000
  C      40.568000     17.675000     53.519000
  O      41.310000     18.507000     54.072000
  O      39.349000     17.467000     53.759000
  O      40.974000     15.567000     52.445000
  C      39.530000     16.189000     49.790000
  H      39.093000     15.244000     49.463000
  C      40.824000     16.450000     49.593000
  H      41.483000     15.721000     49.117000
  C      41.488000     17.701000     50.112000
  C      40.472000     18.774000     50.407000
  H      40.855000     19.788000     50.530000
  C      39.175000     18.511000     50.593000
  H      38.493000     19.317000     50.869000
  C      38.577000     17.131000     50.477000
  H      38.390000     16.769000     51.506000
  O      37.354000     17.168000     49.755000
  H      36.580000     16.840000     50.299000
  C      42.591000     18.168000     49.091000
  O      43.399000     17.292000     48.712000
  O      42.613000     19.372000     48.725000
