24
Coordinates from ORCA-job neb_MEP.QMRegion E -1075.385080928779
  C      41.694000     18.885000     45.600000
  H      42.101000     18.103000     44.957000
  H      42.095000     19.897000     45.545000
  C      40.693000     18.637000     46.454000
  C      40.175000     19.700000     47.421000
  O      40.425000     20.914000     47.177000
  O      39.548000     19.294000     48.425000
  O      40.136000     17.377000     46.590000
  C      39.148000     16.942000     45.592000
  H      38.821000     15.961000     45.970000
  C      39.800000     16.781000     44.249000
  H      40.494000     15.952000     44.100000
  C      39.625000     17.685000     43.265000
  C      38.765000     18.851000     43.500000
  H      38.803000     19.628000     42.734000
  C      38.030000     18.983000     44.617000
  H      37.477000     19.907000     44.807000
  C      37.893000     17.851000     45.607000
  H      37.827000     18.261000     46.631000
  O      36.721000     17.144000     45.256000
  H      36.408000     16.478000     45.965000
  C      40.389000     17.630000     41.944000
  O      41.368000     16.833000     41.842000
  O      40.032000     18.433000     41.057000
24
Coordinates from ORCA-job neb_MEP.QMRegion E -1075.388304188268
  C      41.667317     18.854860     45.570104
  H      42.061125     18.074775     44.918600
  H      42.059154     19.870063     45.500178
  C      40.680263     18.608606     46.440088
  C      40.171620     19.675889     47.407559
  O      40.416822     20.889655     47.156154
  O      39.555355     19.273917     48.420721
  O      40.125275     17.348282     46.588848
  C      39.116603     16.915022     45.607024
  H      38.792820     15.934266     45.987498
  C      39.754867     16.765860     44.255661
  H      40.429502     15.925938     44.082337
  C      39.609522     17.708375     43.303844
  C      38.771838     18.882836     43.575169
  H      38.836573     19.687741     42.840774
  C      38.025019     18.990805     44.687178
  H      37.486623     19.917769     44.904564
  C      37.870511     17.833861     45.645922
  H      37.813738     18.222371     46.678358
  O      36.689193     17.148470     45.285466
  H      36.374013     16.474959     45.987050
  C      40.383964     17.684192     41.988915
  O      41.357167     16.881326     41.867915
  O      40.038432     18.516493     41.124820
24
Coordinates from ORCA-job neb_MEP.QMRegion E -1075.389431031677
  C      41.631326     18.804640     45.528288
  H      42.011230     18.021793     44.872620
  H      42.009857     19.822760     45.431996
  C      40.662589     18.563991     46.420242
  C      40.167012     19.639594     47.384945
  O      40.410569     20.851786     47.124388
  O      39.561403     19.246006     48.408139
  O      40.106933     17.305234     46.583333
  C      39.068253     16.877882     45.623572
  H      38.751693     15.895758     46.005927
  C      39.684074     16.747880     44.261392
  H      40.327178     15.892701     44.049941
  C      39.584034     17.743042     43.359153
  C      38.776363     18.926848     43.682023
  H      38.881257     19.768901     42.996367
  C      38.011125     18.998185     44.784445
  H      37.488371     19.925018     45.038937
  C      37.834542     17.809488     45.698663
  H      37.792843     18.168366     46.741469
  O      36.639050     17.155534     45.329487
  H      36.322259     16.469678     46.020300
  C      40.375500     17.762726     42.053866
  O      41.342585     16.954634     41.907244
  O      40.045076     18.635275     41.224297
24
Coordinates from ORCA-job neb_MEP.QMRegion E -1075.385271704155
  C      41.562659     18.724403     45.438800
  H      41.949375     17.932901     44.799817
  H      41.871953     19.753908     45.252333
  C      40.635586     18.488519     46.378365
  C      40.159033     19.583476     47.333273
  O      40.403303     20.792095     47.058784
  O      39.571077     19.208448     48.375051
  O      40.081580     17.231741     46.567840
  C      38.985329     16.808545     45.631342
  H      38.683982     15.818778     46.007678
  C      39.574910     16.726878     44.262920
  H      40.156268     15.850881     43.976079
  C      39.573025     17.815960     43.471308
  C      38.806833     19.003441     43.878434
  H      38.985072     19.906309     43.294149
  C      37.978813     18.997986     44.935807
  H      37.443363     19.905246     45.230825
  C      37.772449     17.762684     45.774830
  H      37.783443     18.074802     46.831061
  O      36.537780     17.181464     45.420708
  H      36.218293     16.470556     46.091776
  C      40.377952     17.903423     42.181212
  O      41.332762     17.088976     41.981028
  O      40.051478     18.829195     41.410799
24
Coordinates from ORCA-job neb_MEP.QMRegion E -1075.372973499453
  C      41.533426     18.720287     45.376315
  H      41.974128     17.920646     44.784551
  H      41.768078     19.754433     45.112020
  C      40.666568     18.464342     46.380205
  C      40.171497     19.579746     47.317197
  O      40.404037     20.789536     47.034450
  O      39.575219     19.216464     48.359388
  O      40.153397     17.211902     46.595154
  C      38.910283     16.745836     45.576765
  H      38.637167     15.755839     45.975608
  C      39.547118     16.713289     44.262548
  H      40.120408     15.840638     43.955354
  C      39.627425     17.857172     43.546585
  C      38.844016     19.032524     43.952145
  H      39.035196     19.948919     43.393552
  C      37.961706     18.986612     44.961654
  H      37.395795     19.877168     45.248301
  C      37.745087     17.739753     45.776001
  H      37.816709     18.027789     46.833382
  O      36.469439     17.221261     45.469568
  H      36.161113     16.485316     46.124289
  C      40.410686     17.947178     42.245503
  O      41.346087     17.121519     42.010574
  O      40.051727     18.865665     41.481613
24
Coordinates from ORCA-job neb_MEP.QMRegion E -1075.361940496874
  C      41.517570     18.726688     45.337293
  H      41.997439     17.919900     44.788621
  H      41.737031     19.759061     45.059248
  C      40.703229     18.458063     46.405082
  C      40.179976     19.588153     47.321108
  O      40.403381     20.797743     47.030359
  O      39.575933     19.226453     48.358859
  O      40.281585     17.237105     46.671019
  C      38.807574     16.689313     45.486928
  H      38.601846     15.719926     45.954146
  C      39.532862     16.704723     44.270753
  H      40.118975     15.841828     43.960587
  C      39.668906     17.885557     43.589353
  C      38.854816     19.043815     43.967892
  H      39.042404     19.958669     43.406487
  C      37.952774     18.982961     44.958538
  H      37.383943     19.870924     45.245110
  C      37.728521     17.731675     45.761521
  H      37.832891     18.007378     46.820290
  O      36.431924     17.241568     45.484288
  H      36.140826     16.489480     46.130204
  C      40.428824     17.959409     42.269077
  O      41.348156     17.123208     42.018735
  O      40.046932     18.864421     41.500532
24
Coordinates from ORCA-job neb_MEP.QMRegion E -1075.358830475145
  C      41.486061     18.725477     45.283257
  H      42.023649     17.918403     44.794014
  H      41.705244     19.758688     45.010206
  C      40.732369     18.453279     46.424768
  C      40.187985     19.595621     47.326555
  O      40.403359     20.803280     47.026202
  O      39.579116     19.233387     48.359489
  O      40.403021     17.261319     46.743481
  C      38.717282     16.640664     45.407937
  H      38.562455     15.690597     45.925106
  C      39.524497     16.699207     44.287007
  H      40.119966     15.844591     43.970537
  C      39.719849     17.919555     43.639032
  C      38.864830     19.055110     43.982762
  H      39.046290     19.968057     43.416969
  C      37.944046     18.978580     44.954681
  H      37.372627     19.864832     45.241347
  C      37.713504     17.721903     45.747197
  H      37.845545     17.989052     46.807428
  O      36.397974     17.262044     45.500532
  H      36.124316     16.494029     46.135052
  C      40.446635     17.971435     42.292338
  O      41.350403     17.124506     42.026246
  O      40.043009     18.862079     41.518330
24
Coordinates from ORCA-job neb_MEP.QMRegion E -1075.362246878603
  C      41.377931     18.687628     45.161729
  H      42.048522     17.909944     44.805557
  H      41.645928     19.726719     44.941754
  C      40.726892     18.441379     46.417958
  C      40.191837     19.597484     47.324247
  O      40.411067     20.800687     47.017948
  O      39.589752     19.234292     48.358627
  O      40.483128     17.277602     46.790817
  C      38.669621     16.614706     45.357626
  H      38.523834     15.668725     45.884447
  C      39.536810     16.706622     44.315298
  H      40.128155     15.853438     43.983600
  C      39.831599     17.983273     43.735638
  C      38.881827     19.074448     44.006106
  H      39.049940     19.983810     43.430385
  C      37.939525     18.976000     44.950984
  H      37.352960     19.856080     45.226665
  C      37.707509     17.715712     45.740555
  H      37.853487     17.977898     46.802100
  O      36.380161     17.279713     45.514238
  H      36.117177     16.500496     46.136727
  C      40.475264     17.990840     42.327929
  O      41.355751     17.128194     42.036270
  O      40.037405     18.858721     41.547411
24
Coordinates from ORCA-job neb_MEP.QMRegion E -1075.381262129029
  C      41.237213     18.621965     45.008647
  H      42.054659     17.917526     44.823755
  H      41.564055     19.669396     44.859521
  C      40.711918     18.428311     46.402251
  C      40.201364     19.601342     47.322587
  O      40.421877     20.799550     47.009734
  O      39.601953     19.236484     48.355439
  O      40.575081     17.298125     46.844368
  C      38.628284     16.592664     45.306641
  H      38.472546     15.641236     45.825115
  C      39.556180     16.719003     44.345097
  H      40.141429     15.865380     44.000730
  C      39.976652     18.062638     43.858363
  C      38.910423     19.095592     44.037181
  H      39.055324     20.001394     43.448988
  C      37.941152     18.972270     44.948010
  H      37.329888     19.842457     45.204691
  C      37.701365     17.707390     45.732463
  H      37.865544     17.962532     46.794977
  O      36.360208     17.303484     45.533080
  H      36.109240     16.509341     46.138823
  C      40.506047     18.014852     42.372241
  O      41.360165     17.135663     42.051235
  O      40.028630     18.855844     41.586588
24
Coordinates from ORCA-job neb_MEP.QMRegion E -1075.405000582049
  C      41.158000     18.543000     44.985000
  H      42.027000     17.897000     44.809000
  H      41.419000     19.592000     44.781000
  C      40.739000     18.362000     46.431000
  C      40.253000     19.554000     47.345000
  O      40.454000     20.743000     46.994000
  O      39.701000     19.204000     48.409000
  O      40.740000     17.248000     46.920000
  C      38.371000     16.495000     45.000000
  H      38.005000     15.476000     45.158000
  C      39.477000     16.726000     44.284000
  H      40.053000     15.912000     43.844000
  C      39.993000     18.113000     44.001000
  C      38.925000     19.150000     44.235000
  H      39.130000     20.130000     43.805000
  C      37.877000     18.932000     45.030000
  H      37.221000     19.758000     45.311000
  C      37.589000     17.599000     45.670000
  H      37.961000     17.686000     46.710000
  O      36.198000     17.381000     45.677000
  H      35.951000     16.538000     46.217000
  C      40.497000     18.142000     42.508000
  O      41.358000     17.286000     42.139000
  O      39.996000     19.016000     41.778000
