24
Coordinates from ORCA-job neb_initial_path.QMRegion E   0.000000000000
  C      41.694000     18.885000     45.600000
  H      42.101000     18.103000     44.957000
  H      42.095000     19.897000     45.545000
  C      40.693000     18.637000     46.454000
  C      40.175000     19.700000     47.421000
  O      40.425000     20.914000     47.177000
  O      39.548000     19.294000     48.425000
  O      40.136000     17.377000     46.590000
  C      39.148000     16.942000     45.592000
  H      38.821000     15.961000     45.970000
  C      39.800000     16.781000     44.249000
  H      40.494000     15.952000     44.100000
  C      39.625000     17.685000     43.265000
  C      38.765000     18.851000     43.500000
  H      38.803000     19.628000     42.734000
  C      38.030000     18.983000     44.617000
  H      37.477000     19.907000     44.807000
  C      37.893000     17.851000     45.607000
  H      37.827000     18.261000     46.631000
  O      36.721000     17.144000     45.256000
  H      36.408000     16.478000     45.965000
  C      40.389000     17.630000     41.944000
  O      41.368000     16.833000     41.842000
  O      40.032000     18.433000     41.057000
24
Coordinates from ORCA-job neb_initial_path.QMRegion E   0.000000000000
  C      41.644000     18.850500     45.533667
  H      42.080667     18.065000     44.925000
  H      42.019167     19.865500     45.442667
  C      40.690333     18.604333     46.441333
  C      40.175000     19.680667     47.400167
  O      40.423667     20.893167     47.149000
  O      39.552667     19.282500     48.410500
  O      40.163333     17.355667     46.605167
  C      39.087500     16.899333     45.571167
  H      38.785000     15.921833     45.967833
  C      39.756333     16.772000     44.257333
  H      40.430500     15.937333     44.077500
  C      39.651667     17.731167     43.337667
  C      38.785333     18.890000     43.585500
  H      38.845667     19.689333     42.851667
  C      38.017500     18.985500     44.675833
  H      37.457500     19.901667     44.878500
  C      37.866000     17.832833     45.633667
  H      37.825000     18.220000     46.664000
  O      36.674333     17.160333     45.292000
  H      36.365833     16.480000     45.990000
  C      40.402167     17.690667     42.007667
  O      41.366500     16.884000     41.875333
  O      40.033167     18.505667     41.139000
24
Coordinates from ORCA-job neb_initial_path.QMRegion E   0.000000000000
  C      41.594000     18.816000     45.467333
  H      42.060333     18.027000     44.893000
  H      41.943333     19.834000     45.340333
  C      40.687667     18.571667     46.428667
  C      40.175000     19.661333     47.379333
  O      40.422333     20.872333     47.121000
  O      39.557333     19.271000     48.396000
  O      40.190667     17.334333     46.620333
  C      39.027000     16.856667     45.550333
  H      38.749000     15.882667     45.965667
  C      39.712667     16.763000     44.265667
  H      40.367000     15.922667     44.055000
  C      39.678333     17.777333     43.410333
  C      38.805667     18.929000     43.671000
  H      38.888333     19.750667     42.969333
  C      38.005000     18.988000     44.734667
  H      37.438000     19.896333     44.950000
  C      37.839000     17.814667     45.660333
  H      37.823000     18.179000     46.697000
  O      36.627667     17.176667     45.328000
  H      36.323667     16.482000     46.015000
  C      40.415333     17.751333     42.071333
  O      41.365000     16.935000     41.908667
  O      40.034333     18.578333     41.221000
24
Coordinates from ORCA-job neb_initial_path.QMRegion E   0.000000000000
  C      41.544000     18.781500     45.401000
  H      42.040000     17.989000     44.861000
  H      41.867500     19.802500     45.238000
  C      40.685000     18.539000     46.416000
  C      40.175000     19.642000     47.358500
  O      40.421000     20.851500     47.093000
  O      39.562000     19.259500     48.381500
  O      40.218000     17.313000     46.635500
  C      38.966500     16.814000     45.529500
  H      38.713000     15.843500     45.963500
  C      39.669000     16.754000     44.274000
  H      40.303500     15.908000     44.032500
  C      39.705000     17.823500     43.483000
  C      38.826000     18.968000     43.756500
  H      38.931000     19.812000     43.087000
  C      37.992500     18.990500     44.793500
  H      37.418500     19.891000     45.021500
  C      37.812000     17.796500     45.687000
  H      37.821000     18.138000     46.730000
  O      36.581000     17.193000     45.364000
  H      36.281500     16.484000     46.040000
  C      40.428500     17.812000     42.135000
  O      41.363500     16.986000     41.942000
  O      40.035500     18.651000     41.303000
24
Coordinates from ORCA-job neb_initial_path.QMRegion E   0.000000000000
  C      41.494000     18.747000     45.334667
  H      42.019667     17.951000     44.829000
  H      41.791667     19.771000     45.135667
  C      40.682333     18.506333     46.403333
  C      40.175000     19.622667     47.337667
  O      40.419667     20.830667     47.065000
  O      39.566667     19.248000     48.367000
  O      40.245333     17.291667     46.650667
  C      38.906000     16.771333     45.508667
  H      38.677000     15.804333     45.961333
  C      39.625333     16.745000     44.282333
  H      40.240000     15.893333     44.010000
  C      39.731667     17.869667     43.555667
  C      38.846333     19.007000     43.842000
  H      38.973667     19.873333     43.204667
  C      37.980000     18.993000     44.852333
  H      37.399000     19.885667     45.093000
  C      37.785000     17.778333     45.713667
  H      37.819000     18.097000     46.763000
  O      36.534333     17.209333     45.400000
  H      36.239333     16.486000     46.065000
  C      40.441667     17.872667     42.198667
  O      41.362000     17.037000     41.975333
  O      40.036667     18.723667     41.385000
24
Coordinates from ORCA-job neb_initial_path.QMRegion E   0.000000000000
  C      41.444000     18.712500     45.268333
  H      41.999333     17.913000     44.797000
  H      41.715833     19.739500     45.033333
  C      40.679667     18.473667     46.390667
  C      40.175000     19.603333     47.316833
  O      40.418333     20.809833     47.037000
  O      39.571333     19.236500     48.352500
  O      40.272667     17.270333     46.665833
  C      38.845500     16.728667     45.487833
  H      38.641000     15.765167     45.959167
  C      39.581667     16.736000     44.290667
  H      40.176500     15.878667     43.987500
  C      39.758333     17.915833     43.628333
  C      38.866667     19.046000     43.927500
  H      39.016333     19.934667     43.322333
  C      37.967500     18.995500     44.911167
  H      37.379500     19.880333     45.164500
  C      37.758000     17.760167     45.740333
  H      37.817000     18.056000     46.796000
  O      36.487667     17.225667     45.436000
  H      36.197167     16.488000     46.090000
  C      40.454833     17.933333     42.262333
  O      41.360500     17.088000     42.008667
  O      40.037833     18.796333     41.467000
24
Coordinates from ORCA-job neb_initial_path.QMRegion E   0.000000000000
  C      41.394000     18.678000     45.202000
  H      41.979000     17.875000     44.765000
  H      41.640000     19.708000     44.931000
  C      40.677000     18.441000     46.378000
  C      40.175000     19.584000     47.296000
  O      40.417000     20.789000     47.009000
  O      39.576000     19.225000     48.338000
  O      40.300000     17.249000     46.681000
  C      38.785000     16.686000     45.467000
  H      38.605000     15.726000     45.957000
  C      39.538000     16.727000     44.299000
  H      40.113000     15.864000     43.965000
  C      39.785000     17.962000     43.701000
  C      38.887000     19.085000     44.013000
  H      39.059000     19.996000     43.440000
  C      37.955000     18.998000     44.970000
  H      37.360000     19.875000     45.236000
  C      37.731000     17.742000     45.767000
  H      37.815000     18.015000     46.829000
  O      36.441000     17.242000     45.472000
  H      36.155000     16.490000     46.115000
  C      40.468000     17.994000     42.326000
  O      41.359000     17.139000     42.042000
  O      40.039000     18.869000     41.549000
24
Coordinates from ORCA-job neb_initial_path.QMRegion E   0.000000000000
  C      41.315333     18.633000     45.129667
  H      41.995000     17.882333     44.779667
  H      41.566333     19.669333     44.881000
  C      40.697667     18.414667     46.395667
  C      40.201000     19.574000     47.312333
  O      40.429333     20.773667     47.004000
  O      39.617667     19.218000     48.361667
  O      40.446667     17.248667     46.760667
  C      38.647000     16.622333     45.311333
  H      38.405000     15.642667     45.690667
  C      39.517667     16.726667     44.294000
  H      40.093000     15.880000     43.924667
  C      39.854333     18.012333     43.801000
  C      38.899667     19.106667     44.087000
  H      39.082667     20.040667     43.561667
  C      37.929000     18.976000     44.990000
  H      37.313667     19.836000     45.261000
  C      37.683667     17.694333     45.734667
  H      37.863667     17.905333     46.789333
  O      36.360000     17.288333     45.540333
  H      36.087000     16.506000     46.149000
  C      40.477667     18.043333     42.386667
  O      41.358667     17.188000     42.074333
  O      40.024667     18.918000     41.625333
24
Coordinates from ORCA-job neb_initial_path.QMRegion E   0.000000000000
  C      41.236667     18.588000     45.057333
  H      42.011000     17.889667     44.794333
  H      41.492667     19.630667     44.831000
  C      40.718333     18.388333     46.413333
  C      40.227000     19.564000     47.328667
  O      40.441667     20.758333     46.999000
  O      39.659333     19.211000     48.385333
  O      40.593333     17.248333     46.840333
  C      38.509000     16.558667     45.155667
  H      38.205000     15.559333     45.424333
  C      39.497333     16.726333     44.289000
  H      40.073000     15.896000     43.884333
  C      39.923667     18.062667     43.901000
  C      38.912333     19.128333     44.161000
  H      39.106333     20.085333     43.683333
  C      37.903000     18.954000     45.010000
  H      37.267333     19.797000     45.286000
  C      37.636333     17.646667     45.702333
  H      37.912333     17.795667     46.749667
  O      36.279000     17.334667     45.608667
  H      36.019000     16.522000     46.183000
  C      40.487333     18.092667     42.447333
  O      41.358333     17.237000     42.106667
  O      40.010333     18.967000     41.701667
24
Coordinates from ORCA-job neb_initial_path.QMRegion E   0.000000000000
  C      41.158000     18.543000     44.985000
  H      42.027000     17.897000     44.809000
  H      41.419000     19.592000     44.781000
  C      40.739000     18.362000     46.431000
  C      40.253000     19.554000     47.345000
  O      40.454000     20.743000     46.994000
  O      39.701000     19.204000     48.409000
  O      40.740000     17.248000     46.920000
  C      38.371000     16.495000     45.000000
  H      38.005000     15.476000     45.158000
  C      39.477000     16.726000     44.284000
  H      40.053000     15.912000     43.844000
  C      39.993000     18.113000     44.001000
  C      38.925000     19.150000     44.235000
  H      39.130000     20.130000     43.805000
  C      37.877000     18.932000     45.030000
  H      37.221000     19.758000     45.311000
  C      37.589000     17.599000     45.670000
  H      37.961000     17.686000     46.710000
  O      36.198000     17.381000     45.677000
  H      35.951000     16.538000     46.217000
  C      40.497000     18.142000     42.508000
  O      41.358000     17.286000     42.139000
  O      39.996000     19.016000     41.778000
