24
Coordinates from ORCA-job neb_NEB-CI_converged.QMRegion
  C          41.48606080652276     18.72547741523442     45.28325734595752
  H          42.02364942176479     17.91840317904855     44.79401378477093
  H          41.70524400981728     19.75868788315942     45.01020550263641
  C          40.73236944868951     18.45327875338753     46.42476791560177
  C          40.18798527071257     19.59562056471887     47.32655545008607
  O          40.40335925788725     20.80327962968343     47.02620192989686
  O          39.57911640446106     19.23338685644825     48.35948888828218
  O          40.40302130749494     17.26131936455977     46.74348105549465
  C          38.71728153975840     16.64066398613379     45.40793744673837
  H          38.56245537889130     15.69059682290155     45.92510574839747
  C          39.52449715791219     16.69920689334549     44.28700693067751
  H          40.11996593114910     15.84459071387786     43.97053721190554
  C          39.71984935877878     17.91955459126818     43.63903179640332
  C          38.86482974126870     19.05510997408999     43.98276196827443
  H          39.04629032160061     19.96805681987731     43.41696907815894
  C          37.94404596096741     18.97858033926659     44.95468072275025
  H          37.37262740028024     19.86483235761425     45.24134720733817
  C          37.71350364641823     17.72190294890180     45.74719687438744
  H          37.84554499744387     17.98905175283934     46.80742754924804
  O          36.39797406445633     17.26204370134957     45.50053169306515
  H          36.12431569065705     16.49402894570536     46.13505156666899
  C          40.44663493921073     17.97143451191745     42.29233793309027
  O          41.35040266452972     17.12450596657219     42.02624597565829
  O          40.04300912988877     18.86207885514910     41.51832952539785
