24
Coordinates from ORCA-job neb_NEB-CI_converged.QMRegion
  C          48.14621624640488     28.09998582913862     56.51306777387470
  H          49.01033619475749     27.52559990040648     56.19133621674204
  H          48.29868720247927     29.01755717589932     57.07539872605551
  C          46.87224038827019     27.54816403595095     56.46904926259506
  C          45.69003587294405     28.27938106173627     57.14630097367906
  O          45.93133790393659     29.30990745383552     57.82671007368426
  O          44.54587799551171     27.78425281120727     57.00326389211190
  O          46.62585944805265     26.49057538434081     55.79267150537299
  C          46.57247130302766     26.94989438624675     53.70637351318737
  H          46.39666027719849     25.91408891939282     53.40978267199419
  C          47.85372430742822     27.48012341813367     53.66060758089954
  H          48.73027437811407     26.86351134676527     53.45057418293418
  C          48.07345908220211     28.78295588989873     54.11228283745275
  C          46.93154224091484     29.69426534973896     54.21766602348372
  H          47.16155431792428     30.73335848771823     54.45278821746559
  C          45.67347273129425     29.26437779072631     54.01796066014077
  H          44.83414122644817     29.96185695238193     54.06618711545134
  C          45.33687852102400     27.83085564897582     53.71855046702525
  H          44.67445531333391     27.46294627922499     54.51959325336416
  O          44.68314631434941     27.75166650635220     52.45887489500726
  H          43.86356989732293     27.15864080539115     52.52244057494593
  C          49.48199054610684     29.38732051710969     54.09093863635070
  O          50.47515887851805     28.62502152790591     53.92181967555664
  O          49.54181030309006     30.62498551653786     54.22805267169165
