24
Coordinates from ORCA-job neb_initial_path.QMRegion E   0.000000000000
  C      48.064000     27.894000     56.866000
  H      48.929000     27.402000     56.423000
  H      48.211000     28.661000     57.627000
  C      46.808000     27.594000     56.511000
  C      45.618000     28.277000     57.175000
  O      45.842000     29.312000     57.855000
  O      44.482000     27.767000     57.017000
  O      46.535000     26.614000     55.576000
  C      46.550000     26.968000     54.140000
  H      46.353000     26.007000     53.643000
  C      47.908000     27.502000     53.801000
  H      48.758000     26.826000     53.679000
  C      48.154000     28.827000     53.832000
  C      47.036000     29.770000     53.961000
  H      47.296000     30.825000     54.057000
  C      45.755000     29.358000     53.958000
  H      44.944000     30.088000     54.032000
  C      45.364000     27.910000     53.819000
  H      44.602000     27.678000     54.582000
  O      44.845000     27.680000     52.517000
  H      43.998000     27.141000     52.574000
  C      49.577000     29.380000     53.866000
  O      50.556000     28.587000     53.823000
  O      49.681000     30.616000     54.001000
24
Coordinates from ORCA-job neb_initial_path.QMRegion E   0.000000000000
  C      48.074916     27.929571     56.793712
  H      48.939418     27.447220     56.340181
  H      48.224837     28.732205     57.517834
  C      46.817657     27.595556     56.478958
  C      45.631703     28.277055     57.159652
  O      45.862121     29.308340     57.843569
  O      44.494548     27.764141     57.014031
  O      46.538380     26.607813     55.562614
  C      46.546379     26.951213     54.117155
  H      46.353144     25.988950     53.623893
  C      47.898929     27.497624     53.775893
  H      48.749638     26.827264     53.622050
  C      48.137811     28.823482     53.859746
  C      47.012910     29.754077     54.017833
  H      47.268170     30.803592     54.159726
  C      45.734197     29.337685     53.979468
  H      44.917420     30.059400     54.050151
  C      45.353101     27.890364     53.811045
  H      44.599560     27.639588     54.574808
  O      44.826117     27.680239     52.509840
  H      43.978291     27.139206     52.564341
  C      49.556017     29.384249     53.901652
  O      50.541500     28.599152     53.841503
  O      49.648235     30.618143     54.059793
24
Coordinates from ORCA-job neb_initial_path.QMRegion E   0.000000000000
  C      48.091097     27.976401     56.695009
  H      48.953856     27.499709     56.234373
  H      48.243154     28.835593     57.347498
  C      46.832188     27.600183     56.438231
  C      45.654583     28.274596     57.140519
  O      45.890302     29.302618     57.828087
  O      44.514870     27.762795     57.008249
  O      46.548205     26.596473     55.540124
  C      46.544644     26.932040     54.084643
  H      46.359667     25.965009     53.596597
  C      47.885543     27.494797     53.741435
  H      48.739220     26.839132     53.546459
  C      48.113588     28.816464     53.898084
  C      46.980165     29.730290     54.094442
  H      47.225800     30.772191     54.297117
  C      45.705886     29.307440     54.008351
  H      44.881977     30.021369     54.071976
  C      45.339116     27.862569     53.799133
  H      44.597664     27.584361     54.564547
  O      44.798299     27.684478     52.501421
  H      43.950793     27.140579     52.551589
  C      49.525792     29.391909     53.955094
  O      50.519185     28.616609     53.872718
  O      49.602432     30.623099     54.141313
24
Coordinates from ORCA-job neb_initial_path.QMRegion E   0.000000000000
  C      48.108321     28.025512     56.601646
  H      48.971398     27.535667     56.157114
  H      48.265376     28.944259     57.165067
  C      46.849830     27.598037     56.411263
  C      45.677441     28.274260     57.127207
  O      45.917423     29.300014     57.817203
  O      44.535096     27.765302     57.004779
  O      46.565988     26.578738     55.532306
  C      46.547197     26.916020     54.034285
  H      46.370963     25.941739     53.553639
  C      47.873465     27.495018     53.707934
  H      48.730509     26.855031     53.481877
  C      48.090656     28.805992     53.958346
  C      46.949170     29.706693     54.171357
  H      47.185712     30.741432     54.417895
  C      45.681174     29.281138     54.030374
  H      44.850821     29.988883     54.079404
  C      45.328328     27.839708     53.781005
  H      44.607841     27.528832     54.552605
  O      44.761202     27.700198     52.490951
  H      43.917610     27.145735     52.539138
  C      49.496492     29.395430     54.019309
  O      50.495530     28.629202     53.908423
  O      49.560124     30.626172     54.214509
24
Coordinates from ORCA-job neb_initial_path.QMRegion E   0.000000000000
  C      48.122299     28.068310     56.542217
  H      48.986137     27.538678     56.148231
  H      48.284548     29.010451     57.062451
  C      46.861354     27.581309     56.427560
  C      45.687005     28.278732     57.132014
  O      45.927776     29.306230     57.819360
  O      44.542459     27.774306     57.007986
  O      46.588662     26.544153     55.617829
  C      46.555727     26.923707     53.915220
  H      46.379834     25.923098     53.499340
  C      47.864053     27.491832     53.687257
  H      48.726563     26.860341     53.463931
  C      48.079509     28.791259     54.041826
  C      46.936642     29.696864     54.215229
  H      47.171444     30.732186     54.461980
  C      45.674632     29.273620     54.031682
  H      44.841966     29.979138     54.066061
  C      45.327500     27.836395     53.757452
  H      44.633624     27.498562     54.541674
  O      44.725625     27.725880     52.478789
  H      43.892590     27.152234     52.531652
  C      49.484558     29.390286     54.070710
  O      50.482580     28.628879     53.927232
  O      49.542660     30.625231     54.236096
24
Coordinates from ORCA-job neb_initial_path.QMRegion E   0.000000000000
  C      48.136652     28.110994     56.479902
  H      48.997566     27.529322     56.163830
  H      48.296446     29.040658     57.018521
  C      46.863268     27.560126     56.456949
  C      45.685545     28.284153     57.143530
  O      45.929672     29.313973     57.823867
  O      44.542531     27.782445     57.012913
  O      46.612705     26.501752     55.776742
  C      46.565501     26.949137     53.747891
  H      46.384177     25.914046     53.452620
  C      47.849249     27.479159     53.676267
  H      48.723021     26.858382     53.466277
  C      48.073652     28.778010     54.132503
  C      46.934070     29.696103     54.232840
  H      47.169827     30.733574     54.469790
  C      45.676222     29.273636     54.024078
  H      44.842864     29.979130     54.053840
  C      45.333504     27.838838     53.735837
  H      44.657117     27.485594     54.531981
  O      44.698712     27.747853     52.468016
  H      43.878844     27.155956     52.527687
  C      49.481522     29.385304     54.102188
  O      50.476321     28.625586     53.932029
  O      49.538508     30.623616     54.234036
24
Coordinates from ORCA-job neb_initial_path.QMRegion E   0.000000000000
  C      48.141137     28.159352     56.367442
  H      49.000628     27.521387     56.174746
  H      48.301373     29.054492     56.967887
  C      46.859009     27.554678     56.456668
  C      45.683102     28.286180     57.149325
  O      45.935847     29.315347     57.824823
  O      44.543195     27.780054     57.019663
  O      46.625812     26.477909     55.863876
  C      46.572032     26.960476     53.675379
  H      46.386541     25.914516     53.418842
  C      47.840426     27.467566     53.688261
  H      48.719798     26.853524     53.475487
  C      48.073311     28.757047     54.248799
  C      46.932539     29.693409     54.256471
  H      47.168383     30.734949     54.475195
  C      45.680784     29.273867     54.021551
  H      44.847978     29.979945     54.039109
  C      45.337274     27.837941     53.727987
  H      44.664921     27.479460     54.527529
  O      44.686747     27.758960     52.466429
  H      43.875036     27.157692     52.527075
  C      49.480686     29.380999     54.130982
  O      50.473445     28.624045     53.935827
  O      49.536125     30.621904     54.229862
24
Coordinates from ORCA-job neb_initial_path.QMRegion E   0.000000000000
  C      48.144072     28.225858     56.179895
  H      48.985930     27.520688     56.185417
  H      48.301893     29.062319     56.884949
  C      46.851603     27.558025     56.443688
  C      45.680596     28.287115     57.158404
  O      45.942665     29.315349     57.826300
  O      44.544464     27.776467     57.030413
  O      46.636865     26.448952     55.961627
  C      46.580988     26.972265     53.608109
  H      46.390832     25.919947     53.373902
  C      47.833819     27.453275     53.718205
  H      48.717370     26.846286     53.489876
  C      48.081638     28.724360     54.433257
  C      46.933439     29.687201     54.293815
  H      47.166526     30.735444     54.482850
  C      45.689856     29.272143     54.021705
  H      44.857335     29.981758     54.017279
  C      45.343033     27.834933     53.723917
  H      44.670994     27.471405     54.524905
  O      44.675366     27.772215     52.468849
  H      43.872062     27.161276     52.527279
  C      49.480301     29.376278     54.166348
  O      50.469287     28.623417     53.939586
  O      49.532098     30.619438     54.222418
24
Coordinates from ORCA-job neb_initial_path.QMRegion E   0.000000000000
  C      48.188755     28.257562     56.040307
  H      49.026100     27.558814     56.153867
  H      48.335962     29.128946     56.683740
  C      46.911490     27.549400     56.428142
  C      45.782203     28.294516     57.187151
  O      46.120961     29.233284     57.937755
  O      44.616777     27.863283     57.009124
  O      46.738234     26.389614     56.096713
  C      46.645589     27.017613     53.399769
  H      46.476140     26.026059     52.976550
  C      47.881710     27.449520     53.678124
  H      48.773669     26.859765     53.436130
  C      48.116535     28.693292     54.485486
  C      46.964770     29.658324     54.326884
  H      47.183639     30.703486     54.552624
  C      45.737212     29.257035     53.979169
  H      44.912567     29.974748     53.929469
  C      45.396044     27.832370     53.626626
  H      44.807699     27.403304     54.460880
  O      44.615141     27.824409     52.440891
  H      43.831055     27.193567     52.527131
  C      49.500143     29.373131     54.169102
  O      50.497934     28.632335     53.943265
  O      49.530999     30.616480     54.206956
24
Coordinates from ORCA-job neb_initial_path.QMRegion E   0.000000000000
  C      48.224000     28.262000     55.994000
  H      49.076000     27.584000     56.141000
  H      48.362000     29.164000     56.599000
  C      46.972000     27.540000     56.426000
  C      45.866000     28.295000     57.208000
  O      46.244000     29.174000     58.008000
  O      44.683000     27.925000     56.990000
  O      46.818000     26.364000     56.154000
  C      46.697000     27.059000     53.236000
  H      46.542000     26.129000     52.688000
  C      47.919000     27.448000     53.618000
  H      48.814000     26.873000     53.361000
  C      48.145000     28.672000     54.467000
  C      46.985000     29.634000     54.326000
  H      47.195000     30.670000     54.594000
  C      45.768000     29.246000     53.934000
  H      44.950000     29.969000     53.871000
  C      45.435000     27.831000     53.537000
  H      44.923000     27.350000     54.394000
  O      44.578000     27.844000     52.410000
  H      43.802000     27.210000     52.525000
  C      49.516000     29.369000     54.153000
  O      50.522000     28.638000     53.933000
  O      49.531000     30.612000     54.192000
