24
Coordinates from ORCA-job neb_MEP_ALL.QMRegion E -1076.098627360599
  C      48.064000     27.894000     56.866000
  H      48.929000     27.402000     56.423000
  H      48.211000     28.661000     57.627000
  C      46.808000     27.594000     56.511000
  C      45.618000     28.277000     57.175000
  O      45.842000     29.312000     57.855000
  O      44.482000     27.767000     57.017000
  O      46.535000     26.614000     55.576000
  C      46.550000     26.968000     54.140000
  H      46.353000     26.007000     53.643000
  C      47.908000     27.502000     53.801000
  H      48.758000     26.826000     53.679000
  C      48.154000     28.827000     53.832000
  C      47.036000     29.770000     53.961000
  H      47.296000     30.825000     54.057000
  C      45.755000     29.358000     53.958000
  H      44.944000     30.088000     54.032000
  C      45.364000     27.910000     53.819000
  H      44.602000     27.678000     54.582000
  O      44.845000     27.680000     52.517000
  H      43.998000     27.141000     52.574000
  C      49.577000     29.380000     53.866000
  O      50.556000     28.587000     53.823000
  O      49.681000     30.616000     54.001000
24
Coordinates from ORCA-job neb_MEP_ALL.QMRegion E -1076.100996534223
  C      48.075053     27.929761     56.793919
  H      48.939413     27.447248     56.340171
  H      48.224781     28.731931     57.517834
  C      46.817582     27.595994     56.479344
  C      45.631770     28.276969     57.159625
  O      45.862010     29.308189     57.843488
  O      44.494661     27.764269     57.014086
  O      46.538220     26.607406     55.562232
  C      46.546505     26.951478     54.117185
  H      46.353105     25.988902     53.623943
  C      47.898917     27.497670     53.775851
  H      48.749554     26.827323     53.622035
  C      48.137696     28.823194     53.859644
  C      47.012877     29.753999     54.017769
  H      47.268177     30.803700     54.159696
  C      45.734242     29.337625     53.979478
  H      44.917365     30.059439     54.050262
  C      45.353187     27.890286     53.810944
  H      44.599454     27.639591     54.574856
  O      44.826131     27.680205     52.509890
  H      43.978323     27.139183     52.564321
  C      49.556048     29.384273     53.901670
  O      50.541524     28.599066     53.841394
  O      49.648220     30.618263     54.059764
24
Coordinates from ORCA-job neb_MEP_ALL.QMRegion E -1076.100661602703
  C      48.091317     27.976660     56.695066
  H      48.953863     27.499813     56.234187
  H      48.243146     28.835424     57.347465
  C      46.832115     27.600493     56.438540
  C      45.654594     28.274605     57.140395
  O      45.890239     29.302427     57.828025
  O      44.515050     27.762886     57.008303
  O      46.548043     26.596020     55.539921
  C      46.544712     26.932180     54.084479
  H      46.359630     25.964959     53.596632
  C      47.885565     27.494907     53.741253
  H      48.739112     26.839189     53.546318
  C      48.113458     28.816318     53.897957
  C      46.980065     29.730148     54.094395
  H      47.225715     30.772241     54.297215
  C      45.705919     29.307348     54.008433
  H      44.881815     30.021321     54.072251
  C      45.339142     27.862533     53.799022
  H      44.597527     27.584260     54.564605
  O      44.798300     27.684404     52.501341
  H      43.950788     27.140502     52.551559
  C      49.525742     29.391955     53.955169
  O      50.519182     28.616499     53.872555
  O      49.602283     30.623239     54.141374
24
Coordinates from ORCA-job neb_MEP_ALL.QMRegion E -1076.096351469065
  C      48.108595     28.025811     56.601551
  H      48.971447     27.535742     56.156963
  H      48.265435     28.944309     57.164752
  C      46.849826     27.598260     56.411542
  C      45.677522     28.274297     57.127028
  O      45.917433     29.299835     57.817182
  O      44.535251     27.765385     57.004845
  O      46.565903     26.578234     55.532424
  C      46.547287     26.916103     54.033690
  H      46.370996     25.941700     53.553507
  C      47.873477     27.495133     53.707744
  H      48.730439     26.855098     53.481681
  C      48.090523     28.805927     53.958419
  C      46.949025     29.706503     54.171422
  H      47.185584     30.741445     54.418083
  C      45.681204     29.281004     54.030451
  H      44.850638     29.988770     54.079585
  C      45.328302     27.839734     53.780882
  H      44.607822     27.528619     54.552619
  O      44.761088     27.700205     52.490818
  H      43.917507     27.145703     52.539091
  C      49.496412     29.395484     54.019509
  O      50.495486     28.629110     53.908357
  O      49.559933     30.626249     54.214635
24
Coordinates from ORCA-job neb_MEP_ALL.QMRegion E -1076.085175023282
  C      48.122503     28.068554     56.542141
  H      48.986188     27.538632     56.148392
  H      48.284600     29.010404     57.062430
  C      46.861380     27.581429     56.427913
  C      45.687052     28.278747     57.132038
  O      45.927721     29.306152     57.819368
  O      44.542500     27.774420     57.008035
  O      46.588699     26.543722     55.618328
  C      46.555791     26.923808     53.914389
  H      46.379891     25.923108     53.499121
  C      47.864027     27.491873     53.687174
  H      48.726561     26.860354     53.463895
  C      48.079405     28.791132     54.042061
  C      46.936626     29.696795     54.215210
  H      47.171433     30.732252     54.461933
  C      45.674681     29.273533     54.031611
  H      44.841902     29.979130     54.066079
  C      45.327574     27.836434     53.757333
  H      44.633736     27.498449     54.541637
  O      44.725473     27.725983     52.478707
  H      43.892486     27.152257     52.531617
  C      49.484549     29.390327     54.070815
  O      50.482585     28.628807     53.927183
  O      49.542637     30.625245     54.236058
24
Coordinates from ORCA-job neb_MEP_ALL.QMRegion E -1076.079343259976
  C      48.136631     28.110619     56.480776
  H      48.997548     27.529379     56.163806
  H      48.296413     29.040435     57.019073
  C      46.863294     27.560142     56.456917
  C      45.685591     28.284131     57.143507
  O      45.929614     29.313940     57.823848
  O      44.542524     27.782438     57.012834
  O      46.612628     26.501981     55.775954
  C      46.565456     26.949011     53.748589
  H      46.384173     25.914058     53.452819
  C      47.849346     27.479257     53.676176
  H      48.723054     26.858420     53.466175
  C      48.073642     28.778177     54.131529
  C      46.934079     29.696118     54.232606
  H      47.169819     30.733565     54.469668
  C      45.676199     29.273610     54.024076
  H      44.842797     29.979082     54.054013
  C      45.333478     27.838837     53.735872
  H      44.657063     27.485609     54.531986
  O      44.698772     27.747734     52.468025
  H      43.878867     27.155952     52.527673
  C      49.481541     29.385333     54.101920
  O      50.476348     28.625608     53.931935
  O      49.538538     30.623647     54.234047
24
Coordinates from ORCA-job neb_MEP_ALL.QMRegion E -1076.082349947779
  C      48.141394     28.159882     56.366709
  H      49.000640     27.521339     56.174926
  H      48.301433     29.054537     56.967582
  C      46.859019     27.554594     56.456747
  C      45.683074     28.286084     57.149344
  O      45.935801     29.315330     57.824874
  O      44.543334     27.780213     57.019782
  O      46.625909     26.477547     55.864652
  C      46.572031     26.960346     53.674569
  H      46.386629     25.914743     53.418426
  C      47.840358     27.467272     53.688273
  H      48.719744     26.853556     53.475509
  C      48.073563     28.757183     54.249686
  C      46.932511     29.693424     54.256596
  H      47.168358     30.734938     54.475219
  C      45.680801     29.273674     54.021470
  H      44.847908     29.979979     54.039051
  C      45.337315     27.838006     53.727921
  H      44.665102     27.479366     54.527395
  O      44.686565     27.759098     52.466351
  H      43.874917     27.157720     52.527043
  C      49.480625     29.380880     54.131095
  O      50.473341     28.624086     53.935863
  O      49.536074     30.621879     54.229875
24
Coordinates from ORCA-job neb_MEP_ALL.QMRegion E -1076.098381749695
  C      48.144213     28.225293     56.182808
  H      48.985993     27.520867     56.185252
  H      48.301901     29.061993     56.885504
  C      46.851482     27.557049     56.443328
  C      45.680585     28.286926     57.158142
  O      45.942610     29.315416     57.826514
  O      44.544764     27.776684     57.030362
  O      46.636968     26.449899     55.960979
  C      46.580933     26.971779     53.609118
  H      46.390924     25.920268     53.373923
  C      47.834092     27.453184     53.717611
  H      48.717257     26.846536     53.489716
  C      48.081805     28.725146     54.430705
  C      46.933474     29.687127     54.293533
  H      47.166555     30.735422     54.482791
  C      45.689785     29.271891     54.021736
  H      44.857211     29.981704     54.017475
  C      45.342883     27.835118     53.723749
  H      44.671256     27.471420     54.524743
  O      44.675287     27.772171     52.468674
  H      43.871982     27.161218     52.527249
  C      49.480187     29.376248     54.165749
  O      50.469295     28.623426     53.939601
  O      49.532064     30.619390     54.222595
24
Coordinates from ORCA-job neb_MEP_ALL.QMRegion E -1076.121577807968
  C      48.187986     28.257550     56.039616
  H      49.026159     27.558677     56.153951
  H      48.336018     29.129253     56.683717
  C      46.911772     27.549102     56.427780
  C      45.782090     28.294310     57.187161
  O      46.120729     29.233436     57.937712
  O      44.616702     27.863329     57.009255
  O      46.738196     26.389983     56.097282
  C      46.645797     27.017354     53.399739
  H      46.476065     26.026079     52.976650
  C      47.881677     27.449214     53.678245
  H      48.773379     26.859855     53.436387
  C      48.117090     28.693361     54.486125
  C      46.964610     29.658487     54.327132
  H      47.183603     30.703410     54.552606
  C      45.737168     29.257055     53.979281
  H      44.912577     29.974728     53.929449
  C      45.395836     27.832472     53.626649
  H      44.807644     27.403319     54.460968
  O      44.615019     27.824442     52.440876
  H      43.831067     27.193605     52.527138
  C      49.499928     29.373005     54.169306
  O      50.497819     28.632369     53.943299
  O      49.530959     30.616463     54.206978
24
Coordinates from ORCA-job neb_MEP_ALL.QMRegion E -1076.125398909238
  C      48.224000     28.262000     55.994000
  H      49.076000     27.584000     56.141000
  H      48.362000     29.164000     56.599000
  C      46.972000     27.540000     56.426000
  C      45.866000     28.295000     57.208000
  O      46.244000     29.174000     58.008000
  O      44.683000     27.925000     56.990000
  O      46.818000     26.364000     56.154000
  C      46.697000     27.059000     53.236000
  H      46.542000     26.129000     52.688000
  C      47.919000     27.448000     53.618000
  H      48.814000     26.873000     53.361000
  C      48.145000     28.672000     54.467000
  C      46.985000     29.634000     54.326000
  H      47.195000     30.670000     54.594000
  C      45.768000     29.246000     53.934000
  H      44.950000     29.969000     53.871000
  C      45.435000     27.831000     53.537000
  H      44.923000     27.350000     54.394000
  O      44.578000     27.844000     52.410000
  H      43.802000     27.210000     52.525000
  C      49.516000     29.369000     54.153000
  O      50.522000     28.638000     53.933000
  O      49.531000     30.612000     54.192000
24
Coordinates from ORCA-job neb_MEP_ALL.QMRegion E -1076.098627360599
  C      48.064000     27.894000     56.866000
  H      48.929000     27.402000     56.423000
  H      48.211000     28.661000     57.627000
  C      46.808000     27.594000     56.511000
  C      45.618000     28.277000     57.175000
  O      45.842000     29.312000     57.855000
  O      44.482000     27.767000     57.017000
  O      46.535000     26.614000     55.576000
  C      46.550000     26.968000     54.140000
  H      46.353000     26.007000     53.643000
  C      47.908000     27.502000     53.801000
  H      48.758000     26.826000     53.679000
  C      48.154000     28.827000     53.832000
  C      47.036000     29.770000     53.961000
  H      47.296000     30.825000     54.057000
  C      45.755000     29.358000     53.958000
  H      44.944000     30.088000     54.032000
  C      45.364000     27.910000     53.819000
  H      44.602000     27.678000     54.582000
  O      44.845000     27.680000     52.517000
  H      43.998000     27.141000     52.574000
  C      49.577000     29.380000     53.866000
  O      50.556000     28.587000     53.823000
  O      49.681000     30.616000     54.001000
24
Coordinates from ORCA-job neb_MEP_ALL.QMRegion E -1076.101025140658
  C      48.075974     27.931033     56.795404
  H      48.939315     27.447530     56.340119
  H      48.224383     28.729812     57.518173
  C      46.817100     27.599096     56.482084
  C      45.632283     28.276289     57.159462
  O      45.861132     29.307104     57.842930
  O      44.495454     27.765210     57.014490
  O      46.537073     26.604569     55.559537
  C      46.547397     26.953283     54.117328
  H      46.352819     25.988728     53.624422
  C      47.898793     27.497733     53.775466
  H      48.748840     26.827808     53.621902
  C      48.136915     28.821302     53.858759
  C      47.012717     29.753451     54.017209
  H      47.268219     30.804490     54.159388
  C      45.734413     29.337173     53.979545
  H      44.916966     30.059696     54.051256
  C      45.353792     27.889678     53.810250
  H      44.598644     27.639644     54.575166
  O      44.826301     27.679909     52.510242
  H      43.978590     27.138948     52.564152
  C      49.556291     29.384461     53.901767
  O      50.541647     28.598433     53.840445
  O      49.648074     30.619093     54.059493
24
Coordinates from ORCA-job neb_MEP_ALL.QMRegion E -1076.100688061901
  C      48.092805     27.978553     56.695239
  H      48.953931     27.500787     56.232504
  H      48.243185     28.834250     57.347373
  C      46.831802     27.602667     56.440726
  C      45.654807     28.274681     57.139360
  O      45.889791     29.301036     57.827633
  O      44.516323     27.763489     57.008679
  O      46.546855     26.592668     55.538547
  C      46.545200     26.933131     54.083043
  H      46.359336     25.964613     53.596900
  C      47.885645     27.495563     53.739611
  H      48.738192     26.839681     53.545005
  C      48.112496     28.815459     53.896874
  C      46.979361     29.729146     54.094053
  H      47.224896     30.772477     54.298085
  C      45.705836     29.306576     54.009144
  H      44.880477     30.020763     54.074745
  C      45.339209     27.862151     53.798183
  H      44.596445     27.583370     54.564979
  O      44.798328     27.683770     52.500614
  H      43.950722     27.139800     52.551274
  C      49.525361     29.392320     53.955764
  O      50.518953     28.615755     53.871150
  O      49.600958     30.624247     54.141946
24
Coordinates from ORCA-job neb_MEP_ALL.QMRegion E -1076.096348229853
  C      48.110562     28.028142     56.600452
  H      48.971947     27.536409     56.155612
  H      48.266074     28.945100     57.162027
  C      46.850121     27.599735     56.413568
  C      45.678263     28.274608     57.125576
  O      45.917619     29.298503     57.817101
  O      44.536446     27.766010     57.005327
  O      46.565390     26.574312     55.533733
  C      46.547994     26.916763     54.028543
  H      46.371308     25.941308     53.552178
  C      47.873517     27.495918     53.705994
  H      48.729844     26.855702     53.479891
  C      48.089474     28.805548     53.959193
  C      46.947969     29.705144     54.172129
  H      47.184372     30.741353     54.419749
  C      45.681034     29.279872     54.031098
  H      44.849126     29.987650     54.081205
  C      45.328011     27.839787     53.779799
  H      44.607780     27.526718     54.552629
  O      44.760059     27.700347     52.489658
  H      43.916537     27.145417     52.538655
  C      49.495756     29.395829     54.021251
  O      50.494906     28.628495     53.907833
  O      49.558261     30.626856     54.215800
24
Coordinates from ORCA-job neb_MEP_ALL.QMRegion E -1076.085151078724
  C      48.124000     28.070400     56.541550
  H      48.986694     27.538215     56.149801
  H      48.285130     29.010167     57.062443
  C      46.861732     27.581993     56.430626
  C      45.687409     28.278826     57.132263
  O      45.927305     29.305665     57.819550
  O      44.542797     27.775349     57.008395
  O      46.589180     26.540449     55.622935
  C      46.556333     26.924747     53.907256
  H      46.380390     25.923105     53.497131
  C      47.863812     27.492013     53.686350
  H      48.726534     26.860500     53.463563
  C      48.078647     28.790295     54.044012
  C      46.936531     29.696334     54.215052
  H      47.171313     30.732717     54.461469
  C      45.674944     29.272911     54.030991
  H      44.841423     29.978958     54.066255
  C      45.328128     27.836665     53.756258
  H      44.634788     27.497468     54.541266
  O      44.724173     27.726917     52.477994
  H      43.891545     27.152451     52.531309
  C      49.484523     29.390484     54.071660
  O      50.482513     28.628304     53.926761
  O      49.542448     30.625400     54.235736
24
Coordinates from ORCA-job neb_MEP_ALL.QMRegion E -1076.079355093643
  C      48.137007     28.110802     56.481223
  H      48.997816     27.529281     56.164618
  H      48.296680     29.039970     57.020355
  C      46.863427     27.559574     56.457483
  C      45.685754     28.284132     57.143895
  O      45.929466     29.313982     57.823915
  O      44.542525     27.782511     57.012639
  O      46.613215     26.501658     55.777537
  C      46.565650     26.949189     53.746745
  H      46.384364     25.913951     53.451670
  C      47.849344     27.479230     53.675704
  H      48.723093     26.858485     53.465819
  C      48.073398     28.778270     54.131196
  C      46.933998     29.696125     54.232198
  H      47.169618     30.733614     54.469080
  C      45.676222     29.273439     54.023769
  H      44.842483     29.978690     54.054535
  C      45.333574     27.838834     53.735244
  H      44.657590     27.485114     54.531582
  O      44.698067     27.747902     52.467771
  H      43.878446     27.156083     52.527449
  C      49.481555     29.385336     54.101829
  O      50.476280     28.625652     53.931444
  O      49.538570     30.623772     54.233916
24
Coordinates from ORCA-job neb_MEP_ALL.QMRegion E -1076.082420387527
  C      48.143344     28.163790     56.361148
  H      49.000763     27.520994     56.176435
  H      48.301965     29.054943     56.965541
  C      46.859286     27.553797     56.457331
  C      45.683178     28.285509     57.149620
  O      45.935388     29.315094     57.825250
  O      44.544201     27.781397     57.020656
  O      46.626740     26.474794     55.870751
  C      46.572138     26.959635     53.668297
  H      46.387309     25.916382     53.414926
  C      47.839752     27.465234     53.688421
  H      48.719423     26.853778     53.475549
  C      48.075436     28.757994     54.256229
  C      46.932292     29.693499     54.257412
  H      47.168120     30.734873     54.475367
  C      45.680916     29.272276     54.020836
  H      44.847359     29.980122     54.038691
  C      45.337691     27.838333     53.727215
  H      44.666593     27.478561     54.526285
  O      44.685046     27.760220     52.465708
  H      43.873900     27.157962     52.526749
  C      49.480110     29.380217     54.131838
  O      50.472589     28.624315     53.936092
  O      49.535658     30.621603     54.230013
24
Coordinates from ORCA-job neb_MEP_ALL.QMRegion E -1076.098173818006
  C      48.145069     28.220391     56.205410
  H      48.986786     27.522192     56.184072
  H      48.302074     29.059895     56.890390
  C      46.851293     27.552263     56.441865
  C      45.681187     28.286080     57.156400
  O      45.942141     29.315396     57.827962
  O      44.546619     27.778179     57.029898
  O      46.637275     26.454463     55.954896
  C      46.580788     26.968423     53.616872
  H      46.391668     25.922652     53.373631
  C      47.835700     27.452666     53.712937
  H      48.716650     26.848389     53.488289
  C      48.083139     28.731092     54.410389
  C      46.933653     29.686635     54.291201
  H      47.166729     30.735149     54.482346
  C      45.689219     29.270014     54.021975
  H      44.856294     29.981136     54.019057
  C      45.341884     27.836352     53.722237
  H      44.673478     27.471454     54.523336
  O      44.674494     27.771909     52.467212
  H      43.871225     27.160770     52.526968
  C      49.479260     29.376118     54.160887
  O      50.469379     28.623443     53.939711
  O      49.531789     30.619046     54.224064
24
Coordinates from ORCA-job neb_MEP_ALL.QMRegion E -1076.121617994581
  C      48.182416     28.257606     56.034577
  H      49.026036     27.557733     56.154706
  H      48.336201     29.131272     56.683710
  C      46.913472     27.548044     56.425314
  C      45.781160     28.292892     57.187348
  O      46.118077     29.234759     57.936800
  O      44.615689     27.863282     57.010417
  O      46.737404     26.391693     56.101491
  C      46.646937     27.015314     53.400224
  H      46.475140     26.025723     52.978584
  C      47.881339     27.447031     53.679724
  H      48.770932     26.860378     53.438770
  C      48.120993     28.693889     54.491107
  C      46.963408     29.659615     54.329228
  H      47.183237     30.703064     54.552305
  C      45.736644     29.257231     53.980403
  H      44.912467     29.974621     53.929516
  C      45.394148     27.833166     53.627083
  H      44.806736     27.403653     54.461933
  O      44.614188     27.824660     52.440878
  H      43.831214     27.193803     52.527204
  C      49.498275     29.372160     54.171140
  O      50.496696     28.632592     53.943586
  O      49.530530     30.616180     54.207223
24
Coordinates from ORCA-job neb_MEP_ALL.QMRegion E -1076.125398909238
  C      48.224000     28.262000     55.994000
  H      49.076000     27.584000     56.141000
  H      48.362000     29.164000     56.599000
  C      46.972000     27.540000     56.426000
  C      45.866000     28.295000     57.208000
  O      46.244000     29.174000     58.008000
  O      44.683000     27.925000     56.990000
  O      46.818000     26.364000     56.154000
  C      46.697000     27.059000     53.236000
  H      46.542000     26.129000     52.688000
  C      47.919000     27.448000     53.618000
  H      48.814000     26.873000     53.361000
  C      48.145000     28.672000     54.467000
  C      46.985000     29.634000     54.326000
  H      47.195000     30.670000     54.594000
  C      45.768000     29.246000     53.934000
  H      44.950000     29.969000     53.871000
  C      45.435000     27.831000     53.537000
  H      44.923000     27.350000     54.394000
  O      44.578000     27.844000     52.410000
  H      43.802000     27.210000     52.525000
  C      49.516000     29.369000     54.153000
  O      50.522000     28.638000     53.933000
  O      49.531000     30.612000     54.192000
24
Coordinates from ORCA-job neb_MEP_ALL.QMRegion E -1076.098627360599
  C      48.064000     27.894000     56.866000
  H      48.929000     27.402000     56.423000
  H      48.211000     28.661000     57.627000
  C      46.808000     27.594000     56.511000
  C      45.618000     28.277000     57.175000
  O      45.842000     29.312000     57.855000
  O      44.482000     27.767000     57.017000
  O      46.535000     26.614000     55.576000
  C      46.550000     26.968000     54.140000
  H      46.353000     26.007000     53.643000
  C      47.908000     27.502000     53.801000
  H      48.758000     26.826000     53.679000
  C      48.154000     28.827000     53.832000
  C      47.036000     29.770000     53.961000
  H      47.296000     30.825000     54.057000
  C      45.755000     29.358000     53.958000
  H      44.944000     30.088000     54.032000
  C      45.364000     27.910000     53.819000
  H      44.602000     27.678000     54.582000
  O      44.845000     27.680000     52.517000
  H      43.998000     27.141000     52.574000
  C      49.577000     29.380000     53.866000
  O      50.556000     28.587000     53.823000
  O      49.681000     30.616000     54.001000
24
Coordinates from ORCA-job neb_MEP_ALL.QMRegion E -1076.101020984667
  C      48.076271     27.931419     56.796122
  H      48.939123     27.447916     56.340121
  H      48.224217     28.728350     57.519312
  C      46.817017     27.600426     56.483273
  C      45.632596     28.275839     57.159493
  O      45.860503     29.306584     57.842727
  O      44.495777     27.765687     57.014678
  O      46.536527     26.603433     55.558361
  C      46.547776     26.953902     54.117238
  H      46.352644     25.989052     53.624963
  C      47.898607     27.497274     53.775046
  H      48.748244     26.828150     53.621720
  C      48.136637     28.820701     53.857899
  C      47.012740     29.753202     54.016668
  H      47.268202     30.804888     54.158996
  C      45.734201     29.336900     53.979585
  H      44.916738     30.059763     54.052334
  C      45.354023     27.889260     53.810010
  H      44.598113     27.639730     54.575222
  O      44.826534     27.679597     52.510369
  H      43.978843     27.138650     52.564002
  C      49.556450     29.384586     53.901687
  O      50.541575     28.598100     53.839514
  O      49.647912     30.619415     54.059209
24
Coordinates from ORCA-job neb_MEP_ALL.QMRegion E -1076.100712541577
  C      48.093432     27.979653     56.694616
  H      48.954010     27.501947     56.230633
  H      48.243498     28.833849     57.347602
  C      46.832126     27.603469     56.441585
  C      45.655237     28.274738     57.138497
  O      45.889621     29.300307     57.827574
  O      44.516954     27.763652     57.008794
  O      46.546280     26.590813     55.538094
  C      46.545400     26.933418     54.081626
  H      46.359098     25.964416     53.597014
  C      47.885406     27.495689     53.737856
  H      48.737382     26.840114     53.543433
  C      48.111913     28.815434     53.895888
  C      46.978828     29.728627     54.093922
  H      47.223880     30.772251     54.299083
  C      45.705046     29.305890     54.009862
  H      44.879270     30.019875     54.077486
  C      45.338894     27.861592     53.797641
  H      44.595650     27.582411     54.564996
  O      44.798303     27.683132     52.499819
  H      43.950627     27.139049     52.550917
  C      49.524992     29.392624     53.956213
  O      50.518278     28.615522     53.869824
  O      49.599587     30.624755     54.142695
24
Coordinates from ORCA-job neb_MEP_ALL.QMRegion E -1076.096170880845
  C      48.111689     28.029847     56.598771
  H      48.972593     27.537099     56.154214
  H      48.267007     28.946695     57.159383
  C      46.851025     27.599968     56.414533
  C      45.679057     28.274881     57.124482
  O      45.918063     29.297738     57.817249
  O      44.537270     27.766387     57.005556
  O      46.565485     26.571644     55.535602
  C      46.548485     26.917230     54.023669
  H      46.371683     25.940783     53.550416
  C      47.873365     27.496295     53.704047
  H      48.729331     26.856335     53.477911
  C      48.088717     28.805519     53.960262
  C      46.947166     29.704394     54.173120
  H      47.182969     30.740821     54.421468
  C      45.680116     29.278887     54.031692
  H      44.847764     29.986242     54.082917
  C      45.327574     27.839418     53.778698
  H      44.608060     27.524706     54.552345
  O      44.758863     27.700643     52.488510
  H      43.915450     27.145148     52.538135
  C      49.495119     29.395963     54.022938
  O      50.493930     28.628307     53.907443
  O      49.556618     30.627247     54.217120
24
Coordinates from ORCA-job neb_MEP_ALL.QMRegion E -1076.084641547448
  C      48.124933     28.071777     56.540769
  H      48.987339     27.537742     56.151284
  H      48.285850     29.010406     57.062738
  C      46.862296     27.581356     56.432506
  C      45.687655     28.278870     57.132619
  O      45.927075     29.305625     57.819977
  O      44.542929     27.776093     57.008600
  O      46.590120     26.538213     55.628527
  C      46.556894     26.925856     53.900034
  H      46.380894     25.922874     53.494804
  C      47.863547     27.491711     53.685326
  H      48.726516     26.860685     53.463202
  C      48.078240     28.789915     54.046142
  C      46.936448     29.696178     54.214981
  H      47.171128     30.732938     54.460900
  C      45.674915     29.272598     54.030372
  H      44.841119     29.978564     54.066431
  C      45.328488     27.836669     53.755064
  H      44.636058     27.496450     54.540749
  O      44.722799     27.727952     52.477267
  H      43.890528     27.152668     52.530977
  C      49.484533     29.390328     54.072479
  O      50.482213     28.628035     53.926363
  O      49.542279     30.625519     54.235406
24
Coordinates from ORCA-job neb_MEP_ALL.QMRegion E -1076.079362187965
  C      48.137042     28.109209     56.485198
  H      48.997937     27.529458     56.165030
  H      48.296717     29.038788     57.023561
  C      46.863799     27.559558     56.457841
  C      45.685882     28.283879     57.143932
  O      45.929169     29.313954     57.823948
  O      44.542601     27.782582     57.012207
  O      46.613198     26.502217     55.775087
  C      46.565564     26.948755     53.748489
  H      46.384479     25.913970     53.451788
  C      47.849699     27.479565     53.674997
  H      48.723278     26.858689     53.465154
  C      48.073341     28.779095     54.126915
  C      46.933990     29.696216     54.230924
  H      47.169461     30.733610     54.468195
  C      45.676027     29.273268     54.023571
  H      44.842038     29.978205     54.055597
  C      45.333514     27.838742     53.735002
  H      44.657711     27.484876     54.531340
  O      44.698053     27.747634     52.467627
  H      43.878158     27.156067     52.527264
  C      49.481586     29.385562     54.100574
  O      50.476358     28.625759     53.930755
  O      49.538721     30.623887     54.233894
24
Coordinates from ORCA-job neb_MEP_ALL.QMRegion E -1076.082842535738
  C      48.144588     28.166304     56.356889
  H      49.000998     27.520774     56.177869
  H      48.302543     29.055428     56.964660
  C      46.859924     27.552921     56.457736
  C      45.683791     28.285375     57.150108
  O      45.935091     29.314828     57.825567
  O      44.544435     27.782103     57.021158
  O      46.627638     26.472833     55.875779
  C      46.572491     26.959989     53.663455
  H      46.387793     25.917165     53.411526
  C      47.839218     27.464356     53.688697
  H      48.719399     26.853853     53.475310
  C      48.076360     28.757817     54.260687
  C      46.932143     29.693404     54.257747
  H      47.167815     30.734885     54.475387
  C      45.680986     29.271610     54.020355
  H      44.847009     29.979874     54.038589
  C      45.338105     27.838125     53.726134
  H      44.667915     27.477739     54.525316
  O      44.683620     27.761197     52.465165
  H      43.872920     27.158218     52.526433
  C      49.479743     29.380198     54.132199
  O      50.472156     28.624294     53.936117
  O      49.535318     30.621363     54.230171
24
Coordinates from ORCA-job neb_MEP_ALL.QMRegion E -1076.095982755145
  C      48.145194     28.216625     56.218804
  H      48.987819     27.523020     56.183613
  H      48.302525     29.059707     56.893908
  C      46.852270     27.552677     56.442702
  C      45.682619     28.286397     57.155672
  O      45.942022     29.314617     57.828907
  O      44.547340     27.778963     57.029613
  O      46.637143     26.453390     55.950657
  C      46.581105     26.967105     53.621182
  H      46.392381     25.924228     53.371422
  C      47.836061     27.452837     53.710014
  H      48.716784     26.849417     53.487064
  C      48.084000     28.734261     54.397234
  C      46.933645     29.686360     54.289830
  H      47.166681     30.734738     54.482228
  C      45.688905     29.268878     54.022163
  H      44.855940     29.980371     54.019979
  C      45.341676     27.836688     53.720523
  H      44.675664     27.471116     54.521927
  O      44.673349     27.772185     52.465975
  H      43.870239     27.160514     52.526664
  C      49.478642     29.376231     54.157495
  O      50.469399     28.623341     53.939840
  O      49.531470     30.618868     54.225238
24
Coordinates from ORCA-job neb_MEP_ALL.QMRegion E -1076.121639209169
  C      48.179513     28.257889     56.032953
  H      49.024287     27.557234     56.155582
  H      48.335537     29.131460     56.684886
  C      46.912870     27.549168     56.424242
  C      45.779583     28.292148     57.187399
  O      46.113477     29.236603     57.934482
  O      44.613886     27.861928     57.011693
  O      46.735448     26.391419     56.103688
  C      46.646342     27.013703     53.403355
  H      46.473300     26.023776     52.984372
  C      47.880546     27.446060     53.682244
  H      48.768615     26.860175     53.441625
  C      48.122361     28.694417     54.493979
  C      46.962528     29.660127     54.330959
  H      47.182698     30.703572     54.551430
  C      45.735717     29.257412     53.981999
  H      44.911671     29.974690     53.930481
  C      45.392579     27.833416     53.628436
  H      44.804408     27.404711     54.463518
  O      44.614169     27.824561     52.441278
  H      43.831562     27.193538     52.527259
  C      49.497135     29.371836     54.172962
  O      50.495252     28.632562     53.943862
  O      49.529916     30.615740     54.207681
24
Coordinates from ORCA-job neb_MEP_ALL.QMRegion E -1076.125398909238
  C      48.224000     28.262000     55.994000
  H      49.076000     27.584000     56.141000
  H      48.362000     29.164000     56.599000
  C      46.972000     27.540000     56.426000
  C      45.866000     28.295000     57.208000
  O      46.244000     29.174000     58.008000
  O      44.683000     27.925000     56.990000
  O      46.818000     26.364000     56.154000
  C      46.697000     27.059000     53.236000
  H      46.542000     26.129000     52.688000
  C      47.919000     27.448000     53.618000
  H      48.814000     26.873000     53.361000
  C      48.145000     28.672000     54.467000
  C      46.985000     29.634000     54.326000
  H      47.195000     30.670000     54.594000
  C      45.768000     29.246000     53.934000
  H      44.950000     29.969000     53.871000
  C      45.435000     27.831000     53.537000
  H      44.923000     27.350000     54.394000
  O      44.578000     27.844000     52.410000
  H      43.802000     27.210000     52.525000
  C      49.516000     29.369000     54.153000
  O      50.522000     28.638000     53.933000
  O      49.531000     30.612000     54.192000
24
Coordinates from ORCA-job neb_MEP_ALL.QMRegion E -1076.098627360599
  C      48.064000     27.894000     56.866000
  H      48.929000     27.402000     56.423000
  H      48.211000     28.661000     57.627000
  C      46.808000     27.594000     56.511000
  C      45.618000     28.277000     57.175000
  O      45.842000     29.312000     57.855000
  O      44.482000     27.767000     57.017000
  O      46.535000     26.614000     55.576000
  C      46.550000     26.968000     54.140000
  H      46.353000     26.007000     53.643000
  C      47.908000     27.502000     53.801000
  H      48.758000     26.826000     53.679000
  C      48.154000     28.827000     53.832000
  C      47.036000     29.770000     53.961000
  H      47.296000     30.825000     54.057000
  C      45.755000     29.358000     53.958000
  H      44.944000     30.088000     54.032000
  C      45.364000     27.910000     53.819000
  H      44.602000     27.678000     54.582000
  O      44.845000     27.680000     52.517000
  H      43.998000     27.141000     52.574000
  C      49.577000     29.380000     53.866000
  O      50.556000     28.587000     53.823000
  O      49.681000     30.616000     54.001000
24
Coordinates from ORCA-job neb_MEP_ALL.QMRegion E -1076.101015450615
  C      48.077060     27.932391     56.798884
  H      48.938156     27.449919     56.340108
  H      48.223683     28.721876     57.525928
  C      46.816912     27.604430     56.486930
  C      45.633708     28.273989     57.159905
  O      45.857861     29.304853     57.842268
  O      44.496749     27.767292     57.015256
  O      46.534694     26.600179     55.554654
  C      46.548901     26.955698     54.116749
  H      46.351826     25.990930     53.627518
  C      47.897562     27.495421     53.772952
  H      48.745721     26.829364     53.620675
  C      48.135774     28.818663     53.853685
  C      47.012659     29.752347     54.013998
  H      47.268013     30.806264     54.156947
  C      45.733141     29.335834     53.979798
  H      44.915771     30.059845     54.057825
  C      45.354620     27.887529     53.809393
  H      44.595876     27.640145     54.575148
  O      44.827653     27.677949     52.510645
  H      43.980141     27.137110     52.563275
  C      49.556945     29.384994     53.900877
  O      50.541041     28.596865     53.834975
  O      49.647188     30.620440     54.057875
24
Coordinates from ORCA-job neb_MEP_ALL.QMRegion E -1076.100741593433
  C      48.096003     27.984424     56.690567
  H      48.954431     27.508037     56.220975
  H      48.245417     28.832881     57.348645
  C      46.834012     27.605289     56.443680
  C      45.657370     28.274938     57.134748
  O      45.889294     29.297541     57.827569
  O      44.519549     27.763942     57.008903
  O      46.544526     26.583971     55.536905
  C      46.545880     26.933995     54.074904
  H      46.357981     25.963365     53.597114
  C      47.883682     27.496353     53.729105
  H      48.733694     26.842037     53.535072
  C      48.109288     28.815756     53.891219
  C      46.975638     29.726413     54.093664
  H      47.218515     30.770568     54.304442
  C      45.700847     29.302602     54.013485
  H      44.873283     30.015019     54.091481
  C      45.336796     27.858553     53.795301
  H      44.592173     27.577401     54.564476
  O      44.797865     27.679910     52.495900
  H      43.950134     27.135329     52.548961
  C      49.522751     29.394088     53.958100
  O      50.514529     28.615067     53.863515
  O      49.592870     30.626657     54.146911
24
Coordinates from ORCA-job neb_MEP_ALL.QMRegion E -1076.095940396874
  C      48.116724     28.037669     56.589893
  H      48.975953     27.540539     56.147365
  H      48.271972     28.955439     57.146356
  C      46.855631     27.599134     56.417642
  C      45.682957     28.276080     57.119969
  O      45.920660     29.294786     57.818167
  O      44.540969     27.767953     57.006178
  O      46.567030     26.560610     55.545082
  C      46.550567     26.919083     54.000543
  H      46.373639     25.937935     53.540998
  C      47.872216     27.498003     53.694289
  H      48.727072     26.859402     53.467816
  C      48.085279     28.805439     53.965912
  C      46.942709     29.701103     54.178267
  H      47.175845     30.737839     54.430046
  C      45.675475     29.274305     54.034563
  H      44.841060     29.979042     54.091488
  C      45.325242     27.837000     53.773234
  H      44.609977     27.514581     54.550424
  O      44.752495     27.702246     52.482983
  H      43.909998     27.143945     52.535395
  C      49.491655     29.396632     54.031040
  O      50.488859     28.627896     53.905768
  O      49.548763     30.628741     54.223889
24
Coordinates from ORCA-job neb_MEP_ALL.QMRegion E -1076.084204855321
  C      48.129058     28.077740     56.537500
  H      48.990655     27.535418     56.158625
  H      48.289539     29.011889     57.064919
  C      46.865056     27.576856     56.440758
  C      45.688773     28.279190     57.134665
  O      45.926203     29.305848     57.822237
  O      44.543372     27.779410     57.009253
  O      46.595235     26.528637     55.656510
  C      46.559684     26.931288     53.864914
  H      46.383369     25.921417     53.483149
  C      47.862153     27.490228     53.680070
  H      48.726596     26.861559     53.461267
  C      48.076664     28.788391     54.055982
  C      46.935845     29.695741     54.214520
  H      47.170137     30.733760     54.457901
  C      45.674648     29.271388     54.027403
  H      44.839717     29.976373     54.067417
  C      45.329973     27.836536     53.749115
  H      44.642514     27.491405     54.538035
  O      44.715874     27.732925     52.473695
  H      43.885557     27.153824     52.529306
  C      49.484425     29.389646     54.076267
  O      50.480679     28.626889     53.924367
  O      49.541537     30.625816     54.233773
24
Coordinates from ORCA-job neb_MEP_ALL.QMRegion E -1076.079379833585
  C      48.137196     28.100350     56.506579
  H      48.998396     27.530530     56.167017
  H      48.296804     29.032515     57.040586
  C      46.865749     27.559676     56.459540
  C      45.686629     28.282655     57.144025
  O      45.927609     29.313692     57.824064
  O      44.542909     27.782860     57.009903
  O      46.612885     26.505405     55.761149
  C      46.565019     26.946418     53.758693
  H      46.385029     25.914040     53.452845
  C      47.851644     27.481520     53.671306
  H      48.724309     26.859761     53.461649
  C      48.073175     28.783399     54.103853
  C      46.933915     29.696693     54.224070
  H      47.168681     30.733597     54.463602
  C      45.674962     29.272438     54.022646
  H      44.839749     29.975693     54.061178
  C      45.333169     27.838165     53.733957
  H      44.658171     27.483760     54.530187
  O      44.698162     27.746070     52.466870
  H      43.876793     27.155957     52.526359
  C      49.481779     29.386815     54.093634
  O      50.476768     28.626331     53.927226
  O      49.539537     30.624447     54.233847
24
Coordinates from ORCA-job neb_MEP_ALL.QMRegion E -1076.083195404603
  C      48.149672     28.175960     56.340233
  H      49.002372     27.519982     56.184571
  H      48.305256     29.057185     56.962922
  C      46.863427     27.549150     56.459790
  C      45.686422     28.284486     57.152342
  O      45.934048     29.313949     57.827284
  O      44.545558     27.785086     57.022885
  O      46.631916     26.464538     55.896730
  C      46.574112     26.962254     53.643268
  H      46.389956     25.920110     53.395715
  C      47.837539     27.461518     53.689695
  H      48.719533     26.854254     53.473614
  C      48.079412     28.756505     54.277425
  C      46.931599     29.692808     54.258269
  H      47.166236     30.734930     54.475080
  C      45.681188     29.269185     54.018193
  H      44.845443     29.978061     54.038793
  C      45.339960     27.836755     53.720538
  H      44.673988     27.473729     54.520862
  O      44.677065     27.765490     52.462649
  H      43.868239     27.159445     52.524849
  C      49.478432     29.380271     54.132865
  O      50.470383     28.624142     53.935780
  O      49.533883     30.620763     54.231000
24
Coordinates from ORCA-job neb_MEP_ALL.QMRegion E -1076.094680924564
  C      48.145371     28.201245     56.270524
  H      48.992937     27.526465     56.182359
  H      48.305108     29.061132     56.907724
  C      46.856475     27.552143     56.445851
  C      45.688715     28.287688     57.152686
  O      45.942586     29.311241     57.833916
  O      44.551053     27.782491     57.028652
  O      46.638152     26.449449     55.937154
  C      46.582227     26.962747     53.636681
  H      46.396068     25.931284     53.357116
  C      47.837964     27.454763     53.698391
  H      48.718006     26.853544     53.481550
  C      48.086864     28.745531     54.344316
  C      46.933549     29.685019     54.284848
  H      47.166112     30.732604     54.482319
  C      45.687893     29.264171     54.022942
  H      44.855044     29.976352     54.023333
  C      45.341685     27.837375     53.711771
  H      44.686486     27.468704     54.514982
  O      44.667234     27.774454     52.460321
  H      43.864965     27.159616     52.525122
  C      49.476343     29.376844     54.143464
  O      50.469314     28.622803     53.940480
  O      49.529756     30.618312     54.230487
24
Coordinates from ORCA-job neb_MEP_ALL.QMRegion E -1076.121455343259
  C      48.168144     28.259241     56.030857
  H      49.013621     27.555009     56.160204
  H      48.331051     29.129904     56.693248
  C      46.906137     27.553460     56.420229
  C      45.769214     28.288970     57.186565
  O      46.088029     29.247451     57.921439
  O      44.604313     27.853106     57.018216
  O      46.724587     26.391584     56.112068
  C      46.641139     27.006271     53.423395
  H      46.462773     26.011797     53.019544
  C      47.875203     27.442795     53.695850
  H      48.757432     26.858003     53.456519
  C      48.125246     28.697247     54.504478
  C      46.958243     29.662158     54.338641
  H      47.179719     30.707149     54.546127
  C      45.730652     29.258236     53.990669
  H      44.906647     29.975261     53.936829
  C      45.384740     27.834109     53.636931
  H      44.790644     27.411164     54.472203
  O      44.615444     27.823490     52.443902
  H      43.833611     27.191471     52.527470
  C      49.492001     29.370645     54.181428
  O      50.487895     28.631838     53.945280
  O      49.526696     30.614013     54.210482
24
Coordinates from ORCA-job neb_MEP_ALL.QMRegion E -1076.125398909238
  C      48.224000     28.262000     55.994000
  H      49.076000     27.584000     56.141000
  H      48.362000     29.164000     56.599000
  C      46.972000     27.540000     56.426000
  C      45.866000     28.295000     57.208000
  O      46.244000     29.174000     58.008000
  O      44.683000     27.925000     56.990000
  O      46.818000     26.364000     56.154000
  C      46.697000     27.059000     53.236000
  H      46.542000     26.129000     52.688000
  C      47.919000     27.448000     53.618000
  H      48.814000     26.873000     53.361000
  C      48.145000     28.672000     54.467000
  C      46.985000     29.634000     54.326000
  H      47.195000     30.670000     54.594000
  C      45.768000     29.246000     53.934000
  H      44.950000     29.969000     53.871000
  C      45.435000     27.831000     53.537000
  H      44.923000     27.350000     54.394000
  O      44.578000     27.844000     52.410000
  H      43.802000     27.210000     52.525000
  C      49.516000     29.369000     54.153000
  O      50.522000     28.638000     53.933000
  O      49.531000     30.612000     54.192000
24
Coordinates from ORCA-job neb_MEP_ALL.QMRegion E -1076.098627360599
  C      48.064000     27.894000     56.866000
  H      48.929000     27.402000     56.423000
  H      48.211000     28.661000     57.627000
  C      46.808000     27.594000     56.511000
  C      45.618000     28.277000     57.175000
  O      45.842000     29.312000     57.855000
  O      44.482000     27.767000     57.017000
  O      46.535000     26.614000     55.576000
  C      46.550000     26.968000     54.140000
  H      46.353000     26.007000     53.643000
  C      47.908000     27.502000     53.801000
  H      48.758000     26.826000     53.679000
  C      48.154000     28.827000     53.832000
  C      47.036000     29.770000     53.961000
  H      47.296000     30.825000     54.057000
  C      45.755000     29.358000     53.958000
  H      44.944000     30.088000     54.032000
  C      45.364000     27.910000     53.819000
  H      44.602000     27.678000     54.582000
  O      44.845000     27.680000     52.517000
  H      43.998000     27.141000     52.574000
  C      49.577000     29.380000     53.866000
  O      50.556000     28.587000     53.823000
  O      49.681000     30.616000     54.001000
24
Coordinates from ORCA-job neb_MEP_ALL.QMRegion E -1076.100829878750
  C      48.074316     27.928890     56.795878
  H      48.938311     27.450171     56.339891
  H      48.224780     28.724927     57.529416
  C      46.818133     27.594495     56.478402
  C      45.631850     28.275779     57.160954
  O      45.859932     29.308102     57.844360
  O      44.494215     27.764086     57.013781
  O      46.538185     26.609313     55.562814
  C      46.545809     26.951076     54.116877
  H      46.351965     25.991418     53.626688
  C      47.897150     27.497071     53.772933
  H      48.747606     26.827300     53.620056
  C      48.137572     28.822844     53.854125
  C      47.012028     29.753856     54.014130
  H      47.267562     30.803753     54.156612
  C      45.733069     29.337036     53.979879
  H      44.916478     30.058742     54.058293
  C      45.352410     27.889063     53.811542
  H      44.597467     27.639994     54.573811
  O      44.827633     27.677662     52.509270
  H      43.980149     27.136830     52.563352
  C      49.555740     29.384158     53.899038
  O      50.540370     28.598615     53.835494
  O      49.647523     30.617989     54.058299
24
Coordinates from ORCA-job neb_MEP_ALL.QMRegion E -1076.100672261725
  C      48.093680     27.981976     56.686334
  H      48.954826     27.509397     56.219251
  H      48.246947     28.837580     57.346549
  C      46.835476     27.597187     56.435191
  C      45.657458     28.274488     57.137178
  O      45.891711     29.300883     57.828466
  O      44.517551     27.761930     57.006915
  O      46.549272     26.593370     55.540591
  C      46.543729     26.930677     54.076061
  H      46.358383     25.962654     53.594623
  C      47.881537     27.496350     53.729026
  H      48.735093     26.841226     53.532523
  C      48.109840     28.817516     53.892884
  C      46.973464     29.727724     54.095883
  H      47.217033     30.768161     54.306764
  C      45.699417     29.302802     54.013705
  H      44.873303     30.012998     54.092706
  C      45.334757     27.857485     53.796473
  H      44.594272     27.575975     54.561888
  O      44.796445     27.680082     52.496310
  H      43.949618     27.135454     52.548076
  C      49.520770     29.393767     53.956851
  O      50.512959     28.618119     53.865234
  O      49.593309     30.624163     54.149474
24
Coordinates from ORCA-job neb_MEP_ALL.QMRegion E -1076.094435811172
  C      48.113902     28.034338     56.588848
  H      48.976425     27.540500     56.147960
  H      48.272872     28.957537     57.148007
  C      46.856040     27.591886     56.410869
  C      45.682569     28.275161     57.123968
  O      45.922173     29.298131     57.818657
  O      44.539331     27.766656     57.003901
  O      46.571159     26.570220     55.544362
  C      46.548945     26.917043     54.006594
  H      46.373924     25.937214     53.539154
  C      47.870751     27.497329     53.694409
  H      48.728346     26.859028     53.467098
  C      48.086396     28.805799     53.966136
  C      46.941450     29.703051     54.178590
  H      47.175494     30.736676     54.429569
  C      45.674890     29.275471     54.034085
  H      44.841544     29.978457     54.091745
  C      45.324805     27.834808     53.773603
  H      44.611741     27.514554     54.548449
  O      44.751533     27.702562     52.484211
  H      43.910008     27.144371     52.534830
  C      49.490625     29.396491     54.028898
  O      50.488263     28.630183     53.906783
  O      49.550521     30.627092     54.224486
24
Coordinates from ORCA-job neb_MEP_ALL.QMRegion E -1076.082298968944
  C      48.126961     28.073149     56.541397
  H      48.990660     27.535821     56.158068
  H      48.289506     29.011978     57.068776
  C      46.864545     27.572609     56.435788
  C      45.688211     28.279331     57.135332
  O      45.927341     29.307150     57.822583
  O      44.542742     27.777697     57.007661
  O      46.596223     26.535693     55.652780
  C      46.559406     26.930310     53.872259
  H      46.383169     25.920629     53.484293
  C      47.862182     27.490384     53.679720
  H      48.727380     26.861447     53.460674
  C      48.078458     28.790455     54.050889
  C      46.935390     29.696945     54.213554
  H      47.169945     30.732717     54.457026
  C      45.674054     29.272606     54.028069
  H      44.840093     29.975563     54.068094
  C      45.328736     27.835873     53.749657
  H      44.642274     27.491842     54.537825
  O      44.716520     27.731709     52.474263
  H      43.886216     27.153937     52.529337
  C      49.484018     29.389787     54.074071
  O      50.480627     28.627808     53.924249
  O      49.542084     30.624966     54.233897
24
Coordinates from ORCA-job neb_MEP_ALL.QMRegion E -1076.079526804181
  C      48.137807     28.100314     56.505107
  H      48.998186     27.530758     56.167887
  H      48.296957     29.032513     57.041047
  C      46.865968     27.559550     56.459975
  C      45.686602     28.282871     57.144243
  O      45.927728     29.313658     57.824153
  O      44.542865     27.782752     57.009792
  O      46.613332     26.504777     55.763229
  C      46.565185     26.947055     53.756478
  H      46.385169     25.913721     53.451657
  C      47.851483     27.481657     53.670873
  H      48.724483     26.859691     53.461435
  C      48.073472     28.782757     54.105780
  C      46.933614     29.696695     54.223677
  H      47.168570     30.733749     54.463431
  C      45.674855     29.272557     54.022633
  H      44.839740     29.975362     54.061273
  C      45.333288     27.837731     53.733541
  H      44.658646     27.483378     54.529951
  O      44.697683     27.746471     52.466381
  H      43.876374     27.155985     52.526311
  C      49.481799     29.387046     54.093068
  O      50.476532     28.626314     53.927247
  O      49.539535     30.624283     54.233935
24
Coordinates from ORCA-job neb_MEP_ALL.QMRegion E -1076.084592591610
  C      48.144940     28.164082     56.359792
  H      49.003099     27.521280     56.182499
  H      48.304285     29.053624     56.973820
  C      46.863899     27.551952     56.459882
  C      45.685267     28.284811     57.152035
  O      45.935882     29.315150     57.827240
  O      44.544776     27.782082     57.019350
  O      46.631058     26.471134     55.878485
  C      46.573653     26.963386     53.660700
  H      46.388931     25.916390     53.401257
  C      47.841382     27.467436     53.687830
  H      48.720565     26.854319     53.471726
  C      48.073254     28.755355     54.254597
  C      46.932244     29.692512     54.253720
  H      47.166083     30.734801     54.473121
  C      45.680705     29.272588     54.019151
  H      44.846120     29.975832     54.041806
  C      45.338781     27.835995     53.720315
  H      44.671487     27.474217     54.522627
  O      44.679726     27.762779     52.463536
  H      43.869339     27.159174     52.524931
  C      49.480321     29.381536     54.128619
  O      50.472286     28.623949     53.933585
  O      49.535112     30.622705     54.230817
24
Coordinates from ORCA-job neb_MEP_ALL.QMRegion E -1076.089738470248
  C      48.141959     28.212175     56.217606
  H      48.991367     27.526879     56.183823
  H      48.305939     29.070836     56.885470
  C      46.855035     27.554215     56.443867
  C      45.687400     28.289375     57.155460
  O      45.949126     29.311048     57.836315
  O      44.551500     27.779945     57.030660
  O      46.642984     26.443419     55.962402
  C      46.583037     26.970170     53.620046
  H      46.398123     25.931435     53.337109
  C      47.838290     27.458243     53.708649
  H      48.720230     26.850507     53.484613
  C      48.082339     28.729942     54.388272
  C      46.934111     29.683315     54.296093
  H      47.165012     30.731435     54.486812
  C      45.690954     29.266518     54.023861
  H      44.860311     29.974911     54.016348
  C      45.345564     27.834574     53.708926
  H      44.689315     27.465210     54.513960
  O      44.663734     27.779043     52.461463
  H      43.862908     27.161020     52.525180
  C      49.478781     29.376912     54.153877
  O      50.468967     28.622530     53.941516
  O      49.528451     30.619164     54.229089
24
Coordinates from ORCA-job neb_MEP_ALL.QMRegion E -1076.120020721086
  C      48.179555     28.257653     56.056724
  H      49.007476     27.555777     56.161094
  H      48.326779     29.120751     56.704050
  C      46.893069     27.551729     56.427629
  C      45.760379     28.292557     57.182593
  O      46.079397     29.252823     57.915887
  O      44.601714     27.844714     57.018286
  O      46.720150     26.394009     56.099395
  C      46.632285     27.008303     53.440401
  H      46.458260     26.004153     53.042527
  C      47.870160     27.448964     53.698265
  H      48.759516     26.853747     53.458213
  C      48.109597     28.698399     54.486996
  C      46.958618     29.660581     54.333886
  H      47.178606     30.710617     54.542684
  C      45.728883     29.257699     53.992992
  H      44.902838     29.975763     53.942902
  C      45.385023     27.832121     53.643387
  H      44.783219     27.415363     54.474414
  O      44.620389     27.821112     52.446177
  H      43.834654     27.188728     52.527031
  C      49.494109     29.372704     54.177214
  O      50.487944     28.629429     53.945524
  O      49.526308     30.615981     54.212886
24
Coordinates from ORCA-job neb_MEP_ALL.QMRegion E -1076.125398909238
  C      48.224000     28.262000     55.994000
  H      49.076000     27.584000     56.141000
  H      48.362000     29.164000     56.599000
  C      46.972000     27.540000     56.426000
  C      45.866000     28.295000     57.208000
  O      46.244000     29.174000     58.008000
  O      44.683000     27.925000     56.990000
  O      46.818000     26.364000     56.154000
  C      46.697000     27.059000     53.236000
  H      46.542000     26.129000     52.688000
  C      47.919000     27.448000     53.618000
  H      48.814000     26.873000     53.361000
  C      48.145000     28.672000     54.467000
  C      46.985000     29.634000     54.326000
  H      47.195000     30.670000     54.594000
  C      45.768000     29.246000     53.934000
  H      44.950000     29.969000     53.871000
  C      45.435000     27.831000     53.537000
  H      44.923000     27.350000     54.394000
  O      44.578000     27.844000     52.410000
  H      43.802000     27.210000     52.525000
  C      49.516000     29.369000     54.153000
  O      50.522000     28.638000     53.933000
  O      49.531000     30.612000     54.192000
24
Coordinates from ORCA-job neb_MEP_ALL.QMRegion E -1076.098627360599
  C      48.064000     27.894000     56.866000
  H      48.929000     27.402000     56.423000
  H      48.211000     28.661000     57.627000
  C      46.808000     27.594000     56.511000
  C      45.618000     28.277000     57.175000
  O      45.842000     29.312000     57.855000
  O      44.482000     27.767000     57.017000
  O      46.535000     26.614000     55.576000
  C      46.550000     26.968000     54.140000
  H      46.353000     26.007000     53.643000
  C      47.908000     27.502000     53.801000
  H      48.758000     26.826000     53.679000
  C      48.154000     28.827000     53.832000
  C      47.036000     29.770000     53.961000
  H      47.296000     30.825000     54.057000
  C      45.755000     29.358000     53.958000
  H      44.944000     30.088000     54.032000
  C      45.364000     27.910000     53.819000
  H      44.602000     27.678000     54.582000
  O      44.845000     27.680000     52.517000
  H      43.998000     27.141000     52.574000
  C      49.577000     29.380000     53.866000
  O      50.556000     28.587000     53.823000
  O      49.681000     30.616000     54.001000
24
Coordinates from ORCA-job neb_MEP_ALL.QMRegion E -1076.101226681993
  C      48.074967     27.930292     56.797489
  H      48.938963     27.450123     56.339406
  H      48.224336     28.723345     57.528777
  C      46.817364     27.596959     56.480911
  C      45.631495     28.275860     57.160619
  O      45.860154     29.307337     57.844048
  O      44.494760     27.764030     57.013825
  O      46.537830     26.607339     55.560782
  C      46.545945     26.953770     54.118101
  H      46.351408     25.989149     53.625815
  C      47.897403     27.498029     53.772718
  H      48.747679     26.826937     53.619703
  C      48.136254     28.822246     53.854187
  C      47.011814     29.753529     54.013899
  H      47.267394     30.803658     54.156538
  C      45.733473     29.336921     53.980135
  H      44.916334     30.058540     54.058905
  C      45.352591     27.889376     53.810694
  H      44.596990     27.639654     54.574079
  O      44.827883     27.677599     52.509455
  H      43.980039     27.136563     52.563209
  C      49.555332     29.384048     53.898045
  O      50.540734     28.598454     53.835460
  O      49.647663     30.618124     54.058641
24
Coordinates from ORCA-job neb_MEP_ALL.QMRegion E -1076.100960139577
  C      48.094691     27.983760     56.685814
  H      48.955574     27.510397     56.217405
  H      48.247059     28.837836     57.342400
  C      46.835259     27.599596     56.436204
  C      45.657634     28.273791     57.138004
  O      45.892524     29.299903     57.827255
  O      44.518854     27.762434     57.006449
  O      46.550145     26.592610     55.537199
  C      46.543374     26.931276     54.076561
  H      46.358431     25.960979     53.593040
  C      47.881411     27.496688     53.728494
  H      48.734734     26.841628     53.530537
  C      48.107288     28.816521     53.893699
  C      46.972196     29.726551     54.097142
  H      47.215894     30.768003     54.309037
  C      45.699041     29.301556     54.014121
  H      44.872209     30.012026     54.094095
  C      45.335037     27.857133     53.795533
  H      44.594115     27.574228     54.561329
  O      44.795873     27.680372     52.496996
  H      43.948693     27.135230     52.547290
  C      49.519093     29.393876     53.956503
  O      50.513175     28.618517     53.865978
  O      49.593150     30.624485     54.151629
24
Coordinates from ORCA-job neb_MEP_ALL.QMRegion E -1076.094905897955
  C      48.114679     28.035068     56.589709
  H      48.976914     27.540493     56.148512
  H      48.272692     28.956296     57.147035
  C      46.855623     27.594188     56.412544
  C      45.682770     28.274145     57.125476
  O      45.922498     29.297899     57.817869
  O      44.539945     27.767253     57.003244
  O      46.571917     26.570072     55.539986
  C      46.549079     26.916157     54.008231
  H      46.374311     25.936789     53.538172
  C      47.870589     27.497343     53.694378
  H      48.728487     26.859274     53.466513
  C      48.084761     28.805100     53.966425
  C      46.941194     29.702172     54.178568
  H      47.175337     30.737319     54.429756
  C      45.675002     29.274577     54.033647
  H      44.841010     29.978486     54.091826
  C      45.325402     27.835105     53.773157
  H      44.612187     27.513796     54.547891
  O      44.751183     27.703097     52.484990
  H      43.909226     27.144507     52.534386
  C      49.489908     29.396499     54.028140
  O      50.488907     28.630427     53.907265
  O      49.551304     30.627319     54.225015
24
Coordinates from ORCA-job neb_MEP_ALL.QMRegion E -1076.082851279329
  C      48.127539     28.071962     56.544947
  H      48.990558     27.536190     56.158036
  H      48.288869     29.009912     57.070867
  C      46.864454     27.576056     56.437703
  C      45.688005     28.279069     57.135342
  O      45.927553     29.306637     57.822071
  O      44.543152     27.777467     57.007035
  O      46.595258     26.534400     55.647577
  C      46.559231     26.929536     53.874875
  H      46.383210     25.920526     53.485281
  C      47.862671     27.491343     53.679313
  H      48.727656     26.861480     53.460156
  C      48.077761     28.790641     54.047499
  C      46.935553     29.696573     54.212332
  H      47.169907     30.733060     54.456594
  C      45.674234     29.271963     54.028297
  H      44.839473     29.975632     54.068779
  C      45.328860     27.836288     53.749831
  H      44.641782     27.491821     54.537963
  O      44.717212     27.731152     52.474517
  H      43.886137     27.153765     52.529320
  C      49.484114     29.389885     54.072349
  O      50.481008     28.627925     53.924003
  O      49.542450     30.625392     54.234127
24
Coordinates from ORCA-job neb_MEP_ALL.QMRegion E -1076.079603668273
  C      48.137752     28.101636     56.504104
  H      48.998734     27.530425     56.168482
  H      48.297070     29.031938     57.041183
  C      46.866073     27.559204     56.460232
  C      45.686477     28.282755     57.144271
  O      45.927859     29.313769     57.824376
  O      44.543063     27.782787     57.009752
  O      46.613766     26.504206     55.765311
  C      46.565343     26.947133     53.754145
  H      46.385409     25.913800     53.450484
  C      47.851563     27.481399     53.670502
  H      48.724492     26.859717     53.461236
  C      48.073365     28.782602     54.107711
  C      46.933792     29.696724     54.223541
  H      47.168417     30.733801     54.463170
  C      45.674733     29.272192     54.022483
  H      44.839572     29.975148     54.061370
  C      45.333357     27.837760     53.733030
  H      44.659056     27.482898     54.529743
  O      44.697266     27.746816     52.466083
  H      43.875952     27.156053     52.526196
  C      49.481721     29.386856     54.092976
  O      50.476517     28.626223     53.927068
  O      49.539538     30.624549     54.233882
24
Coordinates from ORCA-job neb_MEP_ALL.QMRegion E -1076.083188773517
  C      48.145002     28.161520     56.370979
  H      49.003549     27.521567     56.181493
  H      48.303499     29.050467     56.977852
  C      46.862304     27.552016     56.460160
  C      45.685223     28.285217     57.151624
  O      45.935881     29.314540     57.826847
  O      44.545331     27.781603     57.018273
  O      46.630641     26.473913     55.870475
  C      46.573727     26.959577     53.665981
  H      46.389271     25.917815     53.404181
  C      47.841311     27.466103     53.685420
  H      48.720809     26.854901     53.470972
  C      48.074765     28.759838     54.245129
  C      46.931964     29.693298     54.251914
  H      47.166248     30.734287     54.472074
  C      45.680387     29.270985     54.018777
  H      44.845185     29.975947     54.043313
  C      45.337815     27.837743     53.722306
  H      44.670895     27.474445     54.522766
  O      44.680898     27.761520     52.463148
  H      43.869562     27.158990     52.524980
  C      49.479987     29.381843     54.127063
  O      50.472646     28.624571     53.932527
  O      49.535618     30.622095     54.230521
24
Coordinates from ORCA-job neb_MEP_ALL.QMRegion E -1076.095430815554
  C      48.145721     28.218893     56.207546
  H      48.992404     27.524766     56.185372
  H      48.305135     29.069620     56.884474
  C      46.854954     27.552702     56.446431
  C      45.686512     28.288379     57.157594
  O      45.949905     29.311161     57.834896
  O      44.550231     27.779819     57.030007
  O      46.643882     26.444809     55.965226
  C      46.584184     26.970958     53.608158
  H      46.398186     25.930375     53.337349
  C      47.836902     27.454183     53.709199
  H      48.720235     26.850312     53.484407
  C      48.082029     28.730237     54.400542
  C      46.933058     29.683839     54.293571
  H      47.164893     30.731565     54.487432
  C      45.691563     29.266763     54.021646
  H      44.858964     29.975684     54.016791
  C      45.345497     27.835174     53.711737
  H      44.686720     27.464091     54.515036
  O      44.664881     27.778026     52.462882
  H      43.863262     27.162337     52.524847
  C      49.478502     29.376680     54.157682
  O      50.469660     28.623163     53.939980
  O      49.529282     30.619582     54.227795
24
Coordinates from ORCA-job neb_MEP_ALL.QMRegion E -1076.119487782550
  C      48.170522     28.255909     56.054371
  H      49.009887     27.552205     56.162695
  H      48.326496     29.122921     56.710042
  C      46.895592     27.553648     56.430695
  C      45.756064     28.293972     57.181453
  O      46.076344     29.255581     57.913626
  O      44.598206     27.840701     57.018646
  O      46.717592     26.393911     56.096529
  C      46.630943     27.005317     53.443780
  H      46.456952     26.003542     53.051388
  C      47.868993     27.446325     53.697463
  H      48.757386     26.853892     53.460696
  C      48.110438     28.698890     54.491528
  C      46.956072     29.663595     54.332359
  H      47.177890     30.709791     54.541688
  C      45.727443     29.258165     53.993861
  H      44.902454     29.975158     53.944993
  C      45.383075     27.833208     53.646776
  H      44.780171     27.416535     54.475360
  O      44.621050     27.819601     52.447390
  H      43.835734     27.188659     52.526712
  C      49.491974     29.372601     54.175231
  O      50.488071     28.628998     53.946167
  O      49.526846     30.616858     54.214318
24
Coordinates from ORCA-job neb_MEP_ALL.QMRegion E -1076.125398909238
  C      48.224000     28.262000     55.994000
  H      49.076000     27.584000     56.141000
  H      48.362000     29.164000     56.599000
  C      46.972000     27.540000     56.426000
  C      45.866000     28.295000     57.208000
  O      46.244000     29.174000     58.008000
  O      44.683000     27.925000     56.990000
  O      46.818000     26.364000     56.154000
  C      46.697000     27.059000     53.236000
  H      46.542000     26.129000     52.688000
  C      47.919000     27.448000     53.618000
  H      48.814000     26.873000     53.361000
  C      48.145000     28.672000     54.467000
  C      46.985000     29.634000     54.326000
  H      47.195000     30.670000     54.594000
  C      45.768000     29.246000     53.934000
  H      44.950000     29.969000     53.871000
  C      45.435000     27.831000     53.537000
  H      44.923000     27.350000     54.394000
  O      44.578000     27.844000     52.410000
  H      43.802000     27.210000     52.525000
  C      49.516000     29.369000     54.153000
  O      50.522000     28.638000     53.933000
  O      49.531000     30.612000     54.192000
24
Coordinates from ORCA-job neb_MEP_ALL.QMRegion E -1076.098627360599
  C      48.064000     27.894000     56.866000
  H      48.929000     27.402000     56.423000
  H      48.211000     28.661000     57.627000
  C      46.808000     27.594000     56.511000
  C      45.618000     28.277000     57.175000
  O      45.842000     29.312000     57.855000
  O      44.482000     27.767000     57.017000
  O      46.535000     26.614000     55.576000
  C      46.550000     26.968000     54.140000
  H      46.353000     26.007000     53.643000
  C      47.908000     27.502000     53.801000
  H      48.758000     26.826000     53.679000
  C      48.154000     28.827000     53.832000
  C      47.036000     29.770000     53.961000
  H      47.296000     30.825000     54.057000
  C      45.755000     29.358000     53.958000
  H      44.944000     30.088000     54.032000
  C      45.364000     27.910000     53.819000
  H      44.602000     27.678000     54.582000
  O      44.845000     27.680000     52.517000
  H      43.998000     27.141000     52.574000
  C      49.577000     29.380000     53.866000
  O      50.556000     28.587000     53.823000
  O      49.681000     30.616000     54.001000
24
Coordinates from ORCA-job neb_MEP_ALL.QMRegion E -1076.101345683020
  C      48.075300     27.930324     56.797892
  H      48.939100     27.450472     56.339198
  H      48.224082     28.722494     57.528980
  C      46.817194     27.598872     56.482849
  C      45.631506     28.275784     57.160318
  O      45.860195     29.306733     57.843851
  O      44.494971     27.764028     57.013921
  O      46.537763     26.606350     55.559605
  C      46.545901     26.953892     54.117995
  H      46.351153     25.988673     53.625715
  C      47.897613     27.497651     53.772569
  H      48.747266     26.827004     53.619345
  C      48.135734     28.822519     53.853931
  C      47.011818     29.753379     54.013757
  H      47.267222     30.803652     54.156480
  C      45.733062     29.336837     53.980337
  H      44.916235     30.058309     54.059670
  C      45.352550     27.889651     53.810403
  H      44.596623     27.639401     54.574118
  O      44.827867     27.677377     52.509464
  H      43.980155     27.136378     52.563046
  C      49.555276     29.384151     53.897308
  O      50.540684     28.598370     53.835260
  O      49.647604     30.617994     54.058861
24
Coordinates from ORCA-job neb_MEP_ALL.QMRegion E -1076.101022039320
  C      48.095318     27.984388     56.684283
  H      48.956118     27.511747     56.215469
  H      48.247406     28.838936     57.338824
  C      46.835708     27.601701     56.436747
  C      45.658573     28.272843     57.138016
  O      45.893414     29.299459     57.826656
  O      44.519400     27.762614     57.006056
  O      46.551044     26.592200     55.534558
  C      46.543238     26.930533     54.076024
  H      46.358617     25.960269     53.591856
  C      47.881024     27.496071     53.727764
  H      48.734093     26.842317     53.528331
  C      48.105653     28.816400     53.894134
  C      46.971147     29.725913     54.098638
  H      47.214506     30.767462     54.311441
  C      45.697689     29.300471     54.014674
  H      44.871114     30.010732     54.095754
  C      45.334966     27.856489     53.795116
  H      44.593968     27.572369     54.560670
  O      44.794918     27.680468     52.497091
  H      43.947927     27.135079     52.546537
  C      49.518191     29.394069     53.956623
  O      50.512494     28.619183     53.866536
  O      49.592432     30.624373     54.153692
24
Coordinates from ORCA-job neb_MEP_ALL.QMRegion E -1076.095053590328
  C      48.115008     28.034774     56.590308
  H      48.977316     27.540624     56.149153
  H      48.272694     28.955677     57.146625
  C      46.855961     27.596054     56.413554
  C      45.683285     28.273347     57.126210
  O      45.922826     29.297695     57.817508
  O      44.540185     27.767649     57.002771
  O      46.572595     26.570115     55.536415
  C      46.549268     26.915187     54.009343
  H      46.374778     25.936599     53.537288
  C      47.870706     27.496950     53.694220
  H      48.728476     26.859754     53.465824
  C      48.083918     28.804828     53.966231
  C      46.940990     29.701969     54.178754
  H      47.175012     30.737443     54.429843
  C      45.674560     29.274107     54.033345
  H      44.840684     29.978156     54.091858
  C      45.325820     27.834976     53.772953
  H      44.612647     27.512951     54.547392
  O      44.750452     27.703494     52.485254
  H      43.908567     27.144812     52.534046
  C      49.489811     29.396575     54.027737
  O      50.488965     28.630741     53.907653
  O      49.551650     30.627205     54.225382
24
Coordinates from ORCA-job neb_MEP_ALL.QMRegion E -1076.083201614884
  C      48.127821     28.070758     56.547978
  H      48.990532     27.536481     56.158284
  H      48.288514     29.008357     57.073287
  C      46.864377     27.576869     56.438145
  C      45.688106     28.278874     57.135347
  O      45.927555     29.306493     57.821893
  O      44.543279     27.777325     57.006496
  O      46.595076     26.534840     55.644764
  C      46.558952     26.928911     53.876833
  H      46.383308     25.920384     53.485679
  C      47.863264     27.491530     53.678558
  H      48.727749     26.861713     53.459601
  C      48.077556     28.791182     54.044574
  C      46.935712     29.696627     54.211239
  H      47.169781     30.733178     54.456094
  C      45.673932     29.271765     54.028435
  H      44.839095     29.975392     54.069498
  C      45.328991     27.836147     53.749861
  H      44.641658     27.491695     54.537877
  O      44.717292     27.730720     52.474444
  H      43.886076     27.153732     52.529296
  C      49.484146     29.390434     54.070897
  O      50.481285     28.627979     53.923681
  O      49.542691     30.625357     54.234259
24
Coordinates from ORCA-job neb_MEP_ALL.QMRegion E -1076.079629226314
  C      48.138027     28.102491     56.502478
  H      48.999112     27.530235     56.169324
  H      48.297244     29.031679     57.041613
  C      46.866037     27.558861     56.460528
  C      45.686650     28.282937     57.144484
  O      45.927944     29.313633     57.824477
  O      44.543074     27.782731     57.009680
  O      46.614334     26.503525     55.767722
  C      46.565766     26.947430     53.751389
  H      46.385682     25.913817     53.449029
  C      47.851304     27.481135     53.670244
  H      48.724608     26.859700     53.460964
  C      48.073381     28.782302     54.109777
  C      46.933583     29.696642     54.223451
  H      47.168241     30.733879     54.462827
  C      45.674902     29.272005     54.022328
  H      44.839404     29.974842     54.061480
  C      45.333428     27.837631     53.732526
  H      44.659564     27.482326     54.529432
  O      44.696470     27.747033     52.465727
  H      43.875635     27.156257     52.526047
  C      49.481697     29.387057     54.093196
  O      50.476448     28.626151     53.926764
  O      49.539516     30.624400     54.233663
24
Coordinates from ORCA-job neb_MEP_ALL.QMRegion E -1076.082665554594
  C      48.144663     28.158487     56.377594
  H      49.003845     27.521865     56.181097
  H      48.303239     29.049421     56.981326
  C      46.862315     27.552555     56.460470
  C      45.685224     28.284734     57.150804
  O      45.935910     29.314483     57.826973
  O      44.545574     27.781540     57.017782
  O      46.630339     26.475250     55.866020
  C      46.573288     26.958914     53.668216
  H      46.389409     25.917706     53.405360
  C      47.841323     27.466523     53.684323
  H      48.721343     26.855079     53.470288
  C      48.075304     28.761220     54.238844
  C      46.931824     29.693466     54.250669
  H      47.166251     30.734328     54.471322
  C      45.679827     29.270683     54.018595
  H      44.844720     29.975725     54.044327
  C      45.337894     27.837463     53.723048
  H      44.670443     27.474446     54.522889
  O      44.681717     27.760920     52.463033
  H      43.869497     27.158904     52.524990
  C      49.480124     29.381517     54.126083
  O      50.472659     28.625102     53.931769
  O      49.536059     30.622376     54.230312
24
Coordinates from ORCA-job neb_MEP_ALL.QMRegion E -1076.096941183700
  C      48.148628     28.219718     56.209466
  H      48.993528     27.523261     56.186789
  H      48.304469     29.066682     56.890939
  C      46.856788     27.552915     56.449141
  C      45.685622     28.286342     57.159117
  O      45.949139     29.311689     57.832976
  O      44.548989     27.780283     57.028617
  O      46.643528     26.447039     55.960703
  C      46.583304     26.970500     53.601560
  H      46.397431     25.928154     53.342484
  C      47.837116     27.452733     53.708344
  H      48.720391     26.850256     53.483013
  C      48.082198     28.731419     54.401319
  C      46.933418     29.685725     54.288472
  H      47.164735     30.731875     54.486434
  C      45.689437     29.267281     54.019025
  H      44.856716     29.976195     54.019295
  C      45.344929     27.835110     53.714263
  H      44.683129     27.463737     54.516763
  O      44.667192     27.776035     52.464084
  H      43.864065     27.163229     52.524636
  C      49.478864     29.376943     54.158372
  O      50.469637     28.624336     53.938079
  O      49.530562     30.619531     54.226721
24
Coordinates from ORCA-job neb_MEP_ALL.QMRegion E -1076.119511658078
  C      48.167911     28.256873     56.050643
  H      49.009609     27.550943     56.163806
  H      48.325741     29.123662     56.711350
  C      46.894723     27.550385     56.431603
  C      45.753159     28.294448     57.181211
  O      46.073678     29.257536     57.911868
  O      44.596164     27.838391     57.019363
  O      46.716909     26.397444     56.097923
  C      46.630318     27.004504     53.445004
  H      46.455950     26.002378     53.055790
  C      47.867892     27.444837     53.697972
  H      48.756057     26.853602     53.463002
  C      48.110404     28.698177     54.497480
  C      46.954863     29.664508     54.331877
  H      47.177355     30.709921     54.541686
  C      45.726230     29.258559     53.994312
  H      44.902153     29.974876     53.945991
  C      45.381917     27.833607     53.648631
  H      44.777890     27.416886     54.476418
  O      44.621660     27.819328     52.448547
  H      43.836069     27.188708     52.526578
  C      49.491345     29.372622     54.175263
  O      50.486994     28.629630     53.946757
  O      49.527015     30.616367     54.215112
24
Coordinates from ORCA-job neb_MEP_ALL.QMRegion E -1076.125398909238
  C      48.224000     28.262000     55.994000
  H      49.076000     27.584000     56.141000
  H      48.362000     29.164000     56.599000
  C      46.972000     27.540000     56.426000
  C      45.866000     28.295000     57.208000
  O      46.244000     29.174000     58.008000
  O      44.683000     27.925000     56.990000
  O      46.818000     26.364000     56.154000
  C      46.697000     27.059000     53.236000
  H      46.542000     26.129000     52.688000
  C      47.919000     27.448000     53.618000
  H      48.814000     26.873000     53.361000
  C      48.145000     28.672000     54.467000
  C      46.985000     29.634000     54.326000
  H      47.195000     30.670000     54.594000
  C      45.768000     29.246000     53.934000
  H      44.950000     29.969000     53.871000
  C      45.435000     27.831000     53.537000
  H      44.923000     27.350000     54.394000
  O      44.578000     27.844000     52.410000
  H      43.802000     27.210000     52.525000
  C      49.516000     29.369000     54.153000
  O      50.522000     28.638000     53.933000
  O      49.531000     30.612000     54.192000
24
Coordinates from ORCA-job neb_MEP_ALL.QMRegion E -1076.098627360599
  C      48.064000     27.894000     56.866000
  H      48.929000     27.402000     56.423000
  H      48.211000     28.661000     57.627000
  C      46.808000     27.594000     56.511000
  C      45.618000     28.277000     57.175000
  O      45.842000     29.312000     57.855000
  O      44.482000     27.767000     57.017000
  O      46.535000     26.614000     55.576000
  C      46.550000     26.968000     54.140000
  H      46.353000     26.007000     53.643000
  C      47.908000     27.502000     53.801000
  H      48.758000     26.826000     53.679000
  C      48.154000     28.827000     53.832000
  C      47.036000     29.770000     53.961000
  H      47.296000     30.825000     54.057000
  C      45.755000     29.358000     53.958000
  H      44.944000     30.088000     54.032000
  C      45.364000     27.910000     53.819000
  H      44.602000     27.678000     54.582000
  O      44.845000     27.680000     52.517000
  H      43.998000     27.141000     52.574000
  C      49.577000     29.380000     53.866000
  O      50.556000     28.587000     53.823000
  O      49.681000     30.616000     54.001000
24
Coordinates from ORCA-job neb_MEP_ALL.QMRegion E -1076.101369114478
  C      48.075869     27.929909     56.798353
  H      48.939201     27.451384     56.338755
  H      48.223775     28.721151     57.530063
  C      46.816934     27.600894     56.484904
  C      45.631427     28.275600     57.159931
  O      45.860292     29.305988     57.843765
  O      44.495155     27.763866     57.014023
  O      46.538110     26.605878     55.558708
  C      46.545655     26.952999     54.117320
  H      46.350678     25.988409     53.625719
  C      47.897651     27.497219     53.772317
  H      48.746485     26.827056     53.618433
  C      48.135243     28.822743     53.853033
  C      47.011367     29.753229     54.013518
  H      47.266807     30.803603     54.156383
  C      45.732316     29.336737     53.980762
  H      44.915876     30.057878     54.061525
  C      45.352159     27.889899     53.810195
  H      44.596017     27.638897     54.573934
  O      44.827896     27.676991     52.509274
  H      43.980360     27.135897     52.562686
  C      49.555102     29.384227     53.895891
  O      50.540358     28.598264     53.834675
  O      49.647454     30.617813     54.059294
24
Coordinates from ORCA-job neb_MEP_ALL.QMRegion E -1076.101013899071
  C      48.096796     27.985492     56.680582
  H      48.957280     27.514850     56.210967
  H      48.248427     28.841953     57.331440
  C      46.836674     27.604231     56.435888
  C      45.660520     28.271327     57.137954
  O      45.895453     29.298589     57.825639
  O      44.520487     27.762710     57.005167
  O      46.553278     26.592420     55.530456
  C      46.543011     26.928412     54.074400
  H      46.359027     25.959020     53.589299
  C      47.879776     27.495282     53.726026
  H      48.732870     26.843716     53.523177
  C      48.102871     28.816008     53.894639
  C      46.968221     29.724673     54.101994
  H      47.211245     30.766017     54.316867
  C      45.694985     29.298319     54.016123
  H      44.868449     30.007731     54.099672
  C      45.334298     27.854620     53.794403
  H      44.593707     27.568141     54.559123
  O      44.792884     27.680737     52.496859
  H      43.946131     27.134662     52.544929
  C      49.516086     29.394659     53.957282
  O      50.510767     28.620498     53.867551
  O      49.590495     30.624046     54.158202
24
Coordinates from ORCA-job neb_MEP_ALL.QMRegion E -1076.095126926417
  C      48.115841     28.033719     56.591699
  H      48.978204     27.540914     56.150551
  H      48.272904     28.954833     57.146340
  C      46.856561     27.598079     56.413884
  C      45.684256     28.272074     57.127363
  O      45.923629     29.297365     57.817148
  O      44.540637     27.768252     57.001798
  O      46.574296     26.571261     55.530347
  C      46.549646     26.913250     54.011430
  H      46.375828     25.936224     53.535310
  C      47.870915     27.496392     53.693827
  H      48.728666     26.860754     53.464119
  C      48.082928     28.804440     53.965297
  C      46.940122     29.701750     54.179150
  H      47.174189     30.737407     54.429983
  C      45.673816     29.273460     54.032906
  H      44.839949     29.977232     54.091912
  C      45.326398     27.834193     53.772461
  H      44.613713     27.511018     54.546338
  O      44.748974     27.704476     52.485511
  H      43.906980     27.145472     52.533409
  C      49.489517     29.396734     54.027071
  O      50.488972     28.631266     53.908389
  O      49.552139     30.626942     54.226118
24
Coordinates from ORCA-job neb_MEP_ALL.QMRegion E -1076.083428148444
  C      48.127983     28.068034     56.553621
  H      48.990622     27.537022     56.159167
  H      48.288026     29.005582     57.078866
  C      46.864635     27.577087     56.438364
  C      45.688325     28.278515     57.135415
  O      45.927456     29.306426     57.821752
  O      44.543457     27.777127     57.005413
  O      46.595234     26.536514     55.640786
  C      46.558763     26.927884     53.879904
  H      46.383553     25.919987     53.485892
  C      47.863957     27.491788     53.676882
  H      48.728113     26.862136     53.458270
  C      48.077565     28.792256     54.038901
  C      46.935595     29.696910     54.208952
  H      47.169447     30.733321     54.454952
  C      45.673470     29.271575     54.028643
  H      44.838322     29.974690     54.071085
  C      45.329083     27.835556     53.749621
  H      44.641746     27.491248     54.537480
  O      44.717319     27.730148     52.474127
  H      43.885658     27.153644     52.529210
  C      49.484318     29.391128     54.068007
  O      50.481558     28.628271     53.922914
  O      49.543165     30.625523     54.234498
24
Coordinates from ORCA-job neb_MEP_ALL.QMRegion E -1076.079614301627
  C      48.138700     28.104383     56.498652
  H      48.999990     27.529787     56.171307
  H      48.297660     29.031156     57.042687
  C      46.866044     27.558120     56.461202
  C      45.686797     28.283035     57.144817
  O      45.928199     29.313493     57.824837
  O      44.543276     27.782723     57.009565
  O      46.615644     26.501869     55.773361
  C      46.566568     26.948189     53.744844
  H      46.386344     25.913828     53.445572
  C      47.850874     27.480578     53.669728
  H      48.724839     26.859700     53.460325
  C      48.073423     28.781565     54.114453
  C      46.933328     29.696548     54.223394
  H      47.167793     30.734009     54.461970
  C      45.674959     29.271595     54.021890
  H      44.839102     29.974040     54.061727
  C      45.333637     27.837212     53.731283
  H      44.660760     27.480974     54.528673
  O      44.695063     27.747819     52.465009
  H      43.874607     27.156555     52.525702
  C      49.481688     29.387043     54.093838
  O      50.476176     28.626132     53.926021
  O      49.539512     30.624353     54.233116
24
Coordinates from ORCA-job neb_MEP_ALL.QMRegion E -1076.082340964620
  C      48.144055     28.152621     56.389846
  H      49.004555     27.522329     56.180595
  H      48.302902     29.047855     56.988243
  C      46.862829     27.553184     56.460864
  C      45.685756     28.284415     57.149590
  O      45.935862     29.313894     57.827006
  O      44.545604     27.781320     57.016865
  O      46.629885     26.477582     55.858682
  C      46.572327     26.958714     53.671223
  H      46.389663     25.916859     53.406794
  C      47.841899     27.468065     53.682453
  H      48.722316     26.855431     53.468891
  C      48.075417     28.762708     54.227148
  C      46.931622     29.693523     54.248279
  H      47.166123     30.734607     54.469806
  C      45.678909     29.270523     54.018401
  H      44.843847     29.975063     54.046245
  C      45.338217     27.836283     53.723785
  H      44.669632     27.474184     54.523123
  O      44.682805     27.759678     52.462919
  H      43.869437     27.158976     52.524958
  C      49.480412     29.381828     54.124353
  O      50.473003     28.625687     53.930225
  O      49.536866     30.622620     54.229871
24
Coordinates from ORCA-job neb_MEP_ALL.QMRegion E -1076.096647864227
  C      48.153066     28.218581     56.217947
  H      48.996099     27.520483     56.189738
  H      48.303493     29.060159     56.907589
  C      46.860628     27.552162     56.453278
  C      45.684665     28.282638     57.161795
  O      45.946745     29.312673     57.829039
  O      44.546390     27.781069     57.025491
  O      46.642872     26.453469     55.949381
  C      46.582042     26.970511     53.592146
  H      46.395365     25.922479     53.354320
  C      47.836934     27.451672     53.706098
  H      48.721187     26.849916     53.479538
  C      48.082444     28.733219     54.397983
  C      46.932717     29.688608     54.277142
  H      47.164437     30.733239     54.483458
  C      45.686510     29.269231     54.014406
  H      44.851516     29.977083     54.025216
  C      45.343381     27.833945     53.718596
  H      44.675891     27.463371     54.520320
  O      44.671777     27.771750     52.465879
  H      43.865807     27.164739     52.524347
  C      49.479769     29.377615     54.158271
  O      50.469725     28.626392     53.933989
  O      49.533285     30.619936     54.224689
24
Coordinates from ORCA-job neb_MEP_ALL.QMRegion E -1076.119423771663
  C      48.166161     28.259424     56.045106
  H      49.006748     27.549905     56.165960
  H      48.323408     29.123583     56.712215
  C      46.891997     27.550624     56.434802
  C      45.747520     28.294682     57.181235
  O      46.066874     29.261639     57.907466
  O      44.591985     27.833846     57.021302
  O      46.714337     26.397806     56.100166
  C      46.628264     27.003733     53.447661
  H      46.453475     25.998992     53.064771
  C      47.865554     27.443266     53.700905
  H      48.753721     26.852305     53.468092
  C      48.108915     28.696472     54.508177
  C      46.953147     29.665086     54.331650
  H      47.176133     30.710911     54.541864
  C      45.724046     29.259114     53.995391
  H      44.900835     29.974787     53.947952
  C      45.379833     27.833808     53.652410
  H      44.772725     27.417546     54.479037
  O      44.622809     27.819020     52.450966
  H      43.836723     27.188824     52.526406
  C      49.489822     29.372521     54.177007
  O      50.484817     28.630643     53.947654
  O      49.527039     30.615594     54.216538
24
Coordinates from ORCA-job neb_MEP_ALL.QMRegion E -1076.125398909238
  C      48.224000     28.262000     55.994000
  H      49.076000     27.584000     56.141000
  H      48.362000     29.164000     56.599000
  C      46.972000     27.540000     56.426000
  C      45.866000     28.295000     57.208000
  O      46.244000     29.174000     58.008000
  O      44.683000     27.925000     56.990000
  O      46.818000     26.364000     56.154000
  C      46.697000     27.059000     53.236000
  H      46.542000     26.129000     52.688000
  C      47.919000     27.448000     53.618000
  H      48.814000     26.873000     53.361000
  C      48.145000     28.672000     54.467000
  C      46.985000     29.634000     54.326000
  H      47.195000     30.670000     54.594000
  C      45.768000     29.246000     53.934000
  H      44.950000     29.969000     53.871000
  C      45.435000     27.831000     53.537000
  H      44.923000     27.350000     54.394000
  O      44.578000     27.844000     52.410000
  H      43.802000     27.210000     52.525000
  C      49.516000     29.369000     54.153000
  O      50.522000     28.638000     53.933000
  O      49.531000     30.612000     54.192000
24
Coordinates from ORCA-job neb_MEP_ALL.QMRegion E -1076.098627360599
  C      48.064000     27.894000     56.866000
  H      48.929000     27.402000     56.423000
  H      48.211000     28.661000     57.627000
  C      46.808000     27.594000     56.511000
  C      45.618000     28.277000     57.175000
  O      45.842000     29.312000     57.855000
  O      44.482000     27.767000     57.017000
  O      46.535000     26.614000     55.576000
  C      46.550000     26.968000     54.140000
  H      46.353000     26.007000     53.643000
  C      47.908000     27.502000     53.801000
  H      48.758000     26.826000     53.679000
  C      48.154000     28.827000     53.832000
  C      47.036000     29.770000     53.961000
  H      47.296000     30.825000     54.057000
  C      45.755000     29.358000     53.958000
  H      44.944000     30.088000     54.032000
  C      45.364000     27.910000     53.819000
  H      44.602000     27.678000     54.582000
  O      44.845000     27.680000     52.517000
  H      43.998000     27.141000     52.574000
  C      49.577000     29.380000     53.866000
  O      50.556000     28.587000     53.823000
  O      49.681000     30.616000     54.001000
24
Coordinates from ORCA-job neb_MEP_ALL.QMRegion E -1076.101410403497
  C      48.076132     27.929958     56.800437
  H      48.939875     27.453573     56.336949
  H      48.223538     28.717854     57.533505
  C      46.817243     27.601125     56.484622
  C      45.631214     28.275478     57.160181
  O      45.860277     29.305099     57.844107
  O      44.495087     27.763215     57.014000
  O      46.539401     26.606992     55.559125
  C      46.545381     26.952992     54.116771
  H      46.349114     25.986921     53.625216
  C      47.896178     27.497481     53.771294
  H      48.745095     26.826729     53.615537
  C      48.134117     28.821504     53.849901
  C      47.009546     29.752902     54.012914
  H      47.265491     30.803512     54.156351
  C      45.731255     29.336109     53.981989
  H      44.914124     30.057161     54.067051
  C      45.351190     27.888587     53.809859
  H      44.594475     27.637523     54.573083
  O      44.827786     27.676246     52.508474
  H      43.980859     27.134507     52.561649
  C      49.554258     29.384527     53.893277
  O      50.539451     28.597723     53.832487
  O      49.646898     30.617724     54.060178
24
Coordinates from ORCA-job neb_MEP_ALL.QMRegion E -1076.100938637550
  C      48.100197     27.989387     56.671695
  H      48.961025     27.522603     56.198073
  H      48.251622     28.850044     57.314050
  C      46.839956     27.605515     56.428565
  C      45.663731     28.269390     57.136810
  O      45.900762     29.295824     57.823843
  O      44.524591     27.762627     57.003208
  O      46.558459     26.593666     55.524433
  C      46.542588     26.925021     54.069595
  H      46.359779     25.955095     53.582647
  C      47.876350     27.495628     53.720238
  H      48.730124     26.846973     53.509035
  C      48.096856     28.814685     53.894335
  C      46.960175     29.720989     54.110024
  H      47.202158     30.762056     54.331105
  C      45.688775     29.292613     54.020899
  H      44.860253     29.999734     54.110898
  C      45.331676     27.848561     53.792110
  H      44.592425     27.556618     54.555576
  O      44.787631     27.681129     52.495025
  H      43.941566     27.133460     52.541004
  C      49.509727     29.395554     53.960166
  O      50.506437     28.622599     53.869004
  O      49.584240     30.624745     54.169626
24
Coordinates from ORCA-job neb_MEP_ALL.QMRegion E -1076.095202368660
  C      48.117704     28.030982     56.596321
  H      48.981198     27.541204     56.153765
  H      48.273862     28.953218     57.147874
  C      46.858406     27.598370     56.410316
  C      45.685887     28.270847     57.127967
  O      45.925809     29.295924     57.817382
  O      44.542242     27.769095     56.999813
  O      46.578150     26.574773     55.521540
  C      46.550947     26.910467     54.013435
  H      46.378579     25.935157     53.530464
  C      47.871355     27.496696     53.692209
  H      48.730073     26.862882     53.459014
  C      48.081928     28.804485     53.961315
  C      46.938058     29.700692     54.179355
  H      47.171785     30.737028     54.430297
  C      45.672595     29.271538     54.032602
  H      44.837398     29.974501     54.092178
  C      45.327002     27.831703     53.770596
  H      44.616075     27.505651     54.544293
  O      44.745147     27.706591     52.485102
  H      43.902976     27.147377     52.532220
  C      49.488373     29.396799     54.025947
  O      50.489082     28.631514     53.909597
  O      49.552282     30.627168     54.227825
24
Coordinates from ORCA-job neb_MEP_ALL.QMRegion E -1076.083826423663
  C      48.129001     28.063876     56.562596
  H      48.991599     27.537771     56.163108
  H      48.287493     28.999579     57.092498
  C      46.866192     27.576987     56.440398
  C      45.688739     28.277928     57.135782
  O      45.926842     29.306101     57.821814
  O      44.544150     27.777437     57.003358
  O      46.596488     26.537324     55.638101
  C      46.559839     26.926829     53.879412
  H      46.384547     25.919113     53.483596
  C      47.863934     27.492705     53.672980
  H      48.729442     26.862755     53.454548
  C      48.077530     28.793437     54.029812
  C      46.935087     29.697551     54.203949
  H      47.168358     30.733748     54.451959
  C      45.672703     29.270368     54.028312
  H      44.836212     29.972556     54.075011
  C      45.329343     27.834359     53.747732
  H      44.643143     27.489029     54.535916
  O      44.715864     27.729756     52.472830
  H      43.883808     27.153742     52.528716
  C      49.484580     29.392321     54.062872
  O      50.481806     28.628837     53.920465
  O      49.544009     30.626237     54.234566
24
Coordinates from ORCA-job neb_MEP_ALL.QMRegion E -1076.079592860420
  C      48.140259     28.110453     56.489176
  H      49.002979     27.528072     56.176617
  H      48.298757     29.029347     57.045629
  C      46.866566     27.555863     56.462776
  C      45.686714     28.282932     57.145647
  O      45.929031     29.313223     57.825924
  O      44.544102     27.782925     57.009292
  O      46.619140     26.497075     55.789056
  C      46.568096     26.950290     53.726218
  H      46.388330     25.913827     53.435695
  C      47.850407     27.478991     53.668465
  H      48.725275     26.859910     53.458524
  C      48.073256     28.779788     54.126677
  C      46.932939     29.696129     54.223652
  H      47.166487     30.734402     54.459419
  C      45.674779     29.270259     54.020521
  H      44.838263     29.971723     54.062405
  C      45.334602     27.836055     53.727773
  H      44.664106     27.477046     54.526463
  O      44.690948     27.749846     52.463202
  H      43.871809     27.157474     52.524689
  C      49.481532     29.386571     54.096150
  O      50.475613     28.626025     53.923793
  O      49.539583     30.624588     54.231410
24
Coordinates from ORCA-job neb_MEP_ALL.QMRegion E -1076.081815819965
  C      48.145432     28.144653     56.413915
  H      49.006747     27.522504     56.180608
  H      48.302440     29.044301     57.001070
  C      46.863808     27.552620     56.461664
  C      45.686345     28.283883     57.147649
  O      45.935855     29.312131     57.827086
  O      44.546615     27.781596     57.015355
  O      46.629574     26.480039     55.848762
  C      46.572042     26.957202     53.670725
  H      46.390930     25.916236     53.406332
  C      47.843601     27.469080     53.677669
  H      48.723293     26.856884     53.466104
  C      48.074930     28.766928     54.207483
  C      46.931401     29.693677     54.244069
  H      47.165410     30.734883     54.466363
  C      45.677792     29.268802     54.018064
  H      44.841363     29.973472     54.049878
  C      45.337566     27.835203     53.723696
  H      44.669088     27.472371     54.522977
  O      44.683941     27.757600     52.462451
  H      43.868579     27.159469     52.524707
  C      49.481084     29.382274     54.121145
  O      50.473761     28.626449     53.927201
  O      49.538205     30.623211     54.229055
24
Coordinates from ORCA-job neb_MEP_ALL.QMRegion E -1076.095094512280
  C      48.159223     28.215507     56.239365
  H      49.002770     27.514729     56.197172
  H      48.302759     29.043968     56.947188
  C      46.866549     27.549716     56.458619
  C      45.684105     28.276551     57.165080
  O      45.940072     29.314435     57.821911
  O      44.543177     27.782130     57.019062
  O      46.641846     26.465516     55.924688
  C      46.580642     26.970486     53.580935
  H      46.390743     25.910697     53.379449
  C      47.837211     27.451717     53.699584
  H      48.722172     26.849586     53.471377
  C      48.081181     28.735980     54.387591
  C      46.931900     29.693222     54.255726
  H      47.163248     30.736999     54.473888
  C      45.680723     29.272795     54.006538
  H      44.840013     29.977799     54.038713
  C      45.339474     27.830708     53.724553
  H      44.663004     27.463141     54.526556
  O      44.679121     27.763282     52.466753
  H      43.868835     27.166788     52.524080
  C      49.481082     29.380064     54.155490
  O      50.471658     28.628182     53.924855
  O      49.538575     30.622157     54.220758
24
Coordinates from ORCA-job neb_MEP_ALL.QMRegion E -1076.119123335685
  C      48.160661     28.261398     56.047745
  H      48.995984     27.548933     56.171685
  H      48.316492     29.120471     56.716638
  C      46.883587     27.548482     56.437669
  C      45.731831     28.292450     57.181603
  O      46.042715     29.274480     57.893113
  O      44.580976     27.821992     57.027843
  O      46.706362     26.404103     56.106488
  C      46.621054     27.000617     53.458953
  H      46.444866     25.988029     53.095309
  C      47.859135     27.441799     53.713402
  H      48.746841     26.847980     53.482428
  C      48.103780     28.695724     54.519827
  C      46.949330     29.666335     54.333658
  H      47.172144     30.713524     54.540509
  C      45.719458     29.259707     53.999608
  H      44.894223     29.976070     53.954452
  C      45.373046     27.832933     53.663905
  H      44.756795     27.420492     54.487358
  O      44.625877     27.817604     52.456508
  H      43.839202     27.188521     52.526324
  C      49.483894     29.371471     54.185544
  O      50.480077     28.630578     53.948495
  O      49.525563     30.615815     54.219906
24
Coordinates from ORCA-job neb_MEP_ALL.QMRegion E -1076.125398909238
  C      48.224000     28.262000     55.994000
  H      49.076000     27.584000     56.141000
  H      48.362000     29.164000     56.599000
  C      46.972000     27.540000     56.426000
  C      45.866000     28.295000     57.208000
  O      46.244000     29.174000     58.008000
  O      44.683000     27.925000     56.990000
  O      46.818000     26.364000     56.154000
  C      46.697000     27.059000     53.236000
  H      46.542000     26.129000     52.688000
  C      47.919000     27.448000     53.618000
  H      48.814000     26.873000     53.361000
  C      48.145000     28.672000     54.467000
  C      46.985000     29.634000     54.326000
  H      47.195000     30.670000     54.594000
  C      45.768000     29.246000     53.934000
  H      44.950000     29.969000     53.871000
  C      45.435000     27.831000     53.537000
  H      44.923000     27.350000     54.394000
  O      44.578000     27.844000     52.410000
  H      43.802000     27.210000     52.525000
  C      49.516000     29.369000     54.153000
  O      50.522000     28.638000     53.933000
  O      49.531000     30.612000     54.192000
24
Coordinates from ORCA-job neb_MEP_ALL.QMRegion E -1076.098627360599
  C      48.064000     27.894000     56.866000
  H      48.929000     27.402000     56.423000
  H      48.211000     28.661000     57.627000
  C      46.808000     27.594000     56.511000
  C      45.618000     28.277000     57.175000
  O      45.842000     29.312000     57.855000
  O      44.482000     27.767000     57.017000
  O      46.535000     26.614000     55.576000
  C      46.550000     26.968000     54.140000
  H      46.353000     26.007000     53.643000
  C      47.908000     27.502000     53.801000
  H      48.758000     26.826000     53.679000
  C      48.154000     28.827000     53.832000
  C      47.036000     29.770000     53.961000
  H      47.296000     30.825000     54.057000
  C      45.755000     29.358000     53.958000
  H      44.944000     30.088000     54.032000
  C      45.364000     27.910000     53.819000
  H      44.602000     27.678000     54.582000
  O      44.845000     27.680000     52.517000
  H      43.998000     27.141000     52.574000
  C      49.577000     29.380000     53.866000
  O      50.556000     28.587000     53.823000
  O      49.681000     30.616000     54.001000
24
Coordinates from ORCA-job neb_MEP_ALL.QMRegion E -1076.101590318649
  C      48.075669     27.928929     56.799141
  H      48.939464     27.453919     56.337049
  H      48.224003     28.718976     57.534635
  C      46.817952     27.598752     56.482179
  C      45.631223     28.275050     57.160375
  O      45.860255     29.306162     57.844744
  O      44.494794     27.763118     57.013869
  O      46.539737     26.608501     55.560512
  C      46.544792     26.951749     54.116565
  H      46.349334     25.987944     53.625613
  C      47.895969     27.496751     53.770799
  H      48.745047     26.826746     53.615317
  C      48.134558     28.822693     53.849705
  C      47.009849     29.753027     54.012950
  H      47.265301     30.803232     54.156511
  C      45.730643     29.335997     53.982047
  H      44.914056     30.056982     54.067391
  C      45.350938     27.888254     53.810340
  H      44.594675     27.637432     54.572726
  O      44.827926     27.676404     52.508307
  H      43.980679     27.134376     52.561568
  C      49.554287     29.384024     53.893900
  O      50.538959     28.598103     53.832167
  O      49.646671     30.617588     54.060000
24
Coordinates from ORCA-job neb_MEP_ALL.QMRegion E -1076.100784538798
  C      48.099722     27.988282     56.671275
  H      48.960833     27.522507     56.198160
  H      48.251843     28.850214     57.317072
  C      46.840482     27.603172     56.426884
  C      45.664518     28.270417     57.135499
  O      45.900596     29.296293     57.824978
  O      44.523416     27.761640     57.003330
  O      46.557790     26.593866     55.527020
  C      46.542413     26.925078     54.068897
  H      46.359712     25.955703     53.583518
  C      47.876443     27.495668     53.719235
  H      48.730242     26.846767     53.509144
  C      48.098131     28.816259     53.893292
  C      46.960834     29.721456     54.109066
  H      47.201994     30.761641     54.330343
  C      45.688383     29.292768     54.021375
  H      44.860101     29.999493     54.111451
  C      45.330761     27.848462     53.792380
  H      44.592119     27.556774     54.555798
  O      44.788299     27.680802     52.494341
  H      43.941779     27.133255     52.541283
  C      49.510447     29.396082     53.960567
  O      50.505719     28.622429     53.868081
  O      49.583485     30.623866     54.168643
24
Coordinates from ORCA-job neb_MEP_ALL.QMRegion E -1076.095287578269
  C      48.117519     28.030617     56.595509
  H      48.981398     27.541041     56.153836
  H      48.274190     28.954285     57.149347
  C      46.858908     27.596041     56.409243
  C      45.686020     28.271947     57.126232
  O      45.925862     29.296044     57.818304
  O      44.541833     27.768470     57.000140
  O      46.577734     26.573853     55.527653
  C      46.551097     26.912045     54.008791
  H      46.378670     25.935217     53.530449
  C      47.871565     27.496888     53.691155
  H      48.730299     26.862748     53.458783
  C      48.082992     28.805422     53.961570
  C      46.938501     29.701126     54.179027
  H      47.171570     30.736410     54.430313
  C      45.672441     29.271591     54.033026
  H      44.837417     29.974025     54.092196
  C      45.326207     27.831500     53.770189
  H      44.616172     27.505496     54.544542
  O      44.745382     27.706599     52.484344
  H      43.902777     27.147327     52.532518
  C      49.488921     29.397105     54.026662
  O      50.488351     28.631329     53.909185
  O      49.551417     30.626730     54.227546
24
Coordinates from ORCA-job neb_MEP_ALL.QMRegion E -1076.084240552734
  C      48.129033     28.066560     56.558133
  H      48.992445     27.537013     56.163988
  H      48.288156     29.000810     57.091174
  C      46.866191     27.574491     56.439660
  C      45.688852     28.278233     57.135972
  O      45.926880     29.306502     57.822444
  O      44.543855     27.777614     57.003823
  O      46.597603     26.536472     55.644767
  C      46.559991     26.928007     53.873584
  H      46.384883     25.919242     53.481369
  C      47.863948     27.491605     53.673145
  H      48.729080     26.862855     53.454699
  C      48.077726     28.793353     54.034857
  C      46.934817     29.697347     54.205068
  H      47.168202     30.733619     54.451946
  C      45.672848     29.270644     54.027789
  H      44.836585     29.972090     54.074597
  C      45.329297     27.834136     53.746969
  H      44.644058     27.488342     54.535503
  O      44.715081     27.730753     52.472564
  H      43.883171     27.153902     52.528540
  C      49.484519     29.391681     54.064971
  O      50.481292     28.628863     53.920251
  O      49.543637     30.626068     54.234026
24
Coordinates from ORCA-job neb_MEP_ALL.QMRegion E -1076.079530303087
  C      48.140783     28.109673     56.489818
  H      49.002757     27.528232     56.176809
  H      48.298732     29.029487     57.046333
  C      46.866704     27.556035     56.462913
  C      45.686971     28.282955     57.145700
  O      45.928996     29.313156     57.825881
  O      44.543810     27.782914     57.009223
  O      46.619085     26.496813     55.788684
  C      46.568252     26.950433     53.726219
  H      46.388391     25.913707     53.435469
  C      47.850208     27.479097     53.668529
  H      48.725364     26.859959     53.458384
  C      48.073332     28.779880     54.125690
  C      46.932750     29.696076     54.223710
  H      47.166430     30.734389     54.459219
  C      45.674840     29.270288     54.020504
  H      44.838226     29.971576     54.062490
  C      45.334521     27.835919     53.727570
  H      44.664248     27.476911     54.526309
  O      44.691520     27.750219     52.463330
  H      43.871346     27.157204     52.524674
  C      49.481612     29.386537     54.096161
  O      50.475531     28.626104     53.923748
  O      49.539647     30.624517     54.231317
24
Coordinates from ORCA-job neb_MEP_ALL.QMRegion E -1076.081061616781
  C      48.145937     28.147090     56.405021
  H      49.006743     27.522205     56.181724
  H      48.303139     29.046778     56.997496
  C      46.864839     27.552184     56.461717
  C      45.687108     28.284486     57.148717
  O      45.936340     29.312241     57.827145
  O      44.545676     27.781319     57.015774
  O      46.630563     26.477381     55.856077
  C      46.572961     26.959271     53.665127
  H      46.391040     25.915694     53.402383
  C      47.843173     27.469498     53.678908
  H      48.723116     26.856501     53.466670
  C      48.074005     28.764093     54.215985
  C      46.931357     29.693268     54.245787
  H      47.165070     30.734924     54.467040
  C      45.678122     29.269669     54.018374
  H      44.842078     29.973010     54.048578
  C      45.337939     27.834728     53.721884
  H      44.670074     27.471573     54.522528
  O      44.681877     27.758392     52.462221
  H      43.868411     27.159917     52.524633
  C      49.480926     29.383083     54.122609
  O      50.473840     28.625653     53.928015
  O      49.537778     30.622795     54.229265
24
Coordinates from ORCA-job neb_MEP_ALL.QMRegion E -1076.090690059300
  C      48.156562     28.215968     56.231273
  H      49.001266     27.516649     56.197418
  H      48.304031     29.045687     56.941410
  C      46.864148     27.549320     56.454400
  C      45.684843     28.278968     57.163060
  O      45.940703     29.314118     57.824236
  O      44.545251     27.781055     57.020490
  O      46.642943     26.461897     55.932351
  C      46.581550     26.970218     53.587072
  H      46.391664     25.913686     53.373434
  C      47.837085     27.453696     53.700883
  H      48.721766     26.849543     53.472398
  C      48.081106     28.733564     54.392881
  C      46.930546     29.690924     54.262487
  H      47.162943     30.736916     54.473191
  C      45.683425     29.272249     54.009718
  H      44.842188     29.976562     54.036367
  C      45.340051     27.830887     53.720634
  H      44.667520     27.463249     54.524099
  O      44.675978     27.765894     52.464678
  H      43.867228     27.165414     52.524258
  C      49.482215     29.378933     54.154939
  O      50.470430     28.627532     53.926662
  O      49.537065     30.622225     54.221485
24
Coordinates from ORCA-job neb_MEP_ALL.QMRegion E -1076.117927049612
  C      48.161961     28.258151     56.059719
  H      48.994588     27.549430     56.172181
  H      48.315692     29.117563     56.722346
  C      46.882745     27.561849     56.440718
  C      45.732363     28.291965     57.181330
  O      46.037833     29.275250     57.890285
  O      44.580008     27.820811     57.028218
  O      46.702626     26.392699     56.098851
  C      46.619982     27.000793     53.464412
  H      46.443029     25.985416     53.102855
  C      47.857934     27.442873     53.714426
  H      48.746407     26.847505     53.482422
  C      48.101726     28.698462     54.508922
  C      46.949567     29.665782     54.333259
  H      47.171745     30.714408     54.538445
  C      45.718603     29.260016     54.000628
  H      44.892355     29.976294     53.956564
  C      45.372647     27.831945     53.664687
  H      44.754406     27.421799     54.488588
  O      44.626717     27.816588     52.456072
  H      43.839770     27.187620     52.526529
  C      49.485687     29.372163     54.185398
  O      50.478872     28.629878     53.947924
  O      49.524520     30.615435     54.220015
24
Coordinates from ORCA-job neb_MEP_ALL.QMRegion E -1076.125398909238
  C      48.224000     28.262000     55.994000
  H      49.076000     27.584000     56.141000
  H      48.362000     29.164000     56.599000
  C      46.972000     27.540000     56.426000
  C      45.866000     28.295000     57.208000
  O      46.244000     29.174000     58.008000
  O      44.683000     27.925000     56.990000
  O      46.818000     26.364000     56.154000
  C      46.697000     27.059000     53.236000
  H      46.542000     26.129000     52.688000
  C      47.919000     27.448000     53.618000
  H      48.814000     26.873000     53.361000
  C      48.145000     28.672000     54.467000
  C      46.985000     29.634000     54.326000
  H      47.195000     30.670000     54.594000
  C      45.768000     29.246000     53.934000
  H      44.950000     29.969000     53.871000
  C      45.435000     27.831000     53.537000
  H      44.923000     27.350000     54.394000
  O      44.578000     27.844000     52.410000
  H      43.802000     27.210000     52.525000
  C      49.516000     29.369000     54.153000
  O      50.522000     28.638000     53.933000
  O      49.531000     30.612000     54.192000
24
Coordinates from ORCA-job neb_MEP_ALL.QMRegion E -1076.098627360599
  C      48.064000     27.894000     56.866000
  H      48.929000     27.402000     56.423000
  H      48.211000     28.661000     57.627000
  C      46.808000     27.594000     56.511000
  C      45.618000     28.277000     57.175000
  O      45.842000     29.312000     57.855000
  O      44.482000     27.767000     57.017000
  O      46.535000     26.614000     55.576000
  C      46.550000     26.968000     54.140000
  H      46.353000     26.007000     53.643000
  C      47.908000     27.502000     53.801000
  H      48.758000     26.826000     53.679000
  C      48.154000     28.827000     53.832000
  C      47.036000     29.770000     53.961000
  H      47.296000     30.825000     54.057000
  C      45.755000     29.358000     53.958000
  H      44.944000     30.088000     54.032000
  C      45.364000     27.910000     53.819000
  H      44.602000     27.678000     54.582000
  O      44.845000     27.680000     52.517000
  H      43.998000     27.141000     52.574000
  C      49.577000     29.380000     53.866000
  O      50.556000     28.587000     53.823000
  O      49.681000     30.616000     54.001000
24
Coordinates from ORCA-job neb_MEP_ALL.QMRegion E -1076.101645020841
  C      48.075515     27.928784     56.798726
  H      48.939342     27.454085     56.337004
  H      48.224227     28.719353     57.535083
  C      46.818235     27.597648     56.480999
  C      45.631447     28.275037     57.160655
  O      45.860137     29.306438     57.844895
  O      44.494675     27.763089     57.013795
  O      46.539760     26.608944     55.560911
  C      46.544571     26.951414     54.116585
  H      46.349407     25.988349     53.625824
  C      47.895757     27.496820     53.770411
  H      48.745064     26.826692     53.615105
  C      48.134654     28.822774     53.849543
  C      47.009732     29.753014     54.012944
  H      47.265151     30.803109     54.156657
  C      45.730577     29.335875     53.982137
  H      44.913916     30.056878     54.067706
  C      45.350844     27.888016     53.810549
  H      44.594698     27.637302     54.572544
  O      44.827806     27.676376     52.508225
  H      43.980692     27.134361     52.561481
  C      49.554131     29.384014     53.894360
  O      50.538808     28.598151     53.831899
  O      49.646511     30.617448     54.059882
24
Coordinates from ORCA-job neb_MEP_ALL.QMRegion E -1076.100881439816
  C      48.099631     27.987987     56.671397
  H      48.960785     27.522360     56.198185
  H      48.251875     28.849768     57.319208
  C      46.840670     27.601926     56.426137
  C      45.664414     28.270973     57.134575
  O      45.900436     29.296317     57.825582
  O      44.523394     27.761304     57.003488
  O      46.557113     26.593554     55.528405
  C      46.542344     26.925404     54.068500
  H      46.359619     25.955994     53.584193
  C      47.876530     27.496211     53.718482
  H      48.730352     26.846578     53.509205
  C      48.098824     28.816839     53.892389
  C      46.961013     29.721581     54.108191
  H      47.201877     30.761505     54.329732
  C      45.688446     29.292848     54.021761
  H      44.859891     29.999349     54.111971
  C      45.330244     27.848462     53.792527
  H      44.591748     27.556847     54.556035
  O      44.788560     27.680344     52.493867
  H      43.942131     27.133185     52.541465
  C      49.510750     29.396006     53.960646
  O      50.505407     28.622170     53.867333
  O      49.583060     30.623920     54.168009
24
Coordinates from ORCA-job neb_MEP_ALL.QMRegion E -1076.095184968592
  C      48.117702     28.031153     56.594800
  H      48.981710     27.540814     56.153990
  H      48.274432     28.954960     57.149909
  C      46.859159     27.594603     56.409199
  C      45.685981     28.272751     57.125176
  O      45.925856     29.295985     57.818805
  O      44.541869     27.768264     57.000399
  O      46.577453     26.572499     55.532432
  C      46.551333     26.913304     54.004485
  H      46.378796     25.935102     53.530052
  C      47.871688     27.497239     53.690224
  H      48.730451     26.862640     53.458567
  C      48.083540     28.805726     53.962374
  C      46.938610     29.701142     54.178869
  H      47.171411     30.736117     54.430486
  C      45.672568     29.271566     54.033277
  H      44.837365     29.973679     54.092139
  C      45.325802     27.831537     53.769740
  H      44.616407     27.505203     54.544679
  O      44.744972     27.706549     52.483680
  H      43.902690     27.147456     52.532685
  C      49.489094     29.397049     54.027412
  O      50.487960     28.631081     53.908902
  O      49.550822     30.626827     54.227440
24
Coordinates from ORCA-job neb_MEP_ALL.QMRegion E -1076.083787592091
  C      48.129176     28.068527     56.554729
  H      48.993054     27.536485     56.164708
  H      48.288619     29.001710     57.090098
  C      46.866317     27.573339     56.439678
  C      45.688859     28.278431     57.136126
  O      45.926927     29.306641     57.822811
  O      44.543761     27.777826     57.004194
  O      46.598311     26.535195     55.649677
  C      46.560354     26.928958     53.868680
  H      46.385144     25.919298     53.479626
  C      47.863629     27.491252     53.673419
  H      48.728969     26.862800     53.454771
  C      48.077751     28.792765     54.038685
  C      46.934706     29.697246     54.205977
  H      47.168068     30.733546     54.451927
  C      45.672943     29.270611     54.027368
  H      44.836783     29.971803     54.074268
  C      45.329360     27.834145     53.746429
  H      44.644739     27.487769     54.535207
  O      44.714217     27.731364     52.472315
  H      43.882805     27.154117     52.528395
  C      49.484384     29.391410     54.066625
  O      50.481024     28.628750     53.920082
  O      49.543382     30.625928     54.233607
24
Coordinates from ORCA-job neb_MEP_ALL.QMRegion E -1076.079497753502
  C      48.140980     28.109275     56.490597
  H      49.002751     27.528240     56.176908
  H      48.298702     29.029439     57.046886
  C      46.866860     27.555990     56.462925
  C      45.686969     28.282867     57.145697
  O      45.928993     29.313135     57.825870
  O      44.543775     27.782981     57.009171
  O      46.619064     26.496774     55.788394
  C      46.568236     26.950398     53.726271
  H      46.388471     25.913677     53.435292
  C      47.850250     27.479160     53.668515
  H      48.725384     26.860038     53.458273
  C      48.073342     28.780032     54.124856
  C      46.932722     29.696049     54.223735
  H      47.166375     30.734373     54.459042
  C      45.674790     29.270245     54.020489
  H      44.838185     29.971453     54.062573
  C      45.334574     27.835875     53.727521
  H      44.664357     27.476783     54.526185
  O      44.691317     27.750110     52.463323
  H      43.871369     27.157251     52.524651
  C      49.481631     29.386534     54.096111
  O      50.475523     28.626115     53.923710
  O      49.539698     30.624483     54.231253
24
Coordinates from ORCA-job neb_MEP_ALL.QMRegion E -1076.081446266769
  C      48.146517     28.149772     56.398315
  H      49.006899     27.521840     56.182616
  H      48.303629     29.048231     56.994493
  C      46.865315     27.551580     56.461823
  C      45.687001     28.284385     57.149320
  O      45.936751     29.312578     57.827359
  O      44.545687     27.781469     57.016187
  O      46.631399     26.475337     55.861864
  C      46.573490     26.960282     53.660714
  H      46.391240     25.915706     53.399293
  C      47.842999     27.469292     53.679653
  H      48.722865     26.856326     53.467123
  C      48.073627     28.762573     54.222822
  C      46.931312     29.693016     54.247131
  H      47.164822     30.734896     54.467557
  C      45.678417     29.269921     54.018504
  H      44.842480     29.972775     54.047587
  C      45.338102     27.834639     53.720551
  H      44.671014     27.470927     54.522060
  O      44.680786     27.759439     52.461992
  H      43.867849     27.159996     52.524571
  C      49.480925     29.382821     54.123617
  O      50.473579     28.625330     53.928721
  O      49.537439     30.622895     54.229477
24
Coordinates from ORCA-job neb_MEP_ALL.QMRegion E -1076.092145514669
  C      48.154540     28.216004     56.227174
  H      49.000038     27.518218     56.197291
  H      48.304870     29.046796     56.936686
  C      46.862554     27.550156     56.451743
  C      45.685413     28.280874     57.161266
  O      45.941317     29.313765     57.826090
  O      44.546813     27.780192     57.021594
  O      46.643372     26.458045     55.937268
  C      46.582074     26.970018     53.592464
  H      46.392510     25.916114     53.368683
  C      47.837174     27.454805     53.701668
  H      48.721282     26.849764     53.473250
  C      48.081222     28.732524     54.395081
  C      46.930770     29.689657     54.268106
  H      47.162679     30.736532     54.472635
  C      45.684213     29.271141     54.012036
  H      44.844135     29.975471     54.034510
  C      45.340677     27.831294     53.717822
  H      44.671195     27.463388     54.521989
  O      44.673480     27.767814     52.463165
  H      43.866009     27.164343     52.524322
  C      49.482022     29.378942     54.154511
  O      50.470225     28.626508     53.927968
  O      49.535919     30.621772     54.222084
24
Coordinates from ORCA-job neb_MEP_ALL.QMRegion E -1076.117657414092
  C      48.161786     28.256629     56.066500
  H      48.994013     27.549214     56.172775
  H      48.315400     29.116094     56.726734
  C      46.880471     27.558402     56.439396
  C      45.731373     28.291363     57.180517
  O      46.034467     29.276587     57.888839
  O      44.580107     27.819993     57.028631
  O      46.701947     26.396743     56.096920
  C      46.618852     27.000118     53.468395
  H      46.441779     25.983941     53.108398
  C      47.857619     27.443527     53.714939
  H      48.745767     26.847316     53.482632
  C      48.100805     28.699928     54.502873
  C      46.949258     29.665870     54.332994
  H      47.171419     30.714840     54.536915
  C      45.717990     29.260098     54.001505
  H      44.891128     29.976359     53.958081
  C      45.372077     27.831586     53.665310
  H      44.752891     27.422776     54.489309
  O      44.627437     27.816018     52.455727
  H      43.840019     27.186860     52.526667
  C      49.486222     29.372399     54.185061
  O      50.478409     28.629108     53.947609
  O      49.523891     30.615643     54.220260
24
Coordinates from ORCA-job neb_MEP_ALL.QMRegion E -1076.125398909238
  C      48.224000     28.262000     55.994000
  H      49.076000     27.584000     56.141000
  H      48.362000     29.164000     56.599000
  C      46.972000     27.540000     56.426000
  C      45.866000     28.295000     57.208000
  O      46.244000     29.174000     58.008000
  O      44.683000     27.925000     56.990000
  O      46.818000     26.364000     56.154000
  C      46.697000     27.059000     53.236000
  H      46.542000     26.129000     52.688000
  C      47.919000     27.448000     53.618000
  H      48.814000     26.873000     53.361000
  C      48.145000     28.672000     54.467000
  C      46.985000     29.634000     54.326000
  H      47.195000     30.670000     54.594000
  C      45.768000     29.246000     53.934000
  H      44.950000     29.969000     53.871000
  C      45.435000     27.831000     53.537000
  H      44.923000     27.350000     54.394000
  O      44.578000     27.844000     52.410000
  H      43.802000     27.210000     52.525000
  C      49.516000     29.369000     54.153000
  O      50.522000     28.638000     53.933000
  O      49.531000     30.612000     54.192000
24
Coordinates from ORCA-job neb_MEP_ALL.QMRegion E -1076.098627360599
  C      48.064000     27.894000     56.866000
  H      48.929000     27.402000     56.423000
  H      48.211000     28.661000     57.627000
  C      46.808000     27.594000     56.511000
  C      45.618000     28.277000     57.175000
  O      45.842000     29.312000     57.855000
  O      44.482000     27.767000     57.017000
  O      46.535000     26.614000     55.576000
  C      46.550000     26.968000     54.140000
  H      46.353000     26.007000     53.643000
  C      47.908000     27.502000     53.801000
  H      48.758000     26.826000     53.679000
  C      48.154000     28.827000     53.832000
  C      47.036000     29.770000     53.961000
  H      47.296000     30.825000     54.057000
  C      45.755000     29.358000     53.958000
  H      44.944000     30.088000     54.032000
  C      45.364000     27.910000     53.819000
  H      44.602000     27.678000     54.582000
  O      44.845000     27.680000     52.517000
  H      43.998000     27.141000     52.574000
  C      49.577000     29.380000     53.866000
  O      50.556000     28.587000     53.823000
  O      49.681000     30.616000     54.001000
24
Coordinates from ORCA-job neb_MEP_ALL.QMRegion E -1076.101696729212
  C      48.075507     27.929727     56.798758
  H      48.939480     27.454386     56.336619
  H      48.224477     28.719167     57.535339
  C      46.818538     27.597075     56.480223
  C      45.632030     28.274912     57.161124
  O      45.859754     29.306278     57.844797
  O      44.495096     27.763353     57.013773
  O      46.539211     26.608102     55.560044
  C      46.544520     26.952074     54.116911
  H      46.349368     25.988499     53.626186
  C      47.895209     27.497398     53.769219
  H      48.744956     26.826606     53.614403
  C      48.134227     28.822033     53.849183
  C      47.009123     29.752727     54.012836
  H      47.264666     30.802921     54.157120
  C      45.730667     29.335415     53.982529
  H      44.913451     30.056486     54.068790
  C      45.350748     27.887463     53.810543
  H      44.594354     27.636748     54.572321
  O      44.827640     27.676306     52.508257
  H      43.980631     27.134253     52.561156
  C      49.553605     29.383986     53.895311
  O      50.538589     28.598004     53.831152
  O      49.646075     30.617452     54.059720
24
Coordinates from ORCA-job neb_MEP_ALL.QMRegion E -1076.100982144762
  C      48.099805     27.988271     56.672624
  H      48.960889     27.521851     56.198226
  H      48.251579     28.846942     57.324738
  C      46.840838     27.600584     56.426121
  C      45.663641     28.272145     57.132571
  O      45.899877     29.295433     57.826355
  O      44.524540     27.761067     57.003861
  O      46.554966     26.591431     55.530079
  C      46.542272     26.926945     54.067727
  H      46.359304     25.956380     53.586053
  C      47.876825     27.497920     53.716306
  H      48.730449     26.846220     53.509295
  C      48.099816     28.817480     53.889730
  C      46.961184     29.721559     54.105451
  H      47.201491     30.761524     54.327926
  C      45.688729     29.292815     54.022771
  H      44.859218     29.998880     54.113802
  C      45.329312     27.848599     53.792647
  H      44.590362     27.556877     54.556762
  O      44.789572     27.679081     52.492992
  H      43.942944     27.132828     52.541814
  C      49.510862     29.395642     53.960176
  O      50.505243     28.621146     53.865172
  O      49.582312     30.624940     54.166477
24
Coordinates from ORCA-job neb_MEP_ALL.QMRegion E -1076.095088839928
  C      48.118899     28.035112     56.591556
  H      48.983158     27.539881     56.155055
  H      48.275314     28.957204     57.149062
  C      46.859990     27.591860     56.412152
  C      45.685946     28.274586     57.123535
  O      45.925749     29.295851     57.819654
  O      44.542564     27.768596     57.001049
  O      46.577274     26.566533     55.546281
  C      46.552457     26.916747     53.989369
  H      46.379447     25.934078     53.526926
  C      47.871760     27.498152     53.687087
  H      48.730686     26.862436     53.457814
  C      48.084026     28.805311     53.967748
  C      46.938676     29.700605     54.179343
  H      47.170891     30.735652     54.431614
  C      45.672965     29.271165     54.033427
  H      44.837171     29.972672     54.091573
  C      45.325289     27.832149     53.767576
  H      44.618065     27.503615     54.544632
  O      44.742999     27.707471     52.481787
  H      43.901431     27.147844     52.532841
  C      49.488883     29.396735     54.030743
  O      50.487233     28.630209     53.908386
  O      49.549356     30.627517     54.227407
24
Coordinates from ORCA-job neb_MEP_ALL.QMRegion E -1076.083465541179
  C      48.130107     28.073656     56.546255
  H      48.994614     27.535200     56.166699
  H      48.289677     29.003799     57.087075
  C      46.866641     27.571919     56.441007
  C      45.688790     28.278846     57.136540
  O      45.927157     29.306616     57.823514
  O      44.543794     27.778517     57.005164
  O      46.599917     26.530473     55.662261
  C      46.561628     26.931572     53.854475
  H      46.385927     25.919332     53.474829
  C      47.862464     27.490700     53.674181
  H      48.728807     26.862595     53.454909
  C      48.077461     28.790805     54.048827
  C      46.934529     29.696751     54.208475
  H      47.167684     30.733523     54.451820
  C      45.673286     29.270080     54.026298
  H      44.837063     29.971183     54.073351
  C      45.329732     27.834453     53.744955
  H      44.646529     27.486081     54.534476
  O      44.711969     27.733015     52.471620
  H      43.881669     27.154637     52.527989
  C      49.484065     29.390620     54.070952
  O      50.480426     28.628325     53.919685
  O      49.542790     30.625814     54.232520
24
Coordinates from ORCA-job neb_MEP_ALL.QMRegion E -1076.079615191796
  C      48.141193     28.108860     56.492638
  H      49.003166     27.527969     56.177225
  H      48.298670     29.029190     57.048085
  C      46.867362     27.555515     56.463004
  C      45.686922     28.282640     57.145720
  O      45.929056     29.313036     57.825848
  O      44.543829     27.783215     57.009047
  O      46.619251     26.496593     55.788505
  C      46.568136     26.950236     53.725504
  H      46.388805     25.913678     53.434267
  C      47.850514     27.479197     53.668342
  H      48.725376     26.860295     53.457994
  C      48.073261     28.780460     54.123309
  C      46.932724     29.695909     54.223888
  H      47.166174     30.734362     54.458572
  C      45.674663     29.269981     54.020426
  H      44.838026     29.971081     54.062712
  C      45.334763     27.835783     53.727156
  H      44.664821     27.476231     54.525773
  O      44.690770     27.750068     52.463213
  H      43.871186     27.157324     52.524574
  C      49.481581     29.386499     54.096036
  O      50.475586     28.626017     53.923664
  O      49.539847     30.624472     54.231086
24
Coordinates from ORCA-job neb_MEP_ALL.QMRegion E -1076.081866498849
  C      48.148446     28.158267     56.381339
  H      49.007586     27.520713     56.185269
  H      48.304778     29.050648     56.986721
  C      46.865725     27.549592     56.462629
  C      45.686560     28.284083     57.151119
  O      45.937547     29.313252     57.827773
  O      44.546401     27.782252     57.017202
  O      46.633799     26.469868     55.876809
  C      46.574805     26.961540     53.649599
  H      46.392090     25.916857     53.391096
  C      47.842244     27.467484     53.681034
  H      48.722193     26.856093     53.468129
  C      48.073900     28.760246     54.240729
  C      46.931091     29.692603     54.250435
  H      47.164203     30.734655     54.468793
  C      45.679267     29.269391     54.018478
  H      44.843074     29.972421     54.045204
  C      45.338518     27.835108     53.717561
  H      44.674109     27.469109     54.520337
  O      44.677523     27.762416     52.460932
  H      43.866112     27.160099     52.524305
  C      49.480527     29.381860     54.125966
  O      50.472585     28.624698     53.930586
  O      49.536481     30.622837     54.230019
24
Coordinates from ORCA-job neb_MEP_ALL.QMRegion E -1076.093054212798
  C      48.149591     28.214524     56.224216
  H      48.996670     27.522457     56.195713
  H      48.306588     29.049774     56.923297
  C      46.858556     27.551829     56.445390
  C      45.686685     28.285852     57.155841
  O      45.943547     29.312489     57.831118
  O      44.550784     27.778028     57.024521
  O      46.644090     26.448519     55.948962
  C      46.582888     26.969499     53.607778
  H      46.395293     25.923029     53.355411
  C      47.837784     27.456707     53.703302
  H      48.719718     26.851122     53.475715
  C      48.082130     28.732591     54.393684
  C      46.931676     29.686159     54.283034
  H      47.162118     30.735164     54.471623
  C      45.686042     29.267087     54.018383
  H      44.849668     29.972465     54.029322
  C      45.342583     27.832951     53.711178
  H      44.681460     27.463695     54.515690
  O      44.667122     27.772702     52.459758
  H      43.862632     27.161451     52.524171
  C      49.480294     29.378219     54.152939
  O      50.470064     28.623783     53.931676
  O      49.532982     30.620783     54.223921
24
Coordinates from ORCA-job neb_MEP_ALL.QMRegion E -1076.117640297125
  C      48.157877     28.254105     56.076341
  H      48.993805     27.547283     56.175115
  H      48.314882     29.113958     56.738960
  C      46.876889     27.553879     56.437850
  C      45.728281     28.291242     57.178423
  O      46.025729     29.280206     57.884741
  O      44.578944     27.816287     57.029762
  O      46.698836     26.402218     56.091465
  C      46.616419     26.997022     53.479073
  H      46.438641     25.980815     53.122876
  C      47.856417     27.443986     53.715289
  H      48.743389     26.847097     53.483886
  C      48.100463     28.702565     54.495155
  C      46.947372     29.667133     54.332344
  H      47.170446     30.715542     54.532913
  C      45.715845     29.259989     54.004201
  H      44.888482     29.976022     53.962010
  C      45.370024     27.831852     53.667249
  H      44.749397     27.425421     54.490626
  O      44.628523     27.814302     52.454834
  H      43.840751     27.185027     52.526882
  C      49.485300     29.372607     54.183218
  O      50.478049     28.626813     53.947240
  O      49.522829     30.616762     54.221483
24
Coordinates from ORCA-job neb_MEP_ALL.QMRegion E -1076.125398909238
  C      48.224000     28.262000     55.994000
  H      49.076000     27.584000     56.141000
  H      48.362000     29.164000     56.599000
  C      46.972000     27.540000     56.426000
  C      45.866000     28.295000     57.208000
  O      46.244000     29.174000     58.008000
  O      44.683000     27.925000     56.990000
  O      46.818000     26.364000     56.154000
  C      46.697000     27.059000     53.236000
  H      46.542000     26.129000     52.688000
  C      47.919000     27.448000     53.618000
  H      48.814000     26.873000     53.361000
  C      48.145000     28.672000     54.467000
  C      46.985000     29.634000     54.326000
  H      47.195000     30.670000     54.594000
  C      45.768000     29.246000     53.934000
  H      44.950000     29.969000     53.871000
  C      45.435000     27.831000     53.537000
  H      44.923000     27.350000     54.394000
  O      44.578000     27.844000     52.410000
  H      43.802000     27.210000     52.525000
  C      49.516000     29.369000     54.153000
  O      50.522000     28.638000     53.933000
  O      49.531000     30.612000     54.192000
24
Coordinates from ORCA-job neb_MEP_ALL.QMRegion E -1076.098627360599
  C      48.064000     27.894000     56.866000
  H      48.929000     27.402000     56.423000
  H      48.211000     28.661000     57.627000
  C      46.808000     27.594000     56.511000
  C      45.618000     28.277000     57.175000
  O      45.842000     29.312000     57.855000
  O      44.482000     27.767000     57.017000
  O      46.535000     26.614000     55.576000
  C      46.550000     26.968000     54.140000
  H      46.353000     26.007000     53.643000
  C      47.908000     27.502000     53.801000
  H      48.758000     26.826000     53.679000
  C      48.154000     28.827000     53.832000
  C      47.036000     29.770000     53.961000
  H      47.296000     30.825000     54.057000
  C      45.755000     29.358000     53.958000
  H      44.944000     30.088000     54.032000
  C      45.364000     27.910000     53.819000
  H      44.602000     27.678000     54.582000
  O      44.845000     27.680000     52.517000
  H      43.998000     27.141000     52.574000
  C      49.577000     29.380000     53.866000
  O      50.556000     28.587000     53.823000
  O      49.681000     30.616000     54.001000
24
Coordinates from ORCA-job neb_MEP_ALL.QMRegion E -1076.101772969296
  C      48.075782     27.929843     56.798396
  H      48.939510     27.454789     56.336495
  H      48.224469     28.718862     57.535531
  C      46.818451     27.597727     56.481008
  C      45.632292     28.274576     57.160888
  O      45.859827     29.306092     57.844777
  O      44.495421     27.763356     57.013772
  O      46.539086     26.607516     55.559348
  C      46.544435     26.952084     54.116567
  H      46.349307     25.988576     53.626387
  C      47.895128     27.496715     53.768492
  H      48.744508     26.826785     53.613885
  C      48.133838     28.822522     53.849105
  C      47.009156     29.752571     54.012774
  H      47.264267     30.802699     54.157378
  C      45.729977     29.335147     53.982848
  H      44.913316     30.055958     54.069670
  C      45.350558     27.887487     53.810494
  H      44.593980     27.636278     54.572257
  O      44.827565     27.676175     52.508269
  H      43.980622     27.134167     52.560915
  C      49.553454     29.383892     53.895234
  O      50.538249     28.597997     53.830837
  O      49.645729     30.617321     54.059827
24
Coordinates from ORCA-job neb_MEP_ALL.QMRegion E -1076.101127975702
  C      48.099987     27.988270     56.672359
  H      48.960996     27.521943     56.198224
  H      48.251426     28.845469     57.326649
  C      46.841015     27.600904     56.427104
  C      45.664817     28.272288     57.132307
  O      45.899909     29.295120     57.826289
  O      44.524303     27.760742     57.003475
  O      46.554664     26.590677     55.529756
  C      46.542217     26.927240     54.066901
  H      46.359342     25.956379     53.586426
  C      47.876683     27.497504     53.714860
  H      48.730182     26.846482     53.508772
  C      48.099372     28.818084     53.888912
  C      46.961099     29.721579     54.104464
  H      47.200878     30.761355     54.327507
  C      45.688096     29.292443     54.023134
  H      44.858805     29.998133     54.115175
  C      45.329072     27.848526     53.792703
  H      44.589811     27.556323     54.556698
  O      44.789725     27.678569     52.492844
  H      43.943022     27.132648     52.541692
  C      49.511035     29.396493     53.959657
  O      50.504761     28.621210     53.864419
  O      49.581995     30.624359     54.166157
24
Coordinates from ORCA-job neb_MEP_ALL.QMRegion E -1076.094216784242
  C      48.119845     28.038309     56.587799
  H      48.984234     27.539361     56.156562
  H      48.276260     28.959762     57.146411
  C      46.860768     27.590656     56.415475
  C      45.686592     28.274659     57.124527
  O      45.925797     29.296741     57.819900
  O      44.542608     27.769420     57.001012
  O      46.578632     26.563054     55.553073
  C      46.553298     26.917596     53.979963
  H      46.380191     25.932865     53.522768
  C      47.871414     27.497626     53.685141
  H      48.730564     26.862580     53.457210
  C      48.083530     28.804332     53.974028
  C      46.938455     29.700310     54.181149
  H      47.170465     30.735412     54.432690
  C      45.672819     29.270872     54.032702
  H      44.837157     29.972036     54.090807
  C      45.325631     27.832434     53.765816
  H      44.620372     27.501985     54.543780
  O      44.740558     27.709049     52.480765
  H      43.899883     27.148252     52.532496
  C      49.488826     29.396446     54.033863
  O      50.486432     28.630353     53.908583
  O      49.548848     30.627389     54.227517
24
Coordinates from ORCA-job neb_MEP_ALL.QMRegion E -1076.082619228568
  C      48.130794     28.075673     56.543617
  H      48.995372     27.534668     56.167599
  H      48.290059     29.004561     57.085700
  C      46.866464     27.570813     56.441449
  C      45.688914     28.278980     57.136777
  O      45.927498     29.306599     57.823789
  O      44.543757     27.778701     57.005412
  O      46.600952     26.528911     55.668576
  C      46.561916     26.932701     53.847087
  H      46.386464     25.919165     53.472282
  C      47.862397     27.489792     53.673997
  H      48.728522     26.862792     53.455008
  C      48.077258     28.790562     54.053401
  C      46.934413     29.696314     54.209678
  H      47.167449     30.733572     54.451652
  C      45.673386     29.269954     54.026067
  H      44.837119     29.970836     54.072843
  C      45.330028     27.834359     53.744156
  H      44.647491     27.485133     54.534100
  O      44.711008     27.733851     52.471228
  H      43.880959     27.154801     52.527809
  C      49.484039     29.390340     54.072648
  O      50.480154     28.628116     53.919673
  O      49.542599     30.625618     54.232049
24
Coordinates from ORCA-job neb_MEP_ALL.QMRegion E -1076.079676288272
  C      48.141568     28.108118     56.493963
  H      49.003338     27.527950     56.177640
  H      48.298659     29.029045     57.049174
  C      46.867490     27.555420     56.463475
  C      45.687188     28.282572     57.145720
  O      45.929116     29.312923     57.825828
  O      44.543756     27.783263     57.008872
  O      46.619498     26.496268     55.788476
  C      46.568406     26.950275     53.724909
  H      46.389056     25.913615     53.433345
  C      47.850384     27.479279     53.668053
  H      48.725530     26.860406     53.457745
  C      48.073229     28.780630     54.122385
  C      46.932592     29.695821     54.223735
  H      47.166011     30.734372     54.458261
  C      45.674707     29.269796     54.020446
  H      44.837867     29.970772     54.062832
  C      45.334831     27.835625     53.726809
  H      44.665203     27.475750     54.525489
  O      44.690350     27.750114     52.463002
  H      43.870976     27.157363     52.524528
  C      49.481677     29.386525     54.095700
  O      50.475526     28.625957     53.923705
  O      49.539951     30.624459     54.231028
24
Coordinates from ORCA-job neb_MEP_ALL.QMRegion E -1076.082883903449
  C      48.148827     28.160594     56.374509
  H      49.007714     27.520645     56.186980
  H      48.305226     29.050807     56.985161
  C      46.865928     27.549122     56.463568
  C      45.687242     28.284147     57.152048
  O      45.937614     29.313387     57.827878
  O      44.546230     27.782410     57.017278
  O      46.635098     26.467983     55.881981
  C      46.575277     26.962075     53.646517
  H      46.392607     25.917549     53.387559
  C      47.841454     27.467001     53.681653
  H      48.722406     26.855960     53.468029
  C      48.074618     28.759213     54.246669
  C      46.930940     29.692406     54.251271
  H      47.163903     30.734656     54.469029
  C      45.679391     29.268963     54.018071
  H      44.843167     29.972085     54.044665
  C      45.339155     27.834892     53.716484
  H      44.675824     27.468165     54.519208
  O      44.675651     27.763703     52.460342
  H      43.865263     27.160190     52.524009
  C      49.479932     29.382140     54.126836
  O      50.472209     28.624408     53.930983
  O      49.536184     30.622298     54.229994
24
Coordinates from ORCA-job neb_MEP_ALL.QMRegion E -1076.094299506800
  C      48.148565     28.212390     56.228192
  H      48.996153     27.523100     56.194064
  H      48.306680     29.052839     56.917828
  C      46.857957     27.551238     56.445373
  C      45.686903     28.287171     57.154376
  O      45.945230     29.311292     57.832227
  O      44.551371     27.777839     57.025464
  O      46.644438     26.446480     55.953322
  C      46.583124     26.969258     53.609914
  H      46.397018     25.926124     53.349049
  C      47.837333     27.456953     53.704224
  H      48.719652     26.851895     53.476730
  C      48.082653     28.733899     54.387954
  C      46.930712     29.684782     54.286805
  H      47.162023     30.734347     54.472657
  C      45.688009     29.265631     54.020707
  H      44.851834     29.971454     54.026967
  C      45.343575     27.833576     53.709796
  H      44.684959     27.462999     54.513224
  O      44.665063     27.774093     52.459685
  H      43.861478     27.160965     52.523675
  C      49.480027     29.377647     54.152309
  O      50.469115     28.623630     53.933610
  O      49.532018     30.619817     54.224776
24
Coordinates from ORCA-job neb_MEP_ALL.QMRegion E -1076.116930024289
  C      48.157359     28.255557     56.074835
  H      48.992591     27.546604     56.176792
  H      48.314147     29.112729     56.743424
  C      46.875033     27.551730     56.437738
  C      45.724771     28.291253     57.177111
  O      46.021585     29.282960     57.882692
  O      44.578050     27.813259     57.030608
  O      46.696791     26.403783     56.090231
  C      46.614885     26.995754     53.484257
  H      46.437088     25.979115     53.129439
  C      47.855587     27.443911     53.715686
  H      48.742029     26.846781     53.485213
  C      48.100004     28.702373     54.499011
  C      46.946301     29.667332     54.332420
  H      47.169809     30.716250     54.531197
  C      45.714360     29.259783     54.005819
  H      44.887599     29.975451     53.963778
  C      45.368872     27.832282     53.668331
  H      44.747938     27.426730     54.490774
  O      44.629071     27.813761     52.454960
  H      43.840742     27.184045     52.526789
  C      49.485196     29.372443     54.182129
  O      50.476531     28.627152     53.947753
  O      49.522682     30.616060     54.222343
24
Coordinates from ORCA-job neb_MEP_ALL.QMRegion E -1076.125398909238
  C      48.224000     28.262000     55.994000
  H      49.076000     27.584000     56.141000
  H      48.362000     29.164000     56.599000
  C      46.972000     27.540000     56.426000
  C      45.866000     28.295000     57.208000
  O      46.244000     29.174000     58.008000
  O      44.683000     27.925000     56.990000
  O      46.818000     26.364000     56.154000
  C      46.697000     27.059000     53.236000
  H      46.542000     26.129000     52.688000
  C      47.919000     27.448000     53.618000
  H      48.814000     26.873000     53.361000
  C      48.145000     28.672000     54.467000
  C      46.985000     29.634000     54.326000
  H      47.195000     30.670000     54.594000
  C      45.768000     29.246000     53.934000
  H      44.950000     29.969000     53.871000
  C      45.435000     27.831000     53.537000
  H      44.923000     27.350000     54.394000
  O      44.578000     27.844000     52.410000
  H      43.802000     27.210000     52.525000
  C      49.516000     29.369000     54.153000
  O      50.522000     28.638000     53.933000
  O      49.531000     30.612000     54.192000
24
Coordinates from ORCA-job neb_MEP_ALL.QMRegion E -1076.098627360599
  C      48.064000     27.894000     56.866000
  H      48.929000     27.402000     56.423000
  H      48.211000     28.661000     57.627000
  C      46.808000     27.594000     56.511000
  C      45.618000     28.277000     57.175000
  O      45.842000     29.312000     57.855000
  O      44.482000     27.767000     57.017000
  O      46.535000     26.614000     55.576000
  C      46.550000     26.968000     54.140000
  H      46.353000     26.007000     53.643000
  C      47.908000     27.502000     53.801000
  H      48.758000     26.826000     53.679000
  C      48.154000     28.827000     53.832000
  C      47.036000     29.770000     53.961000
  H      47.296000     30.825000     54.057000
  C      45.755000     29.358000     53.958000
  H      44.944000     30.088000     54.032000
  C      45.364000     27.910000     53.819000
  H      44.602000     27.678000     54.582000
  O      44.845000     27.680000     52.517000
  H      43.998000     27.141000     52.574000
  C      49.577000     29.380000     53.866000
  O      50.556000     28.587000     53.823000
  O      49.681000     30.616000     54.001000
24
Coordinates from ORCA-job neb_MEP_ALL.QMRegion E -1076.101813348289
  C      48.076090     27.930141     56.798084
  H      48.939703     27.455336     56.336229
  H      48.224419     28.718228     57.535766
  C      46.818301     27.598377     56.481899
  C      45.632576     28.274359     57.160673
  O      45.860048     29.305659     57.844661
  O      44.495830     27.763187     57.013710
  O      46.539108     26.607074     55.558731
  C      46.544313     26.952076     54.116010
  H      46.349116     25.988508     53.626549
  C      47.894866     27.496643     53.767583
  H      48.744006     26.826868     53.613013
  C      48.133307     28.822366     53.848877
  C      47.008597     29.752280     54.012707
  H      47.263658     30.802419     54.157741
  C      45.729501     29.334810     53.983344
  H      44.912958     30.055250     54.071091
  C      45.350152     27.887467     53.810432
  H      44.593418     27.635541     54.572147
  O      44.827507     27.676020     52.508221
  H      43.980574     27.133997     52.560558
  C      49.553033     29.383845     53.894862
  O      50.537835     28.597866     53.830411
  O      49.645291     30.617212     54.060081
24
Coordinates from ORCA-job neb_MEP_ALL.QMRegion E -1076.101169654135
  C      48.100550     27.988760     56.671442
  H      48.961400     27.522259     56.197922
  H      48.251391     28.843947     57.327804
  C      46.841306     27.600997     56.428079
  C      45.665512     28.271577     57.132229
  O      45.900415     29.295007     57.826074
  O      44.525093     27.760870     57.002773
  O      46.554979     26.590171     55.529298
  C      46.542177     26.927281     54.065251
  H      46.359536     25.956037     53.586160
  C      47.876161     27.497517     53.712815
  H      48.729898     26.846936     53.507398
  C      48.098424     28.817996     53.888309
  C      46.960132     29.721342     54.103775
  H      47.199677     30.761033     54.327725
  C      45.687329     29.291753     54.023601
  H      44.857935     29.996817     54.117196
  C      45.328760     27.848098     53.792562
  H      44.589391     27.554973     54.556278
  O      44.789532     27.678202     52.492695
  H      43.942656     27.132442     52.541324
  C      49.510648     29.396665     53.959004
  O      50.504037     28.621574     53.863774
  O      49.581646     30.624589     54.166509
24
Coordinates from ORCA-job neb_MEP_ALL.QMRegion E -1076.093417004277
  C      48.121190     28.043211     56.582468
  H      48.985947     27.538614     56.158868
  H      48.277768     28.963744     57.141740
  C      46.861856     27.588478     56.419774
  C      45.687348     28.274475     57.126756
  O      45.925939     29.298170     57.820093
  O      44.542897     27.770915     57.000831
  O      46.581227     26.558926     55.561572
  C      46.554448     26.918102     53.967474
  H      46.381380     25.930918     53.516016
  C      47.870800     27.497079     53.682718
  H      48.730454     26.862806     53.456203
  C      48.082684     28.802320     53.983658
  C      46.937724     29.699679     54.184378
  H      47.169826     30.735189     54.434365
  C      45.672837     29.270508     54.031466
  H      44.837046     29.971202     54.089501
  C      45.326297     27.832588     53.763029
  H      44.624113     27.499389     54.542299
  O      44.736954     27.711843     52.479468
  H      43.897202     27.148805     52.531836
  C      49.488199     29.395882     54.038644
  O      50.485625     28.630481     53.909083
  O      49.548358     30.627386     54.227801
24
Coordinates from ORCA-job neb_MEP_ALL.QMRegion E -1076.082253840783
  C      48.131561     28.077525     56.541004
  H      48.996306     27.534091     56.168782
  H      48.290489     29.005545     57.084208
  C      46.866506     27.569638     56.442300
  C      45.688979     28.279034     57.137058
  O      45.928080     29.306526     57.824077
  O      44.543822     27.778941     57.005612
  O      46.602307     26.526950     55.676622
  C      46.562608     26.934182     53.837146
  H      46.387208     25.918735     53.468845
  C      47.861880     27.489140     53.673673
  H      48.728432     26.862941     53.455039
  C      48.077034     28.789814     54.058773
  C      46.934249     29.695934     54.211210
  H      47.167088     30.733595     54.451346
  C      45.673436     29.269639     54.025924
  H      44.837093     29.970392     54.072169
  C      45.330427     27.834215     53.743105
  H      44.648806     27.483810     54.533585
  O      44.709539     27.734763     52.470648
  H      43.880132     27.155076     52.527586
  C      49.484004     29.389970     54.074560
  O      50.479838     28.627811     53.919760
  O      49.542489     30.625510     54.231498
24
Coordinates from ORCA-job neb_MEP_ALL.QMRegion E -1076.079672971490
  C      48.141961     28.107173     56.496067
  H      49.003721     27.527855     56.178312
  H      48.298654     29.028661     57.050819
  C      46.867751     27.555025     56.464124
  C      45.687371     28.282378     57.145712
  O      45.929253     29.312797     57.825831
  O      44.543866     27.783394     57.008587
  O      46.619962     26.495934     55.788622
  C      46.568604     26.950194     53.723886
  H      46.389488     25.913595     53.431838
  C      47.850486     27.479425     53.667502
  H      48.725726     26.860614     53.457362
  C      48.073156     28.780883     54.121120
  C      46.932545     29.695761     54.223428
  H      47.165741     30.734366     54.457798
  C      45.674601     29.269459     54.020449
  H      44.837637     29.970255     54.063020
  C      45.334945     27.835363     53.726199
  H      44.665823     27.474958     54.525058
  O      44.689864     27.750327     52.462671
  H      43.870505     27.157359     52.524453
  C      49.481728     29.386605     54.095134
  O      50.475496     28.625803     53.923764
  O      49.540117     30.624460     54.230945
24
Coordinates from ORCA-job neb_MEP_ALL.QMRegion E -1076.083245685239
  C      48.149041     28.162967     56.368008
  H      49.007920     27.520672     56.189270
  H      48.305607     29.049804     56.984667
  C      46.866163     27.548433     56.464740
  C      45.687496     28.283753     57.152974
  O      45.937627     29.313689     57.828139
  O      44.546623     27.782832     57.017154
  O      46.636689     26.466417     55.886799
  C      46.575519     26.962376     53.644276
  H      46.393348     25.918539     53.383597
  C      47.841142     27.466446     53.682216
  H      48.722680     26.856020     53.467534
  C      48.075322     28.758343     54.251896
  C      46.930766     29.692089     54.251693
  H      47.163498     30.734679     54.468994
  C      45.679576     29.268355     54.017394
  H      44.843097     29.971502     54.044462
  C      45.339881     27.834529     53.715147
  H      44.677968     27.466880     54.517756
  O      44.673807     27.765360     52.459774
  H      43.863940     27.160168     52.523537
  C      49.479553     29.381747     54.127410
  O      50.471506     28.624365     53.931174
  O      49.535933     30.622217     54.229845
24
Coordinates from ORCA-job neb_MEP_ALL.QMRegion E -1076.094249229814
  C      48.148027     28.209154     56.235153
  H      48.996390     27.522962     56.191797
  H      48.306486     29.057736     56.911938
  C      46.858211     27.550875     56.447773
  C      45.687079     28.287630     57.153301
  O      45.947646     29.309965     57.833054
  O      44.551285     27.778228     57.026300
  O      46.644821     26.444088     55.957756
  C      46.583110     26.969498     53.609353
  H      46.399313     25.929325     53.340753
  C      47.837077     27.456849     53.705096
  H      48.719852     26.852952     53.477897
  C      48.082694     28.735699     54.379053
  C      46.931080     29.684164     54.289649
  H      47.161838     30.733027     54.474864
  C      45.688666     29.263862     54.022528
  H      44.854433     29.970246     54.024208
  C      45.345035     27.833879     53.708688
  H      44.688383     27.461455     54.510778
  O      44.663293     27.775723     52.460332
  H      43.860097     27.160833     52.522931
  C      49.478982     29.377295     54.151724
  O      50.468531     28.623232     53.935860
  O      49.531186     30.618959     54.225871
24
Coordinates from ORCA-job neb_MEP_ALL.QMRegion E -1076.116708708463
  C      48.156780     28.258127     56.070729
  H      48.990235     27.546062     56.179184
  H      48.312815     29.110884     56.748023
  C      46.873160     27.552022     56.438234
  C      45.720669     28.292258     57.176117
  O      46.015567     29.286142     57.879030
  O      44.575559     27.808285     57.031901
  O      46.693448     26.402887     56.089078
  C      46.612965     26.994250     53.490653
  H      46.434982     25.976858     53.137831
  C      47.853934     27.443861     53.717144
  H      48.740210     26.846139     53.487391
  C      48.099361     28.701559     54.506712
  C      46.944844     29.667392     54.333185
  H      47.168797     30.717200     54.529064
  C      45.712657     29.259370     54.008124
  H      44.886429     29.974674     53.965949
  C      45.367367     27.832866     53.670017
  H      44.745887     27.428346     54.490882
  O      44.629383     27.812933     52.455424
  H      43.840817     27.182938     52.526531
  C      49.483712     29.372272     54.181654
  O      50.475113     28.627282     53.948328
  O      49.522667     30.615337     54.223443
24
Coordinates from ORCA-job neb_MEP_ALL.QMRegion E -1076.125398909238
  C      48.224000     28.262000     55.994000
  H      49.076000     27.584000     56.141000
  H      48.362000     29.164000     56.599000
  C      46.972000     27.540000     56.426000
  C      45.866000     28.295000     57.208000
  O      46.244000     29.174000     58.008000
  O      44.683000     27.925000     56.990000
  O      46.818000     26.364000     56.154000
  C      46.697000     27.059000     53.236000
  H      46.542000     26.129000     52.688000
  C      47.919000     27.448000     53.618000
  H      48.814000     26.873000     53.361000
  C      48.145000     28.672000     54.467000
  C      46.985000     29.634000     54.326000
  H      47.195000     30.670000     54.594000
  C      45.768000     29.246000     53.934000
  H      44.950000     29.969000     53.871000
  C      45.435000     27.831000     53.537000
  H      44.923000     27.350000     54.394000
  O      44.578000     27.844000     52.410000
  H      43.802000     27.210000     52.525000
  C      49.516000     29.369000     54.153000
  O      50.522000     28.638000     53.933000
  O      49.531000     30.612000     54.192000
24
Coordinates from ORCA-job neb_MEP_ALL.QMRegion E -1076.098627360599
  C      48.064000     27.894000     56.866000
  H      48.929000     27.402000     56.423000
  H      48.211000     28.661000     57.627000
  C      46.808000     27.594000     56.511000
  C      45.618000     28.277000     57.175000
  O      45.842000     29.312000     57.855000
  O      44.482000     27.767000     57.017000
  O      46.535000     26.614000     55.576000
  C      46.550000     26.968000     54.140000
  H      46.353000     26.007000     53.643000
  C      47.908000     27.502000     53.801000
  H      48.758000     26.826000     53.679000
  C      48.154000     28.827000     53.832000
  C      47.036000     29.770000     53.961000
  H      47.296000     30.825000     54.057000
  C      45.755000     29.358000     53.958000
  H      44.944000     30.088000     54.032000
  C      45.364000     27.910000     53.819000
  H      44.602000     27.678000     54.582000
  O      44.845000     27.680000     52.517000
  H      43.998000     27.141000     52.574000
  C      49.577000     29.380000     53.866000
  O      50.556000     28.587000     53.823000
  O      49.681000     30.616000     54.001000
24
Coordinates from ORCA-job neb_MEP_ALL.QMRegion E -1076.101878419068
  C      48.076073     27.931048     56.798074
  H      48.940572     27.456359     56.335351
  H      48.224336     28.716536     57.536451
  C      46.818531     27.598201     56.482060
  C      45.632705     28.274282     57.160647
  O      45.860802     29.304814     57.844497
  O      44.496483     27.762447     57.013407
  O      46.539753     26.607559     55.558694
  C      46.543931     26.952517     54.115198
  H      46.348383     25.987647     53.626391
  C      47.893744     27.497504     53.765885
  H      48.743202     26.826694     53.610760
  C      48.132244     28.821248     53.847963
  C      47.006807     29.751656     54.012683
  H      47.262176     30.801772     54.158448
  C      45.728943     29.334015     53.984505
  H      44.911707     30.053899     54.074666
  C      45.349069     27.886823     53.810402
  H      44.592193     27.633821     54.571775
  O      44.827301     27.675786     52.507847
  H      43.980468     27.133545     52.559753
  C      49.551824     29.383714     53.893614
  O      50.536876     28.597479     53.829455
  O      49.644403     30.617076     54.060753
24
Coordinates from ORCA-job neb_MEP_ALL.QMRegion E -1076.101217022186
  C      48.102106     27.991856     56.666922
  H      48.963647     27.523483     56.195736
  H      48.252439     28.844555     57.323606
  C      46.843153     27.599291     56.428035
  C      45.667033     28.270498     57.133746
  O      45.902656     29.294381     57.824655
  O      44.527844     27.761778     57.000740
  O      46.557979     26.589900     55.529195
  C      46.542421     26.926512     54.059348
  H      46.360593     25.953683     53.582028
  C      47.874242     27.498265     53.707894
  H      48.729436     26.848401     53.501965
  C      48.095703     28.816400     53.890128
  C      46.956457     29.719953     54.105697
  H      47.195736     30.759572     54.331857
  C      45.685198     29.289357     54.024580
  H      44.854893     29.992964     54.121247
  C      45.328040     27.845910     53.790964
  H      44.590127     27.549660     54.554360
  O      44.786768     27.678875     52.491975
  H      43.940033     27.132481     52.539927
  C      49.507247     29.397016     53.960083
  O      50.502676     28.622324     53.863931
  O      49.580086     30.625621     54.169716
24
Coordinates from ORCA-job neb_MEP_ALL.QMRegion E -1076.092270609188
  C      48.123249     28.052460     56.573090
  H      48.989828     27.537354     56.163610
  H      48.281177     28.972808     57.130681
  C      46.864590     27.582863     56.425814
  C      45.688703     28.273915     57.132067
  O      45.926562     29.300859     57.820367
  O      44.543821     27.774287     57.000374
  O      46.587682     26.553172     55.575323
  C      46.556746     26.917742     53.945353
  H      46.384194     25.926587     53.500834
  C      47.869494     27.496436     53.679050
  H      48.730623     26.863367     53.453560
  C      48.080988     28.797614     54.003463
  C      46.936013     29.697915     54.192621
  H      47.168358     30.734834     54.438068
  C      45.672899     29.269565     54.028882
  H      44.836464     29.969610     54.086169
  C      45.327922     27.832003     53.756922
  H      44.632450     27.493419     54.538933
  O      44.728613     27.717949     52.477044
  H      43.891366     27.150335     52.530192
  C      49.486086     29.394261     54.048829
  O      50.484565     28.630442     53.910783
  O      49.547545     30.627688     54.228721
24
Coordinates from ORCA-job neb_MEP_ALL.QMRegion E -1076.081869952458
  C      48.133276     28.079204     56.538574
  H      48.997887     27.533264     56.171161
  H      48.291085     29.007180     57.082478
  C      46.866993     27.567934     56.445018
  C      45.689061     28.279083     57.137634
  O      45.929388     29.306128     57.824371
  O      44.544179     27.779430     57.005620
  O      46.604796     26.522974     55.691218
  C      46.564569     26.936968     53.817518
  H      46.388802     25.917385     53.461936
  C      47.860124     27.488782     53.672370
  H      48.728895     26.863084     53.454806
  C      48.076642     28.788026     54.067217
  C      46.933845     29.695450     54.213732
  H      47.166292     30.733666     54.450586
  C      45.673434     29.268596     54.026063
  H      44.836729     29.969522     54.070919
  C      45.331078     27.833837     53.740759
  H      44.651579     27.480952     54.532491
  O      44.706948     27.736554     52.469484
  H      43.878280     27.155416     52.527203
  C      49.483888     29.389294     54.077341
  O      50.479380     28.627151     53.920178
  O      49.542642     30.625573     54.230579
24
Coordinates from ORCA-job neb_MEP_ALL.QMRegion E -1076.079698703659
  C      48.142411     28.105518     56.501226
  H      49.004917     27.527460     56.180052
  H      48.298664     29.027199     57.054715
  C      46.868692     27.553561     56.465439
  C      45.687653     28.282016     57.145898
  O      45.929622     29.312453     57.825819
  O      44.544302     27.783674     57.007777
  O      46.621175     26.495386     55.789294
  C      46.568792     26.949848     53.721222
  H      46.390624     25.913658     53.428005
  C      47.851196     27.479689     53.665976
  H      48.726176     26.861176     53.456405
  C      48.073068     28.781591     54.118423
  C      46.932441     29.695586     54.222441
  H      47.165066     30.734373     54.456747
  C      45.674311     29.268582     54.020377
  H      44.837051     29.968941     54.063503
  C      45.335250     27.834689     53.724706
  H      44.667373     27.472917     54.524005
  O      44.688590     27.750823     52.461859
  H      43.869339     27.157435     52.524215
  C      49.481640     29.386728     54.093835
  O      50.475508     28.625394     53.923813
  O      49.540537     30.624564     54.230688
24
Coordinates from ORCA-job neb_MEP_ALL.QMRegion E -1076.083622369909
  C      48.148960     28.165059     56.365553
  H      49.008470     27.520856     56.193268
  H      48.305546     29.044458     56.988856
  C      46.866680     27.547378     56.466432
  C      45.687679     28.283405     57.154461
  O      45.937259     29.313582     57.828407
  O      44.547637     27.783365     57.015976
  O      46.638692     26.465562     55.888718
  C      46.576201     26.961829     53.645022
  H      46.394800     25.920144     53.378683
  C      47.842109     27.465508     53.682305
  H      48.723150     26.856828     53.465516
  C      48.075445     28.758384     54.252977
  C      46.930768     29.691696     54.250341
  H      47.162650     30.734460     54.467701
  C      45.679917     29.267194     54.016016
  H      44.842459     29.969794     54.045651
  C      45.340436     27.834187     53.713127
  H      44.681043     27.464286     54.515605
  O      44.671017     27.766796     52.459272
  H      43.862059     27.160482     52.522478
  C      49.479286     29.381857     54.126746
  O      50.470934     28.624148     53.930292
  O      49.535842     30.622166     54.229095
24
Coordinates from ORCA-job neb_MEP_ALL.QMRegion E -1076.094029539958
  C      48.149138     28.203326     56.250861
  H      48.999415     27.520409     56.188427
  H      48.305785     29.067817     56.905816
  C      46.860465     27.548239     56.456591
  C      45.687521     28.285682     57.154550
  O      45.951770     29.308476     57.833078
  O      44.549625     27.780750     57.026427
  O      46.646432     26.442365     55.963204
  C      46.583149     26.971512     53.601259
  H      46.403253     25.932196     53.325317
  C      47.837959     27.456012     53.704378
  H      48.721090     26.854777     53.479301
  C      48.080616     28.738132     54.361953
  C      46.932032     29.683756     54.287609
  H      47.161590     30.731371     54.481047
  C      45.689332     29.262232     54.022999
  H      44.857001     29.968931     54.020595
  C      45.347113     27.832578     53.707427
  H      44.691899     27.456589     54.508806
  O      44.660958     27.778121     52.461959
  H      43.858344     27.162278     52.521722
  C      49.476885     29.376338     54.150551
  O      50.468477     28.622365     53.939138
  O      49.530670     30.619703     54.227910
24
Coordinates from ORCA-job neb_MEP_ALL.QMRegion E -1076.116522681898
  C      48.154023     28.262228     56.062743
  H      48.983490     27.546376     56.183783
  H      48.309277     29.107037     56.751814
  C      46.869555     27.553351     56.437289
  C      45.711830     28.292537     57.174459
  O      46.002226     29.293012     57.870460
  O      44.570176     27.798093     57.035861
  O      46.687359     26.402391     56.092024
  C      46.609448     26.991993     53.500499
  H      46.430848     25.972918     53.152755
  C      47.850019     27.443683     53.724252
  H      48.736227     26.844536     53.493151
  C      48.097661     28.699946     54.522214
  C      46.942511     29.667248     54.337994
  H      47.166183     30.718475     54.525524
  C      45.710466     29.258251     54.012835
  H      44.884010     29.973423     53.969312
  C      45.364586     27.833240     53.673866
  H      44.741015     27.430701     54.491573
  O      44.629650     27.811784     52.457192
  H      43.840803     27.181175     52.525789
  C      49.478658     29.370988     54.185052
  O      50.473160     28.626481     53.948949
  O      49.522224     30.615533     54.225111
24
Coordinates from ORCA-job neb_MEP_ALL.QMRegion E -1076.125398909238
  C      48.224000     28.262000     55.994000
  H      49.076000     27.584000     56.141000
  H      48.362000     29.164000     56.599000
  C      46.972000     27.540000     56.426000
  C      45.866000     28.295000     57.208000
  O      46.244000     29.174000     58.008000
  O      44.683000     27.925000     56.990000
  O      46.818000     26.364000     56.154000
  C      46.697000     27.059000     53.236000
  H      46.542000     26.129000     52.688000
  C      47.919000     27.448000     53.618000
  H      48.814000     26.873000     53.361000
  C      48.145000     28.672000     54.467000
  C      46.985000     29.634000     54.326000
  H      47.195000     30.670000     54.594000
  C      45.768000     29.246000     53.934000
  H      44.950000     29.969000     53.871000
  C      45.435000     27.831000     53.537000
  H      44.923000     27.350000     54.394000
  O      44.578000     27.844000     52.410000
  H      43.802000     27.210000     52.525000
  C      49.516000     29.369000     54.153000
  O      50.522000     28.638000     53.933000
  O      49.531000     30.612000     54.192000
24
Coordinates from ORCA-job neb_MEP_ALL.QMRegion E -1076.098627360599
  C      48.064000     27.894000     56.866000
  H      48.929000     27.402000     56.423000
  H      48.211000     28.661000     57.627000
  C      46.808000     27.594000     56.511000
  C      45.618000     28.277000     57.175000
  O      45.842000     29.312000     57.855000
  O      44.482000     27.767000     57.017000
  O      46.535000     26.614000     55.576000
  C      46.550000     26.968000     54.140000
  H      46.353000     26.007000     53.643000
  C      47.908000     27.502000     53.801000
  H      48.758000     26.826000     53.679000
  C      48.154000     28.827000     53.832000
  C      47.036000     29.770000     53.961000
  H      47.296000     30.825000     54.057000
  C      45.755000     29.358000     53.958000
  H      44.944000     30.088000     54.032000
  C      45.364000     27.910000     53.819000
  H      44.602000     27.678000     54.582000
  O      44.845000     27.680000     52.517000
  H      43.998000     27.141000     52.574000
  C      49.577000     29.380000     53.866000
  O      50.556000     28.587000     53.823000
  O      49.681000     30.616000     54.001000
24
Coordinates from ORCA-job neb_MEP_ALL.QMRegion E -1076.102042548887
  C      48.076843     27.930854     56.797275
  H      48.941309     27.458285     56.334452
  H      48.224193     28.714484     57.538356
  C      46.818975     27.598901     56.482805
  C      45.633169     28.273135     57.159961
  O      45.861957     29.304244     57.844803
  O      44.497045     27.761436     57.013100
  O      46.540868     26.608004     55.557974
  C      46.542887     26.952410     54.114086
  H      46.347291     25.986562     53.626204
  C      47.892531     27.495326     53.763316
  H      48.741180     26.827012     53.607349
  C      48.130486     28.823093     53.846415
  C      47.006170     29.750890     54.012749
  H      47.259813     30.800662     54.159297
  C      45.725776     29.332604     53.986310
  H      44.909973     30.051700     54.080291
  C      45.347615     27.885796     53.810329
  H      44.590262     27.631204     54.571197
  O      44.826914     27.675496     52.507262
  H      43.980332     27.132822     52.558500
  C      49.550629     29.383412     53.891635
  O      50.534919     28.597234     53.827954
  O      49.642853     30.616277     54.061596
24
Coordinates from ORCA-job neb_MEP_ALL.QMRegion E -1076.101154421557
  C      48.105651     27.997749     56.654696
  H      48.968437     27.526575     56.190808
  H      48.255943     28.853770     57.307019
  C      46.847692     27.597530     56.428179
  C      45.673406     28.268033     57.134633
  O      45.907613     29.295174     57.823552
  O      44.529906     27.763017     56.997679
  O      46.564525     26.587183     55.528253
  C      46.543381     26.923705     54.046420
  H      46.363567     25.948530     53.570755
  C      47.871882     27.495965     53.699252
  H      48.727979     26.852083     53.490804
  C      48.090450     28.816268     53.899359
  C      46.951379     29.716748     54.114402
  H      47.188112     30.755899     54.343823
  C      45.679517     29.284218     54.026042
  H      44.849193     29.985732     54.125525
  C      45.327048     27.841515     53.786423
  H      44.593899     27.538217     54.550497
  O      44.778831     27.682294     52.489830
  H      43.933175     27.133501     52.537121
  C      49.503378     29.398087     53.967123
  O      50.497677     28.625143     53.866959
  O      49.575112     30.624652     54.177365
24
Coordinates from ORCA-job neb_MEP_ALL.QMRegion E -1076.089872527859
  C      48.126546     28.060788     56.563269
  H      48.994244     27.537007     56.169979
  H      48.285421     28.985110     57.116031
  C      46.868183     27.577912     56.432025
  C      45.691948     28.272448     57.137335
  O      45.928020     29.303858     57.821107
  O      44.544234     27.778152     56.999766
  O      46.596032     26.546978     55.586277
  C      46.559927     26.916043     53.921208
  H      46.388521     25.921354     53.481090
  C      47.868565     27.494061     53.675410
  H      48.730932     26.864858     53.449370
  C      48.078749     28.793130     54.027516
  C      46.934329     29.695373     54.204573
  H      47.166176     30.734034     54.443184
  C      45.672290     29.267512     54.025912
  H      44.835475     29.967308     54.081114
  C      45.329853     27.830530     53.749133
  H      44.643292     27.485015     54.534558
  O      44.718335     27.726117     52.474319
  H      43.883033     27.152403     52.527890
  C      49.485052     29.392521     54.061556
  O      50.482173     28.631075     53.914043
  O      49.546072     30.626462     54.230220
24
Coordinates from ORCA-job neb_MEP_ALL.QMRegion E -1076.081266102782
  C      48.136227     28.080477     56.539776
  H      48.999972     27.532169     56.174160
  H      48.291469     29.007935     57.082039
  C      46.866843     27.564047     56.448282
  C      45.689559     28.278928     57.138315
  O      45.931137     29.305837     57.824808
  O      44.544605     27.779981     57.004996
  O      46.608031     26.519232     55.708357
  C      46.565610     26.939595     53.793755
  H      46.391299     25.915568     53.453083
  C      47.860209     27.486623     53.668642
  H      48.728941     26.864188     53.454356
  C      48.075839     28.788524     54.075436
  C      46.933373     29.694210     54.215949
  H      47.165229     30.734013     54.449424
  C      45.673139     29.267455     54.026725
  H      44.836114     29.968069     54.069551
  C      45.332204     27.832791     53.737617
  H      44.655381     27.476865     54.530963
  O      44.703005     27.738266     52.467781
  H      43.876260     27.155964     52.526753
  C      49.484130     29.388854     54.079660
  O      50.478791     28.626417     53.920911
  O      49.543010     30.625060     54.229390
24
Coordinates from ORCA-job neb_MEP_ALL.QMRegion E -1076.079741551885
  C      48.144034     28.102233     56.507997
  H      49.006234     27.527308     56.183308
  H      48.298725     29.025101     57.061138
  C      46.869868     27.552109     56.468117
  C      45.688789     28.281355     57.146179
  O      45.930176     29.312066     57.825944
  O      44.544499     27.783890     57.006375
  O      46.623007     26.493590     55.790194
  C      46.570166     26.949998     53.716653
  H      46.392380     25.913522     53.421708
  C      47.851171     27.480106     53.663736
  H      48.727337     26.861818     53.454753
  C      48.073089     28.782363     54.114646
  C      46.931949     29.695280     54.220693
  H      47.163985     30.734348     54.455202
  C      45.674185     29.267225     54.020125
  H      44.836066     29.966825     54.064282
  C      45.335592     27.833544     53.722424
  H      44.669836     27.469611     54.522326
  O      44.686411     27.751532     52.460602
  H      43.867510     27.157688     52.523757
  C      49.481835     29.386938     54.092121
  O      50.475186     28.625021     53.923760
  O      49.541141     30.624541     54.230124
24
Coordinates from ORCA-job neb_MEP_ALL.QMRegion E -1076.083672299429
  C      48.148446     28.160956     56.372563
  H      49.008890     27.521675     56.197801
  H      48.304978     29.037085     57.001297
  C      46.867812     27.547170     56.468177
  C      45.689275     28.282645     57.154877
  O      45.936614     29.313619     57.829261
  O      44.547395     27.783215     57.013581
  O      46.639994     26.466321     55.883613
  C      46.577684     26.960694     53.649325
  H      46.396623     25.921212     53.375150
  C      47.842654     27.465885     53.681725
  H      48.724950     26.857824     53.461696
  C      48.075937     28.759703     54.244436
  C      46.930661     29.691518     54.246389
  H      47.161551     30.734062     54.464781
  C      45.679500     29.265977     54.014327
  H      44.841309     29.966887     54.048669
  C      45.340769     27.833294     53.711673
  H      44.683603     27.460937     54.513717
  O      44.669719     27.767490     52.458842
  H      43.859582     27.160674     52.521262
  C      49.479115     29.382374     54.123954
  O      50.470851     28.624007     53.928020
  O      49.536414     30.622443     54.227684
24
Coordinates from ORCA-job neb_MEP_ALL.QMRegion E -1076.093356634391
  C      48.152892     28.196655     56.274844
  H      49.004789     27.516506     56.186382
  H      48.304851     29.077615     56.905259
  C      46.865441     27.543704     56.470201
  C      45.688541     28.282614     57.160277
  O      45.955183     29.306867     57.831494
  O      44.547062     27.785174     57.024649
  O      46.649245     26.441827     55.964593
  C      46.584847     26.971488     53.586523
  H      46.407667     25.934081     53.307788
  C      47.838265     27.455148     53.700190
  H      48.724546     26.856096     53.479220
  C      48.078423     28.741029     54.340184
  C      46.931462     29.684741     54.277600
  H      47.161397     30.729582     54.489358
  C      45.690296     29.261156     54.020089
  H      44.856736     29.968307     54.018806
  C      45.347426     27.831095     53.706650
  H      44.694170     27.448760     54.508547
  O      44.658610     27.780169     52.463301
  H      43.856830     27.165549     52.520586
  C      49.476923     29.378322     54.148516
  O      50.467153     28.622861     53.941893
  O      49.530656     30.617772     54.229855
24
Coordinates from ORCA-job neb_MEP_ALL.QMRegion E -1076.115973738838
  C      48.147929     28.265766     56.053568
  H      48.972791     27.548045     56.189297
  H      48.303497     29.103859     56.748491
  C      46.862956     27.558159     56.436157
  C      45.699922     28.291550     57.172340
  O      45.983424     29.302408     57.858126
  O      44.563394     27.784517     57.043200
  O      46.680879     26.399987     56.103204
  C      46.605601     26.990826     53.508952
  H      46.426161     25.969068     53.167243
  C      47.845337     27.441231     53.737352
  H      48.729916     26.842658     53.503498
  C      48.094685     28.698693     54.541633
  C      46.939340     29.666019     54.348228
  H      47.162307     30.719755     54.523103
  C      45.708494     29.257204     54.019147
  H      44.882037     29.971648     53.971735
  C      45.361419     27.832679     53.678758
  H      44.734111     27.432015     54.493363
  O      44.629156     27.811650     52.460387
  H      43.840393     27.179768     52.524852
  C      49.476873     29.370014     54.192784
  O      50.465996     28.627473     53.951135
  O      49.519716     30.612513     54.227176
24
Coordinates from ORCA-job neb_MEP_ALL.QMRegion E -1076.125398909238
  C      48.224000     28.262000     55.994000
  H      49.076000     27.584000     56.141000
  H      48.362000     29.164000     56.599000
  C      46.972000     27.540000     56.426000
  C      45.866000     28.295000     57.208000
  O      46.244000     29.174000     58.008000
  O      44.683000     27.925000     56.990000
  O      46.818000     26.364000     56.154000
  C      46.697000     27.059000     53.236000
  H      46.542000     26.129000     52.688000
  C      47.919000     27.448000     53.618000
  H      48.814000     26.873000     53.361000
  C      48.145000     28.672000     54.467000
  C      46.985000     29.634000     54.326000
  H      47.195000     30.670000     54.594000
  C      45.768000     29.246000     53.934000
  H      44.950000     29.969000     53.871000
  C      45.435000     27.831000     53.537000
  H      44.923000     27.350000     54.394000
  O      44.578000     27.844000     52.410000
  H      43.802000     27.210000     52.525000
  C      49.516000     29.369000     54.153000
  O      50.522000     28.638000     53.933000
  O      49.531000     30.612000     54.192000
24
Coordinates from ORCA-job neb_MEP_ALL.QMRegion E -1076.098627360599
  C      48.064000     27.894000     56.866000
  H      48.929000     27.402000     56.423000
  H      48.211000     28.661000     57.627000
  C      46.808000     27.594000     56.511000
  C      45.618000     28.277000     57.175000
  O      45.842000     29.312000     57.855000
  O      44.482000     27.767000     57.017000
  O      46.535000     26.614000     55.576000
  C      46.550000     26.968000     54.140000
  H      46.353000     26.007000     53.643000
  C      47.908000     27.502000     53.801000
  H      48.758000     26.826000     53.679000
  C      48.154000     28.827000     53.832000
  C      47.036000     29.770000     53.961000
  H      47.296000     30.825000     54.057000
  C      45.755000     29.358000     53.958000
  H      44.944000     30.088000     54.032000
  C      45.364000     27.910000     53.819000
  H      44.602000     27.678000     54.582000
  O      44.845000     27.680000     52.517000
  H      43.998000     27.141000     52.574000
  C      49.577000     29.380000     53.866000
  O      50.556000     28.587000     53.823000
  O      49.681000     30.616000     54.001000
24
Coordinates from ORCA-job neb_MEP_ALL.QMRegion E -1076.102257947114
  C      48.077388     27.930460     56.797304
  H      48.941800     27.459266     56.333919
  H      48.224134     28.713374     57.539839
  C      46.819467     27.598739     56.482165
  C      45.633601     28.273080     57.160169
  O      45.862392     29.303549     57.844778
  O      44.497039     27.760832     57.012946
  O      46.541706     26.608657     55.557866
  C      46.542100     26.951368     54.113652
  H      46.346507     25.986031     53.626052
  C      47.891613     27.496480     53.762338
  H      48.740375     26.826751     53.605191
  C      48.129580     28.822000     53.844855
  C      47.004207     29.750280     54.012891
  H      47.258467     30.800306     54.159631
  C      45.725387     29.331952     53.987409
  H      44.908467     30.050838     54.083740
  C      45.346613     27.884988     53.810357
  H      44.589241     27.629667     54.570731
  O      44.826590     27.675408     52.506797
  H      43.980238     27.132350     52.557765
  C      49.549599     29.383557     53.890553
  O      50.533993     28.596807     53.826973
  O      49.642175     30.615957     54.061974
24
Coordinates from ORCA-job neb_MEP_ALL.QMRegion E -1076.100622864802
  C      48.109882     28.004212     56.643327
  H      48.973046     27.529318     56.186059
  H      48.260090     28.868055     57.285265
  C      46.851320     27.595019     56.426144
  C      45.676400     28.266528     57.134673
  O      45.912074     29.295627     57.822926
  O      44.533469     27.765315     56.996469
  O      46.570446     26.583949     55.528047
  C      46.544888     26.919835     54.034583
  H      46.366769     25.943948     53.558598
  C      47.870472     27.496984     53.694272
  H      48.727701     26.854683     53.480994
  C      48.087189     28.813169     53.911332
  C      46.946142     29.713236     54.125987
  H      47.182166     30.752558     54.357213
  C      45.676689     29.280156     54.027062
  H      44.844376     29.980521     54.125306
  C      45.326360     27.837750     53.781367
  H      44.599280     27.527928     54.547308
  O      44.770263     27.687165     52.487310
  H      43.925787     27.135179     52.534827
  C      49.499152     29.397171     53.977137
  O      50.494168     28.626699     53.871815
  O      49.570257     30.625545     54.185540
24
Coordinates from ORCA-job neb_MEP_ALL.QMRegion E -1076.086922992238
  C      48.127927     28.060958     56.563598
  H      48.995886     27.537946     56.172205
  H      48.286728     28.989555     57.109941
  C      46.869417     27.576832     56.430270
  C      45.693096     28.271716     57.137975
  O      45.929412     29.303467     57.821247
  O      44.545195     27.779373     56.999455
  O      46.599274     26.547785     55.582053
  C      46.561072     26.913451     53.918987
  H      46.390992     25.920025     53.473820
  C      47.869128     27.494169     53.676094
  H      48.731788     26.865959     53.446522
  C      48.078350     28.791159     54.033467
  C      46.932983     29.693663     54.210269
  H      47.165000     30.733440     54.445755
  C      45.672452     29.266139     54.025547
  H      44.834711     29.966099     54.078297
  C      45.330514     27.828904     53.746568
  H      44.647266     27.480988     54.532957
  O      44.714007     27.728624     52.473687
  H      43.879751     27.153817     52.526832
  C      49.484260     29.391777     54.065596
  O      50.481868     28.630900     53.916396
  O      49.545403     30.626068     54.231609
24
Coordinates from ORCA-job neb_MEP_ALL.QMRegion E -1076.080727431474
  C      48.136850     28.078001     56.544572
  H      49.000651     27.531926     56.175337
  H      48.291232     29.007206     57.084898
  C      46.867643     27.562425     56.450012
  C      45.689826     28.278580     57.138503
  O      45.931866     29.305646     57.824834
  O      44.544865     27.780231     57.004046
  O      46.608774     26.518584     55.711471
  C      46.566489     26.939905     53.787059
  H      46.392520     25.914485     53.450049
  C      47.859856     27.487196     53.666209
  H      48.729899     26.864585     53.453548
  C      48.075780     28.788535     54.074104
  C      46.933121     29.694360     54.215675
  H      47.164662     30.733984     54.448602
  C      45.672649     29.266604     54.027403
  H      44.835597     29.967230     54.069429
  C      45.332469     27.831962     53.736268
  H      44.656977     27.474891     54.530284
  O      44.702007     27.738719     52.467125
  H      43.875350     27.155857     52.526664
  C      49.484156     29.388957     54.078980
  O      50.478813     28.626079     53.921287
  O      49.543668     30.625135     54.228977
24
Coordinates from ORCA-job neb_MEP_ALL.QMRegion E -1076.079780259533
  C      48.144862     28.100739     56.511400
  H      49.007145     27.527145     56.185531
  H      48.298818     29.023486     57.065060
  C      46.870659     27.550736     56.469361
  C      45.689051     28.280742     57.146441
  O      45.930514     29.311867     57.826086
  O      44.545070     27.784162     57.005475
  O      46.624182     26.492700     55.791188
  C      46.570559     26.949846     53.713526
  H      46.393557     25.913654     53.417777
  C      47.851871     27.480376     53.662379
  H      48.728002     26.862274     53.453694
  C      48.073031     28.782724     54.112863
  C      46.931988     29.695235     54.219541
  H      47.163273     30.734214     54.454353
  C      45.673744     29.266343     54.019719
  H      44.835524     29.965419     54.064788
  C      45.335883     27.832815     53.721030
  H      44.671333     27.467496     54.521333
  O      44.685247     27.752034     52.459966
  H      43.866239     27.157875     52.523390
  C      49.481829     29.387072     54.091429
  O      50.475054     28.624809     53.923521
  O      49.541468     30.624553     54.229635
24
Coordinates from ORCA-job neb_MEP_ALL.QMRegion E -1076.083080200957
  C      48.147955     28.154551     56.387723
  H      49.009544     27.521807     56.198638
  H      48.304066     29.032705     57.012802
  C      46.868386     27.546842     56.467729
  C      45.688810     28.281765     57.153575
  O      45.936255     29.313179     57.829750
  O      44.548085     27.783227     57.011957
  O      46.639137     26.469193     55.874133
  C      46.577264     26.959433     53.653912
  H      46.397440     25.920624     53.376637
  C      47.844808     27.467268     53.680312
  H      48.726024     26.858762     53.459166
  C      48.075490     28.761969     54.230638
  C      46.930604     29.691508     54.242577
  H      47.161095     30.733910     54.462316
  C      45.678869     29.265608     54.013929
  H      44.840272     29.965154     54.051358
  C      45.340613     27.832432     53.712257
  H      44.683029     27.459547     54.514030
  O      44.670680     27.765713     52.458898
  H      43.859261     27.161040     52.520960
  C      49.480073     29.382198     54.120728
  O      50.471118     28.624432     53.926031
  O      49.537307     30.623274     54.226672
24
Coordinates from ORCA-job neb_MEP_ALL.QMRegion E -1076.092063262343
  C      48.156398     28.194288     56.285371
  H      49.008313     27.514707     56.188569
  H      48.304764     29.078351     56.913540
  C      46.869595     27.541281     56.477508
  C      45.689135     28.278563     57.165126
  O      45.954823     29.308656     57.830773
  O      44.545957     27.788175     57.022095
  O      46.651305     26.443138     55.959586
  C      46.585300     26.970721     53.576306
  H      46.408477     25.931490     53.302975
  C      47.839891     27.455015     53.695245
  H      48.727348     26.855782     53.477162
  C      48.077269     28.741730     54.333845
  C      46.933202     29.687430     54.267188
  H      47.161094     30.728941     54.492511
  C      45.686543     29.262030     54.014506
  H      44.853542     29.968484     54.021245
  C      45.346302     27.829360     53.706532
  H      44.692619     27.444193     54.510962
  O      44.659055     27.780531     52.463073
  H      43.856418     27.167997     52.520681
  C      49.477167     29.378154     54.147568
  O      50.467607     28.623537     53.940791
  O      49.531909     30.619539     54.230062
24
Coordinates from ORCA-job neb_MEP_ALL.QMRegion E -1076.115117509918
  C      48.142670     28.265227     56.052051
  H      48.965856     27.550272     56.190949
  H      48.299701     29.105339     56.736599
  C      46.857538     27.561477     56.435504
  C      45.695693     28.291430     57.172244
  O      45.973952     29.305939     57.851396
  O      44.560057     27.778076     57.048856
  O      46.680440     26.398312     56.117676
  C      46.605044     26.991954     53.506912
  H      46.425263     25.969573     53.166203
  C      47.843059     27.439117     53.747615
  H      48.726963     26.841320     53.511245
  C      48.092956     28.698507     54.547303
  C      46.938240     29.664599     54.357246
  H      47.160160     30.719587     54.525187
  C      45.708816     29.256553     54.021869
  H      44.882555     29.971135     53.970010
  C      45.360650     27.831606     53.680618
  H      44.731087     27.430335     54.494982
  O      44.627833     27.813551     52.462604
  H      43.839642     27.180388     52.524627
  C      49.475126     29.369823     54.201037
  O      50.463205     28.626408     53.952696
  O      49.517066     30.611941     54.228126
24
Coordinates from ORCA-job neb_MEP_ALL.QMRegion E -1076.125398909238
  C      48.224000     28.262000     55.994000
  H      49.076000     27.584000     56.141000
  H      48.362000     29.164000     56.599000
  C      46.972000     27.540000     56.426000
  C      45.866000     28.295000     57.208000
  O      46.244000     29.174000     58.008000
  O      44.683000     27.925000     56.990000
  O      46.818000     26.364000     56.154000
  C      46.697000     27.059000     53.236000
  H      46.542000     26.129000     52.688000
  C      47.919000     27.448000     53.618000
  H      48.814000     26.873000     53.361000
  C      48.145000     28.672000     54.467000
  C      46.985000     29.634000     54.326000
  H      47.195000     30.670000     54.594000
  C      45.768000     29.246000     53.934000
  H      44.950000     29.969000     53.871000
  C      45.435000     27.831000     53.537000
  H      44.923000     27.350000     54.394000
  O      44.578000     27.844000     52.410000
  H      43.802000     27.210000     52.525000
  C      49.516000     29.369000     54.153000
  O      50.522000     28.638000     53.933000
  O      49.531000     30.612000     54.192000
24
Coordinates from ORCA-job neb_MEP_ALL.QMRegion E -1076.098627360599
  C      48.064000     27.894000     56.866000
  H      48.929000     27.402000     56.423000
  H      48.211000     28.661000     57.627000
  C      46.808000     27.594000     56.511000
  C      45.618000     28.277000     57.175000
  O      45.842000     29.312000     57.855000
  O      44.482000     27.767000     57.017000
  O      46.535000     26.614000     55.576000
  C      46.550000     26.968000     54.140000
  H      46.353000     26.007000     53.643000
  C      47.908000     27.502000     53.801000
  H      48.758000     26.826000     53.679000
  C      48.154000     28.827000     53.832000
  C      47.036000     29.770000     53.961000
  H      47.296000     30.825000     54.057000
  C      45.755000     29.358000     53.958000
  H      44.944000     30.088000     54.032000
  C      45.364000     27.910000     53.819000
  H      44.602000     27.678000     54.582000
  O      44.845000     27.680000     52.517000
  H      43.998000     27.141000     52.574000
  C      49.577000     29.380000     53.866000
  O      50.556000     28.587000     53.823000
  O      49.681000     30.616000     54.001000
24
Coordinates from ORCA-job neb_MEP_ALL.QMRegion E -1076.102439097814
  C      48.077180     27.930244     56.798660
  H      48.942511     27.459243     56.333441
  H      48.224268     28.712912     57.541157
  C      46.820622     27.597338     56.479449
  C      45.633289     28.273014     57.160854
  O      45.862197     29.303379     57.844957
  O      44.497262     27.761025     57.013076
  O      46.542264     26.609355     55.558219
  C      46.541584     26.950324     54.114204
  H      46.345871     25.985565     53.625738
  C      47.890680     27.498163     53.762358
  H      48.740181     26.826302     53.603875
  C      48.129308     28.820460     53.843112
  C      47.002406     29.750127     54.013123
  H      47.257700     30.800336     54.159507
  C      45.725567     29.331674     53.988117
  H      44.907209     30.050809     54.085762
  C      45.346068     27.883889     53.810530
  H      44.588915     27.628904     54.570205
  O      44.826147     27.675569     52.506410
  H      43.980141     27.132043     52.557345
  C      49.548791     29.383116     53.890409
  O      50.533529     28.596525     53.826206
  O      49.642125     30.616414     54.061849
24
Coordinates from ORCA-job neb_MEP_ALL.QMRegion E -1076.099857915370
  C      48.113920     28.012388     56.631362
  H      48.979200     27.532197     56.179780
  H      48.266005     28.891838     57.252454
  C      46.856224     27.591414     56.419913
  C      45.679160     28.268919     57.133582
  O      45.916819     29.293655     57.822024
  O      44.537545     27.767853     56.996975
  O      46.575996     26.578967     55.526643
  C      46.547523     26.914819     54.022870
  H      46.371363     25.939048     53.542953
  C      47.870487     27.498932     53.691810
  H      48.728458     26.857256     53.470196
  C      48.085888     28.809295     53.929087
  C      46.941567     29.708590     54.143743
  H      47.176522     30.748262     54.375830
  C      45.674701     29.275936     54.028408
  H      44.839639     29.975829     54.119345
  C      45.325891     27.833580     53.774701
  H      44.607369     27.516263     54.544516
  O      44.758700     27.694347     52.483630
  H      43.916184     27.138347     52.532641
  C      49.493206     29.396223     53.993502
  O      50.492139     28.626270     53.880078
  O      49.563689     30.626835     54.196105
24
Coordinates from ORCA-job neb_MEP_ALL.QMRegion E -1076.086659561863
  C      48.126730     28.052657     56.575174
  H      48.995748     27.539896     56.169940
  H      48.284973     28.986454     57.111611
  C      46.868873     27.579796     56.419594
  C      45.692500     28.272741     57.132040
  O      45.931549     29.298641     57.821172
  O      44.546479     27.777017     56.999660
  O      46.596866     26.554346     55.566392
  C      46.560611     26.911851     53.934454
  H      46.392231     25.922836     53.478662
  C      47.871604     27.495957     53.680713
  H      48.733468     26.867079     53.444741
  C      48.080167     28.793026     54.021550
  C      46.933079     29.692667     54.209907
  H      47.164460     30.732398     54.446535
  C      45.672359     29.264797     54.028617
  H      44.834372     29.965317     54.076754
  C      45.329604     27.826894     53.748808
  H      44.644209     27.480540     54.534482
  O      44.716738     27.726132     52.475071
  H      43.880447     27.154433     52.527214
  C      49.483697     29.391703     54.061048
  O      50.483634     28.629388     53.918628
  O      49.545052     30.626654     54.233304
24
Coordinates from ORCA-job neb_MEP_ALL.QMRegion E -1076.080786355004
  C      48.135907     28.071642     56.553617
  H      48.999951     27.532434     56.175199
  H      48.290261     29.004244     57.092435
  C      46.869149     27.562803     56.450695
  C      45.690145     28.278110     57.138376
  O      45.931373     29.305308     57.824401
  O      44.544968     27.780411     57.002555
  O      46.606890     26.520289     55.699935
  C      46.567190     26.937908     53.797530
  H      46.392775     25.914119     53.452442
  C      47.859685     27.490049     53.664438
  H      48.731758     26.864617     53.452055
  C      48.076286     28.788909     54.062408
  C      46.932835     29.695362     54.212394
  H      47.164524     30.733762     54.447978
  C      45.672326     29.265896     54.027941
  H      44.835001     29.966701     54.070788
  C      45.332009     27.831251     53.736612
  H      44.656677     27.474493     54.530269
  O      44.703036     27.737549     52.467315
  H      43.875822     27.155334     52.526862
  C      49.484176     29.389387     54.075162
  O      50.479276     28.626224     53.921166
  O      49.544615     30.625833     54.229107
24
Coordinates from ORCA-job neb_MEP_ALL.QMRegion E -1076.079808560006
  C      48.144705     28.101152     56.512115
  H      49.008170     27.526688     56.187209
  H      48.298955     29.021768     57.067422
  C      46.871473     27.549244     56.469315
  C      45.689140     28.280520     57.146979
  O      45.930599     29.311472     57.826127
  O      44.545602     27.784331     57.004808
  O      46.624848     26.492302     55.792465
  C      46.570521     26.949681     53.711051
  H      46.394426     25.913988     53.415248
  C      47.852987     27.480212     53.661688
  H      48.728421     26.862649     53.452920
  C      48.073074     28.782985     54.112796
  C      46.931852     29.694994     54.218690
  H      47.162803     30.734048     54.454030
  C      45.673661     29.265892     54.019070
  H      44.835156     29.964440     54.065160
  C      45.336186     27.832299     53.720301
  H      44.672214     27.466060     54.520771
  O      44.684516     27.752192     52.459788
  H      43.865401     27.158192     52.522991
  C      49.481587     29.386966     54.091744
  O      50.475113     28.624755     53.922949
  O      49.541584     30.624753     54.229061
24
Coordinates from ORCA-job neb_MEP_ALL.QMRegion E -1076.082448118218
  C      48.148101     28.147082     56.411071
  H      49.011055     27.520632     56.196142
  H      48.302799     29.031287     57.023392
  C      46.868445     27.546953     56.465743
  C      45.688454     28.282694     57.151502
  O      45.935974     29.310867     57.829170
  O      44.548055     27.782694     57.010903
  O      46.636006     26.472077     55.861321
  C      46.576624     26.958745     53.656408
  H      46.397513     25.918183     53.381650
  C      47.847323     27.468854     53.677680
  H      48.726514     26.859718     53.457878
  C      48.074237     28.765277     54.212993
  C      46.930802     29.691794     54.239246
  H      47.161101     30.733857     54.460178
  C      45.678055     29.265435     54.014919
  H      44.839122     29.964422     54.053528
  C      45.339617     27.831640     53.714212
  H      44.679712     27.459580     54.516388
  O      44.674123     27.761947     52.459332
  H      43.860456     27.161458     52.521593
  C      49.481136     29.383563     54.117516
  O      50.472728     28.624466     53.924239
  O      49.538485     30.623273     54.225867
24
Coordinates from ORCA-job neb_MEP_ALL.QMRegion E -1076.091338008190
  C      48.158331     28.196678     56.281057
  H      49.010019     27.515986     56.196253
  H      48.306291     29.068459     56.931686
  C      46.871783     27.538883     56.475308
  C      45.691040     28.277082     57.169203
  O      45.949820     29.311977     57.831144
  O      44.547228     27.788625     57.018766
  O      46.653646     26.446798     55.949693
  C      46.585632     26.970478     53.573959
  H      46.405707     25.924194     53.309020
  C      47.842390     27.455861     53.689090
  H      48.729481     26.853974     53.472590
  C      48.077587     28.739701     54.343861
  C      46.931717     29.688388     54.257476
  H      47.160730     30.730368     54.489385
  C      45.684220     29.265572     54.007854
  H      44.846340     29.969387     54.028047
  C      45.343873     27.826944     53.705549
  H      44.689249     27.443014     54.514716
  O      44.659640     27.778840     52.459787
  H      43.856934     27.169653     52.522015
  C      49.477623     29.378763     54.147792
  O      50.470459     28.623601     53.935476
  O      49.533951     30.622492     54.228318
24
Coordinates from ORCA-job neb_MEP_ALL.QMRegion E -1076.115217196675
  C      48.135474     28.258241     56.062987
  H      48.962376     27.552061     56.189103
  H      48.297118     29.114652     56.716120
  C      46.852318     27.564857     56.437945
  C      45.695471     28.290243     57.172254
  O      45.971865     29.306648     57.849965
  O      44.560705     27.777947     57.054649
  O      46.685424     26.395162     56.137090
  C      46.607199     26.995043     53.495542
  H      46.428298     25.975107     53.149123
  C      47.842737     27.437401     53.755199
  H      48.727178     26.839953     53.518848
  C      48.091725     28.699751     54.534563
  C      46.938230     29.663413     54.365187
  H      47.159339     30.717679     54.533127
  C      45.711302     29.255728     54.021974
  H      44.885700     29.972045     53.963695
  C      45.361736     27.830063     53.679958
  H      44.731698     27.425162     54.496787
  O      44.625006     27.817968     52.463958
  H      43.838684     27.183442     52.525352
  C      49.473108     29.368960     54.209080
  O      50.464169     28.622784     53.955012
  O      49.513517     30.615350     54.229274
24
Coordinates from ORCA-job neb_MEP_ALL.QMRegion E -1076.125398909238
  C      48.224000     28.262000     55.994000
  H      49.076000     27.584000     56.141000
  H      48.362000     29.164000     56.599000
  C      46.972000     27.540000     56.426000
  C      45.866000     28.295000     57.208000
  O      46.244000     29.174000     58.008000
  O      44.683000     27.925000     56.990000
  O      46.818000     26.364000     56.154000
  C      46.697000     27.059000     53.236000
  H      46.542000     26.129000     52.688000
  C      47.919000     27.448000     53.618000
  H      48.814000     26.873000     53.361000
  C      48.145000     28.672000     54.467000
  C      46.985000     29.634000     54.326000
  H      47.195000     30.670000     54.594000
  C      45.768000     29.246000     53.934000
  H      44.950000     29.969000     53.871000
  C      45.435000     27.831000     53.537000
  H      44.923000     27.350000     54.394000
  O      44.578000     27.844000     52.410000
  H      43.802000     27.210000     52.525000
  C      49.516000     29.369000     54.153000
  O      50.522000     28.638000     53.933000
  O      49.531000     30.612000     54.192000
24
Coordinates from ORCA-job neb_MEP_ALL.QMRegion E -1076.098627360599
  C      48.064000     27.894000     56.866000
  H      48.929000     27.402000     56.423000
  H      48.211000     28.661000     57.627000
  C      46.808000     27.594000     56.511000
  C      45.618000     28.277000     57.175000
  O      45.842000     29.312000     57.855000
  O      44.482000     27.767000     57.017000
  O      46.535000     26.614000     55.576000
  C      46.550000     26.968000     54.140000
  H      46.353000     26.007000     53.643000
  C      47.908000     27.502000     53.801000
  H      48.758000     26.826000     53.679000
  C      48.154000     28.827000     53.832000
  C      47.036000     29.770000     53.961000
  H      47.296000     30.825000     54.057000
  C      45.755000     29.358000     53.958000
  H      44.944000     30.088000     54.032000
  C      45.364000     27.910000     53.819000
  H      44.602000     27.678000     54.582000
  O      44.845000     27.680000     52.517000
  H      43.998000     27.141000     52.574000
  C      49.577000     29.380000     53.866000
  O      50.556000     28.587000     53.823000
  O      49.681000     30.616000     54.001000
24
Coordinates from ORCA-job neb_MEP_ALL.QMRegion E -1076.102500152544
  C      48.077236     27.929740     56.798981
  H      48.942386     27.458737     56.333722
  H      48.224495     28.713767     57.541297
  C      46.820852     27.597024     56.478521
  C      45.633870     28.272822     57.160821
  O      45.861660     29.304022     57.845362
  O      44.496852     27.761419     57.013275
  O      46.541958     26.608606     55.557946
  C      46.541755     26.950798     54.114838
  H      46.346043     25.985487     53.625567
  C      47.890836     27.495412     53.762547
  H      48.739993     26.826689     53.604416
  C      48.129366     28.822941     53.843282
  C      47.004148     29.750587     54.013144
  H      47.257891     30.800413     54.159272
  C      45.724083     29.331603     53.988022
  H      44.907579     30.051016     54.084905
  C      45.346574     27.883680     53.810533
  H      44.589276     27.629268     54.570141
  O      44.826025     27.675829     52.506617
  H      43.979978     27.132117     52.557462
  C      49.549233     29.383408     53.891397
  O      50.533600     28.596769     53.826284
  O      49.642238     30.615830     54.061272
24
Coordinates from ORCA-job neb_MEP_ALL.QMRegion E -1076.098579368834
  C      48.114132     28.011901     56.630820
  H      48.980297     27.533267     56.177686
  H      48.267305     28.900451     57.242249
  C      46.857073     27.592361     56.415146
  C      45.680803     28.269784     57.128551
  O      45.918397     29.293203     57.823527
  O      44.536914     27.766938     56.998300
  O      46.574699     26.577631     55.522222
  C      46.548419     26.914319     54.025051
  H      46.373186     25.939427     53.541084
  C      47.872731     27.496941     53.693410
  H      48.729101     26.858149     53.468455
  C      48.087010     28.811597     53.933010
  C      46.943284     29.707230     54.149213
  H      47.176177     30.746698     54.381777
  C      45.674035     29.274918     54.029637
  H      44.839559     29.975334     54.114063
  C      45.325843     27.832857     53.773769
  H      44.608813     27.514441     54.545235
  O      44.757030     27.695959     52.483065
  H      43.913763     27.139677     52.532702
  C      49.494801     29.395864     53.998445
  O      50.490906     28.626355     53.884047
  O      49.561329     30.625935     54.199037
24
Coordinates from ORCA-job neb_MEP_ALL.QMRegion E -1076.088350594908
  C      48.125427     28.044367     56.583962
  H      48.994053     27.540333     56.166219
  H      48.281879     28.979727     57.120062
  C      46.867050     27.584222     56.415097
  C      45.691880     28.274057     57.124922
  O      45.932579     29.295443     57.821638
  O      44.545563     27.773065     56.999895
  O      46.590809     26.555702     55.563450
  C      46.559921     26.915370     53.942364
  H      46.391316     25.926392     53.489500
  C      47.873048     27.495959     53.681582
  H      48.734172     26.867220     53.446371
  C      48.081905     28.798203     54.006088
  C      46.935095     29.693665     54.202982
  H      47.164952     30.731728     54.444903
  C      45.671714     29.264406     54.032163
  H      44.834870     29.965431     54.077858
  C      45.328159     27.827274     53.753373
  H      44.637729     27.483436     54.537453
  O      44.722369     27.721009     52.476161
  H      43.884763     27.153895     52.528882
  C      49.486003     29.393102     54.053273
  O      50.483909     28.628943     53.918631
  O      49.545238     30.626042     54.232997
24
Coordinates from ORCA-job neb_MEP_ALL.QMRegion E -1076.081182900187
  C      48.135566     28.069752     56.557551
  H      48.999003     27.532803     56.174608
  H      48.289585     29.000929     57.097277
  C      46.868628     27.562976     56.449152
  C      45.690426     28.277661     57.138112
  O      45.930054     29.305468     57.824299
  O      44.544877     27.780584     57.001959
  O      46.605054     26.522673     55.687406
  C      46.565559     26.935463     53.813293
  H      46.392267     25.915239     53.456773
  C      47.862497     27.489717     53.664130
  H      48.731500     26.865243     53.451339
  C      48.076273     28.791820     54.053465
  C      46.933241     29.695176     54.209168
  H      47.164856     30.733814     54.448153
  C      45.672306     29.266234     54.027291
  H      44.834976     29.966469     54.072414
  C      45.331673     27.831255     53.737844
  H      44.655280     27.475433     54.530649
  O      44.704736     27.736379     52.467994
  H      43.876673     27.154933     52.526971
  C      49.484404     29.390216     54.072385
  O      50.479539     28.626684     53.920509
  O      49.544537     30.625504     54.229339
24
Coordinates from ORCA-job neb_MEP_ALL.QMRegion E -1076.079818643536
  C      48.144743     28.101955     56.509535
  H      49.008044     27.526656     56.187208
  H      48.298954     29.021725     57.066962
  C      46.871233     27.549956     56.468788
  C      45.689428     28.280367     57.146800
  O      45.930480     29.311535     57.826337
  O      44.545239     27.784160     57.004909
  O      46.624357     26.491864     55.792243
  C      46.571233     26.950226     53.711297
  H      46.394247     25.913907     53.415985
  C      47.852260     27.479924     53.662354
  H      48.728669     26.862454     53.452909
  C      48.073275     28.782646     54.114039
  C      46.931707     29.694930     54.218950
  H      47.162897     30.733891     54.454332
  C      45.673906     29.266062     54.018755
  H      44.835217     29.964613     54.065135
  C      45.336145     27.832385     53.720785
  H      44.671853     27.466426     54.521037
  O      44.684766     27.751856     52.460075
  H      43.865633     27.158333     52.522928
  C      49.481703     29.386957     54.092502
  O      50.475059     28.625038     53.922625
  O      49.541401     30.624699     54.228901
24
Coordinates from ORCA-job neb_MEP_ALL.QMRegion E -1076.081696564621
  C      48.149588     28.146288     56.412262
  H      49.011291     27.519815     56.194234
  H      48.302886     29.035553     57.021056
  C      46.868235     27.547345     56.464889
  C      45.688268     28.282044     57.149796
  O      45.936803     29.311052     57.829509
  O      44.547316     27.782496     57.011792
  O      46.634894     26.470856     55.862935
  C      46.577535     26.959522     53.650962
  H      46.397207     25.917013     53.382114
  C      47.846146     27.468921     53.677012
  H      48.726358     26.859401     53.459235
  C      48.074161     28.765157     54.214923
  C      46.930761     29.691844     54.240895
  H      47.161319     30.733970     54.460800
  C      45.677934     29.265422     54.016194
  H      44.839227     29.965132     54.052302
  C      45.339054     27.831639     53.714643
  H      44.678291     27.460303     54.517631
  O      44.675009     27.760770     52.459294
  H      43.861512     27.161693     52.522406
  C      49.481461     29.382758     54.118329
  O      50.473112     28.624568     53.924961
  O      49.538674     30.623838     54.226180
24
Coordinates from ORCA-job neb_MEP_ALL.QMRegion E -1076.091110179274
  C      48.155428     28.202067     56.266524
  H      49.008397     27.519303     56.201669
  H      48.307929     29.056622     56.940827
  C      46.869052     27.541884     56.465002
  C      45.691168     28.280626     57.165753
  O      45.945975     29.312138     57.833036
  O      44.551511     27.785384     57.018754
  O      46.653110     26.445882     55.945238
  C      46.586219     26.968920     53.584487
  H      46.403033     25.922797     53.319023
  C      47.842373     27.457130     53.689472
  H      48.728254     26.853117     53.469864
  C      48.078924     28.736938     54.358035
  C      46.930732     29.687311     54.262979
  H      47.160143     30.731380     54.481325
  C      45.683711     29.265549     54.008232
  H      44.843948     29.968744     54.031686
  C      45.343101     27.828185     53.703826
  H      44.689770     27.447160     54.513732
  O      44.660261     27.777582     52.457092
  H      43.856024     27.167415     52.522704
  C      49.480609     29.379587     54.148069
  O      50.470088     28.624552     53.932154
  O      49.533957     30.621140     54.226292
24
Coordinates from ORCA-job neb_MEP_ALL.QMRegion E -1076.116158258012
  C      48.133778     28.253434     56.075514
  H      48.967203     27.549002     56.187049
  H      48.298031     29.124008     56.714578
  C      46.852856     27.559738     56.443776
  C      45.697849     28.291282     57.172825
  O      45.977148     29.305153     57.853688
  O      44.561969     27.781997     57.054548
  O      46.689206     26.396472     56.138657
  C      46.608370     26.996054     53.490612
  H      46.431817     25.979045     53.136469
  C      47.844761     27.437428     53.747863
  H      48.730137     26.839876     53.519493
  C      48.090670     28.700282     54.518439
  C      46.938437     29.664479     54.359524
  H      47.160492     30.716305     54.539095
  C      45.711431     29.255760     54.019882
  H      44.887624     29.973153     53.960681
  C      45.362536     27.829775     53.677853
  H      44.735120     27.422107     54.496769
  O      44.623959     27.820096     52.463190
  H      43.838634     27.185590     52.526372
  C      49.476289     29.370386     54.203616
  O      50.464176     28.623121     53.957752
  O      49.512727     30.614490     54.231115
24
Coordinates from ORCA-job neb_MEP_ALL.QMRegion E -1076.125398909238
  C      48.224000     28.262000     55.994000
  H      49.076000     27.584000     56.141000
  H      48.362000     29.164000     56.599000
  C      46.972000     27.540000     56.426000
  C      45.866000     28.295000     57.208000
  O      46.244000     29.174000     58.008000
  O      44.683000     27.925000     56.990000
  O      46.818000     26.364000     56.154000
  C      46.697000     27.059000     53.236000
  H      46.542000     26.129000     52.688000
  C      47.919000     27.448000     53.618000
  H      48.814000     26.873000     53.361000
  C      48.145000     28.672000     54.467000
  C      46.985000     29.634000     54.326000
  H      47.195000     30.670000     54.594000
  C      45.768000     29.246000     53.934000
  H      44.950000     29.969000     53.871000
  C      45.435000     27.831000     53.537000
  H      44.923000     27.350000     54.394000
  O      44.578000     27.844000     52.410000
  H      43.802000     27.210000     52.525000
  C      49.516000     29.369000     54.153000
  O      50.522000     28.638000     53.933000
  O      49.531000     30.612000     54.192000
24
Coordinates from ORCA-job neb_MEP_ALL.QMRegion E -1076.098627360599
  C      48.064000     27.894000     56.866000
  H      48.929000     27.402000     56.423000
  H      48.211000     28.661000     57.627000
  C      46.808000     27.594000     56.511000
  C      45.618000     28.277000     57.175000
  O      45.842000     29.312000     57.855000
  O      44.482000     27.767000     57.017000
  O      46.535000     26.614000     55.576000
  C      46.550000     26.968000     54.140000
  H      46.353000     26.007000     53.643000
  C      47.908000     27.502000     53.801000
  H      48.758000     26.826000     53.679000
  C      48.154000     28.827000     53.832000
  C      47.036000     29.770000     53.961000
  H      47.296000     30.825000     54.057000
  C      45.755000     29.358000     53.958000
  H      44.944000     30.088000     54.032000
  C      45.364000     27.910000     53.819000
  H      44.602000     27.678000     54.582000
  O      44.845000     27.680000     52.517000
  H      43.998000     27.141000     52.574000
  C      49.577000     29.380000     53.866000
  O      50.556000     28.587000     53.823000
  O      49.681000     30.616000     54.001000
24
Coordinates from ORCA-job neb_MEP_ALL.QMRegion E -1076.102528887617
  C      48.077526     27.929737     56.798468
  H      48.942290     27.458925     56.333712
  H      48.224581     28.713993     57.541080
  C      46.820703     27.597284     56.478970
  C      45.634199     28.272890     57.160728
  O      45.861658     29.303848     57.845263
  O      44.497042     27.761434     57.013256
  O      46.541812     26.608111     55.557606
  C      46.541741     26.950527     54.114426
  H      46.346130     25.985716     53.625702
  C      47.890844     27.496297     53.762172
  H      48.740027     26.826625     53.604188
  C      48.129087     28.822027     53.843448
  C      47.003422     29.750339     54.013147
  H      47.257731     30.800422     54.159604
  C      45.724591     29.331526     53.988180
  H      44.907411     30.050833     54.085082
  C      45.346485     27.883829     53.810497
  H      44.589195     27.628989     54.570115
  O      44.825925     27.675781     52.506685
  H      43.979876     27.132121     52.557360
  C      49.549120     29.383404     53.891635
  O      50.533497     28.596759     53.826241
  O      49.642097     30.615889     54.061367
24
Coordinates from ORCA-job neb_MEP_ALL.QMRegion E -1076.098376820612
  C      48.114165     28.010152     56.632543
  H      48.979553     27.533408     56.177778
  H      48.266406     28.897657     57.245877
  C      46.856173     27.593305     56.414401
  C      45.680586     28.269720     57.127076
  O      45.918406     29.292461     57.823542
  O      44.537111     27.766209     56.998197
  O      46.573119     26.578289     55.520522
  C      46.548189     26.914756     54.027564
  H      46.373051     25.940704     53.543963
  C      47.873074     27.497991     53.693732
  H      48.729487     26.857902     53.468905
  C      48.087381     28.811419     53.929503
  C      46.943282     29.707437     54.147057
  H      47.176421     30.746783     54.380599
  C      45.674661     29.274965     54.030336
  H      44.839717     29.975346     54.114567
  C      45.325578     27.833160     53.775026
  H      44.607187     27.515317     54.545898
  O      44.758560     27.694434     52.483528
  H      43.914900     27.139526     52.532993
  C      49.495468     29.396331     53.996423
  O      50.491093     28.626244     53.883459
  O      49.561739     30.625960     54.198438
24
Coordinates from ORCA-job neb_MEP_ALL.QMRegion E -1076.089765696038
  C      48.126411     28.045804     56.582110
  H      48.994150     27.539531     56.166685
  H      48.281813     28.979531     57.121184
  C      46.866726     27.582963     56.418073
  C      45.691576     28.274335     57.125273
  O      45.932304     29.295896     57.821666
  O      44.545710     27.773286     56.999752
  O      46.590497     26.552804     55.571304
  C      46.560216     26.917065     53.934865
  H      46.391277     25.926043     53.489023
  C      47.872792     27.496445     53.679292
  H      48.734212     26.866967     53.446861
  C      48.081772     28.797909     54.007169
  C      46.934882     29.693911     54.201637
  H      47.164957     30.731741     54.444848
  C      45.672089     29.264559     54.032141
  H      44.834914     29.965265     54.078165
  C      45.328039     27.827912     53.752985
  H      44.638018     27.483227     54.537398
  O      44.722329     27.721245     52.475584
  H      43.884749     27.153643     52.529132
  C      49.486203     29.393327     54.053765
  O      50.483579     28.628912     53.918165
  O      49.545365     30.626199     54.232527
24
Coordinates from ORCA-job neb_MEP_ALL.QMRegion E -1076.081726965400
  C      48.135369     28.071230     56.554986
  H      48.999531     27.532411     56.175334
  H      48.289921     29.001005     57.096967
  C      46.868902     27.562484     56.449097
  C      45.690439     28.277638     57.138293
  O      45.929980     29.305560     57.824533
  O      44.544804     27.780759     57.002141
  O      46.605676     26.521834     55.690167
  C      46.565881     26.935934     53.810978
  H      46.392411     25.915533     53.455642
  C      47.862306     27.489568     53.664660
  H      48.731456     26.865205     53.451195
  C      48.076305     28.791294     54.055623
  C      46.933256     29.695177     54.209471
  H      47.164721     30.733674     54.448175
  C      45.672373     29.266219     54.026639
  H      44.835066     29.966142     54.072440
  C      45.331810     27.831358     53.737521
  H      44.655705     27.475027     54.530383
  O      44.704187     27.736807     52.467826
  H      43.876296     27.155091     52.526790
  C      49.484297     29.390065     54.073242
  O      50.479347     28.626617     53.920278
  O      49.544296     30.625540     54.229128
24
Coordinates from ORCA-job neb_MEP_ALL.QMRegion E -1076.079835916954
  C      48.145018     28.101687     56.509645
  H      49.008038     27.526648     56.187288
  H      48.298913     29.021732     57.067353
  C      46.871124     27.549972     56.468712
  C      45.689352     28.280274     57.146671
  O      45.930510     29.311438     57.826352
  O      44.545292     27.784209     57.004913
  O      46.624356     26.491864     55.792093
  C      46.571169     26.950117     53.711281
  H      46.394319     25.913930     53.415923
  C      47.852410     27.480024     53.662398
  H      48.728681     26.862513     53.452837
  C      48.073215     28.782613     54.113784
  C      46.931833     29.694952     54.219063
  H      47.162849     30.733840     54.454228
  C      45.673758     29.265991     54.018740
  H      44.835208     29.964527     54.065174
  C      45.336200     27.832364     53.720733
  H      44.671913     27.466374     54.521009
  O      44.684774     27.751806     52.460048
  H      43.865592     27.158312     52.522942
  C      49.481798     29.386993     54.092378
  O      50.475050     28.625061     53.922627
  O      49.541407     30.624683     54.228902
24
Coordinates from ORCA-job neb_MEP_ALL.QMRegion E -1076.081806603154
  C      48.150178     28.149132     56.404195
  H      49.011293     27.519617     56.195265
  H      48.303425     29.037092     57.017244
  C      46.868448     27.546534     56.465324
  C      45.688374     28.282054     57.150562
  O      45.937201     29.311178     57.829498
  O      44.547315     27.782717     57.012278
  O      46.636138     26.469111     55.869623
  C      46.577561     26.960036     53.646433
  H      46.397556     25.917573     53.378685
  C      47.845706     27.468573     53.677572
  H      48.726216     26.859156     53.459883
  C      48.074542     28.763675     54.222736
  C      46.930597     29.691577     54.242658
  H      47.161139     30.734035     54.461526
  C      45.678126     29.265285     54.016222
  H      44.839585     29.965137     54.051109
  C      45.339556     27.831487     53.713472
  H      44.679660     27.459768     54.516823
  O      44.673676     27.762113     52.458864
  H      43.860846     27.161637     52.522373
  C      49.481159     29.382613     54.119779
  O      50.472662     28.624400     53.925812
  O      49.538318     30.623493     54.226371
24
Coordinates from ORCA-job neb_MEP_ALL.QMRegion E -1076.091538562128
  C      48.154019     28.201972     56.264576
  H      49.007106     27.520539     56.201179
  H      48.308075     29.056145     56.937729
  C      46.867263     27.543107     56.461926
  C      45.691150     28.282144     57.162363
  O      45.946978     29.311260     57.834512
  O      44.552472     27.783880     57.019857
  O      46.652595     26.443905     55.948315
  C      46.586272     26.968265     53.589212
  H      46.403831     25.925766     53.317543
  C      47.841887     27.457406     53.691629
  H      48.727261     26.853817     53.470278
  C      48.079615     28.737248     54.357713
  C      46.930965     29.686044     54.269135
  H      47.159831     30.730977     54.479569
  C      45.684179     29.263923     54.011080
  H      44.846117     29.967354     54.030229
  C      45.344178     27.829295     53.702702
  H      44.692609     27.448329     54.511132
  O      44.658701     27.777803     52.456868
  H      43.855183     27.166271     52.522293
  C      49.480265     29.378654     54.147743
  O      50.469676     28.624217     53.932974
  O      49.533198     30.620822     54.226430
24
Coordinates from ORCA-job neb_MEP_ALL.QMRegion E -1076.116634021161
  C      48.135236     28.254794     56.077050
  H      48.968360     27.547292     56.188176
  H      48.298031     29.123926     56.721643
  C      46.853379     27.558294     56.446091
  C      45.696466     28.292018     57.172890
  O      45.975690     29.306314     57.853049
  O      44.560939     27.781133     57.053993
  O      46.687403     26.396198     56.133569
  C      46.607154     26.994720     53.494738
  H      46.431236     25.977934     53.140239
  C      47.844624     27.438024     53.743972
  H      48.730396     26.839660     53.519158
  C      48.089991     28.700118     54.518316
  C      46.937963     29.664959     54.355461
  H      47.160502     30.716709     54.538533
  C      45.709749     29.255948     54.020065
  H      44.886571     29.973084     53.962363
  C      45.361754     27.830161     53.678111
  H      44.735008     27.422856     54.496566
  O      44.624558     27.819528     52.462823
  H      43.838777     27.185110     52.526503
  C      49.475897     29.370562     54.199995
  O      50.464202     28.623498     53.958173
  O      49.513279     30.614022     54.232149
24
Coordinates from ORCA-job neb_MEP_ALL.QMRegion E -1076.125398909238
  C      48.224000     28.262000     55.994000
  H      49.076000     27.584000     56.141000
  H      48.362000     29.164000     56.599000
  C      46.972000     27.540000     56.426000
  C      45.866000     28.295000     57.208000
  O      46.244000     29.174000     58.008000
  O      44.683000     27.925000     56.990000
  O      46.818000     26.364000     56.154000
  C      46.697000     27.059000     53.236000
  H      46.542000     26.129000     52.688000
  C      47.919000     27.448000     53.618000
  H      48.814000     26.873000     53.361000
  C      48.145000     28.672000     54.467000
  C      46.985000     29.634000     54.326000
  H      47.195000     30.670000     54.594000
  C      45.768000     29.246000     53.934000
  H      44.950000     29.969000     53.871000
  C      45.435000     27.831000     53.537000
  H      44.923000     27.350000     54.394000
  O      44.578000     27.844000     52.410000
  H      43.802000     27.210000     52.525000
  C      49.516000     29.369000     54.153000
  O      50.522000     28.638000     53.933000
  O      49.531000     30.612000     54.192000
24
Coordinates from ORCA-job neb_MEP_ALL.QMRegion E -1076.098627360599
  C      48.064000     27.894000     56.866000
  H      48.929000     27.402000     56.423000
  H      48.211000     28.661000     57.627000
  C      46.808000     27.594000     56.511000
  C      45.618000     28.277000     57.175000
  O      45.842000     29.312000     57.855000
  O      44.482000     27.767000     57.017000
  O      46.535000     26.614000     55.576000
  C      46.550000     26.968000     54.140000
  H      46.353000     26.007000     53.643000
  C      47.908000     27.502000     53.801000
  H      48.758000     26.826000     53.679000
  C      48.154000     28.827000     53.832000
  C      47.036000     29.770000     53.961000
  H      47.296000     30.825000     54.057000
  C      45.755000     29.358000     53.958000
  H      44.944000     30.088000     54.032000
  C      45.364000     27.910000     53.819000
  H      44.602000     27.678000     54.582000
  O      44.845000     27.680000     52.517000
  H      43.998000     27.141000     52.574000
  C      49.577000     29.380000     53.866000
  O      50.556000     28.587000     53.823000
  O      49.681000     30.616000     54.001000
24
Coordinates from ORCA-job neb_MEP_ALL.QMRegion E -1076.102554355537
  C      48.077757     27.929827     56.798298
  H      48.942538     27.459212     56.333628
  H      48.224612     28.713543     57.541276
  C      46.820765     27.597590     56.479519
  C      45.634231     28.272679     57.160491
  O      45.861890     29.303539     57.845239
  O      44.497677     27.761382     57.013223
  O      46.541898     26.607684     55.557174
  C      46.541553     26.950265     54.113831
  H      46.345963     25.985663     53.625751
  C      47.890561     27.496623     53.761371
  H      48.739658     26.826616     53.603367
  C      48.128540     28.821566     53.843261
  C      47.002662     29.750085     54.013086
  H      47.257093     30.800228     54.159897
  C      45.724285     29.331221     53.988719
  H      44.906942     30.050219     54.086338
  C      45.346097     27.883758     53.810500
  H      44.588741     27.628227     54.569975
  O      44.825712     27.675709     52.506656
  H      43.979746     27.131994     52.557021
  C      49.548650     29.383071     53.891350
  O      50.533064     28.596639     53.825908
  O      49.641762     30.616038     54.061518
24
Coordinates from ORCA-job neb_MEP_ALL.QMRegion E -1076.098677850176
  C      48.114691     28.009859     56.631128
  H      48.980398     27.534528     56.175892
  H      48.266398     28.898966     57.242048
  C      46.856677     27.594246     56.412100
  C      45.681788     28.270019     57.125456
  O      45.920151     29.290530     57.822515
  O      44.538457     27.765625     56.997418
  O      46.572846     26.578449     55.518029
  C      46.548543     26.914575     54.026839
  H      46.374290     25.940991     53.543847
  C      47.873224     27.498452     53.692563
  H      48.729999     26.858780     53.466055
  C      48.086878     28.811169     53.928988
  C      46.942154     29.706449     54.148466
  H      47.174710     30.745427     54.384428
  C      45.673932     29.273437     54.031795
  H      44.838566     29.973375     54.114412
  C      45.325141     27.832104     53.775215
  H      44.606707     27.512910     54.545808
  O      44.757969     27.694036     52.483654
  H      43.913736     27.140040     52.532672
  C      49.494345     29.397084     53.997137
  O      50.490809     28.626424     53.884998
  O      49.560753     30.626235     54.201013
24
Coordinates from ORCA-job neb_MEP_ALL.QMRegion E -1076.089330177413
  C      48.127279     28.048119     56.579577
  H      48.995060     27.538281     56.168042
  H      48.282095     28.980149     57.121095
  C      46.867258     27.580418     56.422045
  C      45.691600     28.274441     57.126760
  O      45.932198     29.296566     57.821577
  O      44.545961     27.774089     56.999262
  O      46.591382     26.549169     55.582327
  C      46.561066     26.918944     53.922796
  H      46.391938     25.924940     53.485862
  C      47.872240     27.496594     53.676027
  H      48.734525     26.866984     53.446872
  C      48.081340     28.797232     54.010522
  C      46.934645     29.694017     54.201256
  H      47.164612     30.731577     54.445384
  C      45.672044     29.264423     54.031704
  H      44.834863     29.964638     54.077881
  C      45.328316     27.828225     53.751603
  H      44.639743     27.481677     54.536670
  O      44.720881     27.722452     52.474733
  H      43.883824     27.153673     52.529125
  C      49.485938     29.393211     54.055460
  O      50.483278     28.628763     53.918215
  O      49.545632     30.626620     54.232186
24
Coordinates from ORCA-job neb_MEP_ALL.QMRegion E -1076.081621436849
  C      48.135628     28.072123     56.553274
  H      49.000330     27.531925     56.176865
  H      48.290239     29.000522     57.097978
  C      46.869353     27.561701     56.449790
  C      45.690569     28.277523     57.138698
  O      45.930053     29.305471     57.824733
  O      44.544819     27.781041     57.001949
  O      46.606762     26.520376     55.694055
  C      46.566675     26.936559     53.806592
  H      46.392973     25.915667     53.453257
  C      47.861877     27.489501     53.664646
  H      48.731786     26.865289     53.450589
  C      48.076358     28.790728     54.057465
  C      46.933067     29.695156     54.209410
  H      47.164353     30.733496     54.447989
  C      45.672513     29.265946     54.025877
  H      44.834892     29.965408     54.072619
  C      45.332132     27.831186     53.736669
  H      44.656768     27.473869     54.529762
  O      44.703038     27.737379     52.467378
  H      43.875539     27.155321     52.526483
  C      49.484196     29.389903     54.073771
  O      50.479091     28.626483     53.920065
  O      49.544197     30.625710     54.228816
24
Coordinates from ORCA-job neb_MEP_ALL.QMRegion E -1076.079843505494
  C      48.145301     28.101134     56.510840
  H      49.008538     27.526429     56.188092
  H      48.298872     29.020992     57.069146
  C      46.871376     27.549511     56.468864
  C      45.689505     28.280191     57.146664
  O      45.930651     29.311044     57.826344
  O      44.545410     27.784253     57.004583
  O      46.624717     26.491641     55.792208
  C      46.571320     26.949989     53.710270
  H      46.394816     25.913983     53.414568
  C      47.852782     27.480077     53.661975
  H      48.728942     26.862762     53.452373
  C      48.073214     28.782790     54.113106
  C      46.931695     29.694746     54.218761
  H      47.162575     30.733789     54.453853
  C      45.673772     29.265684     54.018631
  H      44.834955     29.963970     54.065398
  C      45.336351     27.832050     53.720224
  H      44.672481     27.465615     54.520670
  O      44.684369     27.751819     52.459768
  H      43.865155     27.158371     52.522846
  C      49.481840     29.387046     54.091944
  O      50.475080     28.624999     53.922522
  O      49.541518     30.624758     54.228759
24
Coordinates from ORCA-job neb_MEP_ALL.QMRegion E -1076.082193326238
  C      48.150707     28.151357     56.398985
  H      49.011766     27.519241     56.196837
  H      48.303803     29.037357     57.015423
  C      46.868898     27.545756     56.466337
  C      45.688795     28.282250     57.151469
  O      45.937557     29.310786     57.829282
  O      44.547340     27.782926     57.012319
  O      46.637489     26.467183     55.875117
  C      46.577844     26.960568     53.642110
  H      46.398313     25.918071     53.374425
  C      47.845322     27.468186     53.677492
  H      48.726417     26.859156     53.460030
  C      48.075002     28.762681     54.228419
  C      46.930373     29.691210     54.243888
  H      47.160767     30.734064     54.461793
  C      45.678250     29.264738     54.016122
  H      44.839637     29.964683     54.050317
  C      45.340188     27.831002     53.712090
  H      44.681461     27.458634     54.515700
  O      44.672143     27.763389     52.458250
  H      43.859836     27.161598     52.522243
  C      49.480770     29.382822     54.120840
  O      50.472351     28.624154     53.926361
  O      49.538137     30.622958     54.226300
24
Coordinates from ORCA-job neb_MEP_ALL.QMRegion E -1076.092145447934
  C      48.153538     28.200687     56.266443
  H      49.006529     27.521272     56.201248
  H      48.307859     29.054732     56.938183
  C      46.866272     27.543617     56.459565
  C      45.691423     28.283484     57.159441
  O      45.947998     29.309658     57.835272
  O      44.552675     27.782398     57.020269
  O      46.652107     26.443427     55.949591
  C      46.586335     26.968221     53.592022
  H      46.404841     25.928036     53.316243
  C      47.841540     27.457307     53.693359
  H      48.726619     26.854849     53.469806
  C      48.080365     28.738268     54.354516
  C      46.929955     29.684337     54.273160
  H      47.159414     30.730832     54.477510
  C      45.685640     29.262598     54.013690
  H      44.847460     29.965675     54.029575
  C      45.345239     27.829677     53.701819
  H      44.694961     27.448883     54.508656
  O      44.657917     27.777494     52.457011
  H      43.854001     27.165321     52.521678
  C      49.479376     29.378548     54.147086
  O      50.469900     28.623678     53.933109
  O      49.532860     30.620274     54.226260
24
Coordinates from ORCA-job neb_MEP_ALL.QMRegion E -1076.116610214680
  C      48.136250     28.257084     56.077327
  H      48.967834     27.545696     56.190417
  H      48.296810     29.124816     56.727600
  C      46.853090     27.556708     56.449554
  C      45.692395     28.292104     57.173061
  O      45.971208     29.309577     57.850581
  O      44.558836     27.778517     57.055073
  O      46.684913     26.395567     56.131352
  C      46.605377     26.993127     53.498976
  H      46.430435     25.976883     53.143576
  C      47.843695     27.438490     53.741236
  H      48.730310     26.838738     53.521084
  C      48.088633     28.699293     54.521090
  C      46.936940     29.665269     54.351965
  H      47.159868     30.716880     54.539056
  C      45.707677     29.255885     54.020787
  H      44.885103     29.973067     53.963914
  C      45.360474     27.830556     53.678978
  H      44.734455     27.423034     54.496503
  O      44.624630     27.819403     52.463027
  H      43.838691     27.184958     52.526612
  C      49.473737     29.369911     54.197627
  O      50.464075     28.623651     53.959229
  O      49.513478     30.614073     54.234022
24
Coordinates from ORCA-job neb_MEP_ALL.QMRegion E -1076.125398909238
  C      48.224000     28.262000     55.994000
  H      49.076000     27.584000     56.141000
  H      48.362000     29.164000     56.599000
  C      46.972000     27.540000     56.426000
  C      45.866000     28.295000     57.208000
  O      46.244000     29.174000     58.008000
  O      44.683000     27.925000     56.990000
  O      46.818000     26.364000     56.154000
  C      46.697000     27.059000     53.236000
  H      46.542000     26.129000     52.688000
  C      47.919000     27.448000     53.618000
  H      48.814000     26.873000     53.361000
  C      48.145000     28.672000     54.467000
  C      46.985000     29.634000     54.326000
  H      47.195000     30.670000     54.594000
  C      45.768000     29.246000     53.934000
  H      44.950000     29.969000     53.871000
  C      45.435000     27.831000     53.537000
  H      44.923000     27.350000     54.394000
  O      44.578000     27.844000     52.410000
  H      43.802000     27.210000     52.525000
  C      49.516000     29.369000     54.153000
  O      50.522000     28.638000     53.933000
  O      49.531000     30.612000     54.192000
24
Coordinates from ORCA-job neb_MEP_ALL.QMRegion E -1076.098627360599
  C      48.064000     27.894000     56.866000
  H      48.929000     27.402000     56.423000
  H      48.211000     28.661000     57.627000
  C      46.808000     27.594000     56.511000
  C      45.618000     28.277000     57.175000
  O      45.842000     29.312000     57.855000
  O      44.482000     27.767000     57.017000
  O      46.535000     26.614000     55.576000
  C      46.550000     26.968000     54.140000
  H      46.353000     26.007000     53.643000
  C      47.908000     27.502000     53.801000
  H      48.758000     26.826000     53.679000
  C      48.154000     28.827000     53.832000
  C      47.036000     29.770000     53.961000
  H      47.296000     30.825000     54.057000
  C      45.755000     29.358000     53.958000
  H      44.944000     30.088000     54.032000
  C      45.364000     27.910000     53.819000
  H      44.602000     27.678000     54.582000
  O      44.845000     27.680000     52.517000
  H      43.998000     27.141000     52.574000
  C      49.577000     29.380000     53.866000
  O      50.556000     28.587000     53.823000
  O      49.681000     30.616000     54.001000
24
Coordinates from ORCA-job neb_MEP_ALL.QMRegion E -1076.102621541211
  C      48.077978     27.929838     56.798431
  H      48.942935     27.459340     56.333588
  H      48.224660     28.713014     57.541525
  C      46.820920     27.597565     56.479611
  C      45.634614     28.272724     57.160401
  O      45.862157     29.303195     57.845213
  O      44.497951     27.761132     57.013123
  O      46.542183     26.607468     55.556912
  C      46.541338     26.950133     54.113400
  H      46.345691     25.985316     53.625561
  C      47.890117     27.496325     53.760612
  H      48.739188     26.826655     53.602429
  C      48.127995     28.821677     53.842971
  C      47.002095     29.749915     54.013094
  H      47.256321     30.799993     54.160113
  C      45.723580     29.330853     53.989349
  H      44.906339     30.049570     54.087761
  C      45.345649     27.883448     53.810522
  H      44.588269     27.627357     54.569796
  O      44.825426     27.675753     52.506582
  H      43.979527     27.131837     52.556660
  C      49.548092     29.383144     53.891020
  O      50.532575     28.596427     53.825579
  O      49.641362     30.615752     54.061562
24
Coordinates from ORCA-job neb_MEP_ALL.QMRegion E -1076.098652925423
  C      48.115715     28.010376     56.627776
  H      48.982121     27.536172     56.172711
  H      48.266855     28.903828     57.232185
  C      46.857602     27.595111     56.408194
  C      45.683409     28.269547     57.122674
  O      45.923232     29.288903     57.821576
  O      44.540384     27.765152     56.996462
  O      46.573239     26.578463     55.515574
  C      46.549402     26.914249     54.024350
  H      46.376552     25.940688     53.541762
  C      47.873760     27.498448     53.691118
  H      48.730798     26.860370     53.461502
  C      48.086143     28.811081     53.930781
  C      46.940707     29.704606     54.152701
  H      47.172188     30.743080     54.392041
  C      45.672725     29.271074     54.033644
  H      44.836910     29.970583     54.112555
  C      45.324723     27.830240     53.774748
  H      44.607207     27.508757     54.545455
  O      44.755988     27.694472     52.483673
  H      43.911202     27.141206     52.532200
  C      49.493138     29.397423     54.000142
  O      50.489876     28.627243     53.888613
  O      49.558865     30.626641     54.205810
24
Coordinates from ORCA-job neb_MEP_ALL.QMRegion E -1076.088412078808
  C      48.127910     28.048509     56.579157
  H      48.995517     27.537105     56.169118
  H      48.281821     28.978956     57.123031
  C      46.867486     27.578117     56.424958
  C      45.691704     28.274113     57.127706
  O      45.932098     29.297056     57.821595
  O      44.545901     27.774569     56.998566
  O      46.591933     26.546780     55.591617
  C      46.561872     26.920892     53.913382
  H      46.392486     25.924220     53.484141
  C      47.871692     27.496460     53.673239
  H      48.735064     26.867152     53.447010
  C      48.081087     28.797532     54.010462
  C      46.934483     29.694285     54.199630
  H      47.164360     30.731458     54.445364
  C      45.672030     29.264295     54.031440
  H      44.834685     29.964109     54.078055
  C      45.328569     27.828219     53.750860
  H      44.640664     27.480449     54.536146
  O      44.720198     27.722889     52.474330
  H      43.883635     27.153607     52.529238
  C      49.486106     29.393472     54.055411
  O      50.483110     28.628647     53.918293
  O      49.546150     30.626759     54.231635
24
Coordinates from ORCA-job neb_MEP_ALL.QMRegion E -1076.081499989339
  C      48.136086     28.072176     56.553338
  H      49.001040     27.531528     56.178560
  H      48.290375     28.998973     57.100686
  C      46.869694     27.561000     56.450558
  C      45.690710     28.277212     57.139082
  O      45.929977     29.305378     57.824876
  O      44.544919     27.781298     57.001374
  O      46.607714     26.519336     55.695412
  C      46.567096     26.936550     53.805093
  H      46.393563     25.915975     53.451347
  C      47.862165     27.489253     53.664216
  H      48.732163     26.865590     53.449634
  C      48.076356     28.790970     54.056859
  C      46.933040     29.695145     54.208296
  H      47.163968     30.733328     54.447838
  C      45.672520     29.265627     54.024979
  H      44.834533     29.964491     54.073277
  C      45.332487     27.830822     53.735778
  H      44.657790     27.472729     54.529057
  O      44.702200     27.737754     52.466982
  H      43.874704     27.155447     52.526162
  C      49.484135     29.390118     54.073210
  O      50.478952     28.626464     53.919773
  O      49.544190     30.625783     54.228662
24
Coordinates from ORCA-job neb_MEP_ALL.QMRegion E -1076.079854814873
  C      48.145570     28.100754     56.511641
  H      49.009186     27.526129     56.189194
  H      48.298815     29.019830     57.071299
  C      46.871702     27.549067     56.468942
  C      45.689676     28.279879     57.146522
  O      45.930879     29.310686     57.826488
  O      44.545570     27.784264     57.004142
  O      46.625097     26.491260     55.792361
  C      46.571753     26.949988     53.708950
  H      46.395439     25.914014     53.412927
  C      47.853055     27.480071     53.661515
  H      48.729402     26.863015     53.451755
  C      48.073304     28.782866     54.112785
  C      46.931647     29.694588     54.218381
  H      47.162224     30.733637     54.453479
  C      45.673661     29.265243     54.018390
  H      44.834672     29.963248     54.065676
  C      45.336524     27.831643     53.719651
  H      44.673151     27.464700     54.520303
  O      44.683967     27.751790     52.459465
  H      43.864595     27.158462     52.522703
  C      49.481873     29.387155     54.091585
  O      50.475121     28.624988     53.922283
  O      49.541619     30.624834     54.228521
24
Coordinates from ORCA-job neb_MEP_ALL.QMRegion E -1076.082517935015
  C      48.151334     28.151626     56.398761
  H      49.012419     27.518831     56.197798
  H      48.303961     29.037447     57.015242
  C      46.869251     27.545064     56.467314
  C      45.688842     28.281711     57.151497
  O      45.938092     29.310663     57.829265
  O      44.547598     27.783190     57.012145
  O      46.638334     26.465986     55.877671
  C      46.578157     26.960812     53.638912
  H      46.399073     25.918162     53.371231
  C      47.845255     27.468147     53.676632
  H      48.726734     26.859318     53.460096
  C      48.075107     28.762457     54.229970
  C      46.930220     29.690902     54.244600
  H      47.160421     30.734028     54.461841
  C      45.678231     29.264088     54.016232
  H      44.839487     29.964168     54.049835
  C      45.340590     27.830526     53.711108
  H      44.682685     27.457613     54.514960
  O      44.671172     27.763827     52.457734
  H      43.859227     27.161582     52.522257
  C      49.480758     29.382425     54.121256
  O      50.472166     28.624126     53.926776
  O      49.538219     30.623057     54.226227
24
Coordinates from ORCA-job neb_MEP_ALL.QMRegion E -1076.092066878226
  C      48.153687     28.200712     56.266155
  H      49.006416     27.521468     56.202815
  H      48.307433     29.050317     56.943248
  C      46.865952     27.544965     56.456792
  C      45.690791     28.283606     57.156965
  O      45.948151     29.308466     57.835265
  O      44.553180     27.781094     57.019992
  O      46.651215     26.443894     55.947942
  C      46.586269     26.968653     53.593102
  H      46.404959     25.928206     53.318742
  C      47.841607     27.457179     53.694702
  H      48.726108     26.855536     53.468278
  C      48.080943     28.738495     54.355332
  C      46.930275     29.683952     54.275436
  H      47.158771     30.730930     54.473983
  C      45.685114     29.261518     54.014954
  H      44.847442     29.964127     54.030588
  C      45.345926     27.829453     53.701711
  H      44.695269     27.449690     54.507512
  O      44.658179     27.775924     52.456999
  H      43.853447     27.164648     52.521339
  C      49.479711     29.378113     54.146536
  O      50.469834     28.623872     53.931931
  O      49.533136     30.620325     54.225264
24
Coordinates from ORCA-job neb_MEP_ALL.QMRegion E -1076.116523063872
  C      48.136882     28.258342     56.079466
  H      48.967448     27.544605     56.192532
  H      48.295393     29.127132     56.731447
  C      46.853280     27.555548     56.453745
  C      45.689767     28.292275     57.174602
  O      45.966848     29.312111     57.847973
  O      44.556260     27.776715     57.056570
  O      46.683534     26.394840     56.131009
  C      46.604339     26.992278     53.500187
  H      46.430390     25.976748     53.142488
  C      47.843028     27.438716     53.738581
  H      48.730812     26.837712     53.523368
  C      48.087162     28.698554     54.521230
  C      46.936118     29.665546     54.348354
  H      47.159225     30.716206     54.541351
  C      45.706107     29.255943     54.020521
  H      44.883620     29.973489     53.964520
  C      45.359557     27.830652     53.679338
  H      44.734575     27.421950     54.496501
  O      44.624177     27.819919     52.463350
  H      43.838322     27.185582     52.526829
  C      49.472043     29.369726     54.196392
  O      50.463800     28.623949     53.960428
  O      49.513150     30.613515     54.235941
24
Coordinates from ORCA-job neb_MEP_ALL.QMRegion E -1076.125398909238
  C      48.224000     28.262000     55.994000
  H      49.076000     27.584000     56.141000
  H      48.362000     29.164000     56.599000
  C      46.972000     27.540000     56.426000
  C      45.866000     28.295000     57.208000
  O      46.244000     29.174000     58.008000
  O      44.683000     27.925000     56.990000
  O      46.818000     26.364000     56.154000
  C      46.697000     27.059000     53.236000
  H      46.542000     26.129000     52.688000
  C      47.919000     27.448000     53.618000
  H      48.814000     26.873000     53.361000
  C      48.145000     28.672000     54.467000
  C      46.985000     29.634000     54.326000
  H      47.195000     30.670000     54.594000
  C      45.768000     29.246000     53.934000
  H      44.950000     29.969000     53.871000
  C      45.435000     27.831000     53.537000
  H      44.923000     27.350000     54.394000
  O      44.578000     27.844000     52.410000
  H      43.802000     27.210000     52.525000
  C      49.516000     29.369000     54.153000
  O      50.522000     28.638000     53.933000
  O      49.531000     30.612000     54.192000
24
Coordinates from ORCA-job neb_MEP_ALL.QMRegion E -1076.098627360599
  C      48.064000     27.894000     56.866000
  H      48.929000     27.402000     56.423000
  H      48.211000     28.661000     57.627000
  C      46.808000     27.594000     56.511000
  C      45.618000     28.277000     57.175000
  O      45.842000     29.312000     57.855000
  O      44.482000     27.767000     57.017000
  O      46.535000     26.614000     55.576000
  C      46.550000     26.968000     54.140000
  H      46.353000     26.007000     53.643000
  C      47.908000     27.502000     53.801000
  H      48.758000     26.826000     53.679000
  C      48.154000     28.827000     53.832000
  C      47.036000     29.770000     53.961000
  H      47.296000     30.825000     54.057000
  C      45.755000     29.358000     53.958000
  H      44.944000     30.088000     54.032000
  C      45.364000     27.910000     53.819000
  H      44.602000     27.678000     54.582000
  O      44.845000     27.680000     52.517000
  H      43.998000     27.141000     52.574000
  C      49.577000     29.380000     53.866000
  O      50.556000     28.587000     53.823000
  O      49.681000     30.616000     54.001000
24
Coordinates from ORCA-job neb_MEP_ALL.QMRegion E -1076.102698915817
  C      48.078442     27.929753     56.798191
  H      48.943701     27.459753     56.333275
  H      48.224846     28.712429     57.541568
  C      46.821413     27.597302     56.479389
  C      45.635148     28.272517     57.160074
  O      45.862906     29.302739     57.845226
  O      44.498622     27.760686     57.012886
  O      46.542903     26.607350     55.556577
  C      46.540851     26.949652     54.112492
  H      46.345168     25.984547     53.625009
  C      47.889199     27.496704     53.759170
  H      48.738421     26.826626     53.600316
  C      48.126860     28.821068     53.842439
  C      47.000425     29.749380     54.013430
  H      47.254692     30.799526     54.160957
  C      45.722661     29.330046     53.990614
  H      44.904873     30.048301     54.090584
  C      45.344693     27.882675     53.810530
  H      44.587391     27.625450     54.569437
  O      44.824701     27.675862     52.506340
  H      43.979016     27.131563     52.555947
  C      49.547047     29.382920     53.890478
  O      50.531389     28.596156     53.825093
  O      49.640482     30.615561     54.061963
24
Coordinates from ORCA-job neb_MEP_ALL.QMRegion E -1076.098395616079
  C      48.117691     28.011349     56.621284
  H      48.985089     27.538946     56.166884
  H      48.267292     28.911565     57.215221
  C      46.859127     27.596274     56.401381
  C      45.686670     28.268786     57.118314
  O      45.928700     29.285985     57.819498
  O      44.543517     27.764201     56.994290
  O      46.574138     26.578833     55.511647
  C      46.550968     26.913587     54.019891
  H      46.380545     25.939923     53.538240
  C      47.874566     27.499387     53.688138
  H      48.732363     26.863213     53.453240
  C      48.084781     28.810344     53.933120
  C      46.937649     29.701350     54.159785
  H      47.167585     30.738795     54.405730
  C      45.670825     29.266815     54.036823
  H      44.833766     29.965548     54.109674
  C      45.323880     27.826840     53.773973
  H      44.607925     27.501315     54.544760
  O      44.752816     27.694982     52.483851
  H      43.906912     27.143111     52.531499
  C      49.490865     29.398599     54.005284
  O      50.488401     28.628866     53.894891
  O      49.555629     30.627232     54.214393
24
Coordinates from ORCA-job neb_MEP_ALL.QMRegion E -1076.087800942102
  C      48.129107     28.049288     56.578390
  H      48.996285     27.535002     56.171578
  H      48.281601     28.976631     57.127008
  C      46.868118     27.573812     56.430485
  C      45.691942     28.273360     57.130226
  O      45.931568     29.298107     57.821617
  O      44.545793     27.775899     56.997233
  O      46.593648     26.542732     55.606386
  C      46.563216     26.923379     53.897955
  H      46.393443     25.922670     53.480342
  C      47.870828     27.496376     53.668659
  H      48.735918     26.867498     53.446976
  C      48.080444     28.797620     54.010554
  C      46.934147     29.694844     54.196970
  H      47.163904     30.731449     54.444972
  C      45.671963     29.264094     54.030275
  H      44.834148     29.963193     54.078796
  C      45.329277     27.828085     53.749103
  H      44.642919     27.478104     54.534875
  O      44.718515     27.723949     52.473548
  H      43.883043     27.153459     52.529199
  C      49.486313     29.393785     54.055303
  O      50.482812     28.628528     53.918164
  O      49.547079     30.627105     54.230475
24
Coordinates from ORCA-job neb_MEP_ALL.QMRegion E -1076.081486372980
  C      48.136813     28.072388     56.553399
  H      49.002617     27.530684     56.181828
  H      48.290744     28.996400     57.105441
  C      46.870588     27.559607     56.452115
  C      45.690969     28.276694     57.139731
  O      45.930009     29.305175     57.825189
  O      44.545098     27.781666     57.000298
  O      46.609767     26.517251     55.699387
  C      46.568111     26.936785     53.800491
  H      46.394704     25.916328     53.447174
  C      47.862399     27.488987     53.663435
  H      48.732975     26.866030     53.447868
  C      48.076355     28.790979     54.056438
  C      46.932929     29.695180     54.206438
  H      47.163198     30.733020     54.447588
  C      45.672497     29.264924     54.023384
  H      44.833797     29.962770     54.074393
  C      45.333160     27.830151     53.733925
  H      44.659919     27.470552     54.527646
  O      44.700364     27.738439     52.466099
  H      43.873044     27.155786     52.525554
  C      49.484028     29.390392     54.072339
  O      50.478679     28.626482     53.919261
  O      49.544226     30.626054     54.228419
24
Coordinates from ORCA-job neb_MEP_ALL.QMRegion E -1076.079869235705
  C      48.146216     28.099986     56.513068
  H      49.010336     27.525600     56.191336
  H      48.298687     29.017557     57.075399
  C      46.872240     27.548164     56.469049
  C      45.690036     28.279381     57.146301
  O      45.931338     29.309907     57.826710
  O      44.545878     27.784253     57.003264
  O      46.625859     26.490575     55.792672
  C      46.572471     26.949894     53.706374
  H      46.396660     25.914089     53.409783
  C      47.853724     27.480123     53.660608
  H      48.730274     26.863511     53.450574
  C      48.073459     28.782956     54.112283
  C      46.931542     29.694265     54.217666
  H      47.161554     30.733358     54.452788
  C      45.673473     29.264378     54.017961
  H      44.834141     29.961857     54.066187
  C      45.336879     27.830856     53.718550
  H      44.674455     27.462946     54.519593
  O      44.683146     27.751667     52.458875
  H      43.863570     27.158641     52.522441
  C      49.481991     29.387321     54.090939
  O      50.475159     28.625022     53.921820
  O      49.541810     30.624986     54.228053
24
Coordinates from ORCA-job neb_MEP_ALL.QMRegion E -1076.082653873920
  C      48.152199     28.150774     56.400627
  H      49.013531     27.518319     56.199542
  H      48.304182     29.037030     57.016271
  C      46.869990     27.543614     56.468973
  C      45.689372     28.281209     57.151824
  O      45.938871     29.310145     57.829000
  O      44.547831     27.783452     57.011450
  O      46.639792     26.464555     55.880292
  C      46.578637     26.960775     53.634889
  H      46.400473     25.918381     53.366066
  C      47.845646     27.468403     53.674975
  H      48.727376     26.859736     53.459915
  C      48.075012     28.762357     54.230038
  C      46.929973     29.690398     54.245255
  H      47.159768     30.733832     54.461800
  C      45.678186     29.263051     54.016306
  H      44.839170     29.963013     54.049334
  C      45.341172     27.829787     53.709367
  H      44.684762     27.455685     54.513679
  O      44.669678     27.764354     52.456973
  H      43.858164     27.161508     52.522191
  C      49.480668     29.382471     54.121563
  O      50.472114     28.623888     53.927326
  O      49.538396     30.622869     54.226054
24
Coordinates from ORCA-job neb_MEP_ALL.QMRegion E -1076.091903307477
  C      48.154618     28.201115     56.265251
  H      49.006688     27.520753     56.205392
  H      48.306375     29.043452     56.951865
  C      46.865461     27.546278     56.453158
  C      45.690276     28.283214     57.153817
  O      45.948540     29.306472     57.834402
  O      44.552815     27.779168     57.019149
  O      46.649883     26.445495     55.945611
  C      46.586471     26.969494     53.592201
  H      46.405232     25.927880     53.322794
  C      47.841731     27.457128     53.696755
  H      48.725544     26.856521     53.465839
  C      48.081805     28.738411     54.358487
  C      46.930124     29.683206     54.277565
  H      47.157757     30.731554     54.468695
  C      45.685187     29.260078     54.016851
  H      44.846968     29.961822     54.032270
  C      45.346564     27.828597     53.701918
  H      44.694760     27.450258     54.506513
  O      44.659400     27.773379     52.457073
  H      43.852704     27.163682     52.520954
  C      49.480039     29.378012     54.146043
  O      50.470055     28.623876     53.929842
  O      49.533850     30.620453     54.223358
24
Coordinates from ORCA-job neb_MEP_ALL.QMRegion E -1076.116441420344
  C      48.137376     28.260231     56.083452
  H      48.966493     27.543788     56.196663
  H      48.292855     29.129508     56.738265
  C      46.853668     27.553931     56.459644
  C      45.685062     28.290945     57.177333
  O      45.958457     29.317114     57.843351
  O      44.552430     27.773950     57.059327
  O      46.681457     26.394895     56.130447
  C      46.602785     26.991091     53.501225
  H      46.429960     25.976208     53.140717
  C      47.842148     27.438804     53.735664
  H      48.731280     26.836187     53.526814
  C      48.084872     28.697735     54.521153
  C      46.934876     29.665713     54.343244
  H      47.157892     30.714726     54.544877
  C      45.703471     29.256373     54.019536
  H      44.880471     29.974136     53.965906
  C      45.358166     27.830541     53.679829
  H      44.734469     27.419952     54.496613
  O      44.623319     27.820560     52.463903
  H      43.837462     27.186630     52.527070
  C      49.469705     29.368998     54.195983
  O      50.462863     28.624572     53.961776
  O      49.512174     30.612723     54.238819
24
Coordinates from ORCA-job neb_MEP_ALL.QMRegion E -1076.125398909238
  C      48.224000     28.262000     55.994000
  H      49.076000     27.584000     56.141000
  H      48.362000     29.164000     56.599000
  C      46.972000     27.540000     56.426000
  C      45.866000     28.295000     57.208000
  O      46.244000     29.174000     58.008000
  O      44.683000     27.925000     56.990000
  O      46.818000     26.364000     56.154000
  C      46.697000     27.059000     53.236000
  H      46.542000     26.129000     52.688000
  C      47.919000     27.448000     53.618000
  H      48.814000     26.873000     53.361000
  C      48.145000     28.672000     54.467000
  C      46.985000     29.634000     54.326000
  H      47.195000     30.670000     54.594000
  C      45.768000     29.246000     53.934000
  H      44.950000     29.969000     53.871000
  C      45.435000     27.831000     53.537000
  H      44.923000     27.350000     54.394000
  O      44.578000     27.844000     52.410000
  H      43.802000     27.210000     52.525000
  C      49.516000     29.369000     54.153000
  O      50.522000     28.638000     53.933000
  O      49.531000     30.612000     54.192000
