24
Coordinates from ORCA-job neb_MEP.QMRegion E -1076.098627360599
  C      48.064000     27.894000     56.866000
  H      48.929000     27.402000     56.423000
  H      48.211000     28.661000     57.627000
  C      46.808000     27.594000     56.511000
  C      45.618000     28.277000     57.175000
  O      45.842000     29.312000     57.855000
  O      44.482000     27.767000     57.017000
  O      46.535000     26.614000     55.576000
  C      46.550000     26.968000     54.140000
  H      46.353000     26.007000     53.643000
  C      47.908000     27.502000     53.801000
  H      48.758000     26.826000     53.679000
  C      48.154000     28.827000     53.832000
  C      47.036000     29.770000     53.961000
  H      47.296000     30.825000     54.057000
  C      45.755000     29.358000     53.958000
  H      44.944000     30.088000     54.032000
  C      45.364000     27.910000     53.819000
  H      44.602000     27.678000     54.582000
  O      44.845000     27.680000     52.517000
  H      43.998000     27.141000     52.574000
  C      49.577000     29.380000     53.866000
  O      50.556000     28.587000     53.823000
  O      49.681000     30.616000     54.001000
24
Coordinates from ORCA-job neb_MEP.QMRegion E -1076.102698915817
  C      48.078442     27.929753     56.798191
  H      48.943701     27.459753     56.333275
  H      48.224846     28.712429     57.541568
  C      46.821413     27.597302     56.479389
  C      45.635148     28.272517     57.160074
  O      45.862906     29.302739     57.845226
  O      44.498622     27.760686     57.012886
  O      46.542903     26.607350     55.556577
  C      46.540851     26.949652     54.112492
  H      46.345168     25.984547     53.625009
  C      47.889199     27.496704     53.759170
  H      48.738421     26.826626     53.600316
  C      48.126860     28.821068     53.842439
  C      47.000425     29.749380     54.013430
  H      47.254692     30.799526     54.160957
  C      45.722661     29.330046     53.990614
  H      44.904873     30.048301     54.090584
  C      45.344693     27.882675     53.810530
  H      44.587391     27.625450     54.569437
  O      44.824701     27.675862     52.506340
  H      43.979016     27.131563     52.555947
  C      49.547047     29.382920     53.890478
  O      50.531389     28.596156     53.825093
  O      49.640482     30.615561     54.061963
24
Coordinates from ORCA-job neb_MEP.QMRegion E -1076.098395616079
  C      48.117691     28.011349     56.621284
  H      48.985089     27.538946     56.166884
  H      48.267292     28.911565     57.215221
  C      46.859127     27.596274     56.401381
  C      45.686670     28.268786     57.118314
  O      45.928700     29.285985     57.819498
  O      44.543517     27.764201     56.994290
  O      46.574138     26.578833     55.511647
  C      46.550968     26.913587     54.019891
  H      46.380545     25.939923     53.538240
  C      47.874566     27.499387     53.688138
  H      48.732363     26.863213     53.453240
  C      48.084781     28.810344     53.933120
  C      46.937649     29.701350     54.159785
  H      47.167585     30.738795     54.405730
  C      45.670825     29.266815     54.036823
  H      44.833766     29.965548     54.109674
  C      45.323880     27.826840     53.773973
  H      44.607925     27.501315     54.544760
  O      44.752816     27.694982     52.483851
  H      43.906912     27.143111     52.531499
  C      49.490865     29.398599     54.005284
  O      50.488401     28.628866     53.894891
  O      49.555629     30.627232     54.214393
24
Coordinates from ORCA-job neb_MEP.QMRegion E -1076.087800942102
  C      48.129107     28.049288     56.578390
  H      48.996285     27.535002     56.171578
  H      48.281601     28.976631     57.127008
  C      46.868118     27.573812     56.430485
  C      45.691942     28.273360     57.130226
  O      45.931568     29.298107     57.821617
  O      44.545793     27.775899     56.997233
  O      46.593648     26.542732     55.606386
  C      46.563216     26.923379     53.897955
  H      46.393443     25.922670     53.480342
  C      47.870828     27.496376     53.668659
  H      48.735918     26.867498     53.446976
  C      48.080444     28.797620     54.010554
  C      46.934147     29.694844     54.196970
  H      47.163904     30.731449     54.444972
  C      45.671963     29.264094     54.030275
  H      44.834148     29.963193     54.078796
  C      45.329277     27.828085     53.749103
  H      44.642919     27.478104     54.534875
  O      44.718515     27.723949     52.473548
  H      43.883043     27.153459     52.529199
  C      49.486313     29.393785     54.055303
  O      50.482812     28.628528     53.918164
  O      49.547079     30.627105     54.230475
24
Coordinates from ORCA-job neb_MEP.QMRegion E -1076.081486372980
  C      48.136813     28.072388     56.553399
  H      49.002617     27.530684     56.181828
  H      48.290744     28.996400     57.105441
  C      46.870588     27.559607     56.452115
  C      45.690969     28.276694     57.139731
  O      45.930009     29.305175     57.825189
  O      44.545098     27.781666     57.000298
  O      46.609767     26.517251     55.699387
  C      46.568111     26.936785     53.800491
  H      46.394704     25.916328     53.447174
  C      47.862399     27.488987     53.663435
  H      48.732975     26.866030     53.447868
  C      48.076355     28.790979     54.056438
  C      46.932929     29.695180     54.206438
  H      47.163198     30.733020     54.447588
  C      45.672497     29.264924     54.023384
  H      44.833797     29.962770     54.074393
  C      45.333160     27.830151     53.733925
  H      44.659919     27.470552     54.527646
  O      44.700364     27.738439     52.466099
  H      43.873044     27.155786     52.525554
  C      49.484028     29.390392     54.072339
  O      50.478679     28.626482     53.919261
  O      49.544226     30.626054     54.228419
24
Coordinates from ORCA-job neb_MEP.QMRegion E -1076.079869235705
  C      48.146216     28.099986     56.513068
  H      49.010336     27.525600     56.191336
  H      48.298687     29.017557     57.075399
  C      46.872240     27.548164     56.469049
  C      45.690036     28.279381     57.146301
  O      45.931338     29.309907     57.826710
  O      44.545878     27.784253     57.003264
  O      46.625859     26.490575     55.792672
  C      46.572471     26.949894     53.706374
  H      46.396660     25.914089     53.409783
  C      47.853724     27.480123     53.660608
  H      48.730274     26.863511     53.450574
  C      48.073459     28.782956     54.112283
  C      46.931542     29.694265     54.217666
  H      47.161554     30.733358     54.452788
  C      45.673473     29.264378     54.017961
  H      44.834141     29.961857     54.066187
  C      45.336879     27.830856     53.718550
  H      44.674455     27.462946     54.519593
  O      44.683146     27.751667     52.458875
  H      43.863570     27.158641     52.522441
  C      49.481991     29.387321     54.090939
  O      50.475159     28.625022     53.921820
  O      49.541810     30.624986     54.228053
24
Coordinates from ORCA-job neb_MEP.QMRegion E -1076.082653873920
  C      48.152199     28.150774     56.400627
  H      49.013531     27.518319     56.199542
  H      48.304182     29.037030     57.016271
  C      46.869990     27.543614     56.468973
  C      45.689372     28.281209     57.151824
  O      45.938871     29.310145     57.829000
  O      44.547831     27.783452     57.011450
  O      46.639792     26.464555     55.880292
  C      46.578637     26.960775     53.634889
  H      46.400473     25.918381     53.366066
  C      47.845646     27.468403     53.674975
  H      48.727376     26.859736     53.459915
  C      48.075012     28.762357     54.230038
  C      46.929973     29.690398     54.245255
  H      47.159768     30.733832     54.461800
  C      45.678186     29.263051     54.016306
  H      44.839170     29.963013     54.049334
  C      45.341172     27.829787     53.709367
  H      44.684762     27.455685     54.513679
  O      44.669678     27.764354     52.456973
  H      43.858164     27.161508     52.522191
  C      49.480668     29.382471     54.121563
  O      50.472114     28.623888     53.927326
  O      49.538396     30.622869     54.226054
24
Coordinates from ORCA-job neb_MEP.QMRegion E -1076.091903307477
  C      48.154618     28.201115     56.265251
  H      49.006688     27.520753     56.205392
  H      48.306375     29.043452     56.951865
  C      46.865461     27.546278     56.453158
  C      45.690276     28.283214     57.153817
  O      45.948540     29.306472     57.834402
  O      44.552815     27.779168     57.019149
  O      46.649883     26.445495     55.945611
  C      46.586471     26.969494     53.592201
  H      46.405232     25.927880     53.322794
  C      47.841731     27.457128     53.696755
  H      48.725544     26.856521     53.465839
  C      48.081805     28.738411     54.358487
  C      46.930124     29.683206     54.277565
  H      47.157757     30.731554     54.468695
  C      45.685187     29.260078     54.016851
  H      44.846968     29.961822     54.032270
  C      45.346564     27.828597     53.701918
  H      44.694760     27.450258     54.506513
  O      44.659400     27.773379     52.457073
  H      43.852704     27.163682     52.520954
  C      49.480039     29.378012     54.146043
  O      50.470055     28.623876     53.929842
  O      49.533850     30.620453     54.223358
24
Coordinates from ORCA-job neb_MEP.QMRegion E -1076.116441420344
  C      48.137376     28.260231     56.083452
  H      48.966493     27.543788     56.196663
  H      48.292855     29.129508     56.738265
  C      46.853668     27.553931     56.459644
  C      45.685062     28.290945     57.177333
  O      45.958457     29.317114     57.843351
  O      44.552430     27.773950     57.059327
  O      46.681457     26.394895     56.130447
  C      46.602785     26.991091     53.501225
  H      46.429960     25.976208     53.140717
  C      47.842148     27.438804     53.735664
  H      48.731280     26.836187     53.526814
  C      48.084872     28.697735     54.521153
  C      46.934876     29.665713     54.343244
  H      47.157892     30.714726     54.544877
  C      45.703471     29.256373     54.019536
  H      44.880471     29.974136     53.965906
  C      45.358166     27.830541     53.679829
  H      44.734469     27.419952     54.496613
  O      44.623319     27.820560     52.463903
  H      43.837462     27.186630     52.527070
  C      49.469705     29.368998     54.195983
  O      50.462863     28.624572     53.961776
  O      49.512174     30.612723     54.238819
24
Coordinates from ORCA-job neb_MEP.QMRegion E -1076.125398909238
  C      48.224000     28.262000     55.994000
  H      49.076000     27.584000     56.141000
  H      48.362000     29.164000     56.599000
  C      46.972000     27.540000     56.426000
  C      45.866000     28.295000     57.208000
  O      46.244000     29.174000     58.008000
  O      44.683000     27.925000     56.990000
  O      46.818000     26.364000     56.154000
  C      46.697000     27.059000     53.236000
  H      46.542000     26.129000     52.688000
  C      47.919000     27.448000     53.618000
  H      48.814000     26.873000     53.361000
  C      48.145000     28.672000     54.467000
  C      46.985000     29.634000     54.326000
  H      47.195000     30.670000     54.594000
  C      45.768000     29.246000     53.934000
  H      44.950000     29.969000     53.871000
  C      45.435000     27.831000     53.537000
  H      44.923000     27.350000     54.394000
  O      44.578000     27.844000     52.410000
  H      43.802000     27.210000     52.525000
  C      49.516000     29.369000     54.153000
  O      50.522000     28.638000     53.933000
  O      49.531000     30.612000     54.192000
