24
Coordinates from ORCA-job neb_NEB-CI_converged.QMRegion
  C          46.32231643548683     31.18660076259508     62.17706893993371
  H          47.19637689864161     30.55178727502594     62.04169694567950
  H          46.44691472613872     32.16834794302535     62.62672000550872
  C          45.03244707206137     30.68040390285887     62.06356925493472
  C          43.83909355783175     31.58983992263346     62.42884899506769
  O          44.08965354550197     32.66141981803896     63.02813322007546
  O          42.68328553956430     31.20667818780710     62.10797023309446
  O          44.79497475652541     29.52887423863312     61.55674135389468
  C          44.92443591698750     29.69951945821201     59.35530402867914
  H          44.68817477379062     28.64614685942308     59.20449045710333
  C          46.24430985379983     30.11517273512344     59.40792615650037
  H          47.06253720428335     29.39370544174327     59.43417515381984
  C          46.53957339281592     31.46192285123005     59.63897771972687
  C          45.47533027354027     32.45608031863503     59.52651774025102
  H          45.76418113522686     33.50071316561025     59.64911159977228
  C          44.20737859063291     32.09147111468288     59.27518435677568
  H          43.42686692374794     32.84766943661248     59.20007787466193
  C          43.78372461861964     30.66005137949859     59.10051137554938
  H          43.00333026182022     30.45808336835365     59.84902677493920
  O          43.29002339987230     30.44194533836331     57.78277051903379
  H          42.31170971588039     30.24330810722790     57.79254903527280
  C          47.98726980433922     31.94208941840177     59.55113337515905
  O          48.90923141117099     31.09659417066604     59.61307571151233
  O          48.15381836194641     33.17784484267622     59.35365810079932
