24
Coordinates from ORCA-job neb_initial_path.QMRegion E   0.000000000000
  C      46.148000     31.118000     62.509000
  H      47.051000     30.559000     62.264000
  H      46.229000     32.015000     63.122000
  C      44.931000     30.758000     62.085000
  C      43.702000     31.579000     62.452000
  O      43.904000     32.718000     62.947000
  O      42.564000     31.094000     62.242000
  O      44.736000     29.621000     61.314000
  C      44.874000     29.760000     59.840000
  H      44.653000     28.752000     59.467000
  C      46.289000     30.158000     59.550000
  H      47.076000     29.406000     59.635000
  C      46.615000     31.457000     59.385000
  C      45.558000     32.472000     59.324000
  H      45.883000     33.514000     59.314000
  C      44.256000     32.141000     59.306000
  H      43.491000     32.919000     59.284000
  C      43.790000     30.708000     59.280000
  H      42.928000     30.609000     59.954000
  O      43.435000     30.332000     57.955000
  H      42.456000     30.170000     57.892000
  C      48.066000     31.920000     59.380000
  O      48.979000     31.066000     59.476000
  O      48.247000     33.168000     59.300000
24
Coordinates from ORCA-job neb_initial_path.QMRegion E   0.000000000000
  C      46.177667     31.127000     62.409444
  H      47.067667     30.550889     62.223667
  H      46.264889     32.029111     63.013778
  C      44.945667     30.746000     62.074444
  C      43.727444     31.581778     62.450556
  O      43.945111     32.703333     62.966778
  O      42.586111     31.114889     62.226778
  O      44.746778     29.602444     61.383222
  C      44.890000     29.759667     59.736333
  H      44.672889     28.752778     59.361333
  C      46.281333     30.151444     59.530778
  H      47.073000     29.404000     59.607556
  C      46.600444     31.453444     59.458111
  C      45.542444     32.467556     59.366000
  H      45.857111     33.509556     59.382333
  C      44.251889     32.134444     59.297556
  H      43.487778     32.911333     59.261333
  C      43.793333     30.703333     59.238444
  H      42.949778     30.577889     59.925667
  O      43.406556     30.361444     57.920222
  H      42.429667     30.190222     57.873778
  C      48.049333     31.922333     59.411444
  O      48.965444     31.071444     59.497889
  O      48.224222     33.166778     59.306444
24
Coordinates from ORCA-job neb_initial_path.QMRegion E   0.000000000000
  C      46.207333     31.136000     62.309889
  H      47.084333     30.542778     62.183333
  H      46.300778     32.043222     62.905556
  C      44.960333     30.734000     62.063889
  C      43.752889     31.584556     62.449111
  O      43.986222     32.688667     62.986556
  O      42.608222     31.135778     62.211556
  O      44.757556     29.583889     61.452444
  C      44.906000     29.759333     59.632667
  H      44.692778     28.753556     59.255667
  C      46.273667     30.144889     59.511556
  H      47.070000     29.402000     59.580111
  C      46.585889     31.449889     59.531222
  C      45.526889     32.463111     59.408000
  H      45.831222     33.505111     59.450667
  C      44.247778     32.127889     59.289111
  H      43.484556     32.903667     59.238667
  C      43.796667     30.698667     59.196889
  H      42.971556     30.546778     59.897333
  O      43.378111     30.390889     57.885444
  H      42.403333     30.210444     57.855556
  C      48.032667     31.924667     59.442889
  O      48.951889     31.076889     59.519778
  O      48.201444     33.165556     59.312889
24
Coordinates from ORCA-job neb_initial_path.QMRegion E   0.000000000000
  C      46.237000     31.145000     62.210333
  H      47.101000     30.534667     62.143000
  H      46.336667     32.057333     62.797333
  C      44.975000     30.722000     62.053333
  C      43.778333     31.587333     62.447667
  O      44.027333     32.674000     63.006333
  O      42.630333     31.156667     62.196333
  O      44.768333     29.565333     61.521667
  C      44.922000     29.759000     59.529000
  H      44.712667     28.754333     59.150000
  C      46.266000     30.138333     59.492333
  H      47.067000     29.400000     59.552667
  C      46.571333     31.446333     59.604333
  C      45.511333     32.458667     59.450000
  H      45.805333     33.500667     59.519000
  C      44.243667     32.121333     59.280667
  H      43.481333     32.896000     59.216000
  C      43.800000     30.694000     59.155333
  H      42.993333     30.515667     59.869000
  O      43.349667     30.420333     57.850667
  H      42.377000     30.230667     57.837333
  C      48.016000     31.927000     59.474333
  O      48.938333     31.082333     59.541667
  O      48.178667     33.164333     59.319333
24
Coordinates from ORCA-job neb_initial_path.QMRegion E   0.000000000000
  C      46.266667     31.154000     62.110778
  H      47.117667     30.526556     62.102667
  H      46.372556     32.071444     62.689111
  C      44.989667     30.710000     62.042778
  C      43.803778     31.590111     62.446222
  O      44.068444     32.659333     63.026111
  O      42.652444     31.177556     62.181111
  O      44.779111     29.546778     61.590889
  C      44.938000     29.758667     59.425333
  H      44.732556     28.755111     59.044333
  C      46.258333     30.131778     59.473111
  H      47.064000     29.398000     59.525222
  C      46.556778     31.442778     59.677444
  C      45.495778     32.454222     59.492000
  H      45.779444     33.496222     59.587333
  C      44.239556     32.114778     59.272222
  H      43.478111     32.888333     59.193333
  C      43.803333     30.689333     59.113778
  H      43.015111     30.484556     59.840667
  O      43.321222     30.449778     57.815889
  H      42.350667     30.250889     57.819111
  C      47.999333     31.929333     59.505778
  O      48.924778     31.087778     59.563556
  O      48.155889     33.163111     59.325778
24
Coordinates from ORCA-job neb_initial_path.QMRegion E   0.000000000000
  C      46.296333     31.163000     62.011222
  H      47.134333     30.518444     62.062333
  H      46.408444     32.085556     62.580889
  C      45.004333     30.698000     62.032222
  C      43.829222     31.592889     62.444778
  O      44.109556     32.644667     63.045889
  O      42.674556     31.198444     62.165889
  O      44.789889     29.528222     61.660111
  C      44.954000     29.758333     59.321667
  H      44.752444     28.755889     58.938667
  C      46.250667     30.125222     59.453889
  H      47.061000     29.396000     59.497778
  C      46.542222     31.439222     59.750556
  C      45.480222     32.449778     59.534000
  H      45.753556     33.491778     59.655667
  C      44.235444     32.108222     59.263778
  H      43.474889     32.880667     59.170667
  C      43.806667     30.684667     59.072222
  H      43.036889     30.453444     59.812333
  O      43.292778     30.479222     57.781111
  H      42.324333     30.271111     57.800889
  C      47.982667     31.931667     59.537222
  O      48.911222     31.093222     59.585444
  O      48.133111     33.161889     59.332222
24
Coordinates from ORCA-job neb_initial_path.QMRegion E   0.000000000000
  C      46.326000     31.172000     61.911667
  H      47.151000     30.510333     62.022000
  H      46.444333     32.099667     62.472667
  C      45.019000     30.686000     62.021667
  C      43.854667     31.595667     62.443333
  O      44.150667     32.630000     63.065667
  O      42.696667     31.219333     62.150667
  O      44.800667     29.509667     61.729333
  C      44.970000     29.758000     59.218000
  H      44.772333     28.756667     58.833000
  C      46.243000     30.118667     59.434667
  H      47.058000     29.394000     59.470333
  C      46.527667     31.435667     59.823667
  C      45.464667     32.445333     59.576000
  H      45.727667     33.487333     59.724000
  C      44.231333     32.101667     59.255333
  H      43.471667     32.873000     59.148000
  C      43.810000     30.680000     59.030667
  H      43.058667     30.422333     59.784000
  O      43.264333     30.508667     57.746333
  H      42.298000     30.291333     57.782667
  C      47.966000     31.934000     59.568667
  O      48.897667     31.098667     59.607333
  O      48.110333     33.160667     59.338667
24
Coordinates from ORCA-job neb_initial_path.QMRegion E   0.000000000000
  C      46.355667     31.181000     61.812111
  H      47.167667     30.502222     61.981667
  H      46.480222     32.113778     62.364444
  C      45.033667     30.674000     62.011111
  C      43.880111     31.598444     62.441889
  O      44.191778     32.615333     63.085444
  O      42.718778     31.240222     62.135444
  O      44.811444     29.491111     61.798556
  C      44.986000     29.757667     59.114333
  H      44.792222     28.757444     58.727333
  C      46.235333     30.112111     59.415444
  H      47.055000     29.392000     59.442889
  C      46.513111     31.432111     59.896778
  C      45.449111     32.440889     59.618000
  H      45.701778     33.482889     59.792333
  C      44.227222     32.095111     59.246889
  H      43.468444     32.865333     59.125333
  C      43.813333     30.675333     58.989111
  H      43.080444     30.391222     59.755667
  O      43.235889     30.538111     57.711556
  H      42.271667     30.311556     57.764444
  C      47.949333     31.936333     59.600111
  O      48.884111     31.104111     59.629222
  O      48.087556     33.159444     59.345111
24
Coordinates from ORCA-job neb_initial_path.QMRegion E   0.000000000000
  C      46.385333     31.190000     61.712556
  H      47.184333     30.494111     61.941333
  H      46.516111     32.127889     62.256222
  C      45.048333     30.662000     62.000556
  C      43.905556     31.601222     62.440444
  O      44.232889     32.600667     63.105222
  O      42.740889     31.261111     62.120222
  O      44.822222     29.472556     61.867778
  C      45.002000     29.757333     59.010667
  H      44.812111     28.758222     58.621667
  C      46.227667     30.105556     59.396222
  H      47.052000     29.390000     59.415444
  C      46.498556     31.428556     59.969889
  C      45.433556     32.436444     59.660000
  H      45.675889     33.478444     59.860667
  C      44.223111     32.088556     59.238444
  H      43.465222     32.857667     59.102667
  C      43.816667     30.670667     58.947556
  H      43.102222     30.360111     59.727333
  O      43.207444     30.567556     57.676778
  H      42.245333     30.331778     57.746222
  C      47.932667     31.938667     59.631556
  O      48.870556     31.109556     59.651111
  O      48.064778     33.158222     59.351556
24
Coordinates from ORCA-job neb_initial_path.QMRegion E   0.000000000000
  C      46.415000     31.199000     61.613000
  H      47.201000     30.486000     61.901000
  H      46.552000     32.142000     62.148000
  C      45.063000     30.650000     61.990000
  C      43.931000     31.604000     62.439000
  O      44.274000     32.586000     63.125000
  O      42.763000     31.282000     62.105000
  O      44.833000     29.454000     61.937000
  C      45.018000     29.757000     58.907000
  H      44.832000     28.759000     58.516000
  C      46.220000     30.099000     59.377000
  H      47.049000     29.388000     59.388000
  C      46.484000     31.425000     60.043000
  C      45.418000     32.432000     59.702000
  H      45.650000     33.474000     59.929000
  C      44.219000     32.082000     59.230000
  H      43.462000     32.850000     59.080000
  C      43.820000     30.666000     58.906000
  H      43.124000     30.329000     59.699000
  O      43.179000     30.597000     57.642000
  H      42.219000     30.352000     57.728000
  C      47.916000     31.941000     59.663000
  O      48.857000     31.115000     59.673000
  O      48.042000     33.157000     59.358000
