24
Coordinates from ORCA-job neb_MEP.QMRegion E -1076.058350816593
  C      46.148000     31.118000     62.509000
  H      47.051000     30.559000     62.264000
  H      46.229000     32.015000     63.122000
  C      44.931000     30.758000     62.085000
  C      43.702000     31.579000     62.452000
  O      43.904000     32.718000     62.947000
  O      42.564000     31.094000     62.242000
  O      44.736000     29.621000     61.314000
  C      44.874000     29.760000     59.840000
  H      44.653000     28.752000     59.467000
  C      46.289000     30.158000     59.550000
  H      47.076000     29.406000     59.635000
  C      46.615000     31.457000     59.385000
  C      45.558000     32.472000     59.324000
  H      45.883000     33.514000     59.314000
  C      44.256000     32.141000     59.306000
  H      43.491000     32.919000     59.284000
  C      43.790000     30.708000     59.280000
  H      42.928000     30.609000     59.954000
  O      43.435000     30.332000     57.955000
  H      42.456000     30.170000     57.892000
  C      48.066000     31.920000     59.380000
  O      48.979000     31.066000     59.476000
  O      48.247000     33.168000     59.300000
24
Coordinates from ORCA-job neb_MEP.QMRegion E -1076.058606744508
  C      46.262014     31.101983     62.300576
  H      47.155450     30.550640     62.008309
  H      46.382037     32.043184     62.835348
  C      45.015480     30.727978     61.976334
  C      43.825379     31.581579     62.408253
  O      44.075838     32.641403     63.028461
  O      42.664731     31.191736     62.111089
  O      44.759661     29.600953     61.210738
  C      44.873901     29.722873     59.702438
  H      44.662988     28.706100     59.346880
  C      46.273257     30.147901     59.421273
  H      47.073881     29.405245     59.423191
  C      46.576143     31.463826     59.424252
  C      45.499677     32.461414     59.432013
  H      45.794551     33.504837     59.554008
  C      44.211398     32.106945     59.293596
  H      43.433718     32.868906     59.250822
  C      43.768407     30.672551     59.183421
  H      42.931871     30.529285     59.878731
  O      43.368720     30.366877     57.854444
  H      42.386309     30.214254     57.818626
  C      48.017122     31.946132     59.442541
  O      48.937879     31.103949     59.569012
  O      48.187288     33.192573     59.330124
24
Coordinates from ORCA-job neb_MEP.QMRegion E -1076.047234627349
  C      46.288438     31.142270     62.256049
  H      47.180175     30.560914     62.022829
  H      46.418009     32.124640     62.711588
  C      45.031315     30.709363     62.008536
  C      43.838750     31.585046     62.415606
  O      44.085109     32.651140     63.027423
  O      42.678936     31.200732     62.105919
  O      44.781505     29.570295     61.304946
  C      44.894050     29.703846     59.589490
  H      44.680458     28.670225     59.287370
  C      46.269274     30.136120     59.413916
  H      47.075583     29.400641     59.420611
  C      46.560679     31.459498     59.518967
  C      45.484946     32.454804     59.494171
  H      45.774059     33.498840     59.626137
  C      44.207582     32.095491     59.289737
  H      43.427616     32.852945     59.220936
  C      43.774212     30.662690     59.146742
  H      42.967543     30.486525     59.867015
  O      43.328180     30.406718     57.820344
  H      42.344750     30.234034     57.805780
  C      48.001124     31.944587     59.503815
  O      48.923169     31.102528     59.603701
  O      48.168545     33.186303     59.349474
24
Coordinates from ORCA-job neb_MEP.QMRegion E -1076.039602620126
  C      46.304018     31.162890     62.226949
  H      47.186937     30.556779     62.031632
  H      46.431992     32.147195     62.672713
  C      45.031150     30.693167     62.039002
  C      43.838960     31.587314     62.422265
  O      44.085854     32.656824     63.027422
  O      42.680902     31.204519     62.105623
  O      44.787795     29.549882     61.432857
  C      44.909988     29.701056     59.463447
  H      44.683236     28.654559     59.249967
  C      46.256989     30.125624     59.406545
  H      47.069542     29.397078     59.425277
  C      46.550468     31.460106     59.571207
  C      45.479795     32.455032     59.508813
  H      45.769302     33.499006     59.636830
  C      44.206633     32.093569     59.282590
  H      43.426604     32.849795     59.211060
  C      43.778489     30.661812     59.123606
  H      42.985385     30.471846     59.858975
  O      43.308831     30.423458     57.801058
  H      42.327935     30.237879     57.798839
  C      47.994477     31.942958     59.526150
  O      48.916105     31.099270     59.607713
  O      48.161202     33.181726     59.350975
24
Coordinates from ORCA-job neb_MEP.QMRegion E -1076.037491434993
  C      46.322316     31.186601     62.177069
  H      47.196377     30.551787     62.041697
  H      46.446915     32.168348     62.626720
  C      45.032447     30.680404     62.063569
  C      43.839094     31.589840     62.428849
  O      44.089654     32.661420     63.028133
  O      42.683286     31.206678     62.107970
  O      44.794975     29.528874     61.556741
  C      44.924436     29.699519     59.355304
  H      44.688175     28.646147     59.204490
  C      46.244310     30.115173     59.407926
  H      47.062537     29.393705     59.434175
  C      46.539573     31.461923     59.638978
  C      45.475330     32.456080     59.526518
  H      45.764181     33.500713     59.649112
  C      44.207379     32.091471     59.275184
  H      43.426867     32.847669     59.200078
  C      43.783725     30.660051     59.100511
  H      43.003330     30.458083     59.849027
  O      43.290023     30.441945     57.782771
  H      42.311710     30.243308     57.792549
  C      47.987270     31.942089     59.551133
  O      48.909231     31.096594     59.613076
  O      48.153818     33.177845     59.353658
24
Coordinates from ORCA-job neb_MEP.QMRegion E -1076.038982585751
  C      46.341433     31.210933     62.082223
  H      47.202670     30.545906     62.045066
  H      46.459886     32.180273     62.562761
  C      45.033397     30.676112     62.063777
  C      43.840528     31.591563     62.431216
  O      44.098225     32.660876     63.029872
  O      42.685683     31.205919     62.115561
  O      44.798506     29.515331     61.637672
  C      44.934998     29.700761     59.296749
  H      44.695216     28.646097     59.161564
  C      46.234260     30.108802     59.423248
  H      47.056171     29.390973     59.448151
  C      46.529716     31.461873     59.737273
  C      45.469859     32.457501     59.553613
  H      45.758088     33.503617     59.664986
  C      44.210077     32.090912     59.272669
  H      43.431182     32.847975     59.184971
  C      43.787122     30.659208     59.088518
  H      43.012065     30.449453     59.841928
  O      43.279247     30.456371     57.773761
  H      42.303322     30.248850     57.789924
  C      47.980404     31.941068     59.581768
  O      48.902855     31.095137     59.620639
  O      48.144627     33.172657     59.357729
24
Coordinates from ORCA-job neb_MEP.QMRegion E -1076.044137398841
  C      46.358427     31.231571     61.972276
  H      47.200788     30.542999     62.047299
  H      46.467302     32.180289     62.506208
  C      45.031912     30.674203     62.053540
  C      43.840318     31.592484     62.432612
  O      44.105681     32.658426     63.032297
  O      42.686709     31.204210     62.121874
  O      44.798796     29.507606     61.695845
  C      44.943670     29.702604     59.260285
  H      44.701620     28.647660     59.128620
  C      46.226564     30.103497     59.439609
  H      47.051120     29.388087     59.458566
  C      46.522473     31.460445     59.841179
  C      45.465064     32.457585     59.577233
  H      45.752935     33.505542     59.675544
  C      44.213337     32.089579     59.271836
  H      43.436094     32.847536     59.171775
  C      43.789177     30.657465     59.082584
  H      43.015828     30.442877     59.837207
  O      43.272582     30.465692     57.769575
  H      42.298538     30.252236     57.788483
  C      47.974677     31.940031     59.606523
  O      48.897351     31.093792     59.624245
  O      48.136166     33.167312     59.358973
24
Coordinates from ORCA-job neb_MEP.QMRegion E -1076.056316282507
  C      46.377474     31.252578     61.826584
  H      47.190022     30.544868     62.043010
  H      46.475227     32.175840     62.425423
  C      45.029236     30.675064     62.035265
  C      43.840768     31.593308     62.436057
  O      44.115408     32.654901     63.036127
  O      42.687738     31.203407     62.130331
  O      44.798742     29.499985     61.767023
  C      44.954973     29.706051     59.224133
  H      44.711979     28.651386     59.083981
  C      46.219813     30.098733     59.462697
  H      47.045535     29.384704     59.473733
  C      46.516149     31.458424     59.977624
  C      45.460627     32.456835     59.611421
  H      45.746497     33.506960     59.691535
  C      44.219242     32.088136     59.273909
  H      43.445083     32.847147     59.154190
  C      43.792379     30.655994     59.076358
  H      43.021129     30.434363     59.832637
  O      43.265146     30.478191     57.765472
  H      42.293276     30.257120     57.787741
  C      47.967230     31.939021     59.636957
  O      48.889828     31.092887     59.629514
  O      48.124717     33.160568     59.360934
24
Coordinates from ORCA-job neb_MEP.QMRegion E -1076.077821985452
  C      46.390900     31.241134     61.657974
  H      47.177052     30.537183     61.969466
  H      46.511162     32.187601     62.189579
  C      45.034349     30.675627     62.020141
  C      43.876799     31.610630     62.444114
  O      44.191458     32.631671     63.088298
  O      42.716155     31.244765     62.137684
  O      44.816982     29.477682     61.960090
  C      44.991865     29.733942     59.064045
  H      44.779292     28.706384     58.775137
  C      46.215520     30.092247     59.461717
  H      47.037176     29.374394     59.502225
  C      46.496573     31.440279     60.071885
  C      45.445164     32.449301     59.691443
  H      45.709096     33.499301     59.832543
  C      44.232359     32.091200     59.262543
  H      43.480519     32.860770     59.092093
  C      43.813112     30.668064     58.999772
  H      43.082727     30.387049     59.781406
  O      43.218214     30.560277     57.715025
  H      42.254427     30.313794     57.770727
  C      47.937585     31.936612     59.679130
  O      48.868140     31.099682     59.672986
  O      48.076819     33.152807     59.374008
24
Coordinates from ORCA-job neb_MEP.QMRegion E -1076.081158249570
  C      46.415000     31.199000     61.613000
  H      47.201000     30.486000     61.901000
  H      46.552000     32.142000     62.148000
  C      45.063000     30.650000     61.990000
  C      43.931000     31.604000     62.439000
  O      44.274000     32.586000     63.125000
  O      42.763000     31.282000     62.105000
  O      44.833000     29.454000     61.937000
  C      45.018000     29.757000     58.907000
  H      44.832000     28.759000     58.516000
  C      46.220000     30.099000     59.377000
  H      47.049000     29.388000     59.388000
  C      46.484000     31.425000     60.043000
  C      45.418000     32.432000     59.702000
  H      45.650000     33.474000     59.929000
  C      44.219000     32.082000     59.230000
  H      43.462000     32.850000     59.080000
  C      43.820000     30.666000     58.906000
  H      43.124000     30.329000     59.699000
  O      43.179000     30.597000     57.642000
  H      42.219000     30.352000     57.728000
  C      47.916000     31.941000     59.663000
  O      48.857000     31.115000     59.673000
  O      48.042000     33.157000     59.358000
