88
Image 0. Energy: -22841.311728158435 
C  56.563092837266915 37.25504045389161 62.57329157346733
H  57.61895124232743 37.44889914238796 62.40567143506263
H  55.94952094401432 38.0222346491976 63.10052830411514
C  55.750110050963094 36.29610382250149 62.07773514656791
C  54.23252868381682 36.34197715189217 62.45970369663797
O  53.73556349779074 37.49440995481024 62.686178024949
O  53.66784369671591 35.254002284016934 62.546548830717995
O  56.00109192942447 35.250949223377695 61.30351467680694
C  57.222439332582915 34.4935625530648 61.0592532397827
H  57.010348955874136 34.01535622462313 60.092998811203195
C  57.33562528415984 33.42655147951654 62.119367984978865
H  56.68877716151762 32.55141565755804 62.0370367235381
C  58.21629571565832 33.50712739310787 63.13859113481204
C  59.08912174018987 34.693414879273895 63.187007188807755
H  59.65228550370063 34.86616166116578 64.14741572753434
C  59.24989985556363 35.53890221489017 62.15619885705164
H  59.958168755326255 36.371741858685674 62.18872387781591
C  58.5410605771723 35.26613691443549 60.84826959523625
H  58.32811865593331 36.20981363107442 60.31823966030734
O  59.422890369615814 34.4404250250295 60.13145427135325
H  59.43244820225586 34.66742529865656 59.18478686630077
C  58.33962125672697 32.40116166597979 64.18569183617157
O  57.88352241062082 31.25020268771384 63.88171463763644
O  58.87251715078325 32.71777149314993 65.26923920914295
C  58.404 28.2934 64.5831
N  58.554577 28.67862 63.319046
H  58.24406 29.341122 64.0153
H  58.750746 27.723582 63.582713
N  57.995101 29.165804 65.499949
H  58.19127 28.210766 65.763616
H  58.109449 29.45834 64.540028
N  58.662321 27.035776 64.930305
H  58.77667 27.328311 63.970384
H  58.351804 27.698278 65.626559
C  67.0136 28.5085 47.7506
O  68.197425 28.570276 47.354063
O  66.302316 27.481117 47.783159
H  66.555621 29.44435 48.103361
C  52.4613 28.076 62.7231
N  52.611877 28.46122 61.459046
H  52.30136 29.123722 62.1553
H  52.808046 27.506182 61.722713
N  52.052401 28.948404 63.639949
H  52.24857 27.993366 63.903616
H  52.166749 29.24094 62.680028
N  52.719621 26.818376 63.070305
H  52.83397 27.110911 62.110384
H  52.409104 27.480878 63.766559
C  60.4108 36.4479 65.7715
N  60.561377 36.83312 64.507446
H  60.25086 37.495622 65.2037
H  60.757546 35.878082 64.771113
N  60.001901 37.320304 66.688349
H  60.19807 36.365266 66.952016
H  60.116249 37.61284 65.728428
N  60.669121 35.190276 66.118705
H  60.78347 35.482811 65.158784
H  60.358604 35.852778 66.814959
C  63.4726 23.9141 51.5016
O  64.656425 23.975876 51.105063
O  62.761316 22.886717 51.534159
H  63.014621 24.84995 51.854361
C  54.6896 39.5452 64.493
N  54.840177 39.93042 63.228946
H  54.52966 40.592922 63.9252
H  55.036346 38.975382 63.492613
N  54.280701 40.417604 65.409849
H  54.47687 39.462566 65.673516
H  54.395049 40.71014 64.449928
N  54.947921 38.287576 64.840205
H  55.06227 38.580111 63.880284
H  54.637404 38.950078 65.536459
C  59.6279 26.1548 47.4209
O  60.811725 26.216576 47.024363
O  58.916616 25.127417 47.453459
H  59.169921 27.09065 47.773661
C  70.3411 31.4164 54.545
O  71.524925 31.478176 54.148463
O  69.629816 30.389017 54.577559
H  69.883121 32.35225 54.897761
C  66.8694 37.5638 49.3238
O  68.053225 37.625576 48.927263
O  66.158116 36.536417 49.356359
H  66.411421 38.49965 49.676561
C  61.9771 32.3786 44.7495
O  63.160925 32.440376 44.352963
O  61.265816 31.351217 44.782059
H  61.519121 33.31445 45.102261
88
Image 1. Energy: -22840.637850816067 
C  56.85514983724077 37.559436285224415 62.78777305932226
H  57.937430349904986 37.38690574802986 62.84494075257495
H  56.53045827079833 38.563602528196036 62.494322160023124
C  56.03385340715187 36.48689310461523 62.736318437977154
C  54.486455055213746 36.49038532184448 62.6717524462583
O  53.956485467717066 37.62221064075661 62.48621180601024
O  53.92937960929939 35.41176037537434 62.88514834498881
O  56.55676548813705 35.283415876848835 62.96730849495534
C  56.52749696410902 34.34326314830184 61.84760657772676
H  55.51518430640233 34.27104956058603 61.43189622050929
C  57.00061068757699 33.12502177479967 62.541496367624255
H  56.30664044798482 32.35540175078045 62.87306400037966
C  58.26696767791825 33.17760671800758 62.993518464869176
C  59.198392529146155 34.20913561255473 62.52889434702387
H  60.18611209619378 34.2457613699889 63.001369907237944
C  58.900493705579755 34.95536031653075 61.44670194190767
H  59.63046943251184 35.62027909263721 60.97794618862065
C  57.53555600973976 34.795595131596215 60.78763135938825
H  57.203704040458376 35.7601597188966 60.36388443859694
O  57.53281092309964 33.77550311409625 59.82116567261317
H  57.97654526747384 34.068505900824924 59.0078719368562
C  58.62460391742538 32.20445394550728 64.0600830576597
O  57.98243177061007 31.111154262884764 63.96309683296979
O  59.406000048306126 32.54543694111706 64.96822882390519
C  58.404 28.2934 64.5831
N  58.554577 28.67862 63.319046
H  58.24406 29.341122 64.0153
H  58.750746 27.723582 63.582713
N  57.995101 29.165804 65.499949
H  58.19127 28.210766 65.763616
H  58.109449 29.45834 64.540028
N  58.662321 27.035776 64.930305
H  58.77667 27.328311 63.970384
H  58.351804 27.698278 65.626559
C  67.0136 28.5085 47.7506
O  68.197425 28.570276 47.354063
O  66.302316 27.481117 47.783159
H  66.555621 29.44435 48.103361
C  52.4613 28.076 62.7231
N  52.611877 28.46122 61.459046
H  52.30136 29.123722 62.1553
H  52.808046 27.506182 61.722713
N  52.052401 28.948404 63.639949
H  52.24857 27.993366 63.903616
H  52.166749 29.24094 62.680028
N  52.719621 26.818376 63.070305
H  52.83397 27.110911 62.110384
H  52.409104 27.480878 63.766559
C  60.4108 36.4479 65.7715
N  60.561377 36.83312 64.507446
H  60.25086 37.495622 65.2037
H  60.757546 35.878082 64.771113
N  60.001901 37.320304 66.688349
H  60.19807 36.365266 66.952016
H  60.116249 37.61284 65.728428
N  60.669121 35.190276 66.118705
H  60.78347 35.482811 65.158784
H  60.358604 35.852778 66.814959
C  63.4726 23.9141 51.5016
O  64.656425 23.975876 51.105063
O  62.761316 22.886717 51.534159
H  63.014621 24.84995 51.854361
C  54.6896 39.5452 64.493
N  54.840177 39.93042 63.228946
H  54.52966 40.592922 63.9252
H  55.036346 38.975382 63.492613
N  54.280701 40.417604 65.409849
H  54.47687 39.462566 65.673516
H  54.395049 40.71014 64.449928
N  54.947921 38.287576 64.840205
H  55.06227 38.580111 63.880284
H  54.637404 38.950078 65.536459
C  59.6279 26.1548 47.4209
O  60.811725 26.216576 47.024363
O  58.916616 25.127417 47.453459
H  59.169921 27.09065 47.773661
C  70.3411 31.4164 54.545
O  71.524925 31.478176 54.148463
O  69.629816 30.389017 54.577559
H  69.883121 32.35225 54.897761
C  66.8694 37.5638 49.3238
O  68.053225 37.625576 48.927263
O  66.158116 36.536417 49.356359
H  66.411421 38.49965 49.676561
C  61.9771 32.3786 44.7495
O  63.160925 32.440376 44.352963
O  61.265816 31.351217 44.782059
H  61.519121 33.31445 45.102261
88
Image 2. Energy: -22839.199393117982 
C  57.2972015238547 37.19078474868422 63.105062522874285
H  58.35645736760255 36.89788856681048 63.144671882160374
H  57.07120709941448 38.16170650156031 62.6659873839221
C  56.32053492561668 36.25681911286487 63.09147320384196
C  54.8158581690835 36.448365837602445 62.900118984537436
O  54.48225205494594 37.550407267945715 62.38050369615674
O  54.08466187936316 35.53976619752611 63.30400231646512
O  56.56970233971645 34.98282795593006 63.25803575302226
C  56.127984842311506 34.12807805111956 61.99839619898805
H  55.05035553655325 34.157763771675405 61.79355160490811
C  56.60792743100999 32.92539737681377 62.650425766594246
H  55.88816319249874 32.430832252011925 63.309332914795625
C  57.92755248129169 33.04238939851143 62.92526626541559
C  58.803071802015054 33.988956434492266 62.236872093591884
H  59.83285914071972 34.06942684463181 62.58970562089
C  58.38388435902574 34.65459042353107 61.14550462577074
H  59.05856355989713 35.225080350737635 60.504735222713116
C  56.933723209241755 34.53454725155657 60.752272313938214
H  56.54027209822082 35.49068886050416 60.36104617946421
O  56.73397122787487 33.5044807866499 59.80232583572084
H  57.14213340164456 33.76150774360659 58.95417005884457
C  58.387915935929804 32.23177024498371 64.05883254312715
O  57.85377442660833 31.08256306947307 63.999045643838265
O  59.12812276555797 32.6991700907766 64.94596337841902
C  58.404 28.2934 64.5831
N  58.554577 28.67862 63.319046
H  58.24406 29.341122 64.0153
H  58.750746 27.723582 63.582713
N  57.995101 29.165804 65.499949
H  58.19127 28.210766 65.763616
H  58.109449 29.45834 64.540028
N  58.662321 27.035776 64.930305
H  58.77667 27.328311 63.970384
H  58.351804 27.698278 65.626559
C  67.0136 28.5085 47.7506
O  68.197425 28.570276 47.354063
O  66.302316 27.481117 47.783159
H  66.555621 29.44435 48.103361
C  52.4613 28.076 62.7231
N  52.611877 28.46122 61.459046
H  52.30136 29.123722 62.1553
H  52.808046 27.506182 61.722713
N  52.052401 28.948404 63.639949
H  52.24857 27.993366 63.903616
H  52.166749 29.24094 62.680028
N  52.719621 26.818376 63.070305
H  52.83397 27.110911 62.110384
H  52.409104 27.480878 63.766559
C  60.4108 36.4479 65.7715
N  60.561377 36.83312 64.507446
H  60.25086 37.495622 65.2037
H  60.757546 35.878082 64.771113
N  60.001901 37.320304 66.688349
H  60.19807 36.365266 66.952016
H  60.116249 37.61284 65.728428
N  60.669121 35.190276 66.118705
H  60.78347 35.482811 65.158784
H  60.358604 35.852778 66.814959
C  63.4726 23.9141 51.5016
O  64.656425 23.975876 51.105063
O  62.761316 22.886717 51.534159
H  63.014621 24.84995 51.854361
C  54.6896 39.5452 64.493
N  54.840177 39.93042 63.228946
H  54.52966 40.592922 63.9252
H  55.036346 38.975382 63.492613
N  54.280701 40.417604 65.409849
H  54.47687 39.462566 65.673516
H  54.395049 40.71014 64.449928
N  54.947921 38.287576 64.840205
H  55.06227 38.580111 63.880284
H  54.637404 38.950078 65.536459
C  59.6279 26.1548 47.4209
O  60.811725 26.216576 47.024363
O  58.916616 25.127417 47.453459
H  59.169921 27.09065 47.773661
C  70.3411 31.4164 54.545
O  71.524925 31.478176 54.148463
O  69.629816 30.389017 54.577559
H  69.883121 32.35225 54.897761
C  66.8694 37.5638 49.3238
O  68.053225 37.625576 48.927263
O  66.158116 36.536417 49.356359
H  66.411421 38.49965 49.676561
C  61.9771 32.3786 44.7495
O  63.160925 32.440376 44.352963
O  61.265816 31.351217 44.782059
H  61.519121 33.31445 45.102261
88
Image 3. Energy: -22840.029211403467 
C  57.27173314759908 36.7809708027266 63.16450130275927
H  58.36385678323808 36.73776492946712 63.21404232677425
H  56.84998026941106 37.50236950006921 62.459508536579236
C  56.487951229858346 35.81391865875812 63.69952933389953
C  54.94165783278865 35.92045067682401 63.34238645077255
O  54.663150065396 37.02266293558274 62.75735958222183
O  54.10989983130804 35.02316598868793 63.34053632500459
O  57.08514609854204 34.759723098905354 64.35957306828455
C  55.716460047560254 33.584913611115915 61.49005946490364
H  54.70876627433664 33.427213635078196 61.08663423104695
C  56.024141749154005 33.258793944242704 62.748926004828235
H  55.27180665793669 32.86229756904158 63.43441967108316
C  57.33372711235013 33.59649288884702 63.38380363286277
C  58.36118580465524 34.067602782430164 62.40084416981358
H  59.38326177371163 34.161986620217526 62.78583918461898
C  58.0523904645138 34.43897930197774 61.151308248505615
H  58.80796167219425 34.87655333757188 60.489791109997874
C  56.69438004763092 34.20328754318871 60.53330495482531
H  56.27890676058231 35.175768934621445 60.187902054914446
O  56.81319605988893 33.285027883527526 59.46535806586422
H  57.185635677716206 33.71643009798454 58.67922581814315
C  57.941323621242255 32.40875411320713 64.19699005609213
O  57.5855031219229 31.243027343314658 63.82255479702826
O  58.784282116462066 32.675163862611825 65.07197398917555
C  58.404 28.2934 64.5831
N  58.554577 28.67862 63.319046
H  58.24406 29.341122 64.0153
H  58.750746 27.723582 63.582713
N  57.995101 29.165804 65.499949
H  58.19127 28.210766 65.763616
H  58.109449 29.45834 64.540028
N  58.662321 27.035776 64.930305
H  58.77667 27.328311 63.970384
H  58.351804 27.698278 65.626559
C  67.0136 28.5085 47.7506
O  68.197425 28.570276 47.354063
O  66.302316 27.481117 47.783159
H  66.555621 29.44435 48.103361
C  52.4613 28.076 62.7231
N  52.611877 28.46122 61.459046
H  52.30136 29.123722 62.1553
H  52.808046 27.506182 61.722713
N  52.052401 28.948404 63.639949
H  52.24857 27.993366 63.903616
H  52.166749 29.24094 62.680028
N  52.719621 26.818376 63.070305
H  52.83397 27.110911 62.110384
H  52.409104 27.480878 63.766559
C  60.4108 36.4479 65.7715
N  60.561377 36.83312 64.507446
H  60.25086 37.495622 65.2037
H  60.757546 35.878082 64.771113
N  60.001901 37.320304 66.688349
H  60.19807 36.365266 66.952016
H  60.116249 37.61284 65.728428
N  60.669121 35.190276 66.118705
H  60.78347 35.482811 65.158784
H  60.358604 35.852778 66.814959
C  63.4726 23.9141 51.5016
O  64.656425 23.975876 51.105063
O  62.761316 22.886717 51.534159
H  63.014621 24.84995 51.854361
C  54.6896 39.5452 64.493
N  54.840177 39.93042 63.228946
H  54.52966 40.592922 63.9252
H  55.036346 38.975382 63.492613
N  54.280701 40.417604 65.409849
H  54.47687 39.462566 65.673516
H  54.395049 40.71014 64.449928
N  54.947921 38.287576 64.840205
H  55.06227 38.580111 63.880284
H  54.637404 38.950078 65.536459
C  59.6279 26.1548 47.4209
O  60.811725 26.216576 47.024363
O  58.916616 25.127417 47.453459
H  59.169921 27.09065 47.773661
C  70.3411 31.4164 54.545
O  71.524925 31.478176 54.148463
O  69.629816 30.389017 54.577559
H  69.883121 32.35225 54.897761
C  66.8694 37.5638 49.3238
O  68.053225 37.625576 48.927263
O  66.158116 36.536417 49.356359
H  66.411421 38.49965 49.676561
C  61.9771 32.3786 44.7495
O  63.160925 32.440376 44.352963
O  61.265816 31.351217 44.782059
H  61.519121 33.31445 45.102261
88
Image 4. Energy: -22833.91488061914 
C  57.047488122589684 36.64936976902913 63.227762509368155
H  58.144148152587704 36.571312454010815 63.24452748615101
H  56.66423684696756 37.371929010054416 62.4916268355204
C  56.27887025938059 35.608010890533315 63.705392347050946
C  54.79331083047868 35.64306907635835 63.915477176894065
O  54.294518108870214 36.57583154351592 62.92985106496006
O  53.848466027099384 35.18396950517319 62.9294290892134
O  56.94599001825237 34.572758516352714 64.34662576877689
C  55.524145953165096 33.43483431817903 61.57936238906383
H  54.51208983843228 33.29418565716484 61.19422148158091
C  55.85215958732049 33.05778382416564 62.813856962000806
H  55.11613917344645 32.61356590998016 63.493087995398085
C  57.169903704580875 33.401282603762155 63.426364553324994
C  58.19833819657462 33.84891915018725 62.43057227738234
H  59.219145519895825 33.94010659845645 62.81929314989196
C  57.87352629581277 34.253629860675865 61.200586763384486
H  58.620419192715765 34.706219000217686 60.54043788183723
C  56.50111340136236 34.038647447388385 60.61128762781381
H  56.093125320843605 35.01098914722786 60.26211667523432
O  56.583979039446184 33.10081440841064 59.55509514859245
H  56.969085570552515 33.51146000548972 58.764622675527136
C  57.77006870509565 32.22036214909548 64.23135604209429
O  57.40060655456933 31.065764345431365 63.83042420602831
O  58.61358329996085 32.456015789140544 65.11206460290964
C  58.404 28.2934 64.5831
N  58.554577 28.67862 63.319046
H  58.24406 29.341122 64.0153
H  58.750746 27.723582 63.582713
N  57.995101 29.165804 65.499949
H  58.19127 28.210766 65.763616
H  58.109449 29.45834 64.540028
N  58.662321 27.035776 64.930305
H  58.77667 27.328311 63.970384
H  58.351804 27.698278 65.626559
C  67.0136 28.5085 47.7506
O  68.197425 28.570276 47.354063
O  66.302316 27.481117 47.783159
H  66.555621 29.44435 48.103361
C  52.4613 28.076 62.7231
N  52.611877 28.46122 61.459046
H  52.30136 29.123722 62.1553
H  52.808046 27.506182 61.722713
N  52.052401 28.948404 63.639949
H  52.24857 27.993366 63.903616
H  52.166749 29.24094 62.680028
N  52.719621 26.818376 63.070305
H  52.83397 27.110911 62.110384
H  52.409104 27.480878 63.766559
C  60.4108 36.4479 65.7715
N  60.561377 36.83312 64.507446
H  60.25086 37.495622 65.2037
H  60.757546 35.878082 64.771113
N  60.001901 37.320304 66.688349
H  60.19807 36.365266 66.952016
H  60.116249 37.61284 65.728428
N  60.669121 35.190276 66.118705
H  60.78347 35.482811 65.158784
H  60.358604 35.852778 66.814959
C  63.4726 23.9141 51.5016
O  64.656425 23.975876 51.105063
O  62.761316 22.886717 51.534159
H  63.014621 24.84995 51.854361
C  54.6896 39.5452 64.493
N  54.840177 39.93042 63.228946
H  54.52966 40.592922 63.9252
H  55.036346 38.975382 63.492613
N  54.280701 40.417604 65.409849
H  54.47687 39.462566 65.673516
H  54.395049 40.71014 64.449928
N  54.947921 38.287576 64.840205
H  55.06227 38.580111 63.880284
H  54.637404 38.950078 65.536459
C  59.6279 26.1548 47.4209
O  60.811725 26.216576 47.024363
O  58.916616 25.127417 47.453459
H  59.169921 27.09065 47.773661
C  70.3411 31.4164 54.545
O  71.524925 31.478176 54.148463
O  69.629816 30.389017 54.577559
H  69.883121 32.35225 54.897761
C  66.8694 37.5638 49.3238
O  68.053225 37.625576 48.927263
O  66.158116 36.536417 49.356359
H  66.411421 38.49965 49.676561
C  61.9771 32.3786 44.7495
O  63.160925 32.440376 44.352963
O  61.265816 31.351217 44.782059
H  61.519121 33.31445 45.102261
88
Image 5. Energy: -22836.598076156173 
C  57.042509487538034 36.57220342078593 63.238295436491995
H  58.10065687338429 36.39141721472053 63.262103884050056
H  56.59345870782022 37.26628905290091 62.52381961551458
C  56.156251389534695 35.6533722087312 63.644524163258396
C  53.984675594384726 35.26651188030347 63.979604923292115
O  54.88402883351511 36.09478316313364 63.233587542258036
O  53.274384528869234 34.791693758859076 63.11531466592172
O  56.57333136923812 34.52696886234903 64.33531259109853
C  55.318497087595446 33.24868798918768 61.6257815751941
H  54.30639209998109 33.11010834203996 61.2452080260348
C  55.64144296423983 32.87406504061908 62.85949066630818
H  54.9135383194627 32.43349909818021 63.545493382083045
C  56.94068806344807 33.24584487170873 63.46309331578413
C  57.988275658618726 33.6839141471998 62.49906348113218
H  59.01188609387989 33.75684593244747 62.88474891434324
C  57.671690057802245 34.072702165587295 61.259088026700624
H  58.424483236255796 34.51233822934742 60.597124396557
C  56.30123139270766 33.851835713247546 60.66506051814024
H  55.89470847863856 34.822744333012906 60.31371942794007
O  56.399089279518336 32.91206165067634 59.612598900077096
H  56.775299803333795 33.325097260251596 58.819144902697225
C  57.55455305946775 32.07795425084524 64.29532999288304
O  57.193609183311 30.933720364979706 63.858755139337575
O  58.40792963745397 32.29368291888636 65.16824957290036
C  58.404 28.2934 64.5831
N  58.554577 28.67862 63.319046
H  58.24406 29.341122 64.0153
H  58.750746 27.723582 63.582713
N  57.995101 29.165804 65.499949
H  58.19127 28.210766 65.763616
H  58.109449 29.45834 64.540028
N  58.662321 27.035776 64.930305
H  58.77667 27.328311 63.970384
H  58.351804 27.698278 65.626559
C  67.0136 28.5085 47.7506
O  68.197425 28.570276 47.354063
O  66.302316 27.481117 47.783159
H  66.555621 29.44435 48.103361
C  52.4613 28.076 62.7231
N  52.611877 28.46122 61.459046
H  52.30136 29.123722 62.1553
H  52.808046 27.506182 61.722713
N  52.052401 28.948404 63.639949
H  52.24857 27.993366 63.903616
H  52.166749 29.24094 62.680028
N  52.719621 26.818376 63.070305
H  52.83397 27.110911 62.110384
H  52.409104 27.480878 63.766559
C  60.4108 36.4479 65.7715
N  60.561377 36.83312 64.507446
H  60.25086 37.495622 65.2037
H  60.757546 35.878082 64.771113
N  60.001901 37.320304 66.688349
H  60.19807 36.365266 66.952016
H  60.116249 37.61284 65.728428
N  60.669121 35.190276 66.118705
H  60.78347 35.482811 65.158784
H  60.358604 35.852778 66.814959
C  63.4726 23.9141 51.5016
O  64.656425 23.975876 51.105063
O  62.761316 22.886717 51.534159
H  63.014621 24.84995 51.854361
C  54.6896 39.5452 64.493
N  54.840177 39.93042 63.228946
H  54.52966 40.592922 63.9252
H  55.036346 38.975382 63.492613
N  54.280701 40.417604 65.409849
H  54.47687 39.462566 65.673516
H  54.395049 40.71014 64.449928
N  54.947921 38.287576 64.840205
H  55.06227 38.580111 63.880284
H  54.637404 38.950078 65.536459
C  59.6279 26.1548 47.4209
O  60.811725 26.216576 47.024363
O  58.916616 25.127417 47.453459
H  59.169921 27.09065 47.773661
C  70.3411 31.4164 54.545
O  71.524925 31.478176 54.148463
O  69.629816 30.389017 54.577559
H  69.883121 32.35225 54.897761
C  66.8694 37.5638 49.3238
O  68.053225 37.625576 48.927263
O  66.158116 36.536417 49.356359
H  66.411421 38.49965 49.676561
C  61.9771 32.3786 44.7495
O  63.160925 32.440376 44.352963
O  61.265816 31.351217 44.782059
H  61.519121 33.31445 45.102261
88
Image 6. Energy: -22839.037272161735 
C  57.030944990227106 35.86907910752137 62.662954393163965
H  57.98077851885896 36.08262772600422 63.188263002866975
H  56.64725408941768 36.80651988697024 62.210111050842826
C  55.97001063318685 35.52598527091885 63.672301348960275
C  53.34385207085802 34.94969408346521 64.17937318260658
O  54.84612999156184 36.04396971922637 63.346638317051166
O  52.91185858088963 34.484280234096026 63.22253180654113
O  56.24095383550846 34.8075544333138 64.6559352295967
C  55.104524137995654 33.164386471001286 61.733610158874974
H  54.094051211308546 33.005373155113155 61.35236373779293
C  55.4857634715108 32.70181410624671 62.92624995680801
H  54.779771504044135 32.21160747930962 63.606178247021575
C  56.88240813728939 32.814140741216995 63.35093264897314
C  57.802460594371894 33.490169784023585 62.64311636770332
H  58.85299680436661 33.48016833959979 62.94669894990468
C  57.33947753595993 34.40832324425924 61.60024834373093
H  58.12870794754602 34.594901980891734 60.84573298783246
C  56.09545364854184 33.827422221114375 60.81692689359186
H  55.622678428788724 34.683259704787815 60.32155819005311
O  56.414622155118344 32.81226533857937 59.87654651741374
H  56.605372215426755 33.16950752587314 58.9921497056897
C  57.37400347122818 31.7693848247109 64.25796536376865
O  56.87739539941368 30.641480039087718 63.89075818816595
O  58.23929531658079 31.961937342668335 65.13443880104616
C  58.404 28.2934 64.5831
N  58.554577 28.67862 63.319046
H  58.24406 29.341122 64.0153
H  58.750746 27.723582 63.582713
N  57.995101 29.165804 65.499949
H  58.19127 28.210766 65.763616
H  58.109449 29.45834 64.540028
N  58.662321 27.035776 64.930305
H  58.77667 27.328311 63.970384
H  58.351804 27.698278 65.626559
C  67.0136 28.5085 47.7506
O  68.197425 28.570276 47.354063
O  66.302316 27.481117 47.783159
H  66.555621 29.44435 48.103361
C  52.4613 28.076 62.7231
N  52.611877 28.46122 61.459046
H  52.30136 29.123722 62.1553
H  52.808046 27.506182 61.722713
N  52.052401 28.948404 63.639949
H  52.24857 27.993366 63.903616
H  52.166749 29.24094 62.680028
N  52.719621 26.818376 63.070305
H  52.83397 27.110911 62.110384
H  52.409104 27.480878 63.766559
C  60.4108 36.4479 65.7715
N  60.561377 36.83312 64.507446
H  60.25086 37.495622 65.2037
H  60.757546 35.878082 64.771113
N  60.001901 37.320304 66.688349
H  60.19807 36.365266 66.952016
H  60.116249 37.61284 65.728428
N  60.669121 35.190276 66.118705
H  60.78347 35.482811 65.158784
H  60.358604 35.852778 66.814959
C  63.4726 23.9141 51.5016
O  64.656425 23.975876 51.105063
O  62.761316 22.886717 51.534159
H  63.014621 24.84995 51.854361
C  54.6896 39.5452 64.493
N  54.840177 39.93042 63.228946
H  54.52966 40.592922 63.9252
H  55.036346 38.975382 63.492613
N  54.280701 40.417604 65.409849
H  54.47687 39.462566 65.673516
H  54.395049 40.71014 64.449928
N  54.947921 38.287576 64.840205
H  55.06227 38.580111 63.880284
H  54.637404 38.950078 65.536459
C  59.6279 26.1548 47.4209
O  60.811725 26.216576 47.024363
O  58.916616 25.127417 47.453459
H  59.169921 27.09065 47.773661
C  70.3411 31.4164 54.545
O  71.524925 31.478176 54.148463
O  69.629816 30.389017 54.577559
H  69.883121 32.35225 54.897761
C  66.8694 37.5638 49.3238
O  68.053225 37.625576 48.927263
O  66.158116 36.536417 49.356359
H  66.411421 38.49965 49.676561
C  61.9771 32.3786 44.7495
O  63.160925 32.440376 44.352963
O  61.265816 31.351217 44.782059
H  61.519121 33.31445 45.102261
88
Image 7. Energy: -22839.322523258154 
C  56.630697290863445 35.56075373966913 62.46263695830894
H  57.53423739128822 35.89616291019159 63.01733444168363
H  56.32125044365711 36.43437698240971 61.85986807780452
C  55.615124520223794 35.4456790343315 63.61988242026545
C  54.241604197932055 34.67858711689491 64.05262310853027
O  56.03478037983677 36.05528888292184 64.5897424240693
O  53.14333203151779 34.747440939104166 63.49208805980901
O  54.65970336580549 34.07725972734396 65.06735764099098
C  54.83582052093753 33.018492040151514 61.773955337648566
H  53.80376936260344 32.92596924696179 61.43775682940931
C  55.245636080894776 32.48561609088666 62.926189618505255
H  54.570077089692376 31.98958714472534 63.62509106151411
C  56.64228142146194 32.58839647289857 63.326902154600575
C  57.530226342250266 33.367427543141645 62.69571428228557
H  58.58883478751197 33.323444964538815 62.97492705970251
C  57.0150476068615 34.30502953541134 61.657280114442116
H  57.813662186660245 34.55023150299543 60.94014424327832
C  55.8398949955725 33.677019948654504 60.862770270673444
H  55.35518957737388 34.49753393087045 60.310937833615796
O  56.27129152407085 32.64555322556486 60.0005961560409
H  56.44851281736334 32.98923222843387 59.11126530122895
C  57.15275668188157 31.519327236289243 64.1739916050344
O  56.56529662906392 30.406576321789874 63.910471072199876
O  58.12989090467769 31.708376893818517 64.93312771835772
C  58.404 28.2934 64.5831
N  58.554577 28.67862 63.319046
H  58.24406 29.341122 64.0153
H  58.750746 27.723582 63.582713
N  57.995101 29.165804 65.499949
H  58.19127 28.210766 65.763616
H  58.109449 29.45834 64.540028
N  58.662321 27.035776 64.930305
H  58.77667 27.328311 63.970384
H  58.351804 27.698278 65.626559
C  67.0136 28.5085 47.7506
O  68.197425 28.570276 47.354063
O  66.302316 27.481117 47.783159
H  66.555621 29.44435 48.103361
C  52.4613 28.076 62.7231
N  52.611877 28.46122 61.459046
H  52.30136 29.123722 62.1553
H  52.808046 27.506182 61.722713
N  52.052401 28.948404 63.639949
H  52.24857 27.993366 63.903616
H  52.166749 29.24094 62.680028
N  52.719621 26.818376 63.070305
H  52.83397 27.110911 62.110384
H  52.409104 27.480878 63.766559
C  60.4108 36.4479 65.7715
N  60.561377 36.83312 64.507446
H  60.25086 37.495622 65.2037
H  60.757546 35.878082 64.771113
N  60.001901 37.320304 66.688349
H  60.19807 36.365266 66.952016
H  60.116249 37.61284 65.728428
N  60.669121 35.190276 66.118705
H  60.78347 35.482811 65.158784
H  60.358604 35.852778 66.814959
C  63.4726 23.9141 51.5016
O  64.656425 23.975876 51.105063
O  62.761316 22.886717 51.534159
H  63.014621 24.84995 51.854361
C  54.6896 39.5452 64.493
N  54.840177 39.93042 63.228946
H  54.52966 40.592922 63.9252
H  55.036346 38.975382 63.492613
N  54.280701 40.417604 65.409849
H  54.47687 39.462566 65.673516
H  54.395049 40.71014 64.449928
N  54.947921 38.287576 64.840205
H  55.06227 38.580111 63.880284
H  54.637404 38.950078 65.536459
C  59.6279 26.1548 47.4209
O  60.811725 26.216576 47.024363
O  58.916616 25.127417 47.453459
H  59.169921 27.09065 47.773661
C  70.3411 31.4164 54.545
O  71.524925 31.478176 54.148463
O  69.629816 30.389017 54.577559
H  69.883121 32.35225 54.897761
C  66.8694 37.5638 49.3238
O  68.053225 37.625576 48.927263
O  66.158116 36.536417 49.356359
H  66.411421 38.49965 49.676561
C  61.9771 32.3786 44.7495
O  63.160925 32.440376 44.352963
O  61.265816 31.351217 44.782059
H  61.519121 33.31445 45.102261
88
Image 8. Energy: -22840.645568592212 
C  56.560280152044115 35.35174606065663 62.68634896910896
H  57.56755335673102 35.78580241003152 62.67116768858644
H  55.88145321899863 36.0920241234138 62.226793700863595
C  56.29829965159215 35.263333263689994 64.23265985603364
C  53.48714168783416 35.23124109460229 63.6785368187318
O  57.04397796791428 36.043555649954214 64.91561952612824
O  52.66758273863887 34.48960053609509 64.17482804642479
O  55.42606747189389 34.52158594963414 64.72754213743589
C  54.40944214965137 32.89644960546985 61.98899123087764
H  53.34839558174755 32.88502782425718 61.73908420335299
C  54.897409257050484 32.27129279722354 63.06337262551074
H  54.28280669663029 31.748571124779296 63.8038918424517
C  56.3353042433854 32.24261026536299 63.25654608479134
C  57.19824377329165 33.04598287947657 62.62235256214319
H  58.268530159506916 32.91248245596308 62.78729354432705
C  56.64558373751823 34.094840528900896 61.76095375282748
H  57.37026489681598 34.33401112578609 60.967761299322824
C  55.402669089265615 33.50939470227061 61.02982238662862
H  54.92897083566471 34.302641878302616 60.43466359781706
O  55.80217136470627 32.41954260130532 60.206815826204085
H  56.13913428577149 32.72742660582355 59.350517266681265
C  56.94266044290664 31.086884694486354 63.84575913928153
O  56.22901153357128 30.028439317678824 63.89336587963294
O  58.1741173568695 31.196387084835543 64.14703614483442
C  58.404 28.2934 64.5831
N  58.554577 28.67862 63.319046
H  58.24406 29.341122 64.0153
H  58.750746 27.723582 63.582713
N  57.995101 29.165804 65.499949
H  58.19127 28.210766 65.763616
H  58.109449 29.45834 64.540028
N  58.662321 27.035776 64.930305
H  58.77667 27.328311 63.970384
H  58.351804 27.698278 65.626559
C  67.0136 28.5085 47.7506
O  68.197425 28.570276 47.354063
O  66.302316 27.481117 47.783159
H  66.555621 29.44435 48.103361
C  52.4613 28.076 62.7231
N  52.611877 28.46122 61.459046
H  52.30136 29.123722 62.1553
H  52.808046 27.506182 61.722713
N  52.052401 28.948404 63.639949
H  52.24857 27.993366 63.903616
H  52.166749 29.24094 62.680028
N  52.719621 26.818376 63.070305
H  52.83397 27.110911 62.110384
H  52.409104 27.480878 63.766559
C  60.4108 36.4479 65.7715
N  60.561377 36.83312 64.507446
H  60.25086 37.495622 65.2037
H  60.757546 35.878082 64.771113
N  60.001901 37.320304 66.688349
H  60.19807 36.365266 66.952016
H  60.116249 37.61284 65.728428
N  60.669121 35.190276 66.118705
H  60.78347 35.482811 65.158784
H  60.358604 35.852778 66.814959
C  63.4726 23.9141 51.5016
O  64.656425 23.975876 51.105063
O  62.761316 22.886717 51.534159
H  63.014621 24.84995 51.854361
C  54.6896 39.5452 64.493
N  54.840177 39.93042 63.228946
H  54.52966 40.592922 63.9252
H  55.036346 38.975382 63.492613
N  54.280701 40.417604 65.409849
H  54.47687 39.462566 65.673516
H  54.395049 40.71014 64.449928
N  54.947921 38.287576 64.840205
H  55.06227 38.580111 63.880284
H  54.637404 38.950078 65.536459
C  59.6279 26.1548 47.4209
O  60.811725 26.216576 47.024363
O  58.916616 25.127417 47.453459
H  59.169921 27.09065 47.773661
C  70.3411 31.4164 54.545
O  71.524925 31.478176 54.148463
O  69.629816 30.389017 54.577559
H  69.883121 32.35225 54.897761
C  66.8694 37.5638 49.3238
O  68.053225 37.625576 48.927263
O  66.158116 36.536417 49.356359
H  66.411421 38.49965 49.676561
C  61.9771 32.3786 44.7495
O  63.160925 32.440376 44.352963
O  61.265816 31.351217 44.782059
H  61.519121 33.31445 45.102261
88
Image 9. Energy: -22840.08515514802 
C  56.455965475303415 35.0353041273176 62.42806557096516
H  57.50023272013743 35.364264271352184 62.2919987703977
H  55.80082343954433 35.850159381166776 62.07342047627335
C  56.142679510280985 34.657926203311874 63.84746124986594
C  55.22917495559718 35.444897455908844 64.66411781239209
O  56.23443876051343 36.135224592740144 65.19506729004208
O  54.018480450247345 35.32637800759567 64.86662492001687
O  56.65887573102184 33.7362999567647 64.45747471818164
C  53.95427513525121 32.95449603219608 62.43061625941697
H  52.91339763118522 33.23337020930114 62.55654489879779
C  54.54815649715306 32.07416846681055 63.24399532151987
H  54.075636579480154 31.61803053111936 64.12520691670264
C  55.94334762640335 31.81339672265373 63.01394212534926
C  56.76376553205584 32.59444954040346 62.287038728911675
H  57.834629476791235 32.41007609715258 62.34980378429494
C  56.21864090616999 33.76160273142372 61.58028530028598
H  56.76223489141721 33.903700804030954 60.63869379647191
C  54.75834500388314 33.44094918355184 61.23899136304636
H  54.29449724161621 34.340510486643225 60.81112634543469
O  54.76724669656197 32.35206157581793 60.33117459989628
H  55.341346157894854 32.573458194126886 59.579964064131666
C  56.60608982249062 30.753961871090986 63.69935224348642
O  55.978534688343665 29.666896445833135 63.929770758000316
O  57.82441018065376 31.02680260168725 63.96005717611784
C  58.404 28.2934 64.5831
N  58.554577 28.67862 63.319046
H  58.24406 29.341122 64.0153
H  58.750746 27.723582 63.582713
N  57.995101 29.165804 65.499949
H  58.19127 28.210766 65.763616
H  58.109449 29.45834 64.540028
N  58.662321 27.035776 64.930305
H  58.77667 27.328311 63.970384
H  58.351804 27.698278 65.626559
C  67.0136 28.5085 47.7506
O  68.197425 28.570276 47.354063
O  66.302316 27.481117 47.783159
H  66.555621 29.44435 48.103361
C  52.4613 28.076 62.7231
N  52.611877 28.46122 61.459046
H  52.30136 29.123722 62.1553
H  52.808046 27.506182 61.722713
N  52.052401 28.948404 63.639949
H  52.24857 27.993366 63.903616
H  52.166749 29.24094 62.680028
N  52.719621 26.818376 63.070305
H  52.83397 27.110911 62.110384
H  52.409104 27.480878 63.766559
C  60.4108 36.4479 65.7715
N  60.561377 36.83312 64.507446
H  60.25086 37.495622 65.2037
H  60.757546 35.878082 64.771113
N  60.001901 37.320304 66.688349
H  60.19807 36.365266 66.952016
H  60.116249 37.61284 65.728428
N  60.669121 35.190276 66.118705
H  60.78347 35.482811 65.158784
H  60.358604 35.852778 66.814959
C  63.4726 23.9141 51.5016
O  64.656425 23.975876 51.105063
O  62.761316 22.886717 51.534159
H  63.014621 24.84995 51.854361
C  54.6896 39.5452 64.493
N  54.840177 39.93042 63.228946
H  54.52966 40.592922 63.9252
H  55.036346 38.975382 63.492613
N  54.280701 40.417604 65.409849
H  54.47687 39.462566 65.673516
H  54.395049 40.71014 64.449928
N  54.947921 38.287576 64.840205
H  55.06227 38.580111 63.880284
H  54.637404 38.950078 65.536459
C  59.6279 26.1548 47.4209
O  60.811725 26.216576 47.024363
O  58.916616 25.127417 47.453459
H  59.169921 27.09065 47.773661
C  70.3411 31.4164 54.545
O  71.524925 31.478176 54.148463
O  69.629816 30.389017 54.577559
H  69.883121 32.35225 54.897761
C  66.8694 37.5638 49.3238
O  68.053225 37.625576 48.927263
O  66.158116 36.536417 49.356359
H  66.411421 38.49965 49.676561
C  61.9771 32.3786 44.7495
O  63.160925 32.440376 44.352963
O  61.265816 31.351217 44.782059
H  61.519121 33.31445 45.102261
88
Image 10. Energy: -22841.89033572867 
C  56.36262236283234 34.59031235299695 62.4258463467521
H  57.386865911373924 34.72859989044271 62.032750986375035
H  55.83105755701048 35.54185202109965 62.28348768071853
C  56.66534260959273 34.49111033824943 63.944565495022694
C  55.92707815100074 35.38681291425847 64.97591335593565
O  56.72482878677944 36.111916261988924 65.64584621534686
O  54.69070308557559 35.28781736879814 65.06235322703
O  57.63145858489272 33.882532814978624 64.37756902054062
C  53.60437082644884 32.94228559634673 62.7272572051163
H  52.67649029842906 33.38411971691618 63.08077860540132
C  54.26631678571192 32.00125780946602 63.41876398996733
H  53.95200210073442 31.6631896227921 64.41086219911553
C  55.544528798274406 31.530487566978245 62.92009297804695
C  56.24552668429735 32.190312415846 61.981829823645484
H  57.26404033947409 31.88536048314333 61.745600984949185
C  55.71716095173424 33.47498075011 61.488063379312216
H  56.10073063138798 33.68591427446297 60.477196517194585
C  54.1708069480721 33.317306093892114 61.37919669421839
H  53.71810192296943 34.23525090086749 60.97748306030655
O  53.81222747474717 32.20128991128789 60.55780346530068
H  54.10257268048121 32.32022901677039 59.63989788671745
C  56.292611596095085 30.508378334002757 63.63040961118453
O  55.77304846273429 29.397439662888836 63.95986292224361
O  57.4828850493515 30.89714029141524 63.846433199557595
C  58.404 28.2934 64.5831
N  58.554577 28.67862 63.319046
H  58.24406 29.341122 64.0153
H  58.750746 27.723582 63.582713
N  57.995101 29.165804 65.499949
H  58.19127 28.210766 65.763616
H  58.109449 29.45834 64.540028
N  58.662321 27.035776 64.930305
H  58.77667 27.328311 63.970384
H  58.351804 27.698278 65.626559
C  67.0136 28.5085 47.7506
O  68.197425 28.570276 47.354063
O  66.302316 27.481117 47.783159
H  66.555621 29.44435 48.103361
C  52.4613 28.076 62.7231
N  52.611877 28.46122 61.459046
H  52.30136 29.123722 62.1553
H  52.808046 27.506182 61.722713
N  52.052401 28.948404 63.639949
H  52.24857 27.993366 63.903616
H  52.166749 29.24094 62.680028
N  52.719621 26.818376 63.070305
H  52.83397 27.110911 62.110384
H  52.409104 27.480878 63.766559
C  60.4108 36.4479 65.7715
N  60.561377 36.83312 64.507446
H  60.25086 37.495622 65.2037
H  60.757546 35.878082 64.771113
N  60.001901 37.320304 66.688349
H  60.19807 36.365266 66.952016
H  60.116249 37.61284 65.728428
N  60.669121 35.190276 66.118705
H  60.78347 35.482811 65.158784
H  60.358604 35.852778 66.814959
C  63.4726 23.9141 51.5016
O  64.656425 23.975876 51.105063
O  62.761316 22.886717 51.534159
H  63.014621 24.84995 51.854361
C  54.6896 39.5452 64.493
N  54.840177 39.93042 63.228946
H  54.52966 40.592922 63.9252
H  55.036346 38.975382 63.492613
N  54.280701 40.417604 65.409849
H  54.47687 39.462566 65.673516
H  54.395049 40.71014 64.449928
N  54.947921 38.287576 64.840205
H  55.06227 38.580111 63.880284
H  54.637404 38.950078 65.536459
C  59.6279 26.1548 47.4209
O  60.811725 26.216576 47.024363
O  58.916616 25.127417 47.453459
H  59.169921 27.09065 47.773661
C  70.3411 31.4164 54.545
O  71.524925 31.478176 54.148463
O  69.629816 30.389017 54.577559
H  69.883121 32.35225 54.897761
C  66.8694 37.5638 49.3238
O  68.053225 37.625576 48.927263
O  66.158116 36.536417 49.356359
H  66.411421 38.49965 49.676561
C  61.9771 32.3786 44.7495
O  63.160925 32.440376 44.352963
O  61.265816 31.351217 44.782059
H  61.519121 33.31445 45.102261
88
Image 11. Energy: -22841.668888818807 
C  56.322218423124326 33.669978515948635 63.22202864077658
H  57.17004868492389 33.76044434075504 62.51688005808747
H  55.56973687743623 34.36653813754773 62.805926142422216
C  56.83757135643393 34.21261628943201 64.5174313033138
C  55.99825996166397 35.29187091394432 65.26499899852284
O  56.69692768301964 36.13955183821312 65.88906474600648
O  54.75994007845224 35.215462546276555 65.15451114663175
O  57.94138071219748 33.90295924904055 64.9446472562341
C  53.338882965293834 32.774485163072065 62.663552914364914
H  52.32454797093542 33.024753980820044 62.99344434895255
C  54.21652012455995 32.21566467633175 63.496574318035705
H  53.93778660875516 31.890084945622743 64.50716056372902
C  55.663389611361175 32.152667091619186 63.10391705684806
C  55.92814391473972 32.082040426296054 61.62041297799087
H  56.94310533014926 31.77096943395005 61.355933030578186
C  55.13203753658398 32.797557477219755 60.83401608877006
H  55.48305494463339 33.15724677584416 59.86549746810372
C  53.692041468106254 33.0311813747397 61.21515157341792
H  53.35590911953236 34.03893724775552 60.912634835540054
O  52.96131361586158 32.01286307659581 60.50518057150065
H  53.366870431457116 31.953234619192088 59.62320160878676
C  56.347002261450506 30.91431169199565 63.68353169524439
O  55.68206670238375 29.84787506761391 63.85849433719301
O  57.59277566694582 31.02011244017299 63.824743528949945
C  58.404 28.2934 64.5831
N  58.554577 28.67862 63.319046
H  58.24406 29.341122 64.0153
H  58.750746 27.723582 63.582713
N  57.995101 29.165804 65.499949
H  58.19127 28.210766 65.763616
H  58.109449 29.45834 64.540028
N  58.662321 27.035776 64.930305
H  58.77667 27.328311 63.970384
H  58.351804 27.698278 65.626559
C  67.0136 28.5085 47.7506
O  68.197425 28.570276 47.354063
O  66.302316 27.481117 47.783159
H  66.555621 29.44435 48.103361
C  52.4613 28.076 62.7231
N  52.611877 28.46122 61.459046
H  52.30136 29.123722 62.1553
H  52.808046 27.506182 61.722713
N  52.052401 28.948404 63.639949
H  52.24857 27.993366 63.903616
H  52.166749 29.24094 62.680028
N  52.719621 26.818376 63.070305
H  52.83397 27.110911 62.110384
H  52.409104 27.480878 63.766559
C  60.4108 36.4479 65.7715
N  60.561377 36.83312 64.507446
H  60.25086 37.495622 65.2037
H  60.757546 35.878082 64.771113
N  60.001901 37.320304 66.688349
H  60.19807 36.365266 66.952016
H  60.116249 37.61284 65.728428
N  60.669121 35.190276 66.118705
H  60.78347 35.482811 65.158784
H  60.358604 35.852778 66.814959
C  63.4726 23.9141 51.5016
O  64.656425 23.975876 51.105063
O  62.761316 22.886717 51.534159
H  63.014621 24.84995 51.854361
C  54.6896 39.5452 64.493
N  54.840177 39.93042 63.228946
H  54.52966 40.592922 63.9252
H  55.036346 38.975382 63.492613
N  54.280701 40.417604 65.409849
H  54.47687 39.462566 65.673516
H  54.395049 40.71014 64.449928
N  54.947921 38.287576 64.840205
H  55.06227 38.580111 63.880284
H  54.637404 38.950078 65.536459
C  59.6279 26.1548 47.4209
O  60.811725 26.216576 47.024363
O  58.916616 25.127417 47.453459
H  59.169921 27.09065 47.773661
C  70.3411 31.4164 54.545
O  71.524925 31.478176 54.148463
O  69.629816 30.389017 54.577559
H  69.883121 32.35225 54.897761
C  66.8694 37.5638 49.3238
O  68.053225 37.625576 48.927263
O  66.158116 36.536417 49.356359
H  66.411421 38.49965 49.676561
C  61.9771 32.3786 44.7495
O  63.160925 32.440376 44.352963
O  61.265816 31.351217 44.782059
H  61.519121 33.31445 45.102261
88
Image 12. Energy: -22843.211935915042 
C  56.26342926390122 33.44110593420293 63.39948350617361
H  57.26241172663792 33.41789873126899 62.92989732402543
H  55.691972965229574 34.19297705725597 62.84987182941275
C  56.491048193440605 33.9936117352149 64.77954033312766
C  56.44480562152558 35.53977620132688 64.74113102877394
O  57.30762068418805 36.22013420232258 65.37117306371034
O  55.50806799718858 35.93149119207645 64.01668685436873
O  56.675127161118965 33.36163741477934 65.80329090063287
C  53.10217543002332 32.46626735265224 62.87500984417352
H  52.10026057668948 32.62442245776873 63.2915242873844
C  54.14062185490337 32.18619712140177 63.67041817647341
H  53.99819265325642 32.11498988701924 64.75515727677043
C  55.5554502167581 32.096983189236305 63.15640549726239
C  55.622799149324294 32.004158554442334 61.64410265738276
H  56.62140446058982 31.827747144678842 61.23220091479546
C  54.60201810971598 32.33490882417174 60.85429873770006
H  54.75561008178812 32.4356759132533 59.77465008783877
C  53.20527109870131 32.52918384799017 61.37532016941544
H  52.79291056351096 33.49142203267961 61.011690196168054
O  52.38560573217808 31.433675031972676 60.90700633747666
H  52.44190107149415 31.43464569265131 59.935600193766014
C  56.32527584479339 30.893299023524065 63.692341254675966
O  55.71363108276508 29.80449407264393 63.890785486999135
O  57.57207403027674 31.05421560546511 63.81041958149379
C  58.404 28.2934 64.5831
N  58.554577 28.67862 63.319046
H  58.24406 29.341122 64.0153
H  58.750746 27.723582 63.582713
N  57.995101 29.165804 65.499949
H  58.19127 28.210766 65.763616
H  58.109449 29.45834 64.540028
N  58.662321 27.035776 64.930305
H  58.77667 27.328311 63.970384
H  58.351804 27.698278 65.626559
C  67.0136 28.5085 47.7506
O  68.197425 28.570276 47.354063
O  66.302316 27.481117 47.783159
H  66.555621 29.44435 48.103361
C  52.4613 28.076 62.7231
N  52.611877 28.46122 61.459046
H  52.30136 29.123722 62.1553
H  52.808046 27.506182 61.722713
N  52.052401 28.948404 63.639949
H  52.24857 27.993366 63.903616
H  52.166749 29.24094 62.680028
N  52.719621 26.818376 63.070305
H  52.83397 27.110911 62.110384
H  52.409104 27.480878 63.766559
C  60.4108 36.4479 65.7715
N  60.561377 36.83312 64.507446
H  60.25086 37.495622 65.2037
H  60.757546 35.878082 64.771113
N  60.001901 37.320304 66.688349
H  60.19807 36.365266 66.952016
H  60.116249 37.61284 65.728428
N  60.669121 35.190276 66.118705
H  60.78347 35.482811 65.158784
H  60.358604 35.852778 66.814959
C  63.4726 23.9141 51.5016
O  64.656425 23.975876 51.105063
O  62.761316 22.886717 51.534159
H  63.014621 24.84995 51.854361
C  54.6896 39.5452 64.493
N  54.840177 39.93042 63.228946
H  54.52966 40.592922 63.9252
H  55.036346 38.975382 63.492613
N  54.280701 40.417604 65.409849
H  54.47687 39.462566 65.673516
H  54.395049 40.71014 64.449928
N  54.947921 38.287576 64.840205
H  55.06227 38.580111 63.880284
H  54.637404 38.950078 65.536459
C  59.6279 26.1548 47.4209
O  60.811725 26.216576 47.024363
O  58.916616 25.127417 47.453459
H  59.169921 27.09065 47.773661
C  70.3411 31.4164 54.545
O  71.524925 31.478176 54.148463
O  69.629816 30.389017 54.577559
H  69.883121 32.35225 54.897761
C  66.8694 37.5638 49.3238
O  68.053225 37.625576 48.927263
O  66.158116 36.536417 49.356359
H  66.411421 38.49965 49.676561
C  61.9771 32.3786 44.7495
O  63.160925 32.440376 44.352963
O  61.265816 31.351217 44.782059
H  61.519121 33.31445 45.102261
88
Image 13. Energy: -22844.54557412509 
C  56.18196267718401 33.42543434473578 63.042836209941726
H  57.122599971391075 33.31018759360358 62.4731205672765
H  55.600473844968484 34.16804465618543 62.475587550042476
C  56.55830791443758 34.059673352932876 64.35930909346561
C  57.01622632213006 35.563311431197995 64.31569337955084
O  57.89140855430613 35.89370052843804 65.16734024334639
O  56.44982358082049 36.312078198280915 63.497521410378965
O  56.50854336041016 33.49589500272045 65.43637839094872
C  52.92458698587044 32.17921002534471 63.38931840312044
H  52.05850380241962 32.30127329985227 64.04867712107377
C  54.1654909005832 32.18410506628714 63.89041155033367
H  54.31410204923636 32.322386767071386 64.9645955861752
C  55.420168261362086 32.07257406335581 63.055644368834265
C  55.087881786128236 31.74430548086868 61.61177585802775
H  55.941551234572245 31.567023463646436 60.948177873215954
C  53.84879175252754 31.730718378632442 61.107097131120646
H  53.69588781628782 31.541083627712272 60.03887288096068
C  52.623018655392165 32.010886363987915 61.92974182202495
H  52.10560170255343 32.908632075987455 61.545024544587264
O  51.672209632499076 30.905212360974396 61.81967885790903
H  51.212363013558466 30.99368807517189 60.96794858277557
C  56.28182542804638 30.882223708009377 63.575339122051886
O  55.70374476262594 29.76971545578377 63.741025960084706
O  57.512765020687006 31.077065799218495 63.755959402750975
C  58.404 28.2934 64.5831
N  58.554577 28.67862 63.319046
H  58.24406 29.341122 64.0153
H  58.750746 27.723582 63.582713
N  57.995101 29.165804 65.499949
H  58.19127 28.210766 65.763616
H  58.109449 29.45834 64.540028
N  58.662321 27.035776 64.930305
H  58.77667 27.328311 63.970384
H  58.351804 27.698278 65.626559
C  67.0136 28.5085 47.7506
O  68.197425 28.570276 47.354063
O  66.302316 27.481117 47.783159
H  66.555621 29.44435 48.103361
C  52.4613 28.076 62.7231
N  52.611877 28.46122 61.459046
H  52.30136 29.123722 62.1553
H  52.808046 27.506182 61.722713
N  52.052401 28.948404 63.639949
H  52.24857 27.993366 63.903616
H  52.166749 29.24094 62.680028
N  52.719621 26.818376 63.070305
H  52.83397 27.110911 62.110384
H  52.409104 27.480878 63.766559
C  60.4108 36.4479 65.7715
N  60.561377 36.83312 64.507446
H  60.25086 37.495622 65.2037
H  60.757546 35.878082 64.771113
N  60.001901 37.320304 66.688349
H  60.19807 36.365266 66.952016
H  60.116249 37.61284 65.728428
N  60.669121 35.190276 66.118705
H  60.78347 35.482811 65.158784
H  60.358604 35.852778 66.814959
C  63.4726 23.9141 51.5016
O  64.656425 23.975876 51.105063
O  62.761316 22.886717 51.534159
H  63.014621 24.84995 51.854361
C  54.6896 39.5452 64.493
N  54.840177 39.93042 63.228946
H  54.52966 40.592922 63.9252
H  55.036346 38.975382 63.492613
N  54.280701 40.417604 65.409849
H  54.47687 39.462566 65.673516
H  54.395049 40.71014 64.449928
N  54.947921 38.287576 64.840205
H  55.06227 38.580111 63.880284
H  54.637404 38.950078 65.536459
C  59.6279 26.1548 47.4209
O  60.811725 26.216576 47.024363
O  58.916616 25.127417 47.453459
H  59.169921 27.09065 47.773661
C  70.3411 31.4164 54.545
O  71.524925 31.478176 54.148463
O  69.629816 30.389017 54.577559
H  69.883121 32.35225 54.897761
C  66.8694 37.5638 49.3238
O  68.053225 37.625576 48.927263
O  66.158116 36.536417 49.356359
H  66.411421 38.49965 49.676561
C  61.9771 32.3786 44.7495
O  63.160925 32.440376 44.352963
O  61.265816 31.351217 44.782059
H  61.519121 33.31445 45.102261
