88
-2 1 -839.4026842835663
C       56.56610682    37.25783892    62.57697634
H       57.62310017    37.44919400    62.41350547
H       55.95256765    38.02437257    63.10536487
C       55.75245486    36.30303952    62.07480269
C       54.23331279    36.34775449    62.45264916
O       53.73581745    37.49867292    62.68546106
O       53.66820838    35.25947205    62.52989588
O       56.00399946    35.26245239    61.29495702
C       57.21991331    34.49533750    61.06007974
H       57.00717891    34.01241947    60.09627048
C       57.32463045    33.43292214    62.12522396
H       56.67179923    32.56230578    62.04516197
C       58.20672003    33.51119953    63.14301919
C       59.08853588    34.69133398    63.18678635
H       59.65420780    34.86306672    64.14624193
C       59.25644124    35.53029085    62.15180798
H       59.97212547    36.35724759    62.18020593
C       58.54453089    35.25642470    60.84537035
H       58.33942432    36.19801551    60.30934096
O       59.41636964    34.41678382    60.13098944
H       59.46231381    34.66732140    59.19209222
C       58.32812577    32.40586599    64.19117239
O       57.87426145    31.25364114    63.88654573
O       58.85969803    32.72381434    65.27524020
C       58.40400000    28.29340000    64.58310000
N       58.55457700    28.67862000    63.31904600
H       58.24406000    29.34112200    64.01530000
H       58.75074600    27.72358200    63.58271300
N       57.99510100    29.16580400    65.49994900
H       58.19127000    28.21076600    65.76361600
H       58.10944900    29.45834000    64.54002800
N       58.66232100    27.03577600    64.93030500
H       58.77667000    27.32831100    63.97038400
H       58.35180400    27.69827800    65.62655900
C       67.01360000    28.50850000    47.75060000
O       68.19742500    28.57027600    47.35406300
O       66.30231600    27.48111700    47.78315900
H       66.55562100    29.44435000    48.10336100
C       52.46130000    28.07600000    62.72310000
N       52.61187700    28.46122000    61.45904600
H       52.30136000    29.12372200    62.15530000
H       52.80804600    27.50618200    61.72271300
N       52.05240100    28.94840400    63.63994900
H       52.24857000    27.99336600    63.90361600
H       52.16674900    29.24094000    62.68002800
N       52.71962100    26.81837600    63.07030500
H       52.83397000    27.11091100    62.11038400
H       52.40910400    27.48087800    63.76655900
C       60.41080000    36.44790000    65.77150000
N       60.56137700    36.83312000    64.50744600
H       60.25086000    37.49562200    65.20370000
H       60.75754600    35.87808200    64.77111300
N       60.00190100    37.32030400    66.68834900
H       60.19807000    36.36526600    66.95201600
H       60.11624900    37.61284000    65.72842800
N       60.66912100    35.19027600    66.11870500
H       60.78347000    35.48281100    65.15878400
H       60.35860400    35.85277800    66.81495900
C       63.47260000    23.91410000    51.50160000
O       64.65642500    23.97587600    51.10506300
O       62.76131600    22.88671700    51.53415900
H       63.01462100    24.84995000    51.85436100
C       54.68960000    39.54520000    64.49300000
N       54.84017700    39.93042000    63.22894600
H       54.52966000    40.59292200    63.92520000
H       55.03634600    38.97538200    63.49261300
N       54.28070100    40.41760400    65.40984900
H       54.47687000    39.46256600    65.67351600
H       54.39504900    40.71014000    64.44992800
N       54.94792100    38.28757600    64.84020500
H       55.06227000    38.58011100    63.88028400
H       54.63740400    38.95007800    65.53645900
C       59.62790000    26.15480000    47.42090000
O       60.81172500    26.21657600    47.02436300
O       58.91661600    25.12741700    47.45345900
H       59.16992100    27.09065000    47.77366100
C       70.34110000    31.41640000    54.54500000
O       71.52492500    31.47817600    54.14846300
O       69.62981600    30.38901700    54.57755900
H       69.88312100    32.35225000    54.89776100
C       66.86940000    37.56380000    49.32380000
O       68.05322500    37.62557600    48.92726300
O       66.15811600    36.53641700    49.35635900
H       66.41142100    38.49965000    49.67656100
C       61.97710000    32.37860000    44.74950000
O       63.16092500    32.44037600    44.35296300
O       61.26581600    31.35121700    44.78205900
H       61.51912100    33.31445000    45.10226100
