88
-2 1 -839.5215458799428
C       56.18196503    33.42411756    63.04253200
H       57.12385325    33.31036976    62.47396531
H       55.59916432    34.16541728    62.47496296
C       56.55397263    34.06082564    64.35861577
C       57.01322739    35.56254127    64.31109729
O       57.89698550    35.89258131    65.15397660
O       56.43734242    36.31131305    63.49893537
O       56.49707422    33.50123606    65.43790949
C       52.92705527    32.17777203    63.39020940
H       52.06156071    32.29886394    64.05071499
C       54.16802948    32.17938620    63.89119352
H       54.31720742    32.31274923    64.96597575
C       55.42215255    32.07036140    63.05561866
C       55.08946681    31.74515823    61.61053607
H       55.94323071    31.57200407    60.94590569
C       53.84968527    31.73251341    61.10708961
H       53.69403869    31.54543106    60.03898592
C       52.62457096    32.01149444    61.93092863
H       52.10519481    32.90892677    61.54753350
O       51.67357558    30.90542829    61.82169377
H       51.20147284    30.99856225    60.97667579
C       56.28684048    30.88256311    63.57474561
O       55.71284887    29.76830700    63.74271934
O       57.51732382    31.08050576    63.75455487
C       58.40400000    28.29340000    64.58310000
N       58.55457700    28.67862000    63.31904600
H       58.24406000    29.34112200    64.01530000
H       58.75074600    27.72358200    63.58271300
N       57.99510100    29.16580400    65.49994900
H       58.19127000    28.21076600    65.76361600
H       58.10944900    29.45834000    64.54002800
N       58.66232100    27.03577600    64.93030500
H       58.77667000    27.32831100    63.97038400
H       58.35180400    27.69827800    65.62655900
C       67.01360000    28.50850000    47.75060000
O       68.19742500    28.57027600    47.35406300
O       66.30231600    27.48111700    47.78315900
H       66.55562100    29.44435000    48.10336100
C       52.46130000    28.07600000    62.72310000
N       52.61187700    28.46122000    61.45904600
H       52.30136000    29.12372200    62.15530000
H       52.80804600    27.50618200    61.72271300
N       52.05240100    28.94840400    63.63994900
H       52.24857000    27.99336600    63.90361600
H       52.16674900    29.24094000    62.68002800
N       52.71962100    26.81837600    63.07030500
H       52.83397000    27.11091100    62.11038400
H       52.40910400    27.48087800    63.76655900
C       60.41080000    36.44790000    65.77150000
N       60.56137700    36.83312000    64.50744600
H       60.25086000    37.49562200    65.20370000
H       60.75754600    35.87808200    64.77111300
N       60.00190100    37.32030400    66.68834900
H       60.19807000    36.36526600    66.95201600
H       60.11624900    37.61284000    65.72842800
N       60.66912100    35.19027600    66.11870500
H       60.78347000    35.48281100    65.15878400
H       60.35860400    35.85277800    66.81495900
C       63.47260000    23.91410000    51.50160000
O       64.65642500    23.97587600    51.10506300
O       62.76131600    22.88671700    51.53415900
H       63.01462100    24.84995000    51.85436100
C       54.68960000    39.54520000    64.49300000
N       54.84017700    39.93042000    63.22894600
H       54.52966000    40.59292200    63.92520000
H       55.03634600    38.97538200    63.49261300
N       54.28070100    40.41760400    65.40984900
H       54.47687000    39.46256600    65.67351600
H       54.39504900    40.71014000    64.44992800
N       54.94792100    38.28757600    64.84020500
H       55.06227000    38.58011100    63.88028400
H       54.63740400    38.95007800    65.53645900
C       59.62790000    26.15480000    47.42090000
O       60.81172500    26.21657600    47.02436300
O       58.91661600    25.12741700    47.45345900
H       59.16992100    27.09065000    47.77366100
C       70.34110000    31.41640000    54.54500000
O       71.52492500    31.47817600    54.14846300
O       69.62981600    30.38901700    54.57755900
H       69.88312100    32.35225000    54.89776100
C       66.86940000    37.56380000    49.32380000
O       68.05322500    37.62557600    48.92726300
O       66.15811600    36.53641700    49.35635900
H       66.41142100    38.49965000    49.67656100
C       61.97710000    32.37860000    44.74950000
O       63.16092500    32.44037600    44.35296300
O       61.26581600    31.35121700    44.78205900
H       61.51912100    33.31445000    45.10226100
