24
Coordinates from ORCA-job neb_MEP.QMRegion E -1075.521953251625
  C      47.964000     29.467000     57.600000
  H      48.887000     29.074000     57.175000
  H      47.988000     30.378000     58.197000
  C      46.783000     28.881000     57.363000
  C      45.484000     29.438000     57.935000
  O      45.501000     30.630000     58.344000
  O      44.489000     28.681000     57.971000
  O      46.686000     27.728000     56.614000
  C      46.576000     27.852000     55.143000
  H      46.521000     26.812000     54.795000
  C      47.812000     28.539000     54.661000
  H      48.752000     27.986000     54.633000
  C      47.828000     29.880000     54.524000
  C      46.581000     30.646000     54.635000
  H      46.675000     31.733000     54.600000
  C      45.391000     30.045000     54.804000
  H      44.479000     30.630000     54.939000
  C      45.260000     28.544000     54.752000
  H      44.503000     28.222000     55.482000
  O      44.900000     28.146000     53.436000
  H      43.965000     27.778000     53.442000
  C      49.143000     30.647000     54.510000
  O      50.224000     30.014000     54.397000
  O      49.026000     31.885000     54.697000
24
Coordinates from ORCA-job neb_MEP.QMRegion E -1075.532085373149
  C      47.964081     29.462421     57.604325
  H      48.887490     29.067261     57.183236
  H      47.987620     30.376682     58.195972
  C      46.783594     28.876675     57.366713
  C      45.483230     29.434898     57.932045
  O      45.499512     30.631007     58.334799
  O      44.489869     28.679284     57.972773
  O      46.688195     27.722436     56.619690
  C      46.579792     27.844902     55.147611
  H      46.525280     26.804029     54.800966
  C      47.814441     28.534649     54.665928
  H      48.756417     27.984010     54.637667
  C      47.827941     29.875659     54.529030
  C      46.579331     30.639410     54.639258
  H      46.671797     31.726552     54.604381
  C      45.390023     30.036158     54.806739
  H      44.477372     30.620305     54.938679
  C      45.261690     28.534490     54.754330
  H      44.503688     28.209757     55.481698
  O      44.907914     28.135040     53.436577
  H      43.969748     27.775020     53.436682
  C      49.141237     30.645411     54.514131
  O      50.222938     30.015698     54.400687
  O      49.020986     31.884096     54.703999
24
Coordinates from ORCA-job neb_MEP.QMRegion E -1075.529633912561
  C      48.000590     29.479361     57.432580
  H      48.932051     29.097626     57.016894
  H      48.001078     30.478809     57.868701
  C      46.837931     28.817788     57.299815
  C      45.546469     29.392788     57.885623
  O      45.572067     30.587733     58.288692
  O      44.542801     28.648880     57.950446
  O      46.748116     27.636923     56.592064
  C      46.652275     27.707174     55.050654
  H      46.705295     26.655524     54.733829
  C      47.815917     28.508997     54.616028
  H      48.795393     28.037878     54.515512
  C      47.726980     29.855344     54.682031
  C      46.413194     30.496679     54.823814
  H      46.401521     31.583130     54.920935
  C      45.273894     29.783810     54.839369
  H      44.299747     30.265577     54.943188
  C      45.274161     28.286393     54.685295
  H      44.581990     27.852114     55.417431
  O      44.889328     27.929985     53.363734
  H      43.914349     27.677300     53.365616
  C      48.985724     30.707467     54.764394
  O      50.098260     30.124789     54.649531
  O      48.801851     31.925648     55.015553
24
Coordinates from ORCA-job neb_MEP.QMRegion E -1075.516685603402
  C      48.005290     29.521405     57.381542
  H      48.943315     29.103697     57.021110
  H      48.005586     30.538783     57.771253
  C      46.851533     28.798072     57.347087
  C      45.550340     29.399070     57.902834
  O      45.570758     30.601221     58.287328
  O      44.542055     28.660840     57.955068
  O      46.781364     27.618526     56.739357
  C      46.666443     27.694076     54.887167
  H      46.725174     26.622913     54.666619
  C      47.813708     28.490743     54.602378
  H      48.798046     28.031239     54.510932
  C      47.725803     29.844745     54.778979
  C      46.412078     30.486737     54.870221
  H      46.397920     31.573069     54.963153
  C      45.275786     29.770757     54.836807
  H      44.298271     30.249442     54.920928
  C      45.281760     28.279027     54.650178
  H      44.621622     27.825226     55.399106
  O      44.849635     27.953127     53.332897
  H      43.877178     27.683730     53.358923
  C      48.983485     30.705097     54.815592
  O      50.091887     30.121977     54.675725
  O      48.799987     31.931196     55.020751
24
Coordinates from ORCA-job neb_MEP.QMRegion E -1075.513902158873
  C      48.009855     29.551868     57.331409
  H      48.953149     29.102240     57.030914
  H      48.011216     30.564503     57.729524
  C      46.856935     28.785034     57.382810
  C      45.548410     29.403900     57.915169
  O      45.569625     30.609017     58.287527
  O      44.540166     28.666863     57.959229
  O      46.810991     27.605765     56.883734
  C      46.672672     27.690540     54.755244
  H      46.730645     26.609789     54.617882
  C      47.806888     28.473178     54.604972
  H      48.796698     28.025534     54.515864
  C      47.724644     29.841237     54.853187
  C      46.412735     30.485599     54.888469
  H      46.397047     31.572357     54.973614
  C      45.279116     29.766599     54.830791
  H      44.300558     30.244289     54.911320
  C      45.287692     28.277514     54.627539
  H      44.643569     27.815987     55.388570
  O      44.826594     27.966080     53.315101
  H      43.857850     27.685044     53.354148
  C      48.982855     30.703785     54.840106
  O      50.087191     30.119325     54.679813
  O      48.800479     31.934007     55.017879
24
Coordinates from ORCA-job neb_MEP.QMRegion E -1075.515211768222
  C      48.006481     29.574912     57.258974
  H      48.957631     29.099412     57.032560
  H      48.012472     30.578823     57.680365
  C      46.857459     28.779222     57.392939
  C      45.546926     29.404623     57.920198
  O      45.571936     30.610602     58.286885
  O      44.540345     28.667117     57.964117
  O      46.828798     27.595539     56.960821
  C      46.676464     27.688120     54.694914
  H      46.733036     26.605942     54.574581
  C      47.803846     28.461633     54.619029
  H      48.795910     28.019606     54.524487
  C      47.727792     29.836086     54.931358
  C      46.413165     30.483288     54.909724
  H      46.395271     31.570935     54.984541
  C      45.282542     29.763587     54.826772
  H      44.303093     30.241476     54.897611
  C      45.291073     28.275174     54.614624
  H      44.654023     27.809070     55.380632
  O      44.813321     27.973834     53.305731
  H      43.846920     27.686808     53.351368
  C      48.983068     30.702818     54.860001
  O      50.084661     30.118084     54.682868
  O      48.801000     31.935920     55.014960
24
Coordinates from ORCA-job neb_MEP.QMRegion E -1075.519904329725
  C      47.997422     29.599552     57.149624
  H      48.956672     29.095814     57.034930
  H      48.010574     30.583778     57.624347
  C      46.854267     28.775000     57.393778
  C      45.544214     29.404776     57.925591
  O      45.576344     30.610165     58.288955
  O      44.539844     28.666354     57.971328
  O      46.844766     27.587107     57.031773
  C      46.682416     27.688366     54.649806
  H      46.735964     26.605925     54.531599
  C      47.802625     28.450930     54.639831
  H      48.796388     28.013866     54.534324
  C      47.736249     29.830057     55.039463
  C      46.414765     30.481503     54.935497
  H      46.393499     31.570541     54.996670
  C      45.288784     29.761930     54.824167
  H      44.307961     30.239646     54.882472
  C      45.295336     28.273152     54.606048
  H      44.662937     27.802829     55.374911
  O      44.803011     27.981192     53.300500
  H      43.838412     27.689044     53.349935
  C      48.984185     30.702777     54.879078
  O      50.082350     30.117946     54.683739
  O      48.801155     31.938156     55.009965
24
Coordinates from ORCA-job neb_MEP.QMRegion E -1075.545753681466
  C      47.958415     29.632087     56.906782
  H      48.914870     29.106756     57.031752
  H      47.984667     30.595655     57.435502
  C      46.836898     28.773925     57.388827
  C      45.537150     29.408677     57.949127
  O      45.583190     30.613924     58.302551
  O      44.540553     28.664839     58.005300
  O      46.881199     27.568255     57.213162
  C      46.704726     27.695793     54.553104
  H      46.757262     26.626132     54.345819
  C      47.812761     28.430947     54.698593
  H      48.806109     27.994715     54.582391
  C      47.768196     29.811747     55.269875
  C      46.430807     30.466534     55.020540
  H      46.396657     31.556715     55.061547
  C      45.314905     29.754817     54.826845
  H      44.337459     30.244151     54.827701
  C      45.313667     28.269619     54.576423
  H      44.701445     27.782744     55.354719
  O      44.773013     28.010717     53.284945
  H      43.814355     27.706518     53.353961
  C      48.992233     30.701386     54.914570
  O      50.083548     30.120278     54.681959
  O      48.802891     31.939295     54.999062
24
Coordinates from ORCA-job neb_MEP.QMRegion E -1075.557889415247
  C      47.942791     29.617661     56.910170
  H      48.912933     29.134600     57.089323
  H      47.930698     30.615853     57.360524
  C      46.855755     28.748158     57.473194
  C      45.546344     29.385343     58.020688
  O      45.577743     30.609789     58.301565
  O      44.569522     28.625331     58.151558
  O      46.970457     27.537374     57.445256
  C      46.747847     27.690408     54.372273
  H      46.823165     26.676828     53.978943
  C      47.835089     28.384863     54.719544
  H      48.833760     27.953774     54.628583
  C      47.766619     29.752139     55.335495
  C      46.424119     30.392655     55.081400
  H      46.361657     31.473041     55.205689
  C      45.328050     29.689917     54.782935
  H      44.353238     30.180982     54.753973
  C      45.344372     28.220993     54.456688
  H      44.799419     27.673583     55.250489
  O      44.727273     27.995153     53.197748
  H      43.763864     27.723436     53.316301
  C      48.972765     30.667668     54.948711
  O      50.067147     30.105074     54.688932
  O      48.764221     31.902763     55.030880
24
Coordinates from ORCA-job neb_MEP.QMRegion E -1075.559443731644
  C      47.932000     29.568000     56.927000
  H      48.904000     29.084000     57.099000
  H      47.927000     30.570000     57.371000
  C      46.854000     28.707000     57.522000
  C      45.548000     29.358000     58.067000
  O      45.575000     30.596000     58.286000
  O      44.583000     28.597000     58.261000
  O      46.979000     27.498000     57.540000
  C      46.755000     27.630000     54.356000
  H      46.851000     26.623000     53.952000
  C      47.829000     28.330000     54.736000
  H      48.832000     27.905000     54.656000
  C      47.743000     29.695000     55.357000
  C      46.391000     30.319000     55.103000
  H      46.302000     31.394000     55.254000
  C      45.310000     29.607000     54.772000
  H      44.333000     30.094000     54.736000
  C      45.345000     28.143000     54.428000
  H      44.803000     27.576000     55.213000
  O      44.741000     27.921000     53.162000
  H      43.765000     27.699000     53.272000
  C      48.938000     30.625000     54.965000
  O      50.033000     30.073000     54.682000
  O      48.721000     31.857000     55.064000
