24
Coordinates from ORCA-job neb_initial_path.QMRegion E   0.000000000000
  C      47.964000     29.467000     57.600000
  H      48.887000     29.074000     57.175000
  H      47.988000     30.378000     58.197000
  C      46.783000     28.881000     57.363000
  C      45.484000     29.438000     57.935000
  O      45.501000     30.630000     58.344000
  O      44.489000     28.681000     57.971000
  O      46.686000     27.728000     56.614000
  C      46.576000     27.852000     55.143000
  H      46.521000     26.812000     54.795000
  C      47.812000     28.539000     54.661000
  H      48.752000     27.986000     54.633000
  C      47.828000     29.880000     54.524000
  C      46.581000     30.646000     54.635000
  H      46.675000     31.733000     54.600000
  C      45.391000     30.045000     54.804000
  H      44.479000     30.630000     54.939000
  C      45.260000     28.544000     54.752000
  H      44.503000     28.222000     55.482000
  O      44.900000     28.146000     53.436000
  H      43.965000     27.778000     53.442000
  C      49.143000     30.647000     54.510000
  O      50.224000     30.014000     54.397000
  O      49.026000     31.885000     54.697000
24
Coordinates from ORCA-job neb_initial_path.QMRegion E   0.000000000000
  C      47.960444     29.478222     57.525222
  H      48.888889     29.075111     57.166556
  H      47.981222     30.399333     58.105222
  C      46.790889     28.861667     57.380667
  C      45.491111     29.429111     57.949667
  O      45.509222     30.626222     58.337556
  O      44.499444     28.671667     58.003222
  O      46.718556     27.702444     56.716889
  C      46.595889     27.827333     55.055556
  H      46.557667     26.791000     54.701333
  C      47.813889     28.515778     54.669333
  H      48.760889     27.977000     54.635556
  C      47.818556     29.859444     54.616556
  C      46.559889     30.609667     54.687000
  H      46.633556     31.695333     54.672667
  C      45.382000     29.996333     54.800444
  H      44.462778     30.570444     54.916444
  C      45.269444     28.499444     54.716000
  H      44.536333     28.150222     55.452111
  O      44.882333     28.121000     53.405556
  H      43.942778     27.769222     53.423111
  C      49.120222     30.644556     54.560556
  O      50.202778     30.020556     54.428667
  O      48.992111     31.881889     54.737778
24
Coordinates from ORCA-job neb_initial_path.QMRegion E   0.000000000000
  C      47.956889     29.489444     57.450444
  H      48.890778     29.076222     57.158111
  H      47.974444     30.420667     58.013444
  C      46.798778     28.842333     57.398333
  C      45.498222     29.420222     57.964333
  O      45.517444     30.622444     58.331111
  O      44.509889     28.662333     58.035444
  O      46.751111     27.676889     56.819778
  C      46.615778     27.802667     54.968111
  H      46.594333     26.770000     54.607667
  C      47.815778     28.492556     54.677667
  H      48.769778     27.968000     54.638111
  C      47.809111     29.838889     54.709111
  C      46.538778     30.573333     54.739000
  H      46.592111     31.657667     54.745333
  C      45.373000     29.947667     54.796889
  H      44.446556     30.510889     54.893889
  C      45.278889     28.454889     54.680000
  H      44.569667     28.078444     55.422222
  O      44.864667     28.096000     53.375111
  H      43.920556     27.760444     53.404222
  C      49.097444     30.642111     54.611111
  O      50.181556     30.027111     54.460333
  O      48.958222     31.878778     54.778556
24
Coordinates from ORCA-job neb_initial_path.QMRegion E   0.000000000000
  C      47.953333     29.500667     57.375667
  H      48.892667     29.077333     57.149667
  H      47.967667     30.442000     57.921667
  C      46.806667     28.823000     57.416000
  C      45.505333     29.411333     57.979000
  O      45.525667     30.618667     58.324667
  O      44.520333     28.653000     58.067667
  O      46.783667     27.651333     56.922667
  C      46.635667     27.778000     54.880667
  H      46.631000     26.749000     54.514000
  C      47.817667     28.469333     54.686000
  H      48.778667     27.959000     54.640667
  C      47.799667     29.818333     54.801667
  C      46.517667     30.537000     54.791000
  H      46.550667     31.620000     54.818000
  C      45.364000     29.899000     54.793333
  H      44.430333     30.451333     54.871333
  C      45.288333     28.410333     54.644000
  H      44.603000     28.006667     55.392333
  O      44.847000     28.071000     53.344667
  H      43.898333     27.751667     53.385333
  C      49.074667     30.639667     54.661667
  O      50.160333     30.033667     54.492000
  O      48.924333     31.875667     54.819333
24
Coordinates from ORCA-job neb_initial_path.QMRegion E   0.000000000000
  C      47.949778     29.511889     57.300889
  H      48.894556     29.078444     57.141222
  H      47.960889     30.463333     57.829889
  C      46.814556     28.803667     57.433667
  C      45.512444     29.402444     57.993667
  O      45.533889     30.614889     58.318222
  O      44.530778     28.643667     58.099889
  O      46.816222     27.625778     57.025556
  C      46.655556     27.753333     54.793222
  H      46.667667     26.728000     54.420333
  C      47.819556     28.446111     54.694333
  H      48.787556     27.950000     54.643222
  C      47.790222     29.797778     54.894222
  C      46.496556     30.500667     54.843000
  H      46.509222     31.582333     54.890667
  C      45.355000     29.850333     54.789778
  H      44.414111     30.391778     54.848778
  C      45.297778     28.365778     54.608000
  H      44.636333     27.934889     55.362444
  O      44.829333     28.046000     53.314222
  H      43.876111     27.742889     53.366444
  C      49.051889     30.637222     54.712222
  O      50.139111     30.040222     54.523667
  O      48.890444     31.872556     54.860111
24
Coordinates from ORCA-job neb_initial_path.QMRegion E   0.000000000000
  C      47.946222     29.523111     57.226111
  H      48.896444     29.079556     57.132778
  H      47.954111     30.484667     57.738111
  C      46.822444     28.784333     57.451333
  C      45.519556     29.393556     58.008333
  O      45.542111     30.611111     58.311778
  O      44.541222     28.634333     58.132111
  O      46.848778     27.600222     57.128444
  C      46.675444     27.728667     54.705778
  H      46.704333     26.707000     54.326667
  C      47.821444     28.422889     54.702667
  H      48.796444     27.941000     54.645778
  C      47.780778     29.777222     54.986778
  C      46.475444     30.464333     54.895000
  H      46.467778     31.544667     54.963333
  C      45.346000     29.801667     54.786222
  H      44.397889     30.332222     54.826222
  C      45.307222     28.321222     54.572000
  H      44.669667     27.863111     55.332556
  O      44.811667     28.021000     53.283778
  H      43.853889     27.734111     53.347556
  C      49.029111     30.634778     54.762778
  O      50.117889     30.046778     54.555333
  O      48.856556     31.869444     54.900889
24
Coordinates from ORCA-job neb_initial_path.QMRegion E   0.000000000000
  C      47.942667     29.534333     57.151333
  H      48.898333     29.080667     57.124333
  H      47.947333     30.506000     57.646333
  C      46.830333     28.765000     57.469000
  C      45.526667     29.384667     58.023000
  O      45.550333     30.607333     58.305333
  O      44.551667     28.625000     58.164333
  O      46.881333     27.574667     57.231333
  C      46.695333     27.704000     54.618333
  H      46.741000     26.686000     54.233000
  C      47.823333     28.399667     54.711000
  H      48.805333     27.932000     54.648333
  C      47.771333     29.756667     55.079333
  C      46.454333     30.428000     54.947000
  H      46.426333     31.507000     55.036000
  C      45.337000     29.753000     54.782667
  H      44.381667     30.272667     54.803667
  C      45.316667     28.276667     54.536000
  H      44.703000     27.791333     55.302667
  O      44.794000     27.996000     53.253333
  H      43.831667     27.725333     53.328667
  C      49.006333     30.632333     54.813333
  O      50.096667     30.053333     54.587000
  O      48.822667     31.866333     54.941667
24
Coordinates from ORCA-job neb_initial_path.QMRegion E   0.000000000000
  C      47.939111     29.545556     57.076556
  H      48.900222     29.081778     57.115889
  H      47.940556     30.527333     57.554556
  C      46.838222     28.745667     57.486667
  C      45.533778     29.375778     58.037667
  O      45.558556     30.603556     58.298889
  O      44.562111     28.615667     58.196556
  O      46.913889     27.549111     57.334222
  C      46.715222     27.679333     54.530889
  H      46.777667     26.665000     54.139333
  C      47.825222     28.376444     54.719333
  H      48.814222     27.923000     54.650889
  C      47.761889     29.736111     55.171889
  C      46.433222     30.391667     54.999000
  H      46.384889     31.469333     55.108667
  C      45.328000     29.704333     54.779111
  H      44.365444     30.213111     54.781111
  C      45.326111     28.232111     54.500000
  H      44.736333     27.719556     55.272778
  O      44.776333     27.971000     53.222889
  H      43.809444     27.716556     53.309778
  C      48.983556     30.629889     54.863889
  O      50.075444     30.059889     54.618667
  O      48.788778     31.863222     54.982444
24
Coordinates from ORCA-job neb_initial_path.QMRegion E   0.000000000000
  C      47.935556     29.556778     57.001778
  H      48.902111     29.082889     57.107444
  H      47.933778     30.548667     57.462778
  C      46.846111     28.726333     57.504333
  C      45.540889     29.366889     58.052333
  O      45.566778     30.599778     58.292444
  O      44.572556     28.606333     58.228778
  O      46.946444     27.523556     57.437111
  C      46.735111     27.654667     54.443444
  H      46.814333     26.644000     54.045667
  C      47.827111     28.353222     54.727667
  H      48.823111     27.914000     54.653444
  C      47.752444     29.715556     55.264444
  C      46.412111     30.355333     55.051000
  H      46.343444     31.431667     55.181333
  C      45.319000     29.655667     54.775556
  H      44.349222     30.153556     54.758556
  C      45.335556     28.187556     54.464000
  H      44.769667     27.647778     55.242889
  O      44.758667     27.946000     53.192444
  H      43.787222     27.707778     53.290889
  C      48.960778     30.627444     54.914444
  O      50.054222     30.066444     54.650333
  O      48.754889     31.860111     55.023222
24
Coordinates from ORCA-job neb_initial_path.QMRegion E   0.000000000000
  C      47.932000     29.568000     56.927000
  H      48.904000     29.084000     57.099000
  H      47.927000     30.570000     57.371000
  C      46.854000     28.707000     57.522000
  C      45.548000     29.358000     58.067000
  O      45.575000     30.596000     58.286000
  O      44.583000     28.597000     58.261000
  O      46.979000     27.498000     57.540000
  C      46.755000     27.630000     54.356000
  H      46.851000     26.623000     53.952000
  C      47.829000     28.330000     54.736000
  H      48.832000     27.905000     54.656000
  C      47.743000     29.695000     55.357000
  C      46.391000     30.319000     55.103000
  H      46.302000     31.394000     55.254000
  C      45.310000     29.607000     54.772000
  H      44.333000     30.094000     54.736000
  C      45.345000     28.143000     54.428000
  H      44.803000     27.576000     55.213000
  O      44.741000     27.921000     53.162000
  H      43.765000     27.699000     53.272000
  C      48.938000     30.625000     54.965000
  O      50.033000     30.073000     54.682000
  O      48.721000     31.857000     55.064000
