24
Coordinates from ORCA-job neb_NEB-CI_converged.QMRegion
  C          48.00985504780269     29.55186781871546     57.33140935772231
  H          48.95314858613096     29.10223988046771     57.03091433435026
  H          48.01121622263643     30.56450329638260     57.72952398232758
  C          46.85693497236200     28.78503421467025     57.38281023130615
  C          45.54841029533934     29.40390039409304     57.91516864240369
  O          45.56962500220855     30.60901661578445     58.28752727626757
  O          44.54016626658927     28.66686252449461     57.95922874583781
  O          46.81099058176085     27.60576459547746     56.88373393055141
  C          46.67267232770784     27.69053973659974     54.75524356280510
  H          46.73064505582798     26.60978868552751     54.61788221691676
  C          47.80688760194611     28.47317805257603     54.60497164924197
  H          48.79669804955540     28.02553415374247     54.51586371206270
  C          47.72464399561834     29.84123664876934     54.85318710310670
  C          46.41273532633745     30.48559908205421     54.88846910973613
  H          46.39704662332186     31.57235668560609     54.97361423995222
  C          45.27911572397277     29.76659925792070     54.83079127471767
  H          44.30055826788234     30.24428890905176     54.91131993298166
  C          45.28769210682088     28.27751428596503     54.62753900760881
  H          44.64356878939039     27.81598705101519     55.38857000655456
  O          44.82659405534769     27.96607994650463     53.31510088985787
  H          43.85785025978244     27.68504370846333     53.35414765033307
  C          48.98285482100567     30.70378513902224     54.84010560277422
  O          50.08719082849305     30.11932500037207     54.67981303539835
  O          48.80047914412992     31.93400715475778     55.01787935262224
