24
frame 43738 P, aligned onto 20000 on 8 atoms
C      48.21188063    28.23426464    56.03753723
H      49.09124100    27.58967598    56.16867378
H      48.30029133    29.10581661    56.68665949
C      47.01275423    27.44082975    56.49667007
C      45.81191868    28.09532599    57.22192978
O      46.08726313    28.95270020    58.09001496
O      44.67326391    27.66085555    56.91828564
O      46.98787570    26.24032902    56.32379709
C      46.67558961    26.96162058    53.32257719
H      46.55022333    26.01090213    52.79970846
C      47.88448485    27.37176355    53.71064555
H      48.77207677    26.76919709    53.51710168
C      48.10459356    28.63254785    54.50508757
C      46.93359082    29.57651600    54.35006265
H      47.12092585    30.62066817    54.60394809
C      45.72691769    29.17413365    53.94128595
H      44.89813240    29.88570246    53.86878234
C      45.41300933    27.75394351    53.55018301
H      44.83818484    27.29972928    54.38635359
O      44.62261546    27.78110416    52.38077211
H      44.07068491    26.93344524    52.32273738
C      49.45918183    29.32435192    54.07042477
O      50.46147672    28.61424397    53.82271396
O      49.46983169    30.57277575    54.02084119
