24
frame 43738 R, aligned onto 20000 on 8 atoms
C      47.97289329    28.01693631    56.87301461
H      48.87402986    27.62742829    56.40009349
H      48.05947813    28.77441533    57.65129580
C      46.75420082    27.57692053    56.54016064
C      45.50231775    28.07652237    57.25250240
O      45.66401170    28.94448567    58.14128627
O      44.39592241    27.58086392    56.90751389
O      46.56470484    26.60804876    55.57817479
C      46.55353773    26.97469876    54.15418846
H      46.35633805    26.01787266    53.65275940
C      47.90650174    27.50376041    53.79328384
H      48.72825910    26.79976195    53.66104543
C      48.15548943    28.82935266    53.78670155
C      47.04166629    29.77198782    53.95375537
H      47.30327303    30.82728578    54.05685790
C      45.75884100    29.36457184    53.97469546
H      44.94819068    30.09343926    54.07557834
C      45.37505815    27.91365922    53.81703990
H      44.57711773    27.67271630    54.54119430
O      44.92796578    27.70653700    52.48618048
H      44.26917129    26.94333165    52.46706484
C      49.59280904    29.34902767    53.75207139
O      50.52073775    28.57846901    53.42669214
O      49.77180497    30.53780900    54.12141187
