24
frame 43738 TS, aligned onto 20000 on 8 atoms
C      48.19154614    28.13261187    56.42254064
H      49.06747663    27.56758723    56.11803540
H      48.32452764    29.02912808    57.02098903
C      46.94891898    27.49796941    56.43965995
C      45.74246367    28.10401142    57.18795613
O      45.98134125    28.95197966    58.07919614
O      44.60022228    27.66239334    56.88457394
O      46.75064144    26.44170556    55.76009478
C      46.60926973    26.90832068    53.68563652
H      46.43940313    25.86851132    53.40189477
C      47.88473794    27.43818573    53.64597959
H      48.74908880    26.80488490    53.45512059
C      48.10684694    28.74260714    54.10043919
C      46.95663072    29.65374209    54.18289619
H      47.17785974    30.70168159    54.39099065
C      45.70150606    29.22093238    53.97864105
H      44.86185568    29.92204503    54.00143046
C      45.37549409    27.78342721    53.68046260
H      44.68024318    27.41875087    54.45677296
O      44.78308815    27.71413865    52.39419689
H      44.18632380    26.89083200    52.33842888
C      49.51375768    29.34551092    53.95717707
O      50.48640671    28.59865894    53.70857976
O      49.61153700    30.58831618    54.07356524
