24
Coordinates from ORCA-job neb_MEP_ALL.QMRegion E -1074.552193114524
  C      39.054000     16.686000     43.562000
  H      39.807000     16.195000     42.948000
  H      39.264000     17.670000     43.983000
  C      37.867000     16.122000     43.805000
  C      36.838000     16.764000     44.719000
  O      36.918000     18.012000     44.882000
  O      35.992000     16.015000     45.262000
  O      37.515000     14.890000     43.282000
  C      37.016000     14.882000     41.905000
  H      36.687000     13.845000     41.743000
  C      38.153000     15.216000     40.988000
  H      38.949000     14.481000     40.870000
  C      38.280000     16.432000     40.423000
  C      37.250000     17.450000     40.666000
  H      37.472000     18.464000     40.326000
  C      36.113000     17.176000     41.330000
  H      35.398000     17.974000     41.550000
  C      35.756000     15.773000     41.755000
  H      35.271000     15.793000     42.746000
  O      34.868000     15.226000     40.788000
  H      34.133000     14.713000     41.232000
  C      39.499000     16.788000     39.587000
  O      40.533000     16.057000     39.670000
  O      39.417000     17.800000     38.850000
24
Coordinates from ORCA-job neb_MEP_ALL.QMRegion E -1074.547817186973
  C      39.054035     16.678271     43.464800
  H      39.821706     16.162073     42.894775
  H      39.258134     17.676178     43.837161
  C      37.888602     16.102624     43.775156
  C      36.864945     16.757450     44.688689
  O      36.946675     18.005863     44.848398
  O      36.018030     16.014190     45.240553
  O      37.547471     14.862830     43.287246
  C      36.992022     14.843498     41.858875
  H      36.676746     13.799672     41.724157
  C      38.128267     15.187706     40.973759
  H      38.921493     14.459250     40.833717
  C      38.284942     16.434841     40.489268
  C      37.245644     17.441593     40.724014
  H      37.466821     18.461122     40.407182
  C      36.093265     17.148050     41.349743
  H      35.367789     17.936243     41.561655
  C      35.737899     15.738126     41.747911
  H      35.270576     15.739037     42.745713
  O      34.832418     15.215218     40.785468
  H      34.096926     14.702588     41.232416
  C      39.495907     16.791255     39.643772
  O      40.522516     16.048361     39.690905
  O      39.406579     17.811153     38.919539
24
Coordinates from ORCA-job neb_MEP_ALL.QMRegion E -1074.537131801071
  C      39.053455     16.669850     43.369963
  H      39.835585     16.130667     42.844063
  H      39.252330     17.681800     43.695572
  C      37.910592     16.084299     43.746334
  C      36.890813     16.751262     44.659064
  O      36.974606     17.999730     44.815700
  O      36.043185     16.013182     45.219889
  O      37.582275     14.837757     43.299877
  C      36.966039     14.805344     41.806329
  H      36.666936     13.756061     41.705714
  C      38.104086     15.161896     40.959285
  H      38.894772     14.438391     40.798527
  C      38.289672     16.435798     40.554764
  C      37.240872     17.433104     40.780502
  H      37.461802     18.458294     40.485811
  C      36.074313     17.120669     41.368564
  H      35.338623     17.899692     41.572955
  C      35.720538     15.704857     41.740751
  H      35.270127     15.686807     42.745373
  O      34.797829     15.204738     40.783081
  H      34.062018     14.692557     41.232757
  C      39.493263     16.794430     39.698995
  O      40.511965     16.040270     39.711072
  O      39.396495     17.821737     38.986999
24
Coordinates from ORCA-job neb_MEP_ALL.QMRegion E -1074.526713776928
  C      39.052932     16.660942     43.275133
  H      39.848946     16.100119     42.794916
  H      39.246421     17.686697     43.555542
  C      37.932324     16.065110     43.717746
  C      36.915863     16.745081     44.629944
  O      37.002308     17.993550     44.783352
  O      36.068202     16.012279     45.199435
  O      37.619715     14.815530     43.317549
  C      36.938588     14.767373     41.748872
  H      36.657388     13.713426     41.687323
  C      38.079553     15.137670     40.944800
  H      38.868404     14.418032     40.763809
  C      38.294282     16.434990     40.621269
  C      37.235433     17.424593     40.836355
  H      37.456778     18.455371     40.563482
  C      36.056110     17.093664     41.386757
  H      35.309959     17.863613     41.584081
  C      35.703529     15.671996     41.733578
  H      35.269680     15.635275     42.744825
  O      34.763719     15.194457     40.780857
  H      34.027587     14.682664     41.233084
  C      39.491047     16.797333     39.753296
  O      40.501022     16.032719     39.730976
  O      39.386616     17.832006     39.053743
24
Coordinates from ORCA-job neb_MEP_ALL.QMRegion E -1074.520451393836
  C      39.053013     16.651596     43.178456
  H      39.861901     16.070268     42.746891
  H      39.240377     17.690826     43.415832
  C      37.953207     16.043818     43.689233
  C      36.940284     16.738865     44.601306
  O      37.030094     17.987209     44.750986
  O      36.093395     16.011505     45.178945
  O      37.659528     14.796614     43.338372
  C      36.910509     14.729493     41.687888
  H      36.647973     13.671420     41.668759
  C      38.054083     15.114078     40.930808
  H      38.842142     14.397983     40.729313
  C      38.299102     16.433002     40.689681
  C      37.229082     17.415939     40.891888
  H      37.451697     18.452325     40.640938
  C      36.038607     17.066824     41.404561
  H      35.281522     17.827669     41.595181
  C      35.686735     15.639105     41.726407
  H      35.269185     15.583960     42.744050
  O      34.729763     15.184296     40.778800
  H      33.993307     14.672826     41.233403
  C      39.489077     16.799995     39.807022
  O      40.489620     16.025665     39.750915
  O      39.376924     17.842094     39.120419
24
Coordinates from ORCA-job neb_MEP_ALL.QMRegion E -1074.519229663163
  C      39.053707     16.641684     43.077544
  H      39.874661     16.040813     42.699234
  H      39.234193     17.694191     43.274689
  C      37.973150     16.019871     43.660655
  C      36.964520     16.732475     44.572996
  O      37.058360     17.980611     44.718127
  O      36.119139     16.010856     45.158068
  O      37.701398     14.780543     43.360825
  C      36.882121     14.691349     41.624512
  H      36.638485     13.629436     41.649666
  C      38.027393     15.090082     40.917459
  H      38.815631     14.377955     40.694640
  C      38.304700     16.430639     40.761239
  C      37.221562     17.407041     40.947667
  H      37.446476     18.449124     40.719282
  C      36.021675     17.039849     41.422328
  H      35.252909     17.791354     41.606460
  C      35.669880     15.605639     41.719196
  H      35.268620     15.532137     42.743047
  O      34.695508     15.174143     40.776898
  H      33.958702     14.662913     41.233729
  C      39.487134     16.802453     39.860729
  O      40.477641     16.019034     39.771268
  O      39.367362     17.852214     39.187962
24
Coordinates from ORCA-job neb_MEP_ALL.QMRegion E -1074.520150031496
  C      39.054362     16.631153     42.973718
  H      39.887038     16.012309     42.652522
  H      39.228092     17.696701     43.134701
  C      37.992121     15.994609     43.632629
  C      36.988469     16.726130     44.545515
  O      37.086592     17.973782     44.685310
  O      36.144909     16.010254     45.137122
  O      37.743480     14.766394     43.382697
  C      36.854213     14.653630     41.562116
  H      36.628986     13.588120     41.630206
  C      38.000606     15.065990     40.904853
  H      38.789299     14.358244     40.660383
  C      38.311376     16.428150     40.834549
  C      37.212891     17.398111     41.002619
  H      37.441181     18.445816     40.797235
  C      36.005686     17.013248     41.439852
  H      35.224562     17.755241     41.617745
  C      35.653169     15.572075     41.711999
  H      35.268009     15.480631     42.741827
  O      34.661567     15.164174     40.775176
  H      33.924318     14.653076     41.234042
  C      39.484995     16.804718     39.913298
  O      40.465346     16.012918     39.791754
  O      39.358162     17.862234     39.255253
24
Coordinates from ORCA-job neb_MEP_ALL.QMRegion E -1074.531533278946
  C      39.042003     16.644447     42.843861
  H      39.921331     16.042276     42.656221
  H      39.202517     17.703020     43.032959
  C      38.042170     15.983015     43.644675
  C      37.025032     16.719604     44.548648
  O      37.115341     17.967038     44.671136
  O      36.189511     15.999693     45.139292
  O      37.911202     14.758348     43.522513
  C      36.815559     14.631112     41.427741
  H      36.585766     13.568648     41.451803
  C      37.999330     15.045266     40.930357
  H      38.795743     14.345501     40.694305
  C      38.349928     16.440972     40.948169
  C      37.217550     17.390307     41.031216
  H      37.443790     18.440783     40.846505
  C      35.994555     16.992591     41.401523
  H      35.204624     17.730674     41.542227
  C      35.638767     15.550667     41.651994
  H      35.293865     15.441795     42.694259
  O      34.600599     15.174596     40.756181
  H      33.879182     14.660529     41.234506
  C      39.482979     16.803737     39.953677
  O      40.459405     16.011269     39.806177
  O      39.335347     17.854974     39.291735
24
Coordinates from ORCA-job neb_MEP_ALL.QMRegion E -1074.551902100734
  C      39.027215     16.647017     42.721759
  H      39.951284     16.077231     42.660237
  H      39.176494     17.709214     42.932256
  C      38.096344     15.977018     43.652181
  C      37.062830     16.712658     44.550278
  O      37.144288     17.959928     44.657434
  O      36.234112     15.988519     45.142085
  O      38.082284     14.751863     43.662518
  C      36.779771     14.610561     41.301539
  H      36.541668     13.550820     41.268237
  C      38.001181     15.029595     40.954621
  H      38.802593     14.332716     40.729396
  C      38.385519     16.447574     41.056777
  C      37.221385     17.381566     41.061027
  H      37.446266     18.435657     40.895902
  C      35.985452     16.972779     41.361824
  H      35.185013     17.705686     41.464824
  C      35.622082     15.528519     41.588910
  H      35.320844     15.402356     42.645018
  O      34.539625     15.185756     40.737855
  H      33.833759     14.668368     41.234870
  C      39.480265     16.802125     39.993282
  O      40.453379     16.009896     39.820763
  O      39.312388     17.847495     39.328380
24
Coordinates from ORCA-job neb_MEP_ALL.QMRegion E -1074.565583938616
  C      39.020000     16.645000     42.613000
  H      39.979000     16.118000     42.662000
  H      39.148000     17.716000     42.823000
  C      38.157000     15.960000     43.660000
  C      37.105000     16.705000     44.550000
  O      37.176000     17.952000     44.643000
  O      36.282000     15.976000     45.146000
  O      38.270000     14.761000     43.814000
  C      36.746000     14.591000     41.164000
  H      36.494000     13.533000     41.067000
  C      37.999000     15.013000     40.982000
  H      38.810000     14.319000     40.768000
  C      38.415000     16.449000     41.155000
  C      37.225000     17.371000     41.095000
  H      37.449000     18.430000     40.950000
  C      35.977000     16.952000     41.318000
  H      35.164000     17.678000     41.380000
  C      35.603000     15.504000     41.519000
  H      35.351000     15.359000     42.590000
  O      34.474000     15.198000     40.719000
  H      33.784000     14.677000     41.235000
  C      39.478000     16.800000     40.036000
  O      40.446000     16.009000     39.837000
  O      39.287000     17.839000     39.369000
24
Coordinates from ORCA-job neb_MEP_ALL.QMRegion E -1074.552193114524
  C      39.054000     16.686000     43.562000
  H      39.807000     16.195000     42.948000
  H      39.264000     17.670000     43.983000
  C      37.867000     16.122000     43.805000
  C      36.838000     16.764000     44.719000
  O      36.918000     18.012000     44.882000
  O      35.992000     16.015000     45.262000
  O      37.515000     14.890000     43.282000
  C      37.016000     14.882000     41.905000
  H      36.687000     13.845000     41.743000
  C      38.153000     15.216000     40.988000
  H      38.949000     14.481000     40.870000
  C      38.280000     16.432000     40.423000
  C      37.250000     17.450000     40.666000
  H      37.472000     18.464000     40.326000
  C      36.113000     17.176000     41.330000
  H      35.398000     17.974000     41.550000
  C      35.756000     15.773000     41.755000
  H      35.271000     15.793000     42.746000
  O      34.868000     15.226000     40.788000
  H      34.133000     14.713000     41.232000
  C      39.499000     16.788000     39.587000
  O      40.533000     16.057000     39.670000
  O      39.417000     17.800000     38.850000
24
Coordinates from ORCA-job neb_MEP_ALL.QMRegion E -1074.551066845659
  C      39.055196     16.678297     43.465946
  H      39.821943     16.160750     42.892186
  H      39.258384     17.678143     43.834783
  C      37.888204     16.102717     43.773515
  C      36.865706     16.757196     44.688053
  O      36.947043     18.005851     44.847861
  O      36.018752     16.014410     45.239897
  O      37.543081     14.859420     43.278685
  C      36.994364     14.842592     41.867780
  H      36.676420     13.798500     41.724397
  C      38.128795     15.187861     40.972976
  H      38.921396     14.457834     40.832706
  C      38.284323     16.434839     40.487120
  C      37.246105     17.441919     40.725686
  H      37.466888     18.461476     40.408821
  C      36.092872     17.147497     41.350393
  H      35.366747     17.935558     41.561913
  C      35.737320     15.737109     41.748265
  H      35.270479     15.737848     42.746107
  O      34.831896     15.214799     40.785288
  H      34.096101     14.702293     41.232440
  C      39.495933     16.791534     39.644806
  O      40.522744     16.047721     39.691284
  O      39.406356     17.811789     38.920745
24
Coordinates from ORCA-job neb_MEP_ALL.QMRegion E -1074.544663986017
  C      39.055705     16.670051     43.373303
  H      39.835636     16.128878     42.840315
  H      39.252729     17.684982     43.692525
  C      37.909938     16.084910     43.744242
  C      36.891903     16.750930     44.658048
  O      36.974959     17.999814     44.815055
  O      36.044192     16.013505     45.218950
  O      37.575334     14.832052     43.287375
  C      36.969590     14.804098     41.819795
  H      36.666406     13.754125     41.706192
  C      38.105406     15.162616     40.957857
  H      38.894724     14.436320     40.797056
  C      38.288380     16.435584     40.549991
  C      37.241575     17.433512     40.783043
  H      37.461990     18.458854     40.487918
  C      36.073801     17.119923     41.369417
  H      35.337149     17.898836     41.573298
  C      35.719583     15.703693     41.741210
  H      35.270040     15.685263     42.746034
  O      34.797113     15.204120     40.782746
  H      34.060917     14.692172     41.232788
  C      39.493471     16.794932     39.700507
  O      40.512365     16.039298     39.711519
  O      39.396130     17.822596     38.988529
24
Coordinates from ORCA-job neb_MEP_ALL.QMRegion E -1074.535716953617
  C      39.055780     16.661318     43.280987
  H      39.848699     16.098349     42.791036
  H      39.246830     17.690288     43.552879
  C      37.931761     16.066297     43.715866
  C      36.916986     16.744803     44.628733
  O      37.002414     17.993754     44.782895
  O      36.069145     16.012655     45.198511
  O      37.612501     14.809000     43.305573
  C      36.941929     14.766244     41.762291
  H      36.656817     13.711185     41.688020
  C      38.081470     15.138820     40.942973
  H      38.868452     14.415925     40.762285
  C      38.292344     16.434589     40.614208
  C      37.236240     17.424975     40.839110
  H      37.457076     18.455980     40.565340
  C      36.055657     17.093028     41.387512
  H      35.308502     17.862887     41.584353
  C      35.702399     15.671098     41.733981
  H      35.269681     15.633888     42.745567
  O      34.763072     15.193812     40.780443
  H      34.026561     14.682294     41.233122
  C      39.491461     16.797887     39.754795
  O      40.501531     16.031656     39.731291
  O      39.386185     17.832808     39.055075
24
Coordinates from ORCA-job neb_MEP_ALL.QMRegion E -1074.527216755854
  C      39.055778     16.652043     43.186180
  H      39.861482     16.068865     42.743734
  H      39.240691     17.694021     43.414254
  C      37.953046     16.045296     43.687879
  C      36.941135     16.738706     44.600128
  O      37.029903     17.987490     44.750853
  O      36.094018     16.011866     45.178299
  O      37.654074     14.791024     43.330209
  C      36.912620     14.728785     41.697526
  H      36.647533     13.669448     41.669592
  C      38.056045     15.115296     40.928991
  H      38.842278     14.396346     40.728112
  C      38.296736     16.432494     40.681553
  C      37.229832     17.416210     40.894217
  H      37.452056     18.452822     40.642075
  C      36.038276     17.066437     41.405033
  H      35.280450     17.827259     41.595290
  C      35.685736     15.638667     41.726657
  H      35.269275     15.583082     42.744683
  O      34.729362     15.183769     40.778412
  H      33.992611     14.672555     41.233445
  C      39.489625     16.800450     39.808122
  O      40.490159     16.024732     39.751004
  O      39.376523     17.842654     39.121215
24
Coordinates from ORCA-job neb_MEP_ALL.QMRegion E -1074.521902805327
  C      39.055798     16.642091     43.084733
  H      39.874345     16.040050     42.697526
  H      39.234361     17.696158     43.274432
  C      37.973264     16.020964     43.659972
  C      36.964848     16.732460     44.572235
  O      37.058009     17.980832     44.718248
  O      36.119356     16.011134     45.157834
  O      37.699299     14.777526     43.358546
  C      36.882408     14.691108     41.627771
  H      36.638259     13.628263     41.650368
  C      38.028626     15.090855     40.916208
  H      38.815827     14.377102     40.694052
  C      38.302600     16.430272     40.754391
  C      37.222013     17.407178     40.948983
  H      37.446800     18.449362     40.719574
  C      36.021436     17.039716     41.422476
  H      35.252463     17.791288     41.606403
  C      35.669309     15.605602     41.719265
  H      35.268727     15.531898     42.743386
  O      34.695390     15.173861     40.776673
  H      33.958451     14.662792     41.233766
  C      39.487617     16.802698     39.861132
  O      40.478095     16.018428     39.771168
  O      39.367140     17.852499     39.188131
24
Coordinates from ORCA-job neb_MEP_ALL.QMRegion E -1074.520580633980
  C      39.055178     16.631285     42.977103
  H      39.886927     16.012633     42.653047
  H      39.228210     17.696597     43.136439
  C      37.991932     15.995194     43.632814
  C      36.988124     16.726269     44.545784
  O      37.086161     17.973799     44.685653
  O      36.144630     16.010376     45.137341
  O      37.744739     14.766532     43.385900
  C      36.852986     14.654021     41.559536
  H      36.628978     13.588314     41.630505
  C      38.000834     15.066098     40.904731
  H      38.789644     14.358385     40.660697
  C      38.310586     16.428122     40.831294
  C      37.212799     17.398166     41.002161
  H      37.441347     18.445682     40.796489
  C      36.005597     17.013409     41.439718
  H      35.224992     17.755571     41.617613
  C      35.653259     15.572339     41.711948
  H      35.268023     15.481211     42.741746
  O      34.661911     15.164265     40.775292
  H      33.924682     14.653161     41.234056
  C      39.485040     16.804637     39.912412
  O      40.465632     16.012868     39.791516
  O      39.358391     17.862333     39.254591
24
Coordinates from ORCA-job neb_MEP_ALL.QMRegion E -1074.532865185938
  C      39.041107     16.647255     42.838179
  H      39.922705     16.039008     42.657556
  H      39.204054     17.704392     43.036734
  C      38.038685     15.980848     43.645099
  C      37.022996     16.720292     44.550005
  O      37.113936     17.967589     44.671418
  O      36.187331     16.000264     45.139308
  O      37.904897     14.757506     43.521044
  C      36.813635     14.630615     41.425100
  H      36.587376     13.567570     41.461411
  C      37.998383     15.044588     40.930255
  H      38.795766     14.345671     40.692520
  C      38.352765     16.444293     40.952096
  C      37.216511     17.391129     41.029406
  H      37.443850     18.441274     40.844092
  C      35.994826     16.993262     41.403252
  H      35.205162     17.732085     41.545959
  C      35.640159     15.551627     41.655611
  H      35.292144     15.443892     42.697241
  O      34.602891     15.174082     40.756551
  H      33.881157     14.660056     41.234618
  C      39.483679     16.804412     39.952508
  O      40.459787     16.011094     39.805332
  O      39.336433     17.855302     39.289757
24
Coordinates from ORCA-job neb_MEP_ALL.QMRegion E -1074.553655894498
  C      39.024699     16.649641     42.713230
  H      39.951764     16.073587     42.661885
  H      39.178341     17.709680     42.937713
  C      38.091552     15.973604     43.652076
  C      37.060248     16.713625     44.551675
  O      37.142270     17.960655     44.657967
  O      36.231226     15.989217     45.141811
  O      38.071646     14.751737     43.656289
  C      36.779976     14.610836     41.304437
  H      36.543915     13.549823     41.281141
  C      38.000443     15.029458     40.954144
  H      38.802660     14.332992     40.726797
  C      38.389584     16.451635     41.063060
  C      37.220580     17.382512     41.058576
  H      37.446177     18.436313     40.892504
  C      35.985936     16.973796     41.364446
  H      35.185852     17.707607     41.470059
  C      35.623542     15.529885     41.593915
  H      35.318485     15.405217     42.649169
  O      34.542992     15.185082     40.738392
  H      33.836686     14.667752     41.235020
  C      39.480983     16.802805     39.991563
  O      40.453828     16.009782     39.819573
  O      39.313898     17.847860     39.325639
24
Coordinates from ORCA-job neb_MEP_ALL.QMRegion E -1074.565583938616
  C      39.020000     16.645000     42.613000
  H      39.979000     16.118000     42.662000
  H      39.148000     17.716000     42.823000
  C      38.157000     15.960000     43.660000
  C      37.105000     16.705000     44.550000
  O      37.176000     17.952000     44.643000
  O      36.282000     15.976000     45.146000
  O      38.270000     14.761000     43.814000
  C      36.746000     14.591000     41.164000
  H      36.494000     13.533000     41.067000
  C      37.999000     15.013000     40.982000
  H      38.810000     14.319000     40.768000
  C      38.415000     16.449000     41.155000
  C      37.225000     17.371000     41.095000
  H      37.449000     18.430000     40.950000
  C      35.977000     16.952000     41.318000
  H      35.164000     17.678000     41.380000
  C      35.603000     15.504000     41.519000
  H      35.351000     15.359000     42.590000
  O      34.474000     15.198000     40.719000
  H      33.784000     14.677000     41.235000
  C      39.478000     16.800000     40.036000
  O      40.446000     16.009000     39.837000
  O      39.287000     17.839000     39.369000
24
Coordinates from ORCA-job neb_MEP_ALL.QMRegion E -1074.552193114524
  C      39.054000     16.686000     43.562000
  H      39.807000     16.195000     42.948000
  H      39.264000     17.670000     43.983000
  C      37.867000     16.122000     43.805000
  C      36.838000     16.764000     44.719000
  O      36.918000     18.012000     44.882000
  O      35.992000     16.015000     45.262000
  O      37.515000     14.890000     43.282000
  C      37.016000     14.882000     41.905000
  H      36.687000     13.845000     41.743000
  C      38.153000     15.216000     40.988000
  H      38.949000     14.481000     40.870000
  C      38.280000     16.432000     40.423000
  C      37.250000     17.450000     40.666000
  H      37.472000     18.464000     40.326000
  C      36.113000     17.176000     41.330000
  H      35.398000     17.974000     41.550000
  C      35.756000     15.773000     41.755000
  H      35.271000     15.793000     42.746000
  O      34.868000     15.226000     40.788000
  H      34.133000     14.713000     41.232000
  C      39.499000     16.788000     39.587000
  O      40.533000     16.057000     39.670000
  O      39.417000     17.800000     38.850000
24
Coordinates from ORCA-job neb_MEP_ALL.QMRegion E -1074.551955982291
  C      39.059502     16.674139     43.470345
  H      39.820561     16.157749     42.884070
  H      39.259497     17.685572     43.828415
  C      37.886310     16.100005     43.764431
  C      36.867265     16.756523     44.685728
  O      36.948717     18.004866     44.845922
  O      36.021337     16.014674     45.237781
  O      37.529191     14.854090     43.254014
  C      37.001827     14.838818     41.893953
  H      36.675973     13.797036     41.726045
  C      38.130137     15.188931     40.971911
  H      38.921354     14.453101     40.829016
  C      38.281171     16.432217     40.478759
  C      37.246787     17.442877     40.731060
  H      37.467307     18.463276     40.414109
  C      36.092697     17.145672     41.352636
  H      35.363264     17.933326     41.562802
  C      35.736443     15.733146     41.750854
  H      35.269119     15.734388     42.747909
  O      34.831266     15.212802     40.785508
  H      34.093776     14.701405     41.232242
  C      39.496853     16.791931     39.645872
  O      40.522718     16.046744     39.692438
  O      39.406649     17.814142     38.924599
24
Coordinates from ORCA-job neb_MEP_ALL.QMRegion E -1074.546997605088
  C      39.064071     16.663941     43.384733
  H      39.832585     16.124597     42.827375
  H      39.254437     17.697239     43.681778
  C      37.907344     16.081391     43.731278
  C      36.894556     16.750075     44.654080
  O      36.977266     17.998570     44.811948
  O      36.048487     16.013994     45.215290
  O      37.550636     14.821767     43.243058
  C      36.984256     14.798756     41.867085
  H      36.665293     13.750135     41.708632
  C      38.108393     15.164817     40.955230
  H      38.894461     14.429028     40.790861
  C      38.282261     16.431018     40.532815
  C      37.242635     17.434689     40.791969
  H      37.462781     18.461262     40.496561
  C      36.073296     17.117170     41.372908
  H      35.331713     17.895203     41.574761
  C      35.717405     15.697851     41.744805
  H      35.268288     15.679822     42.748885
  O      34.795811     15.201084     40.782793
  H      34.057012     14.690786     41.232542
  C      39.495213     16.795811     39.702523
  O      40.512353     16.037785     39.713520
  O      39.396453     17.826144     38.994943
24
Coordinates from ORCA-job neb_MEP_ALL.QMRegion E -1074.538567895334
  C      39.067441     16.655158     43.300867
  H      39.844140     16.094060     42.776663
  H      39.248543     17.704366     43.541090
  C      37.929369     16.063489     43.703605
  C      36.920178     16.744157     44.623885
  O      37.004224     17.992821     44.779789
  O      36.073835     16.013438     45.194228
  O      37.584861     14.795804     43.256783
  C      36.958682     14.761273     41.815209
  H      36.655252     13.705010     41.690858
  C      38.085819     15.142178     40.938437
  H      38.868148     14.408120     40.755139
  C      38.283647     16.428595     40.589218
  C      37.237498     17.426127     40.849327
  H      37.458158     18.458254     40.574822
  C      36.055000     17.090373     41.391213
  H      35.302667     17.858975     41.585826
  C      35.699007     15.665447     41.737183
  H      35.268328     15.628032     42.748657
  O      34.761435     15.190501     40.780171
  H      34.022176     14.680752     41.232919
  C      39.493706     16.798923     39.756823
  O      40.501659     16.029947     39.733478
  O      39.386423     17.836488     39.062210
24
Coordinates from ORCA-job neb_MEP_ALL.QMRegion E -1074.529240011277
  C      39.068934     16.647463     43.213528
  H      39.856320     16.065745     42.731520
  H      39.241993     17.706749     43.405845
  C      37.951383     16.043916     43.679710
  C      36.943820     16.738471     44.595425
  O      37.030388     17.987176     44.748868
  O      36.097663     16.012871     45.174681
  O      37.632432     14.778998     43.293615
  C      36.925339     14.725504     41.738525
  H      36.646109     13.663067     41.672666
  C      38.060715     15.119267     40.923331
  H      38.842259     14.390027     40.722051
  C      38.286405     16.426016     40.651896
  C      37.231056     17.417174     40.902922
  H      37.453319     18.454410     40.649325
  C      36.037711     17.064696     41.407845
  H      35.275890     17.824391     41.596234
  C      35.682123     15.634965     41.728595
  H      35.268732     15.578705     42.747240
  O      34.728031     15.180980     40.777862
  H      33.989127     14.671279     41.233345
  C      39.492018     16.801262     39.809049
  O      40.490559     16.023217     39.752596
  O      39.376696     17.845500     39.126708
24
Coordinates from ORCA-job neb_MEP_ALL.QMRegion E -1074.522641632747
  C      39.066983     16.640221     43.112437
  H      39.870529     16.038820     42.690982
  H      39.235132     17.704390     43.273027
  C      37.972484     16.020810     43.657531
  C      36.965732     16.732762     44.569309
  O      37.057052     17.981130     44.718014
  O      36.120794     16.012075     45.156206
  O      37.690852     14.771091     43.346348
  C      36.886701     14.689872     41.643181
  H      36.637474     13.624368     41.653030
  C      38.031605     15.093801     40.911643
  H      38.816409     14.373813     40.691091
  C      38.293271     16.425506     40.727743
  C      37.222832     17.407839     40.953310
  H      37.448001     18.449993     40.722096
  C      36.021097     17.039267     41.423569
  H      35.250535     17.790530     41.606511
  C      35.667028     15.604661     41.719642
  H      35.268878     15.530508     42.744743
  O      34.694803     15.172393     40.776103
  H      33.957069     14.662189     41.233782
  C      39.489564     16.803086     39.860023
  O      40.478839     16.017464     39.771535
  O      39.367503     17.853963     39.189919
24
Coordinates from ORCA-job neb_MEP_ALL.QMRegion E -1074.520765627906
  C      39.059435     16.631872     42.991790
  H      39.886109     16.014067     42.655573
  H      39.228975     17.697076     43.145200
  C      37.990753     15.997342     43.635582
  C      36.986354     16.727012     44.546923
  O      37.084031     17.974518     44.687391
  O      36.143059     16.010796     45.138404
  O      37.749004     14.766731     43.397446
  C      36.849588     14.655153     41.550896
  H      36.629010     13.589676     41.632081
  C      38.001390     15.066759     40.903898
  H      38.791228     14.358982     40.662166
  C      38.306513     16.427502     40.817466
  C      37.212719     17.398300     40.999276
  H      37.442026     18.445300     40.792763
  C      36.005858     17.014296     41.439053
  H      35.226692     17.757493     41.617375
  C      35.653542     15.574090     41.711428
  H      35.268232     15.483871     42.741644
  O      34.662897     15.164669     40.775385
  H      33.926468     14.653520     41.234128
  C      39.485386     16.804330     39.907775
  O      40.466695     16.012932     39.790326
  O      39.359735     17.862737     39.251136
24
Coordinates from ORCA-job neb_MEP_ALL.QMRegion E -1074.533401429773
  C      39.036246     16.647427     42.819186
  H      39.922828     16.030100     42.664302
  H      39.210629     17.709353     43.052965
  C      38.028236     15.976538     43.641522
  C      37.015316     16.722151     44.554241
  O      37.107987     17.969804     44.673069
  O      36.176690     16.002516     45.140696
  O      37.879611     14.757728     43.515454
  C      36.809668     14.630065     41.418120
  H      36.593883     13.564078     41.501118
  C      37.995348     15.046045     40.929076
  H      38.795146     14.346791     40.685478
  C      38.361510     16.452449     40.966834
  C      37.213888     17.394884     41.022788
  H      37.443444     18.443655     40.833280
  C      35.996117     16.997172     41.410666
  H      35.208122     17.737461     41.561704
  C      35.643358     15.554682     41.667869
  H      35.285587     15.452481     42.709333
  O      34.612897     15.172897     40.759855
  H      33.889854     14.658188     41.234785
  C      39.487133     16.807427     39.948076
  O      40.460732     16.010909     39.801574
  O      39.340978     17.855998     39.281138
24
Coordinates from ORCA-job neb_MEP_ALL.QMRegion E -1074.554536776757
  C      39.016533     16.650241     42.684077
  H      39.947640     16.063354     42.668838
  H      39.185618     17.710831     42.958395
  C      38.075013     15.971705     43.644582
  C      37.051032     16.716300     44.556718
  O      37.134251     17.963594     44.660298
  O      36.217988     15.991872     45.142169
  O      38.029815     14.746269     43.633594
  C      36.781790     14.612228     41.315289
  H      36.552849     13.546345     41.333427
  C      37.999229     15.032630     40.953656
  H      38.802062     14.334615     40.716558
  C      38.403275     16.464179     41.085485
  C      37.219169     17.386725     41.050771
  H      37.445254     18.439462     40.878210
  C      35.988050     16.978732     41.375107
  H      35.189688     17.714816     41.491159
  C      35.628016     15.534383     41.612374
  H      35.309034     15.416706     42.665971
  O      34.557357     15.183075     40.742352
  H      33.848653     14.665298     41.235281
  C      39.485100     16.806535     39.986549
  O      40.454873     16.009585     39.814444
  O      39.319527     17.848215     39.314466
24
Coordinates from ORCA-job neb_MEP_ALL.QMRegion E -1074.565583938616
  C      39.020000     16.645000     42.613000
  H      39.979000     16.118000     42.662000
  H      39.148000     17.716000     42.823000
  C      38.157000     15.960000     43.660000
  C      37.105000     16.705000     44.550000
  O      37.176000     17.952000     44.643000
  O      36.282000     15.976000     45.146000
  O      38.270000     14.761000     43.814000
  C      36.746000     14.591000     41.164000
  H      36.494000     13.533000     41.067000
  C      37.999000     15.013000     40.982000
  H      38.810000     14.319000     40.768000
  C      38.415000     16.449000     41.155000
  C      37.225000     17.371000     41.095000
  H      37.449000     18.430000     40.950000
  C      35.977000     16.952000     41.318000
  H      35.164000     17.678000     41.380000
  C      35.603000     15.504000     41.519000
  H      35.351000     15.359000     42.590000
  O      34.474000     15.198000     40.719000
  H      33.784000     14.677000     41.235000
  C      39.478000     16.800000     40.036000
  O      40.446000     16.009000     39.837000
  O      39.287000     17.839000     39.369000
24
Coordinates from ORCA-job neb_MEP_ALL.QMRegion E -1074.552193114524
  C      39.054000     16.686000     43.562000
  H      39.807000     16.195000     42.948000
  H      39.264000     17.670000     43.983000
  C      37.867000     16.122000     43.805000
  C      36.838000     16.764000     44.719000
  O      36.918000     18.012000     44.882000
  O      35.992000     16.015000     45.262000
  O      37.515000     14.890000     43.282000
  C      37.016000     14.882000     41.905000
  H      36.687000     13.845000     41.743000
  C      38.153000     15.216000     40.988000
  H      38.949000     14.481000     40.870000
  C      38.280000     16.432000     40.423000
  C      37.250000     17.450000     40.666000
  H      37.472000     18.464000     40.326000
  C      36.113000     17.176000     41.330000
  H      35.398000     17.974000     41.550000
  C      35.756000     15.773000     41.755000
  H      35.271000     15.793000     42.746000
  O      34.868000     15.226000     40.788000
  H      34.133000     14.713000     41.232000
  C      39.499000     16.788000     39.587000
  O      40.533000     16.057000     39.670000
  O      39.417000     17.800000     38.850000
24
Coordinates from ORCA-job neb_MEP_ALL.QMRegion E -1074.552978910265
  C      39.059636     16.673758     43.470729
  H      39.820228     16.157887     42.883928
  H      39.259473     17.685344     43.828579
  C      37.886080     16.099850     43.763867
  C      36.867201     16.756384     44.685440
  O      36.948863     18.004728     44.845873
  O      36.021371     16.014527     45.237806
  O      37.529364     14.854867     43.255314
  C      37.001480     14.838877     41.892594
  H      36.676104     13.797428     41.726299
  C      38.130153     15.188796     40.972199
  H      38.921349     14.453099     40.828905
  C      38.280872     16.431816     40.478356
  C      37.246795     17.442852     40.730911
  H      37.467347     18.463380     40.414171
  C      36.092765     17.145606     41.352830
  H      35.363270     17.933245     41.562828
  C      35.736662     15.733023     41.751135
  H      35.268845     15.734455     42.748082
  O      34.831592     15.212625     40.785722
  H      34.093840     14.701399     41.232191
  C      39.496735     16.791839     39.645393
  O      40.522768     16.046858     39.692403
  O      39.406933     17.814314     38.924534
24
Coordinates from ORCA-job neb_MEP_ALL.QMRegion E -1074.551170338493
  C      39.064484     16.663291     43.385275
  H      39.832024     16.124764     42.826942
  H      39.254408     17.696958     43.681592
  C      37.906904     16.080910     43.730220
  C      36.894519     16.749805     44.653596
  O      36.977579     17.998348     44.811733
  O      36.048674     16.013785     45.215202
  O      37.550328     14.822951     43.243427
  C      36.984252     14.798636     41.866489
  H      36.665517     13.750733     41.709020
  C      38.108304     15.164509     40.955654
  H      38.894391     14.428942     40.790519
  C      38.281718     16.430342     40.532138
  C      37.242589     17.434591     40.791906
  H      37.462837     18.461385     40.496989
  C      36.073373     17.116974     41.373268
  H      35.331607     17.894965     41.574866
  C      35.717745     15.697457     41.745318
  H      35.267841     15.679760     42.749154
  O      34.796215     15.200759     40.783130
  H      34.056976     14.690747     41.232460
  C      39.494956     16.795623     39.701877
  O      40.512430     16.037963     39.713589
  O      39.396919     17.826546     38.995088
24
Coordinates from ORCA-job neb_MEP_ALL.QMRegion E -1074.546023824563
  C      39.068074     16.654389     43.301485
  H      39.843488     16.094145     42.775909
  H      39.248511     17.704147     43.540260
  C      37.929020     16.062881     43.702405
  C      36.920270     16.743848     44.623299
  O      37.004656     17.992587     44.779381
  O      36.074174     16.013234     45.193967
  O      37.583652     14.796791     43.254774
  C      36.959538     14.760995     41.816831
  H      36.655454     13.705442     41.691204
  C      38.085619     15.141654     40.938730
  H      38.867946     14.407939     40.754549
  C      38.282951     16.427865     40.588364
  C      37.237372     17.425911     40.849498
  H      37.458214     18.458343     40.575737
  C      36.055036     17.090058     41.391686
  H      35.302397     17.858552     41.586016
  C      35.699277     15.664822     41.737729
  H      35.267873     15.627704     42.748927
  O      34.761695     15.190094     40.780513
  H      34.021936     14.680658     41.232835
  C      39.493340     16.798674     39.756271
  O      40.501719     16.030123     39.733701
  O      39.386937     17.837064     39.062722
24
Coordinates from ORCA-job neb_MEP_ALL.QMRegion E -1074.535680298751
  C      39.069584     16.646750     43.214435
  H      39.855724     16.065768     42.730685
  H      39.241979     17.706658     43.404815
  C      37.951390     16.043569     43.678857
  C      36.944005     16.738232     44.594905
  O      37.030763     17.987015     44.748417
  O      36.097993     16.012721     45.174346
  O      37.631024     14.779449     43.290778
  C      36.926440     14.725216     41.741022
  H      36.646217     13.663168     41.672882
  C      38.060531     15.118701     40.923283
  H      38.841997     14.389835     40.721418
  C      38.285670     16.425362     40.650870
  C      37.230878     17.416898     40.903178
  H      37.453374     18.454443     40.650387
  C      36.037718     17.064411     41.408289
  H      35.275567     17.823937     41.596448
  C      35.682206     15.634356     41.728964
  H      35.268425     15.578251     42.747430
  O      34.728098     15.180609     40.778103
  H      33.988780     14.671157     41.233284
  C      39.491629     16.801004     39.808607
  O      40.490600     16.023358     39.752883
  O      39.377154     17.846082     39.127367
24
Coordinates from ORCA-job neb_MEP_ALL.QMRegion E -1074.524957330625
  C      39.067581     16.639837     43.113998
  H      39.870108     16.038901     42.690534
  H      39.235178     17.704501     43.272870
  C      37.972673     16.020824     43.657445
  C      36.965779     16.732696     44.569093
  O      37.057124     17.981121     44.717822
  O      36.120886     16.012025     45.156026
  O      37.690081     14.771155     43.344800
  C      36.887328     14.689774     41.644680
  H      36.637515     13.624373     41.653188
  C      38.031557     15.093499     40.911370
  H      38.816299     14.373745     40.690786
  C      38.292587     16.425006     40.726401
  C      37.222726     17.407663     40.953271
  H      37.448072     18.450000     40.722560
  C      36.021149     17.039210     41.423770
  H      35.250399     17.790369     41.606628
  C      35.667024     15.604413     41.719735
  H      35.268796     15.530331     42.744814
  O      34.694810     15.172215     40.776169
  H      33.956898     14.662119     41.233758
  C      39.489309     16.802893     39.859513
  O      40.478902     16.017570     39.771664
  O      39.367846     17.854330     39.190139
24
Coordinates from ORCA-job neb_MEP_ALL.QMRegion E -1074.521309175996
  C      39.059746     16.631934     42.993132
  H      39.886016     16.014138     42.655765
  H      39.229099     17.697300     43.146096
  C      37.990794     15.997419     43.636078
  C      36.986138     16.727143     44.547061
  O      37.083802     17.974637     44.687547
  O      36.142878     16.010838     45.138483
  O      37.749033     14.766691     43.397747
  C      36.849655     14.655211     41.550952
  H      36.629017     13.589818     41.632248
  C      38.001430     15.066771     40.903708
  H      38.791336     14.359037     40.662284
  C      38.306102     16.427360     40.816356
  C      37.212767     17.398307     40.998875
  H      37.442076     18.445303     40.792407
  C      36.005941     17.014450     41.438988
  H      35.226818     17.757700     41.617431
  C      35.653563     15.574246     41.711332
  H      35.268300     15.484085     42.741646
  O      34.662897     15.164740     40.775295
  H      33.926595     14.653521     41.234149
  C      39.485358     16.804310     39.907283
  O      40.466774     16.012967     39.790196
  O      39.359924     17.862790     39.250751
24
Coordinates from ORCA-job neb_MEP_ALL.QMRegion E -1074.534214593116
  C      39.035916     16.647165     42.819165
  H      39.922185     16.030048     42.664836
  H      39.210879     17.708427     43.053871
  C      38.027623     15.976642     43.640905
  C      37.014858     16.722235     44.554242
  O      37.107564     17.969782     44.673307
  O      36.176049     16.002769     45.140822
  O      37.878317     14.758456     43.515247
  C      36.810004     14.630175     41.418749
  H      36.594348     13.564365     41.503417
  C      37.995421     15.046385     40.928766
  H      38.794885     14.347080     40.685177
  C      38.361523     16.452451     40.966977
  C      37.213856     17.394980     41.022745
  H      37.443328     18.443902     40.832404
  C      35.996520     16.997564     41.411066
  H      35.208386     17.737797     41.562719
  C      35.643292     15.554843     41.668284
  H      35.285388     15.452983     42.709867
  O      34.613425     15.173003     40.760238
  H      33.890479     14.658078     41.234760
  C      39.487332     16.807585     39.947952
  O      40.460770     16.010953     39.801288
  O      39.341219     17.855894     39.280555
24
Coordinates from ORCA-job neb_MEP_ALL.QMRegion E -1074.555673015579
  C      39.016355     16.649968     42.684072
  H      39.946631     16.063201     42.669235
  H      39.185901     17.709851     42.959061
  C      38.073990     15.969642     43.643366
  C      37.050497     16.716411     44.556771
  O      37.133759     17.963638     44.660568
  O      36.217224     15.992185     45.142282
  O      38.027670     14.748884     43.632591
  C      36.782365     14.612501     41.315949
  H      36.553441     13.546389     41.336657
  C      37.999234     15.033133     40.953837
  H      38.801797     14.334935     40.716033
  C      38.403383     16.464315     41.085530
  C      37.219263     17.386972     41.050925
  H      37.445098     18.439782     40.877177
  C      35.988515     16.979157     41.375754
  H      35.189987     17.715197     41.492461
  C      35.628115     15.534555     41.613265
  H      35.308556     15.417391     42.666898
  O      34.558236     15.183106     40.742888
  H      33.849438     14.665147     41.235235
  C      39.485577     16.806871     39.986653
  O      40.454843     16.009614     39.814109
  O      39.319722     17.848040     39.313805
24
Coordinates from ORCA-job neb_MEP_ALL.QMRegion E -1074.565583938616
  C      39.020000     16.645000     42.613000
  H      39.979000     16.118000     42.662000
  H      39.148000     17.716000     42.823000
  C      38.157000     15.960000     43.660000
  C      37.105000     16.705000     44.550000
  O      37.176000     17.952000     44.643000
  O      36.282000     15.976000     45.146000
  O      38.270000     14.761000     43.814000
  C      36.746000     14.591000     41.164000
  H      36.494000     13.533000     41.067000
  C      37.999000     15.013000     40.982000
  H      38.810000     14.319000     40.768000
  C      38.415000     16.449000     41.155000
  C      37.225000     17.371000     41.095000
  H      37.449000     18.430000     40.950000
  C      35.977000     16.952000     41.318000
  H      35.164000     17.678000     41.380000
  C      35.603000     15.504000     41.519000
  H      35.351000     15.359000     42.590000
  O      34.474000     15.198000     40.719000
  H      33.784000     14.677000     41.235000
  C      39.478000     16.800000     40.036000
  O      40.446000     16.009000     39.837000
  O      39.287000     17.839000     39.369000
24
Coordinates from ORCA-job neb_MEP_ALL.QMRegion E -1074.552193114524
  C      39.054000     16.686000     43.562000
  H      39.807000     16.195000     42.948000
  H      39.264000     17.670000     43.983000
  C      37.867000     16.122000     43.805000
  C      36.838000     16.764000     44.719000
  O      36.918000     18.012000     44.882000
  O      35.992000     16.015000     45.262000
  O      37.515000     14.890000     43.282000
  C      37.016000     14.882000     41.905000
  H      36.687000     13.845000     41.743000
  C      38.153000     15.216000     40.988000
  H      38.949000     14.481000     40.870000
  C      38.280000     16.432000     40.423000
  C      37.250000     17.450000     40.666000
  H      37.472000     18.464000     40.326000
  C      36.113000     17.176000     41.330000
  H      35.398000     17.974000     41.550000
  C      35.756000     15.773000     41.755000
  H      35.271000     15.793000     42.746000
  O      34.868000     15.226000     40.788000
  H      34.133000     14.713000     41.232000
  C      39.499000     16.788000     39.587000
  O      40.533000     16.057000     39.670000
  O      39.417000     17.800000     38.850000
24
Coordinates from ORCA-job neb_MEP_ALL.QMRegion E -1074.553099935247
  C      39.061171     16.669220     43.476227
  H      39.816017     16.159614     42.882064
  H      39.259147     17.682095     43.831337
  C      37.883221     16.098998     43.757504
  C      36.866303     16.754753     44.681795
  O      36.950609     18.002853     44.845332
  O      36.021798     16.012638     45.238090
  O      37.530493     14.863737     43.270045
  C      36.997780     14.840309     41.877382
  H      36.677711     13.802109     41.729659
  C      38.130600     15.187133     40.975464
  H      38.921383     14.453080     40.827611
  C      38.277019     16.426890     40.472594
  C      37.246650     17.442336     40.728754
  H      37.467905     18.464666     40.414690
  C      36.093976     17.144939     41.355228
  H      35.363488     17.932251     41.563216
  C      35.739246     15.731804     41.754606
  H      35.265396     15.735432     42.750343
  O      34.835902     15.210234     40.788474
  H      34.094901     14.701359     41.231552
  C      39.495279     16.790447     39.639021
  O      40.523321     16.048399     39.691767
  O      39.410659     17.816548     38.923322
24
Coordinates from ORCA-job neb_MEP_ALL.QMRegion E -1074.551438249395
  C      39.068881     16.655025     43.392896
  H      39.825086     16.126578     42.820798
  H      39.254024     17.692904     43.679432
  C      37.901856     16.076618     43.717149
  C      36.894219     16.746591     44.647054
  O      36.981657     17.995104     44.808826
  O      36.051071     16.010903     45.214024
  O      37.545392     14.836544     43.247020
  C      36.984431     14.798036     41.860187
  H      36.668337     13.757824     41.714214
  C      38.107510     15.160441     40.960455
  H      38.893467     14.427728     40.786038
  C      38.274569     16.421844     40.522709
  C      37.241767     17.432989     40.790979
  H      37.463600     18.462859     40.502631
  C      36.074597     17.114391     41.378051
  H      35.330292     17.891700     41.576384
  C      35.721826     15.692641     41.751800
  H      35.262057     15.678870     42.752768
  O      34.801619     15.196290     40.787560
  H      34.056652     14.690238     41.231435
  C      39.491676     16.793025     39.693421
  O      40.513241     16.040340     39.714329
  O      39.403039     17.831769     38.996901
24
Coordinates from ORCA-job neb_MEP_ALL.QMRegion E -1074.546510615751
  C      39.075180     16.644265     43.310036
  H      39.835445     16.094721     42.765191
  H      39.248109     17.700894     43.529260
  C      37.925103     16.056959     43.686722
  C      36.921815     16.740054     44.615184
  O      37.010473     17.988994     44.773766
  O      36.078617     16.010311     45.190481
  O      37.567273     14.807901     43.228435
  C      36.970149     14.758017     41.838203
  H      36.658153     13.710690     41.696029
  C      38.083390     15.135165     40.941830
  H      38.865283     14.405313     40.746553
  C      38.273593     16.418037     40.576619
  C      37.235708     17.422862     40.851724
  H      37.458951     18.459297     40.588174
  C      36.055396     17.085588     41.398196
  H      35.298842     17.852680     41.588716
  C      35.702656     15.656723     41.744931
  H      35.261798     15.623188     42.752637
  O      34.765342     15.184421     40.785122
  H      34.018813     14.679377     41.231782
  C      39.488501     16.795384     39.749111
  O      40.502294     16.032453     39.736530
  O      39.393764     17.844597     39.069664
24
Coordinates from ORCA-job neb_MEP_ALL.QMRegion E -1074.536231097440
  C      39.077720     16.637571     43.226291
  H      39.848317     16.065510     42.718810
  H      39.241807     17.705090     43.390612
  C      37.951511     16.040243     43.667429
  C      36.946871     16.735255     44.587631
  O      37.035948     17.984431     44.742121
  O      36.102466     16.010552     45.169768
  O      37.611877     14.783854     43.252821
  C      36.940399     14.721543     41.774450
  H      36.647699     13.664189     41.675974
  C      38.058371     15.112069     40.922031
  H      38.838553     14.386892     40.712631
  C      38.275710     16.416007     40.637003
  C      37.228706     17.413206     40.906672
  H      37.454062     18.454612     40.665127
  C      36.037363     17.060080     41.414552
  H      35.271197     17.817547     41.599512
  C      35.683245     15.626238     41.733998
  H      35.264230     15.571890     42.750052
  O      34.729103     15.175402     40.781393
  H      33.984059     14.669488     41.232522
  C      39.486439     16.797700     39.803096
  O      40.490903     16.025182     39.756666
  O      39.383246     17.853779     39.136530
24
Coordinates from ORCA-job neb_MEP_ALL.QMRegion E -1074.525176546163
  C      39.075552     16.635089     43.134677
  H      39.864707     16.039701     42.684158
  H      39.235835     17.705690     43.270521
  C      37.974968     16.021378     43.656240
  C      36.966714     16.731924     44.566076
  O      37.058139     17.980779     44.715092
  O      36.122127     16.011286     45.153528
  O      37.679381     14.771312     43.323553
  C      36.895423     14.688427     41.665376
  H      36.638073     13.624259     41.655418
  C      38.031084     15.090126     40.907438
  H      38.814925     14.372541     40.686440
  C      38.283320     16.417861     40.708188
  C      37.221515     17.405345     40.952727
  H      37.448994     18.449895     40.729147
  C      36.021444     17.038056     41.426696
  H      35.248556     17.788021     41.608348
  C      35.666966     15.601071     41.721108
  H      35.267644     15.527758     42.745767
  O      34.694986     15.169690     40.777105
  H      33.954529     14.661145     41.233459
  C      39.485866     16.800440     39.852867
  O      40.479610     16.018924     39.773356
  O      39.372457     17.859190     39.193295
24
Coordinates from ORCA-job neb_MEP_ALL.QMRegion E -1074.521340166254
  C      39.063152     16.632609     43.001055
  H      39.886313     16.013917     42.656374
  H      39.230100     17.700030     43.148768
  C      37.993272     15.996769     43.641529
  C      36.985126     16.728387     44.547792
  O      37.082763     17.975825     44.687556
  O      36.142340     16.011261     45.138555
  O      37.755290     14.765738     43.406970
  C      36.847478     14.653556     41.543953
  H      36.627962     13.589056     41.630980
  C      38.000040     15.064984     40.901178
  H      38.791361     14.358627     40.662519
  C      38.302423     16.425964     40.809385
  C      37.212703     17.397779     40.996789
  H      37.442443     18.445064     40.792778
  C      36.005913     17.014700     41.438601
  H      35.226759     17.758111     41.617987
  C      35.652863     15.574090     41.708862
  H      35.269530     15.483535     42.740878
  O      34.660115     15.165443     40.773885
  H      33.925715     14.653092     41.234534
  C      39.484747     16.804113     39.904387
  O      40.466949     16.013178     39.789868
  O      39.361698     17.864001     39.249896
24
Coordinates from ORCA-job neb_MEP_ALL.QMRegion E -1074.534166218725
  C      39.031339     16.643798     42.819204
  H      39.914086     16.028869     42.671902
  H      39.214265     17.696656     43.066289
  C      38.019026     15.979613     43.633756
  C      37.008425     16.723363     44.554271
  O      37.101931     17.969865     44.676535
  O      36.167659     16.006091     45.142333
  O      37.860780     14.766074     43.512222
  C      36.814476     14.632151     41.427308
  H      36.600665     13.568130     41.534200
  C      37.995716     15.050433     40.924865
  H      38.791725     14.350797     40.681094
  C      38.361853     16.453113     40.968113
  C      37.214314     17.396945     41.021726
  H      37.441758     18.446806     40.820675
  C      36.000726     17.002388     41.416759
  H      35.212158     17.742279     41.576280
  C      35.643114     15.557303     41.674224
  H      35.282794     15.459760     42.716871
  O      34.620464     15.174528     40.764963
  H      33.898722     14.656499     41.234551
  C      39.489818     16.809615     39.946011
  O      40.461395     16.011472     39.797552
  O      39.344406     17.854551     39.272800
24
Coordinates from ORCA-job neb_MEP_ALL.QMRegion E -1074.555713973162
  C      39.012997     16.646019     42.683627
  H      39.933995     16.060459     42.674600
  H      39.189732     17.697017     42.968593
  C      38.060000     15.958151     43.628107
  C      37.043040     16.717805     44.557179
  O      37.127229     17.964198     44.664182
  O      36.206825     15.996251     45.143823
  O      37.997713     14.768104     43.619057
  C      36.788976     14.615889     41.325782
  H      36.561796     13.547465     41.380628
  C      37.999894     15.039413     40.955535
  H      38.798170     14.339431     40.708969
  C      38.405230     16.466988     41.086043
  C      37.221220     17.390818     41.052561
  H      37.442979     18.443837     40.863149
  C      35.993786     16.984596     41.384934
  H      35.194299     17.720326     41.510224
  C      35.630152     15.537292     41.625549
  H      35.302204     15.426708     42.679344
  O      34.570055     15.183600     40.749854
  H      33.860094     14.663006     41.234722
  C      39.491260     16.811230     39.987539
  O      40.454909     16.009827     39.809720
  O      39.322519     17.845905     39.304949
24
Coordinates from ORCA-job neb_MEP_ALL.QMRegion E -1074.565583938616
  C      39.020000     16.645000     42.613000
  H      39.979000     16.118000     42.662000
  H      39.148000     17.716000     42.823000
  C      38.157000     15.960000     43.660000
  C      37.105000     16.705000     44.550000
  O      37.176000     17.952000     44.643000
  O      36.282000     15.976000     45.146000
  O      38.270000     14.761000     43.814000
  C      36.746000     14.591000     41.164000
  H      36.494000     13.533000     41.067000
  C      37.999000     15.013000     40.982000
  H      38.810000     14.319000     40.768000
  C      38.415000     16.449000     41.155000
  C      37.225000     17.371000     41.095000
  H      37.449000     18.430000     40.950000
  C      35.977000     16.952000     41.318000
  H      35.164000     17.678000     41.380000
  C      35.603000     15.504000     41.519000
  H      35.351000     15.359000     42.590000
  O      34.474000     15.198000     40.719000
  H      33.784000     14.677000     41.235000
  C      39.478000     16.800000     40.036000
  O      40.446000     16.009000     39.837000
  O      39.287000     17.839000     39.369000
24
Coordinates from ORCA-job neb_MEP_ALL.QMRegion E -1074.552193114524
  C      39.054000     16.686000     43.562000
  H      39.807000     16.195000     42.948000
  H      39.264000     17.670000     43.983000
  C      37.867000     16.122000     43.805000
  C      36.838000     16.764000     44.719000
  O      36.918000     18.012000     44.882000
  O      35.992000     16.015000     45.262000
  O      37.515000     14.890000     43.282000
  C      37.016000     14.882000     41.905000
  H      36.687000     13.845000     41.743000
  C      38.153000     15.216000     40.988000
  H      38.949000     14.481000     40.870000
  C      38.280000     16.432000     40.423000
  C      37.250000     17.450000     40.666000
  H      37.472000     18.464000     40.326000
  C      36.113000     17.176000     41.330000
  H      35.398000     17.974000     41.550000
  C      35.756000     15.773000     41.755000
  H      35.271000     15.793000     42.746000
  O      34.868000     15.226000     40.788000
  H      34.133000     14.713000     41.232000
  C      39.499000     16.788000     39.587000
  O      40.533000     16.057000     39.670000
  O      39.417000     17.800000     38.850000
24
Coordinates from ORCA-job neb_MEP_ALL.QMRegion E -1074.552822345453
  C      39.062678     16.665004     43.481951
  H      39.811754     16.160835     42.879116
  H      39.258749     17.678153     43.833744
  C      37.880583     16.100469     43.752449
  C      36.865447     16.753236     44.677714
  O      36.952584     18.000673     44.844448
  O      36.022755     16.010690     45.237871
  O      37.529594     14.869899     43.281337
  C      36.995088     14.842480     41.865677
  H      36.679097     13.805652     41.733301
  C      38.131296     15.185381     40.977504
  H      38.921295     14.452581     40.825952
  C      38.272940     16.422090     40.465753
  C      37.246067     17.441320     40.726670
  H      37.468518     18.465772     40.415935
  C      36.095516     17.144188     41.358011
  H      35.363606     17.930682     41.563972
  C      35.741118     15.730912     41.757974
  H      35.261921     15.735912     42.752852
  O      34.840356     15.207247     40.791276
  H      34.095981     14.701196     41.230987
  C      39.493746     16.788742     39.632479
  O      40.523614     16.049980     39.690937
  O      39.414666     17.819098     38.922237
24
Coordinates from ORCA-job neb_MEP_ALL.QMRegion E -1074.550550541467
  C      39.072416     16.646493     43.401627
  H      39.818115     16.127633     42.812583
  H      39.253574     17.687520     43.677065
  C      37.897366     16.076409     43.704840
  C      36.894188     16.743481     44.639342
  O      36.986287     17.990957     44.805213
  O      36.054062     16.007533     45.212281
  O      37.537854     14.846611     43.248050
  C      36.984959     14.799159     41.856589
  H      36.671133     13.763724     41.720252
  C      38.107324     15.156089     40.963633
  H      38.892356     14.425870     40.780780
  C      38.266537     16.413046     40.511002
  C      37.240422     17.430483     40.789873
  H      37.464477     18.464007     40.509563
  C      36.076158     17.111294     41.383763
  H      35.328898     17.887421     41.578569
  C      35.725203     15.688034     41.758494
  H      35.255823     15.677350     42.756995
  O      34.807801     15.190681     40.792436
  H      34.056437     14.689579     41.230483
  C      39.488122     16.790076     39.684224
  O      40.513662     16.042911     39.714816
  O      39.409840     17.837419     38.999126
24
Coordinates from ORCA-job neb_MEP_ALL.QMRegion E -1074.546504825971
  C      39.081475     16.633081     43.320765
  H      39.827175     16.094481     42.751633
  H      39.247763     17.696099     43.518169
  C      37.920945     16.054553     43.669738
  C      36.923766     16.736024     44.605495
  O      37.017177     17.984046     44.767114
  O      36.083731     16.006589     45.186337
  O      37.548032     14.816668     43.200638
  C      36.980250     14.756429     41.861285
  H      36.661414     13.716112     41.702413
  C      38.081883     15.128845     40.943626
  H      38.862545     14.401838     40.737203
  C      38.262596     16.406771     40.561153
  C      37.233718     17.418848     40.853592
  H      37.459831     18.459772     40.602513
  C      36.055788     17.080033     41.406083
  H      35.295123     17.845580     41.592266
  C      35.705999     15.648221     41.753230
  H      35.254685     15.618045     42.757234
  O      34.770419     15.177206     40.790564
  H      34.015778     14.677922     41.230759
  C      39.483031     16.791759     39.740707
  O      40.502491     16.035091     39.739211
  O      39.401685     17.852810     39.077378
24
Coordinates from ORCA-job neb_MEP_ALL.QMRegion E -1074.538883061569
  C      39.086506     16.627615     43.240450
  H      39.840493     16.064360     42.703794
  H      39.241795     17.702348     43.375087
  C      37.950738     16.038810     43.654096
  C      36.950502     16.731922     44.578849
  O      37.042091     17.980679     44.734532
  O      36.107784     16.007747     45.164215
  O      37.588216     14.786061     43.208445
  C      36.955642     14.718337     41.814235
  H      36.649746     13.665420     41.680459
  C      38.056557     15.106003     40.919550
  H      38.834965     14.382800     40.701911
  C      38.263698     16.404511     40.618866
  C      37.226413     17.408596     40.910281
  H      37.454858     18.454160     40.682666
  C      36.036515     17.054213     41.422302
  H      35.266301     17.809756     41.603546
  C      35.684393     15.617157     41.740372
  H      35.259021     15.564422     42.753404
  O      34.731098     15.168683     40.785415
  H      33.978889     14.667531     41.231778
  C      39.480479     16.794168     39.796794
  O      40.490778     16.027218     39.760613
  O      39.390407     17.862366     39.147228
24
Coordinates from ORCA-job neb_MEP_ALL.QMRegion E -1074.526643011279
  C      39.084882     16.630202     43.157665
  H      39.858866     16.040018     42.675834
  H      39.236744     17.706397     43.267121
  C      37.977035     16.022583     43.654498
  C      36.968420     16.731049     44.562330
  O      37.059537     17.979956     44.711450
  O      36.123760     16.010321     45.150270
  O      37.666090     14.769972     43.297560
  C      36.904407     14.686878     41.690966
  H      36.638740     13.623658     41.658232
  C      38.030690     15.087230     40.902280
  H      38.813448     14.370404     40.680620
  C      38.272344     16.408973     40.686349
  C      37.220206     17.402396     40.952207
  H      37.450026     18.449288     40.737902
  C      36.021158     17.035815     41.430516
  H      35.246275     17.784729     41.610833
  C      35.666750     15.597000     41.723088
  H      35.266138     15.524169     42.746885
  O      34.695315     15.166344     40.778320
  H      33.951499     14.659896     41.233177
  C      39.481790     16.797865     39.845653
  O      40.480014     16.020363     39.775222
  O      39.377863     17.864770     39.197632
24
Coordinates from ORCA-job neb_MEP_ALL.QMRegion E -1074.521664390594
  C      39.067957     16.633832     43.018575
  H      39.885381     16.014745     42.658825
  H      39.231881     17.703203     43.159483
  C      37.995079     15.997522     43.648966
  C      36.982785     16.729969     44.549866
  O      37.079717     17.977619     44.689135
  O      36.139955     16.012072     45.139443
  O      37.758426     14.764890     43.414091
  C      36.846761     14.653724     41.541789
  H      36.627490     13.589900     41.632092
  C      37.999956     15.064541     40.898206
  H      38.792639     14.358847     40.663764
  C      38.296966     16.423805     40.794532
  C      37.212828     17.397659     40.991654
  H      37.443200     18.444992     40.789168
  C      36.006598     17.016337     41.437551
  H      35.228195     17.760418     41.618910
  C      35.652851     15.575510     41.706830
  H      35.270931     15.485468     42.740158
  O      34.659009     15.166682     40.772496
  H      33.926473     14.652897     41.234863
  C      39.484170     16.803683     39.898060
  O      40.467681     16.013668     39.788274
  O      39.364451     17.865074     39.245337
24
Coordinates from ORCA-job neb_MEP_ALL.QMRegion E -1074.533097142689
  C      39.025520     16.640323     42.818893
  H      39.906012     16.026186     42.679881
  H      39.218244     17.684511     43.080612
  C      38.008072     15.984362     43.627876
  C      37.000392     16.725067     44.554286
  O      37.095585     17.970783     44.680267
  O      36.158407     16.009709     45.143660
  O      37.840840     14.771896     43.509091
  C      36.818870     14.635014     41.436867
  H      36.608144     13.572382     41.569543
  C      37.994811     15.054126     40.920800
  H      38.788682     14.354691     40.676170
  C      38.362826     16.455282     40.968477
  C      37.215667     17.400238     41.020144
  H      37.439947     18.449531     40.807359
  C      36.004072     17.007257     41.423797
  H      35.216804     17.747412     41.591927
  C      35.644395     15.560716     41.681847
  H      35.280048     15.467459     42.724542
  O      34.628262     15.176585     40.769524
  H      33.907824     14.654416     41.234590
  C      39.492434     16.811723     39.943394
  O      40.462280     16.011935     39.793600
  O      39.347904     17.853183     39.264229
24
Coordinates from ORCA-job neb_MEP_ALL.QMRegion E -1074.553554108195
  C      39.006937     16.641459     42.682223
  H      39.921156     16.055380     42.681181
  H      39.194346     17.682739     42.980873
  C      38.042608     15.965015     43.613259
  C      37.033122     16.719623     44.557034
  O      37.119642     17.965352     44.668611
  O      36.194753     16.000910     45.145379
  O      37.960550     14.770155     43.602825
  C      36.794950     14.619484     41.339628
  H      36.572538     13.549925     41.433546
  C      38.001119     15.045873     40.955944
  H      38.794041     14.345001     40.700633
  C      38.408133     16.471701     41.086345
  C      37.224108     17.396261     41.053709
  H      37.440475     18.448226     40.846262
  C      35.998811     16.990588     41.396690
  H      35.199979     17.726503     41.531768
  C      35.633980     15.541486     41.640778
  H      35.295071     15.437884     42.693810
  O      34.583912     15.184532     40.757444
  H      33.872843     14.660210     41.234418
  C      39.496796     16.815791     39.987229
  O      40.455747     16.009933     39.804995
  O      39.326062     17.843873     39.294685
24
Coordinates from ORCA-job neb_MEP_ALL.QMRegion E -1074.565583938616
  C      39.020000     16.645000     42.613000
  H      39.979000     16.118000     42.662000
  H      39.148000     17.716000     42.823000
  C      38.157000     15.960000     43.660000
  C      37.105000     16.705000     44.550000
  O      37.176000     17.952000     44.643000
  O      36.282000     15.976000     45.146000
  O      38.270000     14.761000     43.814000
  C      36.746000     14.591000     41.164000
  H      36.494000     13.533000     41.067000
  C      37.999000     15.013000     40.982000
  H      38.810000     14.319000     40.768000
  C      38.415000     16.449000     41.155000
  C      37.225000     17.371000     41.095000
  H      37.449000     18.430000     40.950000
  C      35.977000     16.952000     41.318000
  H      35.164000     17.678000     41.380000
  C      35.603000     15.504000     41.519000
  H      35.351000     15.359000     42.590000
  O      34.474000     15.198000     40.719000
  H      33.784000     14.677000     41.235000
  C      39.478000     16.800000     40.036000
  O      40.446000     16.009000     39.837000
  O      39.287000     17.839000     39.369000
24
Coordinates from ORCA-job neb_MEP_ALL.QMRegion E -1074.552193114524
  C      39.054000     16.686000     43.562000
  H      39.807000     16.195000     42.948000
  H      39.264000     17.670000     43.983000
  C      37.867000     16.122000     43.805000
  C      36.838000     16.764000     44.719000
  O      36.918000     18.012000     44.882000
  O      35.992000     16.015000     45.262000
  O      37.515000     14.890000     43.282000
  C      37.016000     14.882000     41.905000
  H      36.687000     13.845000     41.743000
  C      38.153000     15.216000     40.988000
  H      38.949000     14.481000     40.870000
  C      38.280000     16.432000     40.423000
  C      37.250000     17.450000     40.666000
  H      37.472000     18.464000     40.326000
  C      36.113000     17.176000     41.330000
  H      35.398000     17.974000     41.550000
  C      35.756000     15.773000     41.755000
  H      35.271000     15.793000     42.746000
  O      34.868000     15.226000     40.788000
  H      34.133000     14.713000     41.232000
  C      39.499000     16.788000     39.587000
  O      40.533000     16.057000     39.670000
  O      39.417000     17.800000     38.850000
24
Coordinates from ORCA-job neb_MEP_ALL.QMRegion E -1074.552046905341
  C      39.062441     16.666317     43.481577
  H      39.812324     16.160005     42.878335
  H      39.258823     17.677874     43.833821
  C      37.881141     16.103378     43.755641
  C      36.865473     16.753890     44.678174
  O      36.952318     18.000791     44.844294
  O      36.023208     16.010950     45.237211
  O      37.526524     14.864939     43.273819
  C      36.997289     14.843143     41.873877
  H      36.678560     13.803572     41.733166
  C      38.131607     15.185844     40.975149
  H      38.921333     14.451998     40.825915
  C      38.273393     16.423244     40.464862
  C      37.245580     17.440785     40.726680
  H      37.468501     18.465175     40.416332
  C      36.095756     17.144383     41.357959
  H      35.363657     17.930328     41.564398
  C      35.739729     15.731857     41.757214
  H      35.262591     15.735365     42.752727
  O      34.839924     15.206928     40.790739
  H      34.096068     14.701079     41.231243
  C      39.493898     16.788731     39.633023
  O      40.523227     16.049696     39.690605
  O      39.414395     17.818947     38.922177
24
Coordinates from ORCA-job neb_MEP_ALL.QMRegion E -1074.550151367016
  C      39.070923     16.647718     43.401355
  H      39.819154     16.126293     42.810966
  H      39.253641     17.686496     43.677612
  C      37.898568     16.082117     43.708528
  C      36.894440     16.744269     44.639239
  O      36.986179     17.990583     44.804830
  O      36.054507     16.007436     45.211592
  O      37.535258     14.839468     43.243887
  C      36.985440     14.801269     41.861916
  H      36.670575     13.760854     41.720496
  C      38.108226     15.156717     40.960242
  H      38.892367     14.425092     40.780558
  C      38.266765     16.414303     40.509272
  C      37.239855     17.429501     40.789604
  H      37.464473     18.463094     40.510229
  C      36.076322     17.111133     41.384137
  H      35.329132     17.886636     41.579327
  C      35.723295     15.689404     41.757590
  H      35.256357     15.676666     42.757140
  O      34.807879     15.189851     40.792089
  H      34.056774     14.689453     41.230844
  C      39.488360     16.790215     39.684727
  O      40.512947     16.042612     39.714207
  O      39.409596     17.836961     38.999198
24
Coordinates from ORCA-job neb_MEP_ALL.QMRegion E -1074.546498160298
  C      39.079548     16.633439     43.321432
  H      39.828107     16.093285     42.749721
  H      39.247964     17.694395     43.520439
  C      37.920718     16.059796     43.670942
  C      36.923847     16.736331     44.604900
  O      37.017336     17.982983     44.766701
  O      36.083978     16.005998     45.185943
  O      37.548561     14.812021     43.206994
  C      36.976438     14.758731     41.856597
  H      36.661698     13.715415     41.703787
  C      38.083067     15.130156     40.941130
  H      38.862958     14.401052     40.736766
  C      38.262127     16.406910     40.557911
  C      37.233443     17.417915     40.852562
  H      37.459875     18.458737     40.602879
  C      36.055814     17.079373     41.406800
  H      35.295651     17.844871     41.593124
  C      35.705090     15.649307     41.753403
  H      35.254347     15.617993     42.757850
  O      34.771780     15.175906     40.790809
  H      34.016653     14.677912     41.231054
  C      39.483138     16.792002     39.740273
  O      40.501754     16.034993     39.738347
  O      39.401883     17.852278     39.077092
24
Coordinates from ORCA-job neb_MEP_ALL.QMRegion E -1074.542228768653
  C      39.086174     16.627914     43.240635
  H      39.841075     16.063184     42.701542
  H      39.242118     17.700832     43.376009
  C      37.949001     16.041206     43.653146
  C      36.950826     16.731832     44.578083
  O      37.042603     17.979529     44.733779
  O      36.108312     16.007208     45.163574
  O      37.587004     14.783102     43.210159
  C      36.953735     14.719457     41.813368
  H      36.650370     13.665791     41.682046
  C      38.057004     15.107441     40.918265
  H      38.835338     14.381679     40.700684
  C      38.262717     16.403786     40.615252
  C      37.226426     17.407749     40.909783
  H      37.454867     18.453088     40.684061
  C      36.035982     17.052821     41.423250
  H      35.266406     17.808829     41.604533
  C      35.684287     15.617253     41.741430
  H      35.258219     15.563981     42.754080
  O      34.732346     15.167293     40.785850
  H      33.979236     14.667424     41.231978
  C      39.480384     16.794503     39.796683
  O      40.490016     16.027115     39.760078
  O      39.390765     17.862189     39.147780
24
Coordinates from ORCA-job neb_MEP_ALL.QMRegion E -1074.529427420771
  C      39.085221     16.630695     43.156251
  H      39.859237     16.039200     42.674427
  H      39.237072     17.705451     43.266232
  C      37.976218     16.023068     43.653751
  C      36.969192     16.730894     44.561985
  O      37.059909     17.979425     44.710662
  O      36.124130     16.010195     45.149620
  O      37.664646     14.768038     43.295315
  C      36.904224     14.686895     41.693592
  H      36.638802     13.623068     41.658701
  C      38.030675     15.088128     40.901409
  H      38.813498     14.369315     40.679312
  C      38.271818     16.408332     40.684806
  C      37.220104     17.401764     40.952341
  H      37.449992     18.448507     40.739763
  C      36.020378     17.034490     41.431158
  H      35.246042     17.783789     41.611742
  C      35.666476     15.596556     41.723730
  H      35.265800     15.523179     42.746979
  O      34.695472     15.165599     40.778540
  H      33.951054     14.659685     41.233276
  C      39.481637     16.798149     39.846170
  O      40.479333     16.020180     39.775081
  O      39.378063     17.864862     39.198711
24
Coordinates from ORCA-job neb_MEP_ALL.QMRegion E -1074.521943238735
  C      39.068491     16.634123     43.019464
  H      39.885263     16.015002     42.659083
  H      39.232054     17.703126     43.159858
  C      37.995798     15.997651     43.649418
  C      36.983179     16.729743     44.550313
  O      37.079387     17.977720     44.689003
  O      36.139613     16.012329     45.139458
  O      37.759351     14.764836     43.415061
  C      36.846071     14.653815     41.541281
  H      36.627234     13.589389     41.631757
  C      37.999841     15.064463     40.898080
  H      38.792741     14.358553     40.663632
  C      38.296969     16.423610     40.793555
  C      37.212471     17.397581     40.991397
  H      37.443337     18.444953     40.789267
  C      36.006354     17.016188     41.437271
  H      35.228327     17.760360     41.619094
  C      35.652812     15.575307     41.706557
  H      35.271264     15.485243     42.739568
  O      34.658715     15.166947     40.772544
  H      33.926092     14.652841     41.234796
  C      39.484066     16.803554     39.897798
  O      40.467500     16.013691     39.788138
  O      39.364646     17.865192     39.245161
24
Coordinates from ORCA-job neb_MEP_ALL.QMRegion E -1074.531543922175
  C      39.024900     16.640742     42.819681
  H      39.907318     16.024251     42.679950
  H      39.218517     17.686407     43.081730
  C      38.006219     15.985636     43.631139
  C      36.999137     16.725871     44.554389
  O      37.095434     17.972034     44.680522
  O      36.158518     16.009502     45.143169
  O      37.840339     14.768584     43.509168
  C      36.818033     14.635921     41.437530
  H      36.608740     13.572725     41.570486
  C      37.993398     15.053218     40.921208
  H      38.789521     14.354311     40.675806
  C      38.363242     16.456940     40.966113
  C      37.216393     17.401567     41.019354
  H      37.439958     18.448848     40.806956
  C      36.002649     17.006740     41.424497
  H      35.217445     17.747694     41.592438
  C      35.646437     15.561780     41.683151
  H      35.280325     15.467691     42.724229
  O      34.628275     15.177088     40.768513
  H      33.907710     14.654054     41.234935
  C      39.492161     16.811408     39.942358
  O      40.462593     16.011767     39.793951
  O      39.347822     17.853436     39.264244
24
Coordinates from ORCA-job neb_MEP_ALL.QMRegion E -1074.551773570335
  C      39.004078     16.641388     42.681609
  H      39.922928     16.052350     42.681991
  H      39.194833     17.683265     42.983199
  C      38.039322     15.979645     43.617143
  C      37.030842     16.720380     44.556080
  O      37.119247     17.966192     44.669197
  O      36.194228     16.000996     45.145027
  O      37.956401     14.755480     43.601308
  C      36.793434     14.619398     41.343899
  H      36.574533     13.551898     41.438444
  C      38.001135     15.045065     40.953692
  H      38.794172     14.345607     40.700046
  C      38.408905     16.473783     41.085378
  C      37.224595     17.397744     41.052611
  H      37.440331     18.447987     40.844683
  C      35.997987     16.990595     41.398674
  H      35.201174     17.727131     41.534066
  C      35.636017     15.543121     41.642825
  H      35.295227     15.438846     42.694368
  O      34.584756     15.185167     40.757065
  H      33.873965     14.659657     41.234827
  C      39.495661     16.815170     39.985080
  O      40.456773     16.009848     39.805422
  O      39.326624     17.844448     39.294323
24
Coordinates from ORCA-job neb_MEP_ALL.QMRegion E -1074.565583938616
  C      39.020000     16.645000     42.613000
  H      39.979000     16.118000     42.662000
  H      39.148000     17.716000     42.823000
  C      38.157000     15.960000     43.660000
  C      37.105000     16.705000     44.550000
  O      37.176000     17.952000     44.643000
  O      36.282000     15.976000     45.146000
  O      38.270000     14.761000     43.814000
  C      36.746000     14.591000     41.164000
  H      36.494000     13.533000     41.067000
  C      37.999000     15.013000     40.982000
  H      38.810000     14.319000     40.768000
  C      38.415000     16.449000     41.155000
  C      37.225000     17.371000     41.095000
  H      37.449000     18.430000     40.950000
  C      35.977000     16.952000     41.318000
  H      35.164000     17.678000     41.380000
  C      35.603000     15.504000     41.519000
  H      35.351000     15.359000     42.590000
  O      34.474000     15.198000     40.719000
  H      33.784000     14.677000     41.235000
  C      39.478000     16.800000     40.036000
  O      40.446000     16.009000     39.837000
  O      39.287000     17.839000     39.369000
24
Coordinates from ORCA-job neb_MEP_ALL.QMRegion E -1074.552193114524
  C      39.054000     16.686000     43.562000
  H      39.807000     16.195000     42.948000
  H      39.264000     17.670000     43.983000
  C      37.867000     16.122000     43.805000
  C      36.838000     16.764000     44.719000
  O      36.918000     18.012000     44.882000
  O      35.992000     16.015000     45.262000
  O      37.515000     14.890000     43.282000
  C      37.016000     14.882000     41.905000
  H      36.687000     13.845000     41.743000
  C      38.153000     15.216000     40.988000
  H      38.949000     14.481000     40.870000
  C      38.280000     16.432000     40.423000
  C      37.250000     17.450000     40.666000
  H      37.472000     18.464000     40.326000
  C      36.113000     17.176000     41.330000
  H      35.398000     17.974000     41.550000
  C      35.756000     15.773000     41.755000
  H      35.271000     15.793000     42.746000
  O      34.868000     15.226000     40.788000
  H      34.133000     14.713000     41.232000
  C      39.499000     16.788000     39.587000
  O      40.533000     16.057000     39.670000
  O      39.417000     17.800000     38.850000
24
Coordinates from ORCA-job neb_MEP_ALL.QMRegion E -1074.553326085025
  C      39.062372     16.667046     43.481321
  H      39.812517     16.159549     42.878027
  H      39.259024     17.677855     43.834655
  C      37.881156     16.104232     43.757620
  C      36.865337     16.754353     44.678824
  O      36.951953     18.001204     44.844335
  O      36.023389     16.011126     45.236782
  O      37.524542     14.862560     43.268749
  C      36.998864     14.843264     41.880013
  H      36.678268     13.802577     41.733135
  C      38.131719     15.186395     40.973522
  H      38.921505     14.451590     40.825990
  C      38.273737     16.423974     40.463861
  C      37.245427     17.440523     40.726274
  H      37.468479     18.464627     40.416336
  C      36.095757     17.144594     41.357904
  H      35.363853     17.930242     41.564745
  C      35.738900     15.732552     41.756773
  H      35.263079     15.735176     42.752598
  O      34.839811     15.206757     40.790245
  H      34.096266     14.700971     41.231489
  C      39.493935     16.788913     39.633104
  O      40.523048     16.049387     39.690218
  O      39.414252     17.818761     38.921807
24
Coordinates from ORCA-job neb_MEP_ALL.QMRegion E -1074.552748871203
  C      39.070814     16.648539     43.400684
  H      39.819439     16.125498     42.810030
  H      39.253846     17.685861     43.678783
  C      37.898208     16.084123     43.710889
  C      36.894294     16.744663     44.639536
  O      36.985968     17.990801     44.804662
  O      36.054918     16.007420     45.210955
  O      37.533848     14.835939     43.241711
  C      36.985743     14.802063     41.865689
  H      36.670285     13.759396     41.720803
  C      38.108558     15.157437     40.957828
  H      38.892546     14.424406     40.780400
  C      38.266978     16.415096     40.507426
  C      37.239512     17.428826     40.789022
  H      37.464454     18.462232     40.510576
  C      36.076306     17.111094     41.384422
  H      35.329456     17.886133     41.580040
  C      35.721967     15.690452     41.757135
  H      35.256714     15.676297     42.757253
  O      34.808120     15.189156     40.791683
  H      34.057185     14.689315     41.231199
  C      39.488399     16.790453     39.684830
  O      40.512533     16.042223     39.713590
  O      39.409501     17.836724     38.998894
24
Coordinates from ORCA-job neb_MEP_ALL.QMRegion E -1074.550000905322
  C      39.079318     16.633658     43.320942
  H      39.828316     16.092432     42.748236
  H      39.248208     17.693071     43.522195
  C      37.919507     16.062244     43.671847
  C      36.923693     16.736299     44.604503
  O      37.017508     17.982637     44.766324
  O      36.084431     16.005581     45.185381
  O      37.549093     14.809215     43.211813
  C      36.973928     14.760084     41.853336
  H      36.661877     13.714859     41.704894
  C      38.083537     15.130772     40.939190
  H      38.863183     14.400318     40.736225
  C      38.261756     16.407247     40.554991
  C      37.232970     17.416948     40.851781
  H      37.459889     18.457761     40.603501
  C      36.055883     17.078889     41.407403
  H      35.296050     17.844124     41.594062
  C      35.704154     15.650073     41.753639
  H      35.254030     15.617767     42.758406
  O      34.772807     15.174664     40.790881
  H      34.017336     14.677822     41.231368
  C      39.483130     16.792133     39.739961
  O      40.501187     16.034749     39.737634
  O      39.402080     17.852196     39.076877
24
Coordinates from ORCA-job neb_MEP_ALL.QMRegion E -1074.544778656305
  C      39.086110     16.627518     43.239889
  H      39.841294     16.062190     42.699510
  H      39.242476     17.699734     43.376265
  C      37.947666     16.042355     43.652031
  C      36.951012     16.731445     44.577303
  O      37.043207     17.978924     44.732998
  O      36.108945     16.006753     45.162875
  O      37.586403     14.781224     43.211990
  C      36.952273     14.720091     41.812145
  H      36.650820     13.665902     41.683320
  C      38.057081     15.107710     40.917191
  H      38.835289     14.380785     40.699429
  C      38.261864     16.403615     40.612276
  C      37.225924     17.406647     40.909688
  H      37.454854     18.452123     40.685758
  C      36.035801     17.051716     41.424021
  H      35.266370     17.807771     41.605613
  C      35.683921     15.617039     41.742320
  H      35.257474     15.563291     42.754728
  O      34.733237     15.165932     40.786179
  H      33.979396     14.667248     41.232196
  C      39.480237     16.794585     39.796795
  O      40.489353     16.026902     39.759707
  O      39.391068     17.862463     39.148488
24
Coordinates from ORCA-job neb_MEP_ALL.QMRegion E -1074.530501271251
  C      39.085099     16.630425     43.154712
  H      39.859526     16.038462     42.673072
  H      39.237442     17.704844     43.265100
  C      37.976006     16.023245     43.652656
  C      36.969819     16.730539     44.561582
  O      37.060366     17.979111     44.709877
  O      36.124545     16.010090     45.148995
  O      37.663541     14.766729     43.293416
  C      36.904281     14.686755     41.695666
  H      36.638830     13.622521     41.659064
  C      38.030533     15.088180     40.900724
  H      38.813244     14.368479     40.678060
  C      38.271355     16.408063     40.683589
  C      37.219594     17.400923     40.952725
  H      37.449947     18.447835     40.741692
  C      36.019984     17.033429     41.431647
  H      35.245746     17.782805     41.612679
  C      35.666097     15.595926     41.724276
  H      35.265430     15.522122     42.747132
  O      34.695492     15.164849     40.778750
  H      33.950565     14.659462     41.233371
  C      39.481468     16.798229     39.846750
  O      40.478732     16.019960     39.775015
  O      39.378236     17.865220     39.199807
24
Coordinates from ORCA-job neb_MEP_ALL.QMRegion E -1074.522075106953
  C      39.068997     16.634355     43.020363
  H      39.885196     16.015236     42.659319
  H      39.232252     17.703162     43.160276
  C      37.996443     15.997715     43.649951
  C      36.983502     16.729644     44.550747
  O      37.079075     17.977747     44.688871
  O      36.139323     16.012555     45.139457
  O      37.760272     14.764810     43.415977
  C      36.845553     14.653745     41.540763
  H      36.626991     13.589006     41.631420
  C      37.999733     15.064330     40.897963
  H      38.792784     14.358298     40.663523
  C      38.296806     16.423444     40.792622
  C      37.212248     17.397479     40.991090
  H      37.443457     18.444900     40.789359
  C      36.006136     17.016027     41.437010
  H      35.228433     17.760317     41.619289
  C      35.652740     15.575190     41.706240
  H      35.271565     15.485020     42.739067
  O      34.658344     15.167158     40.772571
  H      33.925749     14.652810     41.234718
  C      39.483956     16.803511     39.897466
  O      40.467378     16.013666     39.787997
  O      39.364842     17.865279     39.245000
24
Coordinates from ORCA-job neb_MEP_ALL.QMRegion E -1074.531620349259
  C      39.024745     16.640924     42.821114
  H      39.907909     16.022804     42.680114
  H      39.218763     17.687889     43.082834
  C      38.004868     15.984882     43.633325
  C      36.998115     16.726756     44.554552
  O      37.095131     17.972959     44.680776
  O      36.158272     16.009380     45.142895
  O      37.839981     14.767779     43.509454
  C      36.817302     14.636441     41.438424
  H      36.609261     13.573164     41.571490
  C      37.992892     15.053006     40.921263
  H      38.790013     14.354121     40.675535
  C      38.363097     16.457625     40.963828
  C      37.215985     17.402012     41.018908
  H      37.440034     18.448682     40.806446
  C      36.002726     17.006809     41.424764
  H      35.217880     17.748067     41.593040
  C      35.647619     15.562583     41.683988
  H      35.280556     15.467910     42.724088
  O      34.628436     15.177503     40.768017
  H      33.907802     14.653850     41.235109
  C      39.492037     16.811121     39.941367
  O      40.462810     16.011672     39.794197
  O      39.347833     17.853706     39.264089
24
Coordinates from ORCA-job neb_MEP_ALL.QMRegion E -1074.552207275485
  C      39.002624     16.641356     42.682293
  H      39.923365     16.049875     42.682811
  H      39.195392     17.683593     42.985458
  C      38.035535     15.976968     43.619961
  C      37.028555     16.721377     44.555456
  O      37.118618     17.967138     44.669867
  O      36.193458     16.001227     45.144684
  O      37.953143     14.757804     43.599619
  C      36.793586     14.620178     41.347775
  H      36.576322     13.553312     41.443680
  C      38.000107     15.044907     40.952058
  H      38.794468     14.345992     40.699303
  C      38.408903     16.474785     41.083720
  C      37.224134     17.398575     41.051746
  H      37.440225     18.448125     40.842958
  C      35.998438     16.991106     41.400301
  H      35.202181     17.727902     41.536512
  C      35.637332     15.544460     41.644791
  H      35.295291     15.439861     42.695102
  O      34.585880     15.185788     40.757031
  H      33.875244     14.659195     41.235123
  C      39.495243     16.814586     39.983187
  O      40.457366     16.009987     39.805718
  O      39.327133     17.844925     39.293724
24
Coordinates from ORCA-job neb_MEP_ALL.QMRegion E -1074.565583938616
  C      39.020000     16.645000     42.613000
  H      39.979000     16.118000     42.662000
  H      39.148000     17.716000     42.823000
  C      38.157000     15.960000     43.660000
  C      37.105000     16.705000     44.550000
  O      37.176000     17.952000     44.643000
  O      36.282000     15.976000     45.146000
  O      38.270000     14.761000     43.814000
  C      36.746000     14.591000     41.164000
  H      36.494000     13.533000     41.067000
  C      37.999000     15.013000     40.982000
  H      38.810000     14.319000     40.768000
  C      38.415000     16.449000     41.155000
  C      37.225000     17.371000     41.095000
  H      37.449000     18.430000     40.950000
  C      35.977000     16.952000     41.318000
  H      35.164000     17.678000     41.380000
  C      35.603000     15.504000     41.519000
  H      35.351000     15.359000     42.590000
  O      34.474000     15.198000     40.719000
  H      33.784000     14.677000     41.235000
  C      39.478000     16.800000     40.036000
  O      40.446000     16.009000     39.837000
  O      39.287000     17.839000     39.369000
24
Coordinates from ORCA-job neb_MEP_ALL.QMRegion E -1074.552193114524
  C      39.054000     16.686000     43.562000
  H      39.807000     16.195000     42.948000
  H      39.264000     17.670000     43.983000
  C      37.867000     16.122000     43.805000
  C      36.838000     16.764000     44.719000
  O      36.918000     18.012000     44.882000
  O      35.992000     16.015000     45.262000
  O      37.515000     14.890000     43.282000
  C      37.016000     14.882000     41.905000
  H      36.687000     13.845000     41.743000
  C      38.153000     15.216000     40.988000
  H      38.949000     14.481000     40.870000
  C      38.280000     16.432000     40.423000
  C      37.250000     17.450000     40.666000
  H      37.472000     18.464000     40.326000
  C      36.113000     17.176000     41.330000
  H      35.398000     17.974000     41.550000
  C      35.756000     15.773000     41.755000
  H      35.271000     15.793000     42.746000
  O      34.868000     15.226000     40.788000
  H      34.133000     14.713000     41.232000
  C      39.499000     16.788000     39.587000
  O      40.533000     16.057000     39.670000
  O      39.417000     17.800000     38.850000
24
Coordinates from ORCA-job neb_MEP_ALL.QMRegion E -1074.553622945118
  C      39.059836     16.668943     43.479055
  H      39.812339     16.156554     42.875944
  H      39.261652     17.678659     43.844099
  C      37.881560     16.102445     43.767104
  C      36.864526     16.758003     44.684654
  O      36.948552     18.005799     44.844996
  O      36.023112     16.011766     45.234307
  O      37.513423     14.854091     43.238880
  C      37.008621     14.841656     41.919568
  H      36.676914     13.799033     41.733646
  C      38.130824     15.189683     40.963631
  H      38.922778     14.448803     40.826243
  C      38.275425     16.428082     40.454441
  C      37.244332     17.438518     40.721973
  H      37.468291     18.460254     40.415855
  C      36.095671     17.145802     41.357022
  H      35.365612     17.930558     41.568320
  C      35.734976     15.735637     41.755272
  H      35.265944     15.734450     42.751599
  O      34.839630     15.205063     40.786418
  H      34.098615     14.699948     41.233468
  C      39.494580     16.790517     39.631817
  O      40.521613     16.046761     39.686534
  O      39.413719     17.818052     38.917468
24
Coordinates from ORCA-job neb_MEP_ALL.QMRegion E -1074.552996009163
  C      39.067851     16.650000     43.394409
  H      39.818853     16.119830     42.802973
  H      39.257157     17.682203     43.692941
  C      37.896005     16.087422     43.722935
  C      36.892699     16.748769     44.643244
  O      36.983350     17.994808     44.803853
  O      36.056283     16.006172     45.206738
  O      37.526940     14.821164     43.233570
  C      36.987509     14.803208     41.888762
  H      36.668918     13.753156     41.724448
  C      38.107775     15.161813     40.941700
  H      38.893996     14.419024     40.778660
  C      38.267407     16.419666     40.489533
  C      37.236288     17.423282     40.782255
  H      37.464174     18.454554     40.512875
  C      36.076291     17.110891     41.386066
  H      35.332539     17.883132     41.587534
  C      35.713760     15.696507     41.756049
  H      35.258342     15.674205     42.758486
  O      34.810772     15.182542     40.787834
  H      34.061716     14.687780     41.234385
  C      39.489004     16.792800     39.682361
  O      40.509331     16.038399     39.707689
  O      39.409680     17.836435     38.994185
24
Coordinates from ORCA-job neb_MEP_ALL.QMRegion E -1074.550382316931
  C      39.077281     16.631324     43.313311
  H      39.826888     16.085288     42.735299
  H      39.251729     17.682980     43.538269
  C      37.911365     16.071544     43.676011
  C      36.921740     16.737127     44.601560
  O      37.018599     17.982426     44.763069
  O      36.087689     16.001242     45.180503
  O      37.551940     14.794186     43.245349
  C      36.959634     14.766542     41.833699
  H      36.663034     13.711307     41.714521
  C      38.083626     15.133455     40.923699
  H      38.863869     14.393887     40.730421
  C      38.257217     16.408566     40.528780
  C      37.227804     17.408044     40.843908
  H      37.459679     18.448315     40.610641
  C      36.056032     17.075051     41.412729
  H      35.299521     17.837169     41.604433
  C      35.696039     15.654887     41.756584
  H      35.250550     15.614961     42.763787
  O      34.780740     15.162436     40.790616
  H      34.023515     14.676332     41.234515
  C      39.482843     16.793584     39.734967
  O      40.496515     16.031420     39.731294
  O      39.404626     17.854164     39.074534
24
Coordinates from ORCA-job neb_MEP_ALL.QMRegion E -1074.545017194072
  C      39.085297     16.619441     43.229552
  H      39.840674     16.053584     42.680811
  H      39.246587     17.690237     43.377487
  C      37.938695     16.045710     43.639425
  C      36.952669     16.728463     44.569180
  O      37.049041     17.974876     44.725481
  O      36.114386     16.001822     45.156575
  O      37.580742     14.770658     43.224793
  C      36.943819     14.722875     41.804396
  H      36.654245     13.666337     41.694583
  C      38.055858     15.106668     40.907370
  H      38.832640     14.373300     40.686997
  C      38.252606     16.400274     40.586490
  C      37.220048     17.396032     40.908388
  H      37.454318     18.442615     40.703587
  C      36.033749     17.042219     41.431629
  H      35.266008     17.796811     41.617324
  C      35.679589     15.613156     41.750109
  H      35.249955     15.555689     42.761428
  O      34.740354     15.152186     40.789073
  H      33.980659     14.665076     41.234404
  C      39.478113     16.795386     39.795849
  O      40.483786     16.023873     39.756764
  O      39.394652     17.867601     39.155718
24
Coordinates from ORCA-job neb_MEP_ALL.QMRegion E -1074.530718152258
  C      39.083701     16.624665     43.140104
  H      39.861039     16.031946     42.659829
  H      39.241300     17.699570     43.253439
  C      37.975559     16.022010     43.640391
  C      36.975760     16.727305     44.556486
  O      37.065231     17.976160     44.702201
  O      36.128548     16.008559     45.143248
  O      37.653294     14.758079     43.274387
  C      36.907497     14.683872     41.715162
  H      36.639063     13.618086     41.662461
  C      38.028712     15.085978     40.894679
  H      38.809054     14.361574     40.665876
  C      38.265606     16.403994     40.672643
  C      37.214401     17.392869     40.956430
  H      37.449201     18.441246     40.761173
  C      36.015971     17.023924     41.436645
  H      35.242909     17.772686     41.622370
  C      35.662283     15.588596     41.728999
  H      35.261179     15.511475     42.749408
  O      34.695133     15.157026     40.780976
  H      33.945647     14.657159     41.234226
  C      39.479238     16.798916     39.850913
  O      40.473641     16.017300     39.774800
  O      39.380348     17.870037     39.210866
24
Coordinates from ORCA-job neb_MEP_ALL.QMRegion E -1074.522123302399
  C      39.073920     16.636431     43.029507
  H      39.885131     16.017378     42.661536
  H      39.234538     17.704546     43.164897
  C      38.002511     15.997922     43.656282
  C      36.986074     16.729085     44.554957
  O      37.076208     17.978033     44.687580
  O      36.136887     16.014528     45.139315
  O      37.769911     14.764527     43.425235
  C      36.841573     14.651936     41.534977
  H      36.624522     13.585904     41.627855
  C      37.998653     15.062494     40.896842
  H      38.792696     14.355991     40.662619
  C      38.293888     16.421795     40.783567
  C      37.210641     17.396148     40.987655
  H      37.444534     18.444213     40.790309
  C      36.004479     17.014523     41.434289
  H      35.229286     17.759958     41.621397
  C      35.651734     15.574344     41.702510
  H      35.274410     15.482706     42.734719
  O      34.654032     15.169072     40.772421
  H      33.922256     14.652576     41.233976
  C      39.482982     16.803122     39.893746
  O      40.466374     16.013183     39.786481
  O      39.366813     17.866320     39.243233
24
Coordinates from ORCA-job neb_MEP_ALL.QMRegion E -1074.531518235614
  C      39.026449     16.641067     42.841405
  H      39.908545     16.012194     42.682571
  H      39.220882     17.698580     43.094264
  C      37.998289     15.980826     43.648067
  C      36.989370     16.733461     44.557004
  O      37.090782     17.980252     44.683302
  O      36.153060     16.009894     45.141706
  O      37.835075     14.761892     43.513196
  C      36.814811     14.640810     41.446934
  H      36.613635     13.577304     41.582395
  C      37.990456     15.053285     40.920544
  H      38.792479     14.353547     40.673453
  C      38.357146     16.458418     40.941367
  C      37.213568     17.404489     41.013296
  H      37.440669     18.448783     40.800880
  C      36.004067     17.009539     41.427473
  H      35.222169     17.751605     41.599693
  C      35.653416     15.568861     41.688765
  H      35.282410     15.470306     42.724068
  O      34.631002     15.181290     40.766889
  H      33.910309     14.653095     41.235523
  C      39.490888     16.809272     39.931836
  O      40.464650     16.011039     39.795481
  O      39.349062     17.856213     39.261060
24
Coordinates from ORCA-job neb_MEP_ALL.QMRegion E -1074.552035505079
  C      38.994120     16.636486     42.693442
  H      39.919650     16.029899     42.691294
  H      39.200074     17.684432     43.007146
  C      38.008994     15.986364     43.634820
  C      37.007753     16.731555     44.553142
  O      37.111214     17.974755     44.675658
  O      36.180591     16.003410     45.143697
  O      37.916711     14.748166     43.587571
  C      36.798728     14.629591     41.381609
  H      36.592743     13.564820     41.496598
  C      37.991095     15.046738     40.939179
  H      38.796124     14.349948     40.691817
  C      38.405903     16.480493     41.067554
  C      37.221241     17.405032     41.043114
  H      37.438981     18.451066     40.825395
  C      36.003578     16.998309     41.415731
  H      35.211719     17.735750     41.561206
  C      35.646477     15.556067     41.662133
  H      35.294952     15.450089     42.704133
  O      34.598638     15.191889     40.760136
  H      33.889078     14.655791     41.236807
  C      39.492586     16.811466     39.967709
  O      40.462339     16.011129     39.807025
  O      39.332252     17.848498     39.286149
24
Coordinates from ORCA-job neb_MEP_ALL.QMRegion E -1074.565583938616
  C      39.020000     16.645000     42.613000
  H      39.979000     16.118000     42.662000
  H      39.148000     17.716000     42.823000
  C      38.157000     15.960000     43.660000
  C      37.105000     16.705000     44.550000
  O      37.176000     17.952000     44.643000
  O      36.282000     15.976000     45.146000
  O      38.270000     14.761000     43.814000
  C      36.746000     14.591000     41.164000
  H      36.494000     13.533000     41.067000
  C      37.999000     15.013000     40.982000
  H      38.810000     14.319000     40.768000
  C      38.415000     16.449000     41.155000
  C      37.225000     17.371000     41.095000
  H      37.449000     18.430000     40.950000
  C      35.977000     16.952000     41.318000
  H      35.164000     17.678000     41.380000
  C      35.603000     15.504000     41.519000
  H      35.351000     15.359000     42.590000
  O      34.474000     15.198000     40.719000
  H      33.784000     14.677000     41.235000
  C      39.478000     16.800000     40.036000
  O      40.446000     16.009000     39.837000
  O      39.287000     17.839000     39.369000
24
Coordinates from ORCA-job neb_MEP_ALL.QMRegion E -1074.552193114524
  C      39.054000     16.686000     43.562000
  H      39.807000     16.195000     42.948000
  H      39.264000     17.670000     43.983000
  C      37.867000     16.122000     43.805000
  C      36.838000     16.764000     44.719000
  O      36.918000     18.012000     44.882000
  O      35.992000     16.015000     45.262000
  O      37.515000     14.890000     43.282000
  C      37.016000     14.882000     41.905000
  H      36.687000     13.845000     41.743000
  C      38.153000     15.216000     40.988000
  H      38.949000     14.481000     40.870000
  C      38.280000     16.432000     40.423000
  C      37.250000     17.450000     40.666000
  H      37.472000     18.464000     40.326000
  C      36.113000     17.176000     41.330000
  H      35.398000     17.974000     41.550000
  C      35.756000     15.773000     41.755000
  H      35.271000     15.793000     42.746000
  O      34.868000     15.226000     40.788000
  H      34.133000     14.713000     41.232000
  C      39.499000     16.788000     39.587000
  O      40.533000     16.057000     39.670000
  O      39.417000     17.800000     38.850000
24
Coordinates from ORCA-job neb_MEP_ALL.QMRegion E -1074.551967202036
  C      39.059521     16.666606     43.479874
  H      39.810510     16.157606     42.876209
  H      39.261717     17.676874     43.844949
  C      37.881469     16.099232     43.761208
  C      36.865176     16.756727     44.683398
  O      36.948749     18.004906     44.845120
  O      36.021661     16.011505     45.235739
  O      37.522282     14.862003     43.262739
  C      37.000956     14.841562     41.892668
  H      36.678002     13.803090     41.734937
  C      38.129973     15.187325     40.968553
  H      38.921814     14.450291     40.825703
  C      38.273118     16.424565     40.455225
  C      37.244253     17.438520     40.721551
  H      37.468351     18.461441     40.415257
  C      36.095848     17.144598     41.356816
  H      35.365738     17.931453     41.568848
  C      35.738428     15.732528     41.757229
  H      35.263900     15.735410     42.752157
  O      34.841117     15.204876     40.787841
  H      34.099018     14.699788     41.233034
  C      39.494810     16.790147     39.629229
  O      40.521755     16.047266     39.686372
  O      39.414791     17.819063     38.916677
24
Coordinates from ORCA-job neb_MEP_ALL.QMRegion E -1074.552633850456
  C      39.066801     16.646969     43.395322
  H      39.815979     16.120984     42.803534
  H      39.257867     17.681007     43.694804
  C      37.897905     16.080180     43.716353
  C      36.893258     16.747528     44.642828
  O      36.982756     17.995540     44.804417
  O      36.054307     16.006281     45.208328
  O      37.531561     14.831828     43.243873
  C      36.985821     14.801093     41.875083
  H      36.669714     13.757790     41.725530
  C      38.105869     15.158316     40.947201
  H      38.892391     14.420955     40.778161
  C      38.264319     16.415190     40.490379
  C      37.236120     17.423573     40.781019
  H      37.464067     18.455580     40.512209
  C      36.076306     17.110086     41.385328
  H      35.332555     17.884748     41.588912
  C      35.718286     15.691758     41.758273
  H      35.256195     15.675203     42.758990
  O      34.811745     15.182479     40.788629
  H      34.062005     14.687180     41.234144
  C      39.489504     16.792020     39.678409
  O      40.509482     16.038802     39.707443
  O      39.411168     17.838726     38.992538
24
Coordinates from ORCA-job neb_MEP_ALL.QMRegion E -1074.550444124868
  C      39.075748     16.628702     43.312634
  H      39.823913     16.085600     42.735490
  H      39.252919     17.682842     43.539145
  C      37.916175     16.061556     43.672732
  C      36.921814     16.737824     44.602091
  O      37.017513     17.984313     44.763529
  O      36.086331     16.001660     45.181196
  O      37.549212     14.803446     43.233676
  C      36.967544     14.761652     41.843459
  H      36.662614     13.713031     41.714350
  C      38.080578     15.130267     40.925844
  H      38.861826     14.395078     40.729789
  C      38.254772     16.404764     40.530095
  C      37.227042     17.408080     40.842513
  H      37.459331     18.448455     40.611215
  C      36.055604     17.075103     41.412133
  H      35.299307     17.838097     41.606737
  C      35.698152     15.651225     41.757206
  H      35.249630     15.614647     42.764015
  O      34.779989     15.162092     40.789981
  H      34.023197     14.675212     41.234799
  C      39.482841     16.793395     39.731145
  O      40.496657     16.031016     39.731166
  O      39.406013     17.856844     39.073633
24
Coordinates from ORCA-job neb_MEP_ALL.QMRegion E -1074.545772480828
  C      39.084924     16.617569     43.227220
  H      39.838421     16.053436     42.680039
  H      39.247282     17.688603     43.376533
  C      37.942310     16.040022     43.638362
  C      36.952769     16.728702     44.568187
  O      37.049058     17.975698     44.725152
  O      36.114403     16.001878     45.156425
  O      37.579355     14.775975     43.217672
  C      36.949194     14.719667     41.810043
  H      36.653477     13.665503     41.694221
  C      38.053688     15.103784     40.907134
  H      38.830451     14.373911     40.685935
  C      38.250683     16.397083     40.588439
  C      37.218895     17.395544     40.907538
  H      37.453826     18.442204     40.705656
  C      36.033100     17.042151     41.432161
  H      35.265726     17.796122     41.619764
  C      35.679401     15.610687     41.749672
  H      35.249219     15.554369     42.762022
  O      34.739485     15.150983     40.788836
  H      33.980143     14.664092     41.234724
  C      39.477532     16.794877     39.792781
  O      40.483643     16.023477     39.757066
  O      39.395940     17.870245     39.156473
24
Coordinates from ORCA-job neb_MEP_ALL.QMRegion E -1074.532270315276
  C      39.084725     16.623530     43.139799
  H      39.860137     16.031893     42.658712
  H      39.241505     17.698512     43.251802
  C      37.976353     16.020082     43.639559
  C      36.975654     16.726939     44.554919
  O      37.066060     17.975877     44.701655
  O      36.129358     16.008324     45.142957
  O      37.653773     14.760217     43.273655
  C      36.909234     14.682112     41.713923
  H      36.638989     13.618413     41.662368
  C      38.027706     15.083797     40.894921
  H      38.807403     14.362037     40.665115
  C      38.263957     16.401840     40.673414
  C      37.213918     17.392436     40.956661
  H      37.448797     18.441028     40.762936
  C      36.015658     17.023669     41.437121
  H      35.242457     17.771865     41.623709
  C      35.662378     15.586820     41.728593
  H      35.260401     15.510391     42.750095
  O      34.694454     15.156134     40.781068
  H      33.944886     14.656684     41.234314
  C      39.478722     16.798242     39.849377
  O      40.473643     16.017152     39.775242
  O      39.381031     17.871613     39.212063
24
Coordinates from ORCA-job neb_MEP_ALL.QMRegion E -1074.522370314417
  C      39.074285     16.636659     43.030663
  H      39.885873     16.017390     42.661610
  H      39.235131     17.705696     43.165954
  C      38.002781     15.997595     43.657985
  C      36.985601     16.729389     44.555004
  O      37.076258     17.978333     44.687558
  O      36.137054     16.014204     45.139320
  O      37.771283     14.764218     43.426337
  C      36.842091     14.651129     41.533763
  H      36.624188     13.586077     41.627294
  C      37.998622     15.061931     40.896685
  H      38.792232     14.355969     40.662709
  C      38.292682     16.421353     40.782846
  C      37.210906     17.395869     40.986941
  H      37.444510     18.443895     40.790393
  C      36.004802     17.014687     41.433893
  H      35.229269     17.759901     41.621785
  C      35.651508     15.574180     41.701622
  H      35.274522     15.482426     42.734972
  O      34.653017     15.169118     40.771782
  H      33.921737     14.652609     41.234030
  C      39.482895     16.802987     39.892987
  O      40.466407     16.012954     39.786178
  O      39.367061     17.866579     39.242831
24
Coordinates from ORCA-job neb_MEP_ALL.QMRegion E -1074.529538878998
  C      39.029542     16.640966     42.849152
  H      39.904653     16.014855     42.683398
  H      39.220791     17.694705     43.095645
  C      38.003194     15.982949     43.644087
  C      36.990920     16.731458     44.557547
  O      37.088936     17.978389     44.683468
  O      36.150302     16.012041     45.142922
  O      37.834428     14.765031     43.514178
  C      36.818118     14.640070     41.447140
  H      36.613064     13.577269     41.583644
  C      37.992574     15.054211     40.919065
  H      38.790372     14.354711     40.673895
  C      38.353264     16.454164     40.938760
  C      37.214738     17.403291     41.011850
  H      37.440718     18.449853     40.800207
  C      36.004525     17.010775     41.427290
  H      35.222090     17.752122     41.600913
  C      35.649452     15.567697     41.686506
  H      35.282250     15.470617     42.725044
  O      34.631404     15.181336     40.769252
  H      33.911449     14.654036     41.234584
  C      39.490940     16.809585     39.931982
  O      40.464050     16.011633     39.794138
  O      39.350332     17.856077     39.259304
24
Coordinates from ORCA-job neb_MEP_ALL.QMRegion E -1074.546887975156
  C      38.995605     16.637022     42.687886
  H      39.914085     16.032677     42.693083
  H      39.198076     17.679619     43.000072
  C      38.012921     15.959166     43.624691
  C      37.008669     16.729309     44.556026
  O      37.110276     17.975815     44.675875
  O      36.179028     16.005869     45.144617
  O      37.922101     14.776021     43.596600
  C      36.798572     14.628477     41.375292
  H      36.591235     13.563586     41.494244
  C      37.995729     15.049674     40.942091
  H      38.794053     14.351064     40.693065
  C      38.406175     16.477863     41.075230
  C      37.223485     17.405055     41.044958
  H      37.438598     18.452563     40.825714
  C      36.004293     16.999536     41.415027
  H      35.210939     17.735835     41.560412
  C      35.643393     15.554752     41.659761
  H      35.295108     15.449403     42.704941
  O      34.598269     15.193286     40.762776
  H      33.889513     14.657110     41.235850
  C      39.495290     16.813667     39.973141
  O      40.460635     16.011707     39.806455
  O      39.331119     17.846741     39.286034
24
Coordinates from ORCA-job neb_MEP_ALL.QMRegion E -1074.565583938616
  C      39.020000     16.645000     42.613000
  H      39.979000     16.118000     42.662000
  H      39.148000     17.716000     42.823000
  C      38.157000     15.960000     43.660000
  C      37.105000     16.705000     44.550000
  O      37.176000     17.952000     44.643000
  O      36.282000     15.976000     45.146000
  O      38.270000     14.761000     43.814000
  C      36.746000     14.591000     41.164000
  H      36.494000     13.533000     41.067000
  C      37.999000     15.013000     40.982000
  H      38.810000     14.319000     40.768000
  C      38.415000     16.449000     41.155000
  C      37.225000     17.371000     41.095000
  H      37.449000     18.430000     40.950000
  C      35.977000     16.952000     41.318000
  H      35.164000     17.678000     41.380000
  C      35.603000     15.504000     41.519000
  H      35.351000     15.359000     42.590000
  O      34.474000     15.198000     40.719000
  H      33.784000     14.677000     41.235000
  C      39.478000     16.800000     40.036000
  O      40.446000     16.009000     39.837000
  O      39.287000     17.839000     39.369000
24
Coordinates from ORCA-job neb_MEP_ALL.QMRegion E -1074.552193114524
  C      39.054000     16.686000     43.562000
  H      39.807000     16.195000     42.948000
  H      39.264000     17.670000     43.983000
  C      37.867000     16.122000     43.805000
  C      36.838000     16.764000     44.719000
  O      36.918000     18.012000     44.882000
  O      35.992000     16.015000     45.262000
  O      37.515000     14.890000     43.282000
  C      37.016000     14.882000     41.905000
  H      36.687000     13.845000     41.743000
  C      38.153000     15.216000     40.988000
  H      38.949000     14.481000     40.870000
  C      38.280000     16.432000     40.423000
  C      37.250000     17.450000     40.666000
  H      37.472000     18.464000     40.326000
  C      36.113000     17.176000     41.330000
  H      35.398000     17.974000     41.550000
  C      35.756000     15.773000     41.755000
  H      35.271000     15.793000     42.746000
  O      34.868000     15.226000     40.788000
  H      34.133000     14.713000     41.232000
  C      39.499000     16.788000     39.587000
  O      40.533000     16.057000     39.670000
  O      39.417000     17.800000     38.850000
24
Coordinates from ORCA-job neb_MEP_ALL.QMRegion E -1074.553952096878
  C      39.059887     16.666118     43.480647
  H      39.809434     16.158166     42.876318
  H      39.261658     17.675109     43.845702
  C      37.881264     16.099331     43.759479
  C      36.865431     16.755815     44.682561
  O      36.948804     18.004076     44.845249
  O      36.021019     16.011696     45.236475
  O      37.525565     14.864451     43.272307
  C      36.998325     14.842571     41.881145
  H      36.678354     13.804418     41.735671
  C      38.129745     15.186164     40.970699
  H      38.921171     14.451158     40.825486
  C      38.271795     16.422475     40.455560
  C      37.244054     17.438368     40.721068
  H      37.468384     18.462104     40.414678
  C      36.095882     17.144024     41.356786
  H      35.366142     17.931780     41.569275
  C      35.739960     15.731292     41.757764
  H      35.262855     15.735920     42.752504
  O      34.841954     15.204611     40.788849
  H      34.099435     14.699690     41.232710
  C      39.494661     16.789712     39.627567
  O      40.521814     16.047604     39.686084
  O      39.415500     17.819546     38.916026
24
Coordinates from ORCA-job neb_MEP_ALL.QMRegion E -1074.553767113820
  C      39.067096     16.646161     43.396217
  H      39.814132     16.121637     42.803715
  H      39.258226     17.679213     43.696633
  C      37.898228     16.077967     43.714154
  C      36.893656     16.746889     44.642510
  O      36.982237     17.995033     44.804736
  O      36.053302     16.006770     45.209181
  O      37.533236     14.836108     43.247945
  C      36.985508     14.800984     41.868733
  H      36.670032     13.759797     41.726372
  C      38.105001     15.156434     40.949942
  H      38.891396     14.422087     40.777923
  C      38.262437     16.412293     40.490412
  C      37.235757     17.423435     40.779922
  H      37.464021     18.456267     40.511388
  C      36.076273     17.109496     41.384940
  H      35.332949     17.885665     41.590066
  C      35.720804     15.689344     41.759160
  H      35.254946     15.675833     42.759261
  O      34.812549     15.182201     40.789447
  H      34.062449     14.686745     41.233909
  C      39.489095     16.791653     39.675486
  O      40.509703     16.039026     39.706941
  O      39.412331     17.839692     38.991359
24
Coordinates from ORCA-job neb_MEP_ALL.QMRegion E -1074.551699087652
  C      39.075792     16.627668     43.311974
  H      39.821954     16.085504     42.734902
  H      39.253642     17.681686     43.539624
  C      37.918150     16.057445     43.671755
  C      36.922422     16.737705     44.602041
  O      37.016858     17.984777     44.763527
  O      36.085781     16.002364     45.181342
  O      37.547053     14.807024     43.225539
  C      36.971801     14.759561     41.849777
  H      36.662324     13.713426     41.714524
  C      38.078850     15.127937     40.926864
  H      38.860329     14.395652     40.729012
  C      38.253034     16.402267     40.530340
  C      37.226315     17.407646     40.841673
  H      37.459095     18.448580     40.611831
  C      36.055137     17.074530     41.411909
  H      35.299175     17.838556     41.608800
  C      35.699771     15.648456     41.757632
  H      35.248933     15.614149     42.764058
  O      34.779695     15.161517     40.789922
  H      34.022960     14.674273     41.234944
  C      39.482263     16.793063     39.728627
  O      40.496553     16.030878     39.730811
  O      39.407162     17.858405     39.073306
24
Coordinates from ORCA-job neb_MEP_ALL.QMRegion E -1074.546501144289
  C      39.084921     16.616546     43.225373
  H      39.837122     16.052869     42.678698
  H      39.247803     17.686940     43.375439
  C      37.944344     16.037678     43.638043
  C      36.953319     16.728583     44.567250
  O      37.049227     17.975747     44.724561
  O      36.114715     16.002086     45.155999
  O      37.578351     14.777857     43.212727
  C      36.951829     14.717715     41.813586
  H      36.652992     13.664501     41.694131
  C      38.052058     15.101592     40.906736
  H      38.828924     14.373931     40.684739
  C      38.249431     16.395210     40.589174
  C      37.217889     17.394749     40.907275
  H      37.453457     18.441885     40.707552
  C      36.032508     17.041445     41.432642
  H      35.265316     17.795503     41.621960
  C      35.679515     15.608627     41.749614
  H      35.248674     15.553053     42.762261
  O      34.738860     15.149838     40.788753
  H      33.979580     14.663192     41.234982
  C      39.476689     16.794455     39.791002
  O      40.483302     16.023263     39.757091
  O      39.396936     17.871826     39.157478
24
Coordinates from ORCA-job neb_MEP_ALL.QMRegion E -1074.532407913933
  C      39.085248     16.622814     43.139529
  H      39.859801     16.031562     42.657563
  H      39.241724     17.697694     43.250379
  C      37.977113     16.019435     43.639094
  C      36.975821     16.726763     44.553736
  O      37.066742     17.975496     44.701065
  O      36.129984     16.008083     45.142654
  O      37.654270     14.760812     43.273334
  C      36.909693     14.681015     41.712886
  H      36.638892     13.618170     41.662257
  C      38.026909     15.082406     40.894787
  H      38.806372     14.361987     40.664328
  C      38.262953     16.400552     40.673704
  C      37.213504     17.391902     40.956967
  H      37.448505     18.440810     40.764460
  C      36.015311     17.023094     41.437529
  H      35.242017     17.771161     41.624894
  C      35.662432     15.585500     41.728429
  H      35.259953     15.509358     42.750357
  O      34.693852     15.155373     40.781092
  H      33.944167     14.656250     41.234416
  C      39.478085     16.797835     39.848539
  O      40.473523     16.017030     39.775449
  O      39.381547     17.872486     39.213222
24
Coordinates from ORCA-job neb_MEP_ALL.QMRegion E -1074.522482469504
  C      39.074715     16.636950     43.031725
  H      39.886365     16.017530     42.661777
  H      39.235620     17.706466     43.166879
  C      38.003220     15.997378     43.659208
  C      36.985327     16.729567     44.555116
  O      37.076218     17.978542     44.687540
  O      36.137094     16.014002     45.139372
  O      37.772492     14.763970     43.427421
  C      36.842094     14.650686     41.532782
  H      36.623887     13.586007     41.626796
  C      37.998591     15.061555     40.896519
  H      38.791993     14.355832     40.662737
  C      38.292035     16.420995     40.782037
  C      37.210974     17.395666     40.986366
  H      37.444541     18.443662     40.790439
  C      36.004896     17.014724     41.433561
  H      35.229321     17.759828     41.622116
  C      35.651376     15.573953     41.700975
  H      35.274703     15.482185     42.734946
  O      34.652262     15.169226     40.771301
  H      33.921226     14.652623     41.234071
  C      39.482747     16.802853     39.892371
  O      40.466351     16.012808     39.785898
  O      39.367291     17.866706     39.242508
24
Coordinates from ORCA-job neb_MEP_ALL.QMRegion E -1074.529464767227
  C      39.031312     16.641088     42.854328
  H      39.902946     16.016133     42.683861
  H      39.220945     17.692830     43.096949
  C      38.005464     15.984830     43.643139
  C      36.991724     16.730315     44.557877
  O      37.087770     17.977312     44.683532
  O      36.148832     16.013366     45.143422
  O      37.834395     14.766258     43.514705
  C      36.819457     14.639707     41.447315
  H      36.612741     13.577185     41.584398
  C      37.993247     15.054342     40.918267
  H      38.789459     14.355116     40.674036
  C      38.351337     16.452349     40.936098
  C      37.215181     17.402819     41.010924
  H      37.440838     18.450185     40.799773
  C      36.004611     17.011232     41.427040
  H      35.222086     17.752610     41.601828
  C      35.647998     15.567130     41.685563
  H      35.282272     15.470805     42.725447
  O      34.631378     15.181550     40.770011
  H      33.911836     14.654443     41.234206
  C      39.490756     16.809869     39.931883
  O      40.463760     16.011885     39.793241
  O      39.351156     17.855825     39.258286
24
Coordinates from ORCA-job neb_MEP_ALL.QMRegion E -1074.547511998775
  C      38.995458     16.636084     42.682531
  H      39.911121     16.034243     42.694343
  H      39.196441     17.676633     42.995139
  C      38.016739     15.973393     43.619779
  C      37.010559     16.729437     44.557124
  O      37.109572     17.974766     44.675832
  O      36.177091     16.006882     45.145877
  O      37.923876     14.763298     43.603251
  C      36.799421     14.628413     41.369881
  H      36.590206     13.562689     41.492445
  C      37.996573     15.050295     40.945042
  H      38.793117     14.351618     40.693909
  C      38.408009     16.478077     41.080727
  C      37.224864     17.405115     41.046545
  H      37.438444     18.453480     40.825951
  C      36.004730     17.000209     41.414535
  H      35.210438     17.736051     41.559884
  C      35.642172     15.554118     41.658603
  H      35.295287     15.448950     42.705421
  O      34.597633     15.194562     40.764083
  H      33.889652     14.657955     41.235353
  C      39.496255     16.815369     39.977006
  O      40.460052     16.011750     39.806139
  O      39.330343     17.845573     39.286160
24
Coordinates from ORCA-job neb_MEP_ALL.QMRegion E -1074.565583938616
  C      39.020000     16.645000     42.613000
  H      39.979000     16.118000     42.662000
  H      39.148000     17.716000     42.823000
  C      38.157000     15.960000     43.660000
  C      37.105000     16.705000     44.550000
  O      37.176000     17.952000     44.643000
  O      36.282000     15.976000     45.146000
  O      38.270000     14.761000     43.814000
  C      36.746000     14.591000     41.164000
  H      36.494000     13.533000     41.067000
  C      37.999000     15.013000     40.982000
  H      38.810000     14.319000     40.768000
  C      38.415000     16.449000     41.155000
  C      37.225000     17.371000     41.095000
  H      37.449000     18.430000     40.950000
  C      35.977000     16.952000     41.318000
  H      35.164000     17.678000     41.380000
  C      35.603000     15.504000     41.519000
  H      35.351000     15.359000     42.590000
  O      34.474000     15.198000     40.719000
  H      33.784000     14.677000     41.235000
  C      39.478000     16.800000     40.036000
  O      40.446000     16.009000     39.837000
  O      39.287000     17.839000     39.369000
24
Coordinates from ORCA-job neb_MEP_ALL.QMRegion E -1074.552193114524
  C      39.054000     16.686000     43.562000
  H      39.807000     16.195000     42.948000
  H      39.264000     17.670000     43.983000
  C      37.867000     16.122000     43.805000
  C      36.838000     16.764000     44.719000
  O      36.918000     18.012000     44.882000
  O      35.992000     16.015000     45.262000
  O      37.515000     14.890000     43.282000
  C      37.016000     14.882000     41.905000
  H      36.687000     13.845000     41.743000
  C      38.153000     15.216000     40.988000
  H      38.949000     14.481000     40.870000
  C      38.280000     16.432000     40.423000
  C      37.250000     17.450000     40.666000
  H      37.472000     18.464000     40.326000
  C      36.113000     17.176000     41.330000
  H      35.398000     17.974000     41.550000
  C      35.756000     15.773000     41.755000
  H      35.271000     15.793000     42.746000
  O      34.868000     15.226000     40.788000
  H      34.133000     14.713000     41.232000
  C      39.499000     16.788000     39.587000
  O      40.533000     16.057000     39.670000
  O      39.417000     17.800000     38.850000
24
Coordinates from ORCA-job neb_MEP_ALL.QMRegion E -1074.553839444340
  C      39.060669     16.666344     43.481740
  H      39.808329     16.158626     42.876294
  H      39.261624     17.672735     43.846980
  C      37.881080     16.101554     43.759732
  C      36.865383     16.754978     44.681772
  O      36.948820     18.002879     44.845409
  O      36.020604     16.012182     45.237073
  O      37.526981     14.864485     43.277511
  C      36.997359     14.844163     41.874035
  H      36.678426     13.804702     41.736413
  C      38.129872     15.185327     40.971828
  H      38.920514     14.451877     40.825359
  C      38.270600     16.420655     40.455442
  C      37.243629     17.438012     40.720247
  H      37.468394     18.462603     40.413808
  C      36.095867     17.143642     41.356816
  H      35.366986     17.931863     41.569943
  C      35.740734     15.730957     41.757694
  H      35.262084     15.736325     42.752772
  O      34.842890     15.204169     40.789891
  H      34.099984     14.699472     41.232393
  C      39.494065     16.789061     39.625649
  O      40.521827     16.047949     39.685499
  O      39.416300     17.819781     38.915162
24
Coordinates from ORCA-job neb_MEP_ALL.QMRegion E -1074.553830575067
  C      39.067856     16.646001     43.397795
  H      39.812091     16.122206     42.803563
  H      39.258705     17.676278     43.699829
  C      37.898175     16.078593     43.713935
  C      36.893863     16.746104     44.642275
  O      36.981565     17.993722     44.805056
  O      36.052472     16.007735     45.209922
  O      37.533616     14.837836     43.249665
  C      36.985785     14.801870     41.864624
  H      36.670198     13.761028     41.727549
  C      38.104555     15.154846     40.951872
  H      38.890412     14.423075     40.777730
  C      38.260455     16.409336     40.489441
  C      37.235030     17.422879     40.778183
  H      37.463961     18.456895     40.509918
  C      36.076168     17.108804     41.384596
  H      35.333973     17.886503     41.591831
  C      35.722928     15.687619     41.759646
  H      35.253801     15.676507     42.759379
  O      34.813870     15.181562     40.790604
  H      34.063226     14.686085     41.233632
  C      39.487974     16.790911     39.671814
  O      40.509818     16.039394     39.705832
  O      39.413840     17.840321     38.989660
24
Coordinates from ORCA-job neb_MEP_ALL.QMRegion E -1074.551978632813
  C      39.076366     16.626696     43.311217
  H      39.819737     16.084893     42.733057
  H      39.254591     17.679232     43.540309
  C      37.919577     16.055616     43.671488
  C      36.923596     16.736986     44.601688
  O      37.016297     17.984339     44.763037
  O      36.085553     16.003528     45.181105
  O      37.544429     14.808394     43.216495
  C      36.975186     14.758029     41.856276
  H      36.662027     13.713180     41.715191
  C      38.077114     15.125325     40.927430
  H      38.858513     14.395825     40.727550
  C      38.250786     16.399245     40.529526
  C      37.225135     17.406576     40.840711
  H      37.458764     18.448596     40.612865
  C      36.054308     17.073084     41.411929
  H      35.299155     17.838755     41.612059
  C      35.701656     15.644980     41.758239
  H      35.248018     15.613142     42.763924
  O      34.779809     15.160271     40.790308
  H      34.022651     14.672842     41.235095
  C      39.480873     16.792324     39.725652
  O      40.496072     16.030875     39.729958
  O      39.408788     17.859953     39.073227
24
Coordinates from ORCA-job neb_MEP_ALL.QMRegion E -1074.546715082138
  C      39.085191     16.615299     43.222859
  H      39.835801     16.051538     42.675881
  H      39.248605     17.684383     43.373624
  C      37.946227     16.036407     43.637768
  C      36.954503     16.728075     44.565865
  O      37.049732     17.975235     44.723297
  O      36.115505     16.002431     45.155017
  O      37.577182     14.778179     43.206988
  C      36.953608     14.715454     41.817317
  H      36.652472     13.662794     41.694300
  C      38.049939     15.099023     40.905811
  H      38.827048     14.373313     40.682591
  C      38.247783     16.392984     40.589128
  C      37.216459     17.393277     40.907303
  H      37.452908     18.441292     40.710556
  C      36.031455     17.039722     41.433486
  H      35.264623     17.794402     41.625426
  C      35.679773     15.605670     41.749863
  H      35.247924     15.550854     42.762358
  O      34.738211     15.147942     40.788790
  H      33.978591     14.661749     41.235365
  C      39.475192     16.793774     39.789272
  O      40.482481     16.023055     39.756833
  O      39.398272     17.873531     39.159314
24
Coordinates from ORCA-job neb_MEP_ALL.QMRegion E -1074.532406807933
  C      39.085976     16.622012     43.138921
  H      39.859683     16.030816     42.655690
  H      39.242132     17.696650     43.248218
  C      37.978105     16.019087     43.638669
  C      36.976273     16.726463     44.552244
  O      37.067739     17.974949     44.700039
  O      36.130940     16.007747     45.142054
  O      37.655253     14.760617     43.273308
  C      36.909304     14.679676     41.711337
  H      36.638683     13.617226     41.662018
  C      38.025809     15.080867     40.894174
  H      38.805208     14.361412     40.662991
  C      38.261833     16.399173     40.673708
  C      37.212859     17.390958     40.957550
  H      37.448107     18.440379     40.766803
  C      36.014678     17.021898     41.438148
  H      35.241341     17.770026     41.626735
  C      35.662341     15.583744     41.728296
  H      35.259534     15.507645     42.750406
  O      34.692954     15.154252     40.781059
  H      33.942959     14.655556     41.234611
  C      39.477093     16.797249     39.847906
  O      40.473104     16.016873     39.775561
  O      39.382196     17.873410     39.215044
24
Coordinates from ORCA-job neb_MEP_ALL.QMRegion E -1074.522513281036
  C      39.075530     16.637479     43.033445
  H      39.886945     16.017919     42.662165
  H      39.236349     17.707402     43.168343
  C      38.004113     15.997130     43.660813
  C      36.985084     16.729725     44.555391
  O      37.076041     17.978782     44.687510
  O      36.137047     16.013804     45.139490
  O      37.774393     14.763628     43.429236
  C      36.841670     14.650221     41.531326
  H      36.623409     13.585685     41.626006
  C      37.998507     15.061078     40.896249
  H      38.791802     14.355480     40.662729
  C      38.291411     16.420504     40.780588
  C      37.210915     17.395353     40.985525
  H      37.444650     18.443356     40.790471
  C      36.004862     17.014626     41.433056
  H      35.229468     17.759698     41.622630
  C      35.651202     15.573575     41.700100
  H      35.275077     15.481809     42.734620
  O      34.651184     15.169424     40.770692
  H      33.920405     14.652655     41.234094
  C      39.482472     16.802617     39.891453
  O      40.466175     16.012623     39.785440
  O      39.367653     17.866813     39.242020
24
Coordinates from ORCA-job neb_MEP_ALL.QMRegion E -1074.529224149876
  C      39.032959     16.641446     42.860051
  H      39.902113     16.017012     42.684397
  H      39.221434     17.691697     43.098861
  C      38.006926     15.986703     43.644047
  C      36.992331     16.729395     44.558296
  O      37.086533     17.976376     44.683524
  O      36.147502     16.014636     45.143681
  O      37.835216     14.767315     43.515601
  C      36.819793     14.639295     41.447339
  H      36.612370     13.576980     41.585036
  C      37.993354     15.054110     40.917535
  H      38.788962     14.355106     40.674055
  C      38.349795     16.451325     40.932268
  C      37.215280     17.402600     41.009919
  H      37.441083     18.450186     40.799288
  C      36.004474     17.011401     41.426557
  H      35.222182     17.753292     41.603004
  C      35.647584     15.566747     41.684994
  H      35.282519     15.470950     42.725559
  O      34.630912     15.182082     40.769966
  H      33.911786     14.654687     41.234035
  C      39.490512     16.810058     39.931566
  O      40.463449     16.012051     39.792237
  O      39.352015     17.855515     39.257206
24
Coordinates from ORCA-job neb_MEP_ALL.QMRegion E -1074.549838126706
  C      38.995312     16.635028     42.681433
  H      39.908056     16.034695     42.695589
  H      39.195217     17.673964     42.992026
  C      38.018390     15.981420     43.617121
  C      37.011737     16.729358     44.557971
  O      37.107924     17.973934     44.676279
  O      36.174680     16.008941     45.146662
  O      37.924760     14.757409     43.608636
  C      36.799907     14.628429     41.366398
  H      36.589869     13.562510     41.493009
  C      37.997653     15.050889     40.947680
  H      38.792172     14.352298     40.694356
  C      38.408974     16.478544     41.081857
  C      37.226050     17.405574     41.047597
  H      37.438438     18.454267     40.825333
  C      36.005159     17.001100     41.414449
  H      35.210350     17.737066     41.560670
  C      35.642031     15.554137     41.658629
  H      35.295366     15.449088     42.706482
  O      34.597677     15.196218     40.765158
  H      33.890345     14.658724     41.234946
  C      39.497169     16.816938     39.979978
  O      40.459557     16.011827     39.805647
  O      39.329906     17.844546     39.285709
24
Coordinates from ORCA-job neb_MEP_ALL.QMRegion E -1074.565583938616
  C      39.020000     16.645000     42.613000
  H      39.979000     16.118000     42.662000
  H      39.148000     17.716000     42.823000
  C      38.157000     15.960000     43.660000
  C      37.105000     16.705000     44.550000
  O      37.176000     17.952000     44.643000
  O      36.282000     15.976000     45.146000
  O      38.270000     14.761000     43.814000
  C      36.746000     14.591000     41.164000
  H      36.494000     13.533000     41.067000
  C      37.999000     15.013000     40.982000
  H      38.810000     14.319000     40.768000
  C      38.415000     16.449000     41.155000
  C      37.225000     17.371000     41.095000
  H      37.449000     18.430000     40.950000
  C      35.977000     16.952000     41.318000
  H      35.164000     17.678000     41.380000
  C      35.603000     15.504000     41.519000
  H      35.351000     15.359000     42.590000
  O      34.474000     15.198000     40.719000
  H      33.784000     14.677000     41.235000
  C      39.478000     16.800000     40.036000
  O      40.446000     16.009000     39.837000
  O      39.287000     17.839000     39.369000
24
Coordinates from ORCA-job neb_MEP_ALL.QMRegion E -1074.552193114524
  C      39.054000     16.686000     43.562000
  H      39.807000     16.195000     42.948000
  H      39.264000     17.670000     43.983000
  C      37.867000     16.122000     43.805000
  C      36.838000     16.764000     44.719000
  O      36.918000     18.012000     44.882000
  O      35.992000     16.015000     45.262000
  O      37.515000     14.890000     43.282000
  C      37.016000     14.882000     41.905000
  H      36.687000     13.845000     41.743000
  C      38.153000     15.216000     40.988000
  H      38.949000     14.481000     40.870000
  C      38.280000     16.432000     40.423000
  C      37.250000     17.450000     40.666000
  H      37.472000     18.464000     40.326000
  C      36.113000     17.176000     41.330000
  H      35.398000     17.974000     41.550000
  C      35.756000     15.773000     41.755000
  H      35.271000     15.793000     42.746000
  O      34.868000     15.226000     40.788000
  H      34.133000     14.713000     41.232000
  C      39.499000     16.788000     39.587000
  O      40.533000     16.057000     39.670000
  O      39.417000     17.800000     38.850000
24
Coordinates from ORCA-job neb_MEP_ALL.QMRegion E -1074.553613335702
  C      39.062314     16.666732     43.484692
  H      39.805648     16.159436     42.875912
  H      39.262252     17.667628     43.851833
  C      37.880635     16.106532     43.762189
  C      36.864363     16.753621     44.680838
  O      36.948810     18.000505     44.845866
  O      36.019752     16.013236     45.238200
  O      37.527945     14.863605     43.282805
  C      36.997055     14.846443     41.866343
  H      36.678401     13.804770     41.738092
  C      38.130579     15.184304     40.972473
  H      38.919446     14.452741     40.825134
  C      38.268408     16.417841     40.453219
  C      37.242303     17.436972     40.717506
  H      37.468286     18.462975     40.411192
  C      36.095884     17.143287     41.356715
  H      35.369684     17.931874     41.572205
  C      35.741235     15.731780     41.757186
  H      35.261087     15.737063     42.752882
  O      34.845152     15.202769     40.791673
  H      34.101477     14.698548     41.231884
  C      39.492051     16.787063     39.620804
  O      40.521540     16.048647     39.683444
  O      39.418103     17.819816     38.912536
24
Coordinates from ORCA-job neb_MEP_ALL.QMRegion E -1074.553835758848
  C      39.069325     16.645233     43.402877
  H      39.806941     16.123243     42.802309
  H      39.260794     17.668692     43.711107
  C      37.897568     16.082291     43.715722
  C      36.893458     16.744126     44.642520
  O      36.979960     17.990721     44.805820
  O      36.050456     16.009910     45.211537
  O      37.532832     14.839597     43.250213
  C      36.986851     14.803783     41.860596
  H      36.670456     13.763163     41.730925
  C      38.104286     15.152317     40.954179
  H      38.888698     14.424380     40.777286
  C      38.255863     16.403472     40.483809
  C      37.232676     17.420970     40.772485
  H      37.463611     18.457408     40.505091
  C      36.075907     17.107356     41.383783
  H      35.337824     17.888176     41.597510
  C      35.726406     15.685559     41.760564
  H      35.251727     15.678085     42.759018
  O      34.817940     15.179022     40.793313
  H      34.065827     14.683924     41.233108
  C      39.484528     16.787992     39.662010
  O      40.509322     16.040486     39.701782
  O      39.417630     17.841115     38.984304
24
Coordinates from ORCA-job neb_MEP_ALL.QMRegion E -1074.552077745659
  C      39.077713     16.623029     43.309481
  H      39.814095     16.082114     42.725453
  H      39.257867     17.671689     43.542991
  C      37.921914     16.053639     43.670207
  C      36.926827     16.734620     44.600621
  O      37.015816     17.981950     44.760547
  O      36.085553     16.006054     45.179763
  O      37.539434     14.809244     43.198720
  C      36.979834     14.754138     41.868318
  H      36.661452     13.711758     41.717992
  C      38.072807     15.119497     40.927344
  H      38.853997     14.394610     40.722426
  C      38.244355     16.391525     40.524214
  C      37.221253     17.402757     40.838101
  H      37.457596     18.447646     40.616265
  C      36.051697     17.068112     41.412738
  H      35.299762     17.837970     41.622582
  C      35.705303     15.636399     41.760238
  H      35.245499     15.609488     42.763246
  O      34.781082     15.155215     40.792103
  H      34.022037     14.668394     41.235475
  C      39.476200     16.789688     39.717919
  O      40.493830     16.030897     39.726705
  O      39.413225     17.863368     39.073607
24
Coordinates from ORCA-job neb_MEP_ALL.QMRegion E -1074.546873165354
  C      39.086442     16.610919     43.215619
  H      39.832590     16.046643     42.665696
  H      39.251462     17.677234     43.367932
  C      37.949907     16.033928     43.635616
  C      36.958366     16.726186     44.561864
  O      37.052059     17.973218     44.718641
  O      36.118355     16.002878     45.151474
  O      37.575010     14.776660     43.194223
  C      36.955473     14.709148     41.824931
  H      36.651214     13.657357     41.695417
  C      38.044165     15.092738     40.902210
  H      38.821872     14.370153     40.675282
  C      38.242522     16.386792     40.586603
  C      37.212144     17.388486     40.908109
  H      37.451064     18.438787     40.720202
  C      36.027957     17.033650     41.436458
  H      35.262681     17.790154     41.636523
  C      35.679838     15.597098     41.751076
  H      35.245638     15.543559     42.762396
  O      34.736718     15.141416     40.789358
  H      33.975457     14.657195     41.236459
  C      39.470691     16.791625     39.785692
  O      40.479317     16.022310     39.755495
  O      39.401799     17.877795     39.165508
24
Coordinates from ORCA-job neb_MEP_ALL.QMRegion E -1074.532315452366
  C      39.088556     16.619820     43.136370
  H      39.859807     16.028291     42.649955
  H      39.243678     17.694160     43.241643
  C      37.980757     16.017656     43.637607
  C      36.978019     16.725430     44.548473
  O      37.070657     17.973607     44.696643
  O      36.133852     16.006791     45.139924
  O      37.659202     14.759100     43.274519
  C      36.906709     14.675655     41.706266
  H      36.637827     13.613343     41.661012
  C      38.022561     15.076905     40.891621
  H      38.802095     14.358840     40.658659
  C      38.258856     16.395782     40.672966
  C      37.210726     17.387961     40.959521
  H      37.446907     18.438662     40.774133
  C      36.012551     17.017945     41.440017
  H      35.239412     17.766167     41.632523
  C      35.661302     15.578805     41.727749
  H      35.258708     15.502000     42.750026
  O      34.689955     15.150803     40.780908
  H      33.939028     14.653418     41.235209
  C      39.474423     16.795563     39.847166
  O      40.471300     16.016245     39.775526
  O      39.383776     17.875725     39.220642
24
Coordinates from ORCA-job neb_MEP_ALL.QMRegion E -1074.522562431780
  C      39.078428     16.639234     43.039106
  H      39.888489     16.019528     42.663673
  H      39.238644     17.709959     43.173164
  C      38.007242     15.996544     43.665434
  C      36.984740     16.729958     44.556523
  O      37.075209     17.979301     44.687408
  O      36.136729     16.013460     45.139885
  O      37.780553     14.762704     43.435207
  C      36.839843     14.648874     41.526730
  H      36.621881     13.584427     41.623424
  C      37.998127     15.059654     40.895423
  H      38.791457     14.354125     40.662639
  C      38.289761     16.419122     40.775688
  C      37.210542     17.394257     40.982897
  H      37.445098     18.442468     40.790471
  C      36.004541     17.013968     41.431440
  H      35.230027     17.759264     41.624303
  C      35.650531     15.572528     41.697426
  H      35.276405     15.480574     42.733101
  O      34.647880     15.170039     40.769131
  H      33.917768     14.652829     41.234026
  C      39.481637     16.801833     39.888530
  O      40.465537     16.012006     39.783905
  O      39.368778     17.867071     39.240418
24
Coordinates from ORCA-job neb_MEP_ALL.QMRegion E -1074.528970443737
  C      39.036721     16.642497     42.874494
  H      39.901857     16.018381     42.686021
  H      39.223498     17.691348     43.104787
  C      38.009416     15.990026     43.649472
  C      36.992885     16.728145     44.559788
  O      37.083669     17.975121     44.683293
  O      36.144449     16.016896     45.143946
  O      37.839145     14.769570     43.519041
  C      36.818844     14.638175     41.446787
  H      36.611250     13.576103     41.586117
  C      37.992921     15.053438     40.915901
  H      38.788467     14.354236     40.673933
  C      38.346116     16.449601     40.921492
  C      37.214904     17.402283     41.007264
  H      37.441903     18.449767     40.798011
  C      36.003834     17.011543     41.425008
  H      35.222819     17.754980     41.606295
  C      35.647741     15.566332     41.683792
  H      35.283653     15.471110     42.725125
  O      34.628933     15.183932     40.768836
  H      33.910831     14.655131     41.233817
  C      39.490144     16.810087     39.929859
  O      40.462715     16.012109     39.789849
  O      39.353995     17.855105     39.254452
24
Coordinates from ORCA-job neb_MEP_ALL.QMRegion E -1074.549970736233
  C      38.992505     16.632799     42.677703
  H      39.902299     16.033774     42.699239
  H      39.192314     17.668522     42.984025
  C      38.018736     15.993714     43.616453
  C      37.012875     16.729396     44.559620
  O      37.103873     17.973195     44.677674
  O      36.169614     16.014546     45.147588
  O      37.929220     14.750036     43.622453
  C      36.799572     14.628522     41.359038
  H      36.589331     13.562734     41.494288
  C      37.999912     15.052106     40.953700
  H      38.790735     14.353575     40.695643
  C      38.412166     16.481083     41.084598
  C      37.228354     17.407680     41.050274
  H      37.438714     18.456043     40.823540
  C      36.006395     17.003303     41.414638
  H      35.210780     17.740070     41.563161
  C      35.643311     15.554988     41.659432
  H      35.296333     15.449538     42.708837
  O      34.597270     15.201707     40.766830
  H      33.891868     14.660594     41.234306
  C      39.499407     16.820000     39.985967
  O      40.458527     16.012258     39.805199
  O      39.328730     17.842488     39.285047
24
Coordinates from ORCA-job neb_MEP_ALL.QMRegion E -1074.565583938616
  C      39.020000     16.645000     42.613000
  H      39.979000     16.118000     42.662000
  H      39.148000     17.716000     42.823000
  C      38.157000     15.960000     43.660000
  C      37.105000     16.705000     44.550000
  O      37.176000     17.952000     44.643000
  O      36.282000     15.976000     45.146000
  O      38.270000     14.761000     43.814000
  C      36.746000     14.591000     41.164000
  H      36.494000     13.533000     41.067000
  C      37.999000     15.013000     40.982000
  H      38.810000     14.319000     40.768000
  C      38.415000     16.449000     41.155000
  C      37.225000     17.371000     41.095000
  H      37.449000     18.430000     40.950000
  C      35.977000     16.952000     41.318000
  H      35.164000     17.678000     41.380000
  C      35.603000     15.504000     41.519000
  H      35.351000     15.359000     42.590000
  O      34.474000     15.198000     40.719000
  H      33.784000     14.677000     41.235000
  C      39.478000     16.800000     40.036000
  O      40.446000     16.009000     39.837000
  O      39.287000     17.839000     39.369000
24
Coordinates from ORCA-job neb_MEP_ALL.QMRegion E -1074.552193114524
  C      39.054000     16.686000     43.562000
  H      39.807000     16.195000     42.948000
  H      39.264000     17.670000     43.983000
  C      37.867000     16.122000     43.805000
  C      36.838000     16.764000     44.719000
  O      36.918000     18.012000     44.882000
  O      35.992000     16.015000     45.262000
  O      37.515000     14.890000     43.282000
  C      37.016000     14.882000     41.905000
  H      36.687000     13.845000     41.743000
  C      38.153000     15.216000     40.988000
  H      38.949000     14.481000     40.870000
  C      38.280000     16.432000     40.423000
  C      37.250000     17.450000     40.666000
  H      37.472000     18.464000     40.326000
  C      36.113000     17.176000     41.330000
  H      35.398000     17.974000     41.550000
  C      35.756000     15.773000     41.755000
  H      35.271000     15.793000     42.746000
  O      34.868000     15.226000     40.788000
  H      34.133000     14.713000     41.232000
  C      39.499000     16.788000     39.587000
  O      40.533000     16.057000     39.670000
  O      39.417000     17.800000     38.850000
24
Coordinates from ORCA-job neb_MEP_ALL.QMRegion E -1074.553226979742
  C      39.062083     16.665580     43.488043
  H      39.803209     16.159637     42.874972
  H      39.264507     17.665096     43.859593
  C      37.880237     16.105969     43.763896
  C      36.863037     16.753730     44.681769
  O      36.948540     18.000471     44.846524
  O      36.018013     16.012891     45.239252
  O      37.527270     14.865219     43.281317
  C      36.998099     14.846748     41.869789
  H      36.678299     13.804905     41.739472
  C      38.130661     15.184747     40.971180
  H      38.919761     14.452010     40.824803
  C      38.266868     16.416920     40.448082
  C      37.241193     17.436205     40.713566
  H      37.467840     18.461805     40.407961
  C      36.096409     17.143530     41.355998
  H      35.372555     17.932537     41.575498
  C      35.741447     15.732635     41.757245
  H      35.261100     15.737721     42.752328
  O      34.846704     15.200967     40.791646
  H      34.103276     14.697129     41.231859
  C      39.490424     16.785756     39.615724
  O      40.520717     16.048423     39.680714
  O      39.419060     17.819055     38.909132
24
Coordinates from ORCA-job neb_MEP_ALL.QMRegion E -1074.553847353850
  C      39.070099     16.643090     43.408487
  H      39.801750     16.123392     42.799422
  H      39.264913     17.662530     43.726667
  C      37.895422     16.081881     43.717539
  C      36.892060     16.743840     44.644336
  O      36.978911     17.989667     44.806306
  O      36.047792     16.009668     45.213012
  O      37.531566     14.841961     43.248751
  C      36.987968     14.804386     41.864537
  H      36.670417     13.764086     41.734532
  C      38.103998     15.151997     40.952829
  H      38.888560     14.423183     40.776463
  C      38.251679     16.400211     40.473201
  C      37.229821     17.418756     40.765068
  H      37.462616     18.455363     40.499332
  C      36.076273     17.106701     41.382961
  H      35.342950     17.889182     41.605307
  C      35.727259     15.685670     41.761545
  H      35.250766     15.679155     42.758166
  O      34.821964     15.174681     40.794436
  H      34.069247     14.680938     41.233112
  C      39.480991     16.785887     39.651694
  O      40.507997     16.040136     39.696311
  O      39.420264     17.840337     38.978094
24
Coordinates from ORCA-job neb_MEP_ALL.QMRegion E -1074.551728136934
  C      39.079920     16.617431     43.307565
  H      39.808125     16.077702     42.713833
  H      39.263052     17.663096     43.548390
  C      37.920890     16.050827     43.666650
  C      36.929294     16.732030     44.599074
  O      37.017539     17.979800     44.756508
  O      36.085913     16.005781     45.177866
  O      37.540282     14.809152     43.197627
  C      36.977952     14.750401     41.867534
  H      36.660848     13.708630     41.722310
  C      38.068583     15.114302     40.924267
  H      38.849740     14.390779     40.715561
  C      38.236470     16.385445     40.513164
  C      37.216056     17.397533     40.834738
  H      37.455561     18.444061     40.620312
  C      36.049198     17.062450     41.414884
  H      35.301946     17.834488     41.636487
  C      35.705275     15.629813     41.762337
  H      35.242689     15.604276     42.762955
  O      34.783351     15.146487     40.794270
  H      34.022258     14.662865     41.235972
  C      39.471212     16.786793     39.709980
  O      40.490062     16.029739     39.721831
  O      39.416802     17.865785     39.074475
24
Coordinates from ORCA-job neb_MEP_ALL.QMRegion E -1074.547002823666
  C      39.088565     16.604220     43.208066
  H      39.829373     16.039740     42.651288
  H      39.255964     17.669874     43.361826
  C      37.951730     16.030044     43.629527
  C      36.962795     16.723795     44.557069
  O      37.056313     17.970911     44.712096
  O      36.121991     16.001546     45.146924
  O      37.575025     14.773373     43.188207
  C      36.954076     14.702567     41.826728
  H      36.650061     13.650547     41.697782
  C      38.038193     15.085908     40.896960
  H      38.815881     14.364933     40.665612
  C      38.234998     16.380911     40.579294
  C      37.206567     17.382171     40.909807
  H      37.448382     18.434200     40.732210
  C      36.024052     17.026037     41.440687
  H      35.261107     17.783120     41.650862
  C      35.677711     15.587975     41.752772
  H      35.242520     15.533978     42.762866
  O      34.735478     15.131797     40.790699
  H      33.971961     14.651583     41.237581
  C      39.465974     16.789645     39.783169
  O      40.474864     16.020280     39.753084
  O      39.404681     17.881729     39.173611
24
Coordinates from ORCA-job neb_MEP_ALL.QMRegion E -1074.531903367839
  C      39.091277     16.617561     43.132491
  H      39.860929     16.025161     42.643718
  H      39.246211     17.692664     43.234190
  C      37.984989     16.014759     43.636510
  C      36.980992     16.724490     44.545420
  O      37.073600     17.972439     44.692330
  O      36.136724     16.005733     45.137365
  O      37.666376     14.756724     43.279273
  C      36.902421     14.670419     41.697739
  H      36.636249     13.607366     41.658988
  C      38.018524     15.072363     40.888011
  H      38.798531     14.354988     40.653468
  C      38.255591     16.392767     40.671712
  C      37.207935     17.384347     40.961923
  H      37.445490     18.435896     40.782930
  C      36.009831     17.013177     41.441924
  H      35.237499     17.760920     41.639600
  C      35.658610     15.573527     41.726152
  H      35.258416     15.494604     42.748981
  O      34.685346     15.146836     40.780561
  H      33.933871     14.651000     41.235808
  C      39.472125     16.794555     39.847783
  O      40.468705     16.014560     39.774918
  O      39.384774     17.877720     39.227129
24
Coordinates from ORCA-job neb_MEP_ALL.QMRegion E -1074.522710438929
  C      39.082467     16.641582     43.046753
  H      39.890273     16.022167     42.666024
  H      39.241616     17.712727     43.179863
  C      38.011480     15.996151     43.670837
  C      36.985113     16.729814     44.558416
  O      37.073694     17.979546     44.687240
  O      36.136125     16.013418     45.140359
  O      37.788710     14.761855     43.443003
  C      36.837236     14.647060     41.520787
  H      36.619896     13.582645     41.619944
  C      37.997593     15.057815     40.894408
  H      38.791178     14.352153     40.662531
  C      38.287549     16.417446     40.769171
  C      37.209960     17.392716     40.979524
  H      37.445743     18.441282     40.790282
  C      36.003968     17.012769     41.429302
  H      35.230932     17.758608     41.626540
  C      35.649379     15.571439     41.693912
  H      35.278209     15.478899     42.730588
  O      34.643870     15.170788     40.767730
  H      33.914274     14.653157     41.233735
  C      39.480777     16.800886     39.884631
  O      40.464756     16.010971     39.781751
  O      39.370136     17.867359     39.238166
24
Coordinates from ORCA-job neb_MEP_ALL.QMRegion E -1074.528422800388
  C      39.040114     16.644167     42.886076
  H      39.903394     16.019270     42.688855
  H      39.226432     17.694027     43.110893
  C      38.012596     15.992352     43.656846
  C      36.991797     16.728443     44.562386
  O      37.081305     17.975901     44.682839
  O      36.141624     16.017621     45.144139
  O      37.846070     14.769037     43.526298
  C      36.816828     14.637048     41.443387
  H      36.609453     13.574536     41.585480
  C      37.992027     15.052377     40.915025
  H      38.788116     14.352820     40.674122
  C      38.342673     16.448246     40.913125
  C      37.214344     17.401981     41.004571
  H      37.442843     18.449352     40.796808
  C      36.003106     17.011719     41.423214
  H      35.224017     17.756074     41.609604
  C      35.647178     15.566500     41.681357
  H      35.285624     15.470717     42.723552
  O      34.625766     15.186502     40.767800
  H      33.908913     14.655851     41.233386
  C      39.489893     16.810075     39.926917
  O      40.462518     16.011215     39.787972
  O      39.355488     17.855180     39.252044
24
Coordinates from ORCA-job neb_MEP_ALL.QMRegion E -1074.549398161388
  C      38.987317     16.630197     42.668714
  H      39.898300     16.031604     42.703919
  H      39.189389     17.666036     42.973301
  C      38.017222     15.996113     43.621283
  C      37.011185     16.732835     44.561547
  O      37.101621     17.974687     44.678531
  O      36.165459     16.017586     45.148051
  O      37.938732     14.749878     43.639185
  C      36.798077     14.629245     41.352305
  H      36.588192     13.562995     41.491660
  C      38.000789     15.053228     40.958602
  H      38.791104     14.353891     40.698038
  C      38.415932     16.484444     41.093098
  C      37.230424     17.410507     41.053286
  H      37.439414     18.458130     40.822472
  C      36.007717     17.005501     41.415548
  H      35.212257     17.742464     41.564819
  C      35.644716     15.556676     41.659121
  H      35.299192     15.449334     42.709570
  O      34.594989     15.209238     40.767830
  H      33.892482     14.662859     41.233926
  C      39.500927     16.822180     39.989832
  O      40.458646     16.012440     39.806530
  O      39.327041     17.841456     39.286113
24
Coordinates from ORCA-job neb_MEP_ALL.QMRegion E -1074.565583938616
  C      39.020000     16.645000     42.613000
  H      39.979000     16.118000     42.662000
  H      39.148000     17.716000     42.823000
  C      38.157000     15.960000     43.660000
  C      37.105000     16.705000     44.550000
  O      37.176000     17.952000     44.643000
  O      36.282000     15.976000     45.146000
  O      38.270000     14.761000     43.814000
  C      36.746000     14.591000     41.164000
  H      36.494000     13.533000     41.067000
  C      37.999000     15.013000     40.982000
  H      38.810000     14.319000     40.768000
  C      38.415000     16.449000     41.155000
  C      37.225000     17.371000     41.095000
  H      37.449000     18.430000     40.950000
  C      35.977000     16.952000     41.318000
  H      35.164000     17.678000     41.380000
  C      35.603000     15.504000     41.519000
  H      35.351000     15.359000     42.590000
  O      34.474000     15.198000     40.719000
  H      33.784000     14.677000     41.235000
  C      39.478000     16.800000     40.036000
  O      40.446000     16.009000     39.837000
  O      39.287000     17.839000     39.369000
24
Coordinates from ORCA-job neb_MEP_ALL.QMRegion E -1074.552193114524
  C      39.054000     16.686000     43.562000
  H      39.807000     16.195000     42.948000
  H      39.264000     17.670000     43.983000
  C      37.867000     16.122000     43.805000
  C      36.838000     16.764000     44.719000
  O      36.918000     18.012000     44.882000
  O      35.992000     16.015000     45.262000
  O      37.515000     14.890000     43.282000
  C      37.016000     14.882000     41.905000
  H      36.687000     13.845000     41.743000
  C      38.153000     15.216000     40.988000
  H      38.949000     14.481000     40.870000
  C      38.280000     16.432000     40.423000
  C      37.250000     17.450000     40.666000
  H      37.472000     18.464000     40.326000
  C      36.113000     17.176000     41.330000
  H      35.398000     17.974000     41.550000
  C      35.756000     15.773000     41.755000
  H      35.271000     15.793000     42.746000
  O      34.868000     15.226000     40.788000
  H      34.133000     14.713000     41.232000
  C      39.499000     16.788000     39.587000
  O      40.533000     16.057000     39.670000
  O      39.417000     17.800000     38.850000
24
Coordinates from ORCA-job neb_MEP_ALL.QMRegion E -1074.553391759198
  C      39.061562     16.665483     43.487866
  H      39.803686     16.159197     42.874776
  H      39.265162     17.666529     43.860563
  C      37.880199     16.104618     43.764906
  C      36.862525     16.754382     44.683134
  O      36.948355     18.001529     44.846559
  O      36.018353     16.012667     45.238622
  O      37.524988     14.864204     43.274357
  C      36.999781     14.845407     41.878934
  H      36.678183     13.804506     41.739127
  C      38.130682     15.185556     40.969430
  H      38.920408     14.451183     40.824897
  C      38.267703     16.418649     40.446593
  C      37.241304     17.436183     40.713252
  H      37.467694     18.460997     40.407794
  C      36.096582     17.144010     41.355775
  H      35.372533     17.932667     41.575805
  C      35.740479     15.733267     41.757102
  H      35.261952     15.737497     42.751931
  O      34.846501     15.201090     40.790414
  H      34.103039     14.696821     41.232300
  C      39.490720     16.785867     39.616583
  O      40.520418     16.047859     39.680494
  O      39.418326     17.818849     38.908746
24
Coordinates from ORCA-job neb_MEP_ALL.QMRegion E -1074.554109715430
  C      39.068634     16.642600     43.408838
  H      39.802652     16.122744     42.798676
  H      39.265724     17.663642     43.728234
  C      37.895877     16.083127     43.719049
  C      36.890946     16.743713     44.645296
  O      36.979332     17.991052     44.806249
  O      36.048364     16.008947     45.212385
  O      37.530268     14.838964     43.246150
  C      36.988078     14.804200     41.870131
  H      36.670198     13.762767     41.734386
  C      38.104595     15.153492     40.949984
  H      38.889503     14.421880     40.776549
  C      38.252572     16.402619     40.470878
  C      37.229865     17.418521     40.764511
  H      37.462318     18.454025     40.498900
  C      36.076480     17.107308     41.383167
  H      35.343471     17.888611     41.605827
  C      35.725068     15.687652     41.760999
  H      35.251723     15.678809     42.757966
  O      34.822040     15.174174     40.793236
  H      34.069297     14.680616     41.233562
  C      39.481846     16.785094     39.653217
  O      40.506993     16.039691     39.695765
  O      39.419046     17.840118     38.977383
24
Coordinates from ORCA-job neb_MEP_ALL.QMRegion E -1074.552175453901
  C      39.078842     16.616628     43.307897
  H      39.809136     16.076684     42.711875
  H      39.263752     17.663074     43.548932
  C      37.920509     16.053830     43.666374
  C      36.928577     16.732192     44.598718
  O      37.018935     17.979247     44.755699
  O      36.086642     16.004343     45.177393
  O      37.542670     14.805591     43.206116
  C      36.973893     14.751156     41.861059
  H      36.660854     13.707248     41.722840
  C      38.069342     15.116267     40.921738
  H      38.850371     14.389148     40.714957
  C      38.236575     16.386500     40.510897
  C      37.215773     17.397031     40.834817
  H      37.455147     18.442693     40.620608
  C      36.049236     17.062237     41.415801
  H      35.302623     17.832854     41.637383
  C      35.702752     15.631836     41.761902
  H      35.242858     15.603459     42.763294
  O      34.783925     15.145070     40.794094
  H      34.022321     14.662521     41.236143
  C      39.471397     16.786720     39.711370
  O      40.489233     16.029014     39.721316
  O      39.415684     17.864973     39.074957
24
Coordinates from ORCA-job neb_MEP_ALL.QMRegion E -1074.547192320808
  C      39.089038     16.603766     43.208452
  H      39.830037     16.039025     42.649946
  H      39.256515     17.670374     43.361808
  C      37.950326     16.030860     43.628292
  C      36.962759     16.723459     44.556971
  O      37.057192     17.970579     44.711464
  O      36.122468     16.000827     45.146562
  O      37.576578     14.771208     43.193502
  C      36.951169     14.702985     41.822184
  H      36.650283     13.650228     41.698282
  C      38.038821     15.087538     40.895944
  H      38.816188     14.363796     40.665005
  C      38.234477     16.380996     40.577316
  C      37.206701     17.381984     40.910250
  H      37.448067     18.433281     40.732588
  C      36.023723     17.025415     41.441269
  H      35.261422     17.781988     41.651462
  C      35.676644     15.588617     41.752809
  H      35.242405     15.533317     42.763016
  O      34.735874     15.130992     40.790838
  H      33.971703     14.651342     41.237594
  C      39.466412     16.789595     39.784758
  O      40.474208     16.019754     39.752646
  O      39.403797     17.881201     39.174052
24
Coordinates from ORCA-job neb_MEP_ALL.QMRegion E -1074.530845886981
  C      39.091917     16.618305     43.131947
  H      39.861432     16.025292     42.644316
  H      39.246579     17.693386     43.234853
  C      37.984816     16.014256     43.637260
  C      36.981291     16.724118     44.546461
  O      37.073195     17.972895     44.692296
  O      36.136608     16.006078     45.137201
  O      37.667712     14.756061     43.281024
  C      36.901294     14.670360     41.696658
  H      36.635968     13.606608     41.658528
  C      38.018716     15.072955     40.887492
  H      38.798828     14.354450     40.653526
  C      38.255864     16.393310     40.671262
  C      37.207873     17.384289     40.961812
  H      37.445559     18.435540     40.782711
  C      36.009700     17.013052     41.441661
  H      35.237748     17.760713     41.639623
  C      35.657983     15.573938     41.725707
  H      35.258903     15.494349     42.748512
  O      34.684960     15.147106     40.780343
  H      33.933519     14.651061     41.235793
  C      39.472798     16.794514     39.848811
  O      40.468225     16.014295     39.774508
  O      39.384274     17.877486     39.226642
24
Coordinates from ORCA-job neb_MEP_ALL.QMRegion E -1074.522855074690
  C      39.082829     16.641745     43.047269
  H      39.890220     16.022639     42.666385
  H      39.241744     17.712512     43.180470
  C      38.011821     15.996357     43.670704
  C      36.985558     16.729539     44.558769
  O      37.073394     17.979332     44.687209
  O      36.136003     16.013614     45.140359
  O      37.789128     14.761995     43.443330
  C      36.836885     14.647064     41.520594
  H      36.619803     13.582402     41.619711
  C      37.997516     15.057762     40.894398
  H      38.791318     14.351909     40.662523
  C      38.287612     16.417449     40.768698
  C      37.209787     17.392564     40.979429
  H      37.445821     18.441218     40.790138
  C      36.003837     17.012522     41.429174
  H      35.231088     17.758524     41.626680
  C      35.649277     15.571470     41.693811
  H      35.278341     15.478789     42.730121
  O      34.643768     15.170752     40.768011
  H      33.914105     14.653248     41.233600
  C      39.480833     16.800800     39.884441
  O      40.464688     16.010847     39.781543
  O      39.370155     17.867318     39.237954
24
Coordinates from ORCA-job neb_MEP_ALL.QMRegion E -1074.528201239725
  C      39.039060     16.644554     42.881562
  H      39.905053     16.018548     42.689384
  H      39.226703     17.696182     43.110040
  C      38.011534     15.989194     43.658060
  C      36.990983     16.729761     44.562577
  O      37.081947     17.977166     44.682799
  O      36.142440     16.016425     45.143947
  O      37.848106     14.768896     43.528404
  C      36.815073     14.636882     41.441946
  H      36.609241     13.574417     41.583975
  C      37.991884     15.052338     40.915740
  H      38.788612     14.352354     40.674294
  C      38.344101     16.449388     40.916060
  C      37.213991     17.402241     41.005151
  H      37.442833     18.449218     40.797092
  C      36.003101     17.011493     41.423150
  H      35.224206     17.755594     41.609097
  C      35.647753     15.566967     41.681200
  H      35.286065     15.470306     42.722728
  O      34.625043     15.186866     40.767329
  H      33.908135     14.655781     41.233509
  C      39.490352     16.809294     39.926823
  O      40.462541     16.010979     39.788664
  O      39.354783     17.855703     39.252585
24
Coordinates from ORCA-job neb_MEP_ALL.QMRegion E -1074.550173387386
  C      38.987632     16.631638     42.674517
  H      39.900418     16.029966     42.703434
  H      39.190839     17.668917     42.976743
  C      38.013643     15.971300     43.626300
  C      37.007622     16.731475     44.561531
  O      37.102223     17.977910     44.678770
  O      36.167362     16.017366     45.146430
  O      37.939395     14.772897     43.635338
  C      36.796488     14.629126     41.357624
  H      36.588859     13.564040     41.492336
  C      38.001037     15.053110     40.955378
  H      38.791972     14.353492     40.697888
  C      38.413523     16.483468     41.088445
  C      37.229146     17.410701     41.051922
  H      37.439776     18.457660     40.822212
  C      36.007820     17.005280     41.416224
  H      35.213099     17.742478     41.565550
  C      35.645398     15.557584     41.659652
  H      35.299807     15.449639     42.708800
  O      34.595105     15.209276     40.766881
  H      33.892287     14.662530     41.234281
  C      39.500438     16.819943     39.986224
  O      40.458986     16.012791     39.807163
  O      39.327661     17.842929     39.286023
24
Coordinates from ORCA-job neb_MEP_ALL.QMRegion E -1074.565583938616
  C      39.020000     16.645000     42.613000
  H      39.979000     16.118000     42.662000
  H      39.148000     17.716000     42.823000
  C      38.157000     15.960000     43.660000
  C      37.105000     16.705000     44.550000
  O      37.176000     17.952000     44.643000
  O      36.282000     15.976000     45.146000
  O      38.270000     14.761000     43.814000
  C      36.746000     14.591000     41.164000
  H      36.494000     13.533000     41.067000
  C      37.999000     15.013000     40.982000
  H      38.810000     14.319000     40.768000
  C      38.415000     16.449000     41.155000
  C      37.225000     17.371000     41.095000
  H      37.449000     18.430000     40.950000
  C      35.977000     16.952000     41.318000
  H      35.164000     17.678000     41.380000
  C      35.603000     15.504000     41.519000
  H      35.351000     15.359000     42.590000
  O      34.474000     15.198000     40.719000
  H      33.784000     14.677000     41.235000
  C      39.478000     16.800000     40.036000
  O      40.446000     16.009000     39.837000
  O      39.287000     17.839000     39.369000
24
Coordinates from ORCA-job neb_MEP_ALL.QMRegion E -1074.552193114524
  C      39.054000     16.686000     43.562000
  H      39.807000     16.195000     42.948000
  H      39.264000     17.670000     43.983000
  C      37.867000     16.122000     43.805000
  C      36.838000     16.764000     44.719000
  O      36.918000     18.012000     44.882000
  O      35.992000     16.015000     45.262000
  O      37.515000     14.890000     43.282000
  C      37.016000     14.882000     41.905000
  H      36.687000     13.845000     41.743000
  C      38.153000     15.216000     40.988000
  H      38.949000     14.481000     40.870000
  C      38.280000     16.432000     40.423000
  C      37.250000     17.450000     40.666000
  H      37.472000     18.464000     40.326000
  C      36.113000     17.176000     41.330000
  H      35.398000     17.974000     41.550000
  C      35.756000     15.773000     41.755000
  H      35.271000     15.793000     42.746000
  O      34.868000     15.226000     40.788000
  H      34.133000     14.713000     41.232000
  C      39.499000     16.788000     39.587000
  O      40.533000     16.057000     39.670000
  O      39.417000     17.800000     38.850000
24
Coordinates from ORCA-job neb_MEP_ALL.QMRegion E -1074.554047760545
  C      39.061199     16.665451     43.487865
  H      39.803945     16.158949     42.874688
  H      39.265597     17.667294     43.861297
  C      37.880154     16.103731     43.765408
  C      36.862431     16.754853     44.683895
  O      36.948182     18.002155     44.846623
  O      36.018375     16.012424     45.238350
  O      37.523590     14.863671     43.270194
  C      37.000899     14.844873     41.884353
  H      36.678111     13.804271     41.738937
  C      38.130604     15.186077     40.968452
  H      38.920800     14.450728     40.824956
  C      38.268118     16.419420     40.445720
  C      37.241403     17.436195     40.712964
  H      37.467590     18.460514     40.407588
  C      36.096693     17.144263     41.355636
  H      35.372542     17.932826     41.576038
  C      35.740088     15.733498     41.757039
  H      35.262405     15.737421     42.751726
  O      34.846169     15.201022     40.789758
  H      34.103099     14.696716     41.232471
  C      39.490930     16.786148     39.616931
  O      40.520259     16.047429     39.680343
  O      39.417863     17.818631     38.908484
24
Coordinates from ORCA-job neb_MEP_ALL.QMRegion E -1074.554644576555
  C      39.068452     16.642656     43.408903
  H      39.803013     16.122414     42.798322
  H      39.266283     17.664106     43.729412
  C      37.895429     16.083118     43.720007
  C      36.890576     16.744241     44.645818
  O      36.979500     17.991575     44.806230
  O      36.048488     16.008258     45.212141
  O      37.529648     14.837474     43.244899
  C      36.988204     14.804168     41.873260
  H      36.670061     13.762020     41.734310
  C      38.104797     15.154420     40.948291
  H      38.890073     14.421099     40.776609
  C      38.253082     16.403823     40.469389
  C      37.229851     17.418374     40.764047
  H      37.462094     18.453164     40.498494
  C      36.076701     17.107672     41.383257
  H      35.343819     17.888350     41.606283
  C      35.723895     15.688725     41.760679
  H      35.252240     15.678636     42.757915
  O      34.821858     15.173681     40.792494
  H      34.069520     14.680448     41.233771
  C      39.482077     16.785412     39.653741
  O      40.506648     16.039041     39.695417
  O      39.418267     17.839576     38.977079
24
Coordinates from ORCA-job neb_MEP_ALL.QMRegion E -1074.552986947745
  C      39.079087     16.616446     43.307668
  H      39.809527     16.076075     42.710669
  H      39.264287     17.662861     43.549323
  C      37.919544     16.054921     43.666424
  C      36.928192     16.732217     44.598350
  O      37.019843     17.979088     44.755222
  O      36.087151     16.003359     45.177072
  O      37.543992     14.803486     43.210853
  C      36.971754     14.751619     41.857602
  H      36.660806     13.706247     41.723143
  C      38.069722     15.117005     40.920124
  H      38.850607     14.388156     40.714530
  C      38.236593     16.387429     40.509286
  C      37.215490     17.396564     40.834828
  H      37.454818     18.441748     40.620808
  C      36.049338     17.062117     41.416387
  H      35.303040     17.831775     41.638181
  C      35.701159     15.632990     41.761637
  H      35.242913     15.602844     42.763599
  O      34.784007     15.143937     40.793894
  H      34.022447     14.662263     41.236228
  C      39.471501     16.786769     39.712167
  O      40.488683     16.028370     39.720970
  O      39.414885     17.864497     39.075306
24
Coordinates from ORCA-job neb_MEP_ALL.QMRegion E -1074.547436060658
  C      39.089424     16.603522     43.208432
  H      39.830494     16.038514     42.649045
  H      39.256918     17.670667     43.361466
  C      37.949634     16.031134     43.627541
  C      36.962843     16.723287     44.556754
  O      37.057830     17.970362     44.711002
  O      36.122800     16.000314     45.146342
  O      37.577734     14.769816     43.196886
  C      36.949430     14.703190     41.819067
  H      36.650353     13.649800     41.698458
  C      38.039088     15.087937     40.895305
  H      38.816178     14.363114     40.664569
  C      38.234200     16.381462     40.576178
  C      37.206550     17.381642     40.910729
  H      37.447835     18.432688     40.732999
  C      36.023680     17.025023     41.441595
  H      35.261530     17.781144     41.651969
  C      35.675853     15.588905     41.752763
  H      35.242340     15.532696     42.763127
  O      34.735757     15.130341     40.790887
  H      33.971486     14.651183     41.237564
  C      39.466628     16.789703     39.785842
  O      40.473805     16.019254     39.752431
  O      39.403135     17.880826     39.174594
24
Coordinates from ORCA-job neb_MEP_ALL.QMRegion E -1074.530978257691
  C      39.091971     16.618758     43.131623
  H      39.861935     16.025396     42.644815
  H      39.246870     17.693975     43.235285
  C      37.985209     16.014023     43.637784
  C      36.981630     16.724166     44.547143
  O      37.072881     17.973031     44.692265
  O      36.136366     16.006224     45.137232
  O      37.668989     14.755670     43.282683
  C      36.900489     14.670244     41.695259
  H      36.635724     13.606057     41.658085
  C      38.018693     15.073109     40.887242
  H      38.798956     14.354130     40.653620
  C      38.256116     16.393736     40.671237
  C      37.207812     17.384240     40.961733
  H      37.445613     18.435318     40.782546
  C      36.009630     17.012978     41.441405
  H      35.237905     17.760588     41.639633
  C      35.657583     15.574162     41.725292
  H      35.259269     15.494134     42.748155
  O      34.684446     15.147315     40.780177
  H      33.933247     14.651144     41.235742
  C      39.473122     16.794794     39.849384
  O      40.468028     16.013977     39.774244
  O      39.383934     17.877144     39.226405
24
Coordinates from ORCA-job neb_MEP_ALL.QMRegion E -1074.522904464281
  C      39.083079     16.641889     43.047666
  H      39.890250     16.022982     42.666655
  H      39.241864     17.712416     43.180977
  C      38.012067     15.996480     43.670693
  C      36.985862     16.729367     44.559020
  O      37.073188     17.979196     44.687186
  O      36.135927     16.013715     45.140364
  O      37.789494     14.762090     43.443596
  C      36.836656     14.647026     41.520397
  H      36.619722     13.582237     41.619509
  C      37.997487     15.057703     40.894380
  H      38.791385     14.351741     40.662535
  C      38.287605     16.417410     40.768367
  C      37.209703     17.392462     40.979324
  H      37.445868     18.441139     40.790028
  C      36.003746     17.012360     41.429068
  H      35.231204     17.758456     41.626796
  C      35.649201     15.571462     41.693687
  H      35.278433     15.478696     42.729810
  O      34.643709     15.170763     40.768148
  H      33.913917     14.653293     41.233535
  C      39.480859     16.800758     39.884267
  O      40.464654     16.010733     39.781373
  O      39.370179     17.867274     39.237785
24
Coordinates from ORCA-job neb_MEP_ALL.QMRegion E -1074.528596206322
  C      39.038479     16.644805     42.878912
  H      39.906039     16.018230     42.689780
  H      39.226899     17.697510     43.109635
  C      38.011252     15.988204     43.658733
  C      36.990453     16.730442     44.562727
  O      37.082300     17.977962     44.682809
  O      36.142977     16.015740     45.143840
  O      37.849264     14.767808     43.529716
  C      36.814331     14.636934     41.440928
  H      36.609054     13.574297     41.582949
  C      37.991572     15.052142     40.916299
  H      38.788891     14.352069     40.674422
  C      38.344982     16.450034     40.917830
  C      37.213852     17.402361     41.005424
  H      37.442824     18.449117     40.797276
  C      36.003108     17.011337     41.423124
  H      35.224331     17.755254     41.608796
  C      35.647960     15.567210     41.680999
  H      35.286338     15.470028     42.722182
  O      34.624543     15.187065     40.767093
  H      33.907612     14.655774     41.233553
  C      39.490373     16.809119     39.926567
  O      40.462709     16.010680     39.789058
  O      39.354413     17.855838     39.253020
24
Coordinates from ORCA-job neb_MEP_ALL.QMRegion E -1074.551005024933
  C      38.988303     16.631960     42.679934
  H      39.901804     16.029012     42.702996
  H      39.192055     17.671137     42.980647
  C      38.012924     15.974791     43.628899
  C      37.006357     16.732692     44.561164
  O      37.102279     17.978237     44.678704
  O      36.166938     16.016181     45.146265
  O      37.937516     14.768867     43.632666
  C      36.796997     14.629738     41.361204
  H      36.589362     13.564529     41.493737
  C      37.999581     15.052480     40.953392
  H      38.792637     14.353102     40.697519
  C      38.411677     16.482815     41.084169
  C      37.228310     17.410535     41.050445
  H      37.440066     18.457320     40.821788
  C      36.007736     17.005289     41.416748
  H      35.213782     17.742582     41.566512
  C      35.645669     15.558263     41.660121
  H      35.300000     15.450069     42.708470
  O      34.595410     15.209028     40.766429
  H      33.892360     14.662334     41.234418
  C      39.499416     16.818909     39.983292
  O      40.459624     16.012669     39.807229
  O      39.328489     17.843832     39.285641
24
Coordinates from ORCA-job neb_MEP_ALL.QMRegion E -1074.565583938616
  C      39.020000     16.645000     42.613000
  H      39.979000     16.118000     42.662000
  H      39.148000     17.716000     42.823000
  C      38.157000     15.960000     43.660000
  C      37.105000     16.705000     44.550000
  O      37.176000     17.952000     44.643000
  O      36.282000     15.976000     45.146000
  O      38.270000     14.761000     43.814000
  C      36.746000     14.591000     41.164000
  H      36.494000     13.533000     41.067000
  C      37.999000     15.013000     40.982000
  H      38.810000     14.319000     40.768000
  C      38.415000     16.449000     41.155000
  C      37.225000     17.371000     41.095000
  H      37.449000     18.430000     40.950000
  C      35.977000     16.952000     41.318000
  H      35.164000     17.678000     41.380000
  C      35.603000     15.504000     41.519000
  H      35.351000     15.359000     42.590000
  O      34.474000     15.198000     40.719000
  H      33.784000     14.677000     41.235000
  C      39.478000     16.800000     40.036000
  O      40.446000     16.009000     39.837000
  O      39.287000     17.839000     39.369000
24
Coordinates from ORCA-job neb_MEP_ALL.QMRegion E -1074.552193114524
  C      39.054000     16.686000     43.562000
  H      39.807000     16.195000     42.948000
  H      39.264000     17.670000     43.983000
  C      37.867000     16.122000     43.805000
  C      36.838000     16.764000     44.719000
  O      36.918000     18.012000     44.882000
  O      35.992000     16.015000     45.262000
  O      37.515000     14.890000     43.282000
  C      37.016000     14.882000     41.905000
  H      36.687000     13.845000     41.743000
  C      38.153000     15.216000     40.988000
  H      38.949000     14.481000     40.870000
  C      38.280000     16.432000     40.423000
  C      37.250000     17.450000     40.666000
  H      37.472000     18.464000     40.326000
  C      36.113000     17.176000     41.330000
  H      35.398000     17.974000     41.550000
  C      35.756000     15.773000     41.755000
  H      35.271000     15.793000     42.746000
  O      34.868000     15.226000     40.788000
  H      34.133000     14.713000     41.232000
  C      39.499000     16.788000     39.587000
  O      40.533000     16.057000     39.670000
  O      39.417000     17.800000     38.850000
24
Coordinates from ORCA-job neb_MEP_ALL.QMRegion E -1074.554275056670
  C      39.059685     16.665298     43.488379
  H      39.804659     16.158180     42.874604
  H      39.267523     17.669597     43.865139
  C      37.879835     16.100071     43.766778
  C      36.862492     16.756304     44.686875
  O      36.947245     18.004561     44.847135
  O      36.018091     16.011457     45.237531
  O      37.518480     14.862170     43.255427
  C      37.005185     14.843791     41.903477
  H      36.677973     13.803845     41.738391
  C      38.130053     15.187758     40.965287
  H      38.922177     14.449372     40.825217
  C      38.269250     16.421441     40.442177
  C      37.241802     17.436126     40.711351
  H      37.467117     18.458758     40.406070
  C      36.097239     17.145064     41.355000
  H      35.372797     17.933859     41.577254
  C      35.739290     15.733589     41.756838
  H      35.263817     15.737486     42.751089
  O      34.845279     15.200759     40.787331
  H      34.103565     14.696208     41.233066
  C      39.492012     16.787450     39.617710
  O      40.519575     16.045512     39.679555
  O      39.415974     17.817841     38.906850
24
Coordinates from ORCA-job neb_MEP_ALL.QMRegion E -1074.554818632058
  C      39.067829     16.642905     43.409417
  H      39.803891     16.121248     42.797089
  H      39.269134     17.665183     43.735609
  C      37.893549     16.081485     43.723369
  C      36.889217     16.746285     44.648050
  O      36.979905     17.993636     44.806493
  O      36.048811     16.005415     45.211347
  O      37.527887     14.832726     43.241873
  C      36.988691     14.804301     41.883459
  H      36.669586     13.759576     41.734166
  C      38.105076     15.157504     40.941903
  H      38.892047     14.418325     40.776883
  C      38.254631     16.407665     40.462960
  C      37.229640     17.417503     40.761388
  H      37.460938     18.449602     40.495946
  C      36.077849     17.109023     41.383456
  H      35.345478     17.887773     41.608985
  C      35.719908     15.692029     41.759393
  H      35.253899     15.678168     42.758040
  O      34.821344     15.171440     40.789187
  H      34.070603     14.679393     41.234664
  C      39.483101     16.787158     39.654976
  O      40.505214     16.035715     39.693730
  O      39.414851     17.837541     38.975114
24
Coordinates from ORCA-job neb_MEP_ALL.QMRegion E -1074.553263167565
  C      39.080463     16.615384     43.305765
  H      39.810518     16.073207     42.705109
  H      39.267362     17.661413     43.551105
  C      37.916134     16.057060     43.666456
  C      36.926770     16.732145     44.596241
  O      37.023810     17.978845     44.753252
  O      36.089540     15.999008     45.175644
  O      37.548516     14.795335     43.227497
  C      36.964636     14.752674     41.845800
  H      36.660370     13.701654     41.724285
  C      38.070523     15.118878     40.912946
  H      38.850813     14.383932     40.712295
  C      38.236145     16.390819     40.502295
  C      37.213976     17.394098     40.834468
  H      37.452971     18.437295     40.621860
  C      36.049682     17.061319     41.419076
  H      35.304685     17.827010     41.643033
  C      35.694543     15.636645     41.760475
  H      35.242790     15.599586     42.765318
  O      34.783947     15.138484     40.792289
  H      34.022572     14.660440     41.236828
  C      39.471917     16.787161     39.715061
  O      40.485996     16.024787     39.719405
  O      39.411165     17.863113     39.076946
24
Coordinates from ORCA-job neb_MEP_ALL.QMRegion E -1074.547477720539
  C      39.091231     16.602583     43.206749
  H      39.832699     16.036032     42.645015
  H      39.258954     17.671804     43.357984
  C      37.948381     16.030990     43.624684
  C      36.963660     16.722461     44.555137
  O      37.060948     17.969457     44.708682
  O      36.124609     15.998155     45.145301
  O      37.583660     14.763991     43.210890
  C      36.942498     14.702984     41.804906
  H      36.650208     13.646804     41.698306
  C      38.039388     15.088374     40.892093
  H      38.815267     14.360068     40.662321
  C      38.233073     16.383332     40.572975
  C      37.205587     17.379790     40.913329
  H      37.446539     18.429884     40.735858
  C      36.023157     17.022937     41.443226
  H      35.261530     17.776825     41.654842
  C      35.671936     15.589259     41.751883
  H      35.242167     15.528828     42.763626
  O      34.734021     15.127437     40.790533
  H      33.969493     14.650118     41.237546
  C      39.467437     16.790322     39.791015
  O      40.471841     16.016479     39.751921
  O      39.399894     17.879638     39.178129
24
Coordinates from ORCA-job neb_MEP_ALL.QMRegion E -1074.530885911242
  C      39.092017     16.621226     43.129952
  H      39.864704     16.026247     42.647763
  H      39.248357     17.696849     43.237383
  C      37.988163     16.012801     43.640922
  C      36.983193     16.724346     44.550341
  O      37.071327     17.973658     44.692210
  O      36.135172     16.007022     45.137632
  O      37.676767     14.754458     43.292465
  C      36.896379     14.669192     41.685810
  H      36.634374     13.603437     41.655410
  C      38.018162     15.073075     40.886359
  H      38.799194     14.352865     40.654326
  C      38.257387     16.395465     40.672436
  C      37.207574     17.384019     40.961227
  H      37.445884     18.434379     40.781667
  C      36.009227     17.012638     41.439891
  H      35.238586     17.760102     41.639678
  C      35.655890     15.574818     41.722756
  H      35.261127     15.492954     42.746332
  O      34.681419     15.148705     40.779134
  H      33.931448     14.651554     41.235489
  C      39.474558     16.795963     39.851725
  O      40.467206     16.012403     39.773092
  O      39.382395     17.875712     39.225201
24
Coordinates from ORCA-job neb_MEP_ALL.QMRegion E -1074.522925056392
  C      39.084305     16.642718     43.049830
  H      39.890771     16.024710     42.668056
  H      39.242620     17.712304     43.183936
  C      38.013318     15.996965     43.671130
  C      36.987186     16.728637     44.560262
  O      37.072241     17.978649     44.687067
  O      36.135657     16.013978     45.140417
  O      37.791625     14.762478     43.445036
  C      36.835701     14.646642     41.519115
  H      36.619234     13.581458     41.618322
  C      37.997414     15.057270     40.894259
  H      38.791563     14.350928     40.662680
  C      38.287341     16.417042     40.766679
  C      37.209397     17.391905     40.978632
  H      37.446060     18.440604     40.789430
  C      36.003415     17.011664     41.428431
  H      35.231787     17.758088     41.627461
  C      35.648880     15.571274     41.692859
  H      35.278861     15.478162     42.728397
  O      34.643105     15.170797     40.768567
  H      33.912836     14.653523     41.233276
  C      39.480961     16.800490     39.883225
  O      40.464502     16.010102     39.780405
  O      39.370367     17.867057     39.236806
24
Coordinates from ORCA-job neb_MEP_ALL.QMRegion E -1074.528803442787
  C      39.037099     16.646215     42.870251
  H      39.909614     16.017797     42.691641
  H      39.227924     17.702683     43.109109
  C      38.011342     15.984680     43.660815
  C      36.988655     16.732849     44.563281
  O      37.083248     17.980886     44.683124
  O      36.145129     16.013239     45.143567
  O      37.853836     14.762754     43.534859
  C      36.811985     14.637218     41.437344
  H      36.608089     13.573932     41.578317
  C      37.990719     15.051120     40.918445
  H      38.789685     14.351007     40.675072
  C      38.347867     16.451786     40.923611
  C      37.213591     17.402434     41.005953
  H      37.442797     18.448604     40.798000
  C      36.003300     17.010634     41.423013
  H      35.224893     17.753704     41.607768
  C      35.648132     15.567897     41.679598
  H      35.287413     15.468760     42.719797
  O      34.622393     15.187679     40.766376
  H      33.905196     14.655910     41.233590
  C      39.490039     16.808171     39.924902
  O      40.463362     16.009380     39.790375
  O      39.353224     17.856399     39.254523
24
Coordinates from ORCA-job neb_MEP_ALL.QMRegion E -1074.550878476701
  C      38.993609     16.634874     42.707548
  H      39.907386     16.024984     42.701268
  H      39.198628     17.681378     43.002051
  C      38.010431     15.978825     43.640125
  C      36.999575     16.735583     44.560525
  O      37.101365     17.980650     44.678829
  O      36.164479     16.012295     45.145168
  O      37.927082     14.762198     43.618664
  C      36.799025     14.631921     41.378579
  H      36.591855     13.566902     41.502555
  C      37.994403     15.049948     40.943543
  H      38.794693     14.351681     40.695442
  C      38.401770     16.478303     41.062699
  C      37.224677     17.409339     41.042173
  H      37.441437     18.455723     40.819112
  C      36.007081     17.005745     41.419154
  H      35.216988     17.743542     41.572289
  C      35.646219     15.561319     41.662385
  H      35.300322     15.452581     42.707531
  O      34.597799     15.207336     40.765053
  H      33.893166     14.661598     41.234720
  C      39.495017     16.814298     39.969480
  O      40.462147     16.012125     39.806474
  O      39.333017     17.847832     39.282532
24
Coordinates from ORCA-job neb_MEP_ALL.QMRegion E -1074.565583938616
  C      39.020000     16.645000     42.613000
  H      39.979000     16.118000     42.662000
  H      39.148000     17.716000     42.823000
  C      38.157000     15.960000     43.660000
  C      37.105000     16.705000     44.550000
  O      37.176000     17.952000     44.643000
  O      36.282000     15.976000     45.146000
  O      38.270000     14.761000     43.814000
  C      36.746000     14.591000     41.164000
  H      36.494000     13.533000     41.067000
  C      37.999000     15.013000     40.982000
  H      38.810000     14.319000     40.768000
  C      38.415000     16.449000     41.155000
  C      37.225000     17.371000     41.095000
  H      37.449000     18.430000     40.950000
  C      35.977000     16.952000     41.318000
  H      35.164000     17.678000     41.380000
  C      35.603000     15.504000     41.519000
  H      35.351000     15.359000     42.590000
  O      34.474000     15.198000     40.719000
  H      33.784000     14.677000     41.235000
  C      39.478000     16.800000     40.036000
  O      40.446000     16.009000     39.837000
  O      39.287000     17.839000     39.369000
24
Coordinates from ORCA-job neb_MEP_ALL.QMRegion E -1074.552193114524
  C      39.054000     16.686000     43.562000
  H      39.807000     16.195000     42.948000
  H      39.264000     17.670000     43.983000
  C      37.867000     16.122000     43.805000
  C      36.838000     16.764000     44.719000
  O      36.918000     18.012000     44.882000
  O      35.992000     16.015000     45.262000
  O      37.515000     14.890000     43.282000
  C      37.016000     14.882000     41.905000
  H      36.687000     13.845000     41.743000
  C      38.153000     15.216000     40.988000
  H      38.949000     14.481000     40.870000
  C      38.280000     16.432000     40.423000
  C      37.250000     17.450000     40.666000
  H      37.472000     18.464000     40.326000
  C      36.113000     17.176000     41.330000
  H      35.398000     17.974000     41.550000
  C      35.756000     15.773000     41.755000
  H      35.271000     15.793000     42.746000
  O      34.868000     15.226000     40.788000
  H      34.133000     14.713000     41.232000
  C      39.499000     16.788000     39.587000
  O      40.533000     16.057000     39.670000
  O      39.417000     17.800000     38.850000
24
Coordinates from ORCA-job neb_MEP_ALL.QMRegion E -1074.554154331259
  C      39.059656     16.665078     43.488986
  H      39.804183     16.158448     42.874967
  H      39.268007     17.668612     43.866961
  C      37.879616     16.100018     43.766416
  C      36.862602     16.755891     44.687254
  O      36.946921     18.004156     44.847482
  O      36.017953     16.011586     45.237618
  O      37.519419     14.862734     43.258708
  C      37.004193     14.844112     41.899584
  H      36.678328     13.804902     41.738740
  C      38.130003     15.187287     40.965801
  H      38.921988     14.449850     40.825266
  C      38.268757     16.420620     40.441472
  C      37.241682     17.435766     40.710536
  H      37.466976     18.458768     40.404839
  C      36.097356     17.144878     41.354870
  H      35.373339     17.934323     41.577878
  C      35.739939     15.733081     41.756998
  H      35.263471     15.737922     42.751137
  O      34.845817     15.200509     40.787448
  H      34.104043     14.696016     41.232935
  C      39.492153     16.787329     39.616977
  O      40.519396     16.045201     39.679116
  O      39.415828     17.817943     38.905791
24
Coordinates from ORCA-job neb_MEP_ALL.QMRegion E -1074.554887140457
  C      39.067001     16.642390     43.410225
  H      39.803224     16.121340     42.797173
  H      39.270435     17.663982     43.738836
  C      37.894420     16.080981     43.723643
  C      36.889138     16.745767     44.648455
  O      36.979547     17.993712     44.807080
  O      36.048700     16.005303     45.211535
  O      37.528367     14.832894     43.243803
  C      36.988400     14.804331     41.881294
  H      36.669707     13.760131     41.734471
  C      38.104804     15.156919     40.941507
  H      38.891732     14.418582     40.776981
  C      38.253931     16.406746     40.461565
  C      37.229399     17.416852     40.759702
  H      37.460403     18.449090     40.494011
  C      36.078025     17.108881     41.383353
  H      35.346345     17.888305     41.610739
  C      35.720307     15.691342     41.759310
  H      35.253567     15.678402     42.758272
  O      34.821668     15.170663     40.788620
  H      34.071157     14.678686     41.234693
  C      39.483618     16.786709     39.653905
  O      40.504397     16.034959     39.692915
  O      39.414212     17.837937     38.973387
24
Coordinates from ORCA-job neb_MEP_ALL.QMRegion E -1074.553337605551
  C      39.079800     16.613982     43.304177
  H      39.810063     16.071874     42.702774
  H      39.269223     17.660177     43.550808
  C      37.918040     16.054993     43.665673
  C      36.927168     16.731928     44.595106
  O      37.024836     17.978420     44.752556
  O      36.090613     15.998285     45.175025
  O      37.548655     14.794629     43.227146
  C      36.964708     14.750864     41.845342
  H      36.660031     13.700327     41.724277
  C      38.069205     15.117997     40.910945
  H      38.849615     14.382816     40.710832
  C      38.235066     16.389453     40.501346
  C      37.213083     17.392802     40.834140
  H      37.451883     18.435917     40.622813
  C      36.049221     17.060120     41.420030
  H      35.304627     17.825695     41.646474
  C      35.693722     15.634865     41.760364
  H      35.242199     15.597576     42.765948
  O      34.783114     15.136341     40.791297
  H      34.021797     14.658907     41.237119
  C      39.471761     16.787085     39.715060
  O      40.484604     16.023228     39.718992
  O      39.410258     17.863947     39.077961
24
Coordinates from ORCA-job neb_MEP_ALL.QMRegion E -1074.546893881474
  C      39.091857     16.602459     43.204435
  H      39.833479     16.035201     42.644033
  H      39.259912     17.671746     43.354993
  C      37.950507     16.029304     43.624875
  C      36.964530     16.721996     44.554157
  O      37.061947     17.969089     44.707710
  O      36.125638     15.998042     45.144789
  O      37.586097     14.763111     43.212461
  C      36.941507     14.701055     41.801381
  H      36.649647     13.644816     41.697065
  C      38.038208     15.087614     40.890569
  H      38.814087     14.359074     40.661261
  C      38.232804     16.382429     40.574634
  C      37.205056     17.378996     40.914316
  H      37.445834     18.428946     40.737810
  C      36.022268     17.021675     41.443879
  H      35.260892     17.775151     41.656603
  C      35.670808     15.587814     41.750932
  H      35.242295     15.526369     42.763541
  O      34.731880     15.126642     40.789785
  H      33.967644     14.649341     41.237628
  C      39.467455     16.790145     39.792526
  O      40.470798     16.015424     39.752259
  O      39.398983     17.880221     39.180257
24
Coordinates from ORCA-job neb_MEP_ALL.QMRegion E -1074.529971981619
  C      39.092843     16.622821     43.129196
  H      39.866015     16.027226     42.649643
  H      39.248990     17.697848     43.238448
  C      37.989674     16.011912     43.643313
  C      36.983525     16.724206     44.551417
  O      37.070751     17.973887     44.692324
  O      36.134940     16.007444     45.137963
  O      37.681789     14.754964     43.298261
  C      36.894216     14.668172     41.679093
  H      36.633692     13.602448     41.653747
  C      38.017617     15.072359     40.886238
  H      38.798907     14.352625     40.654863
  C      38.257914     16.395531     40.674286
  C      37.207548     17.383913     40.960853
  H      37.446006     18.434182     40.781172
  C      36.009002     17.012471     41.438970
  H      35.238748     17.760075     41.639735
  C      35.655653     15.574532     41.721213
  H      35.261968     15.492315     42.745424
  O      34.679462     15.149555     40.778511
  H      33.930227     14.651777     41.235333
  C      39.474914     16.795835     39.851926
  O      40.466924     16.011980     39.772766
  O      39.382058     17.875433     39.224634
24
Coordinates from ORCA-job neb_MEP_ALL.QMRegion E -1074.522968191724
  C      39.084911     16.643232     43.051122
  H      39.891465     16.025549     42.668773
  H      39.243184     17.712798     43.185917
  C      38.013963     15.996997     43.671990
  C      36.987410     16.728476     44.560766
  O      37.071951     17.978607     44.687042
  O      36.135720     16.013755     45.140491
  O      37.792925     14.762463     43.445783
  C      36.835489     14.646262     41.518224
  H      36.618915     13.581139     41.617560
  C      37.997442     15.056912     40.894163
  H      38.791501     14.350550     40.662843
  C      38.287024     16.416674     40.765735
  C      37.209380     17.391547     40.978076
  H      37.446113     18.440201     40.789073
  C      36.003429     17.011444     41.428016
  H      35.232040     17.757902     41.627891
  C      35.648807     15.570986     41.692244
  H      35.279033     15.477829     42.727946
  O      34.642456     15.170789     40.768352
  H      33.912147     14.653628     41.233274
  C      39.480923     16.800225     39.882503
  O      40.464422     16.009776     39.779815
  O      39.370561     17.866942     39.236188
24
Coordinates from ORCA-job neb_MEP_ALL.QMRegion E -1074.529403300155
  C      39.038665     16.646890     42.873705
  H      39.909530     16.019152     42.692078
  H      39.228458     17.702879     43.111307
  C      38.012601     15.983731     43.660462
  C      36.989383     16.732417     44.563208
  O      37.082486     17.980452     44.683501
  O      36.145241     16.013437     45.143738
  O      37.854417     14.763306     43.534704
  C      36.812312     14.637090     41.438172
  H      36.607704     13.574074     41.577215
  C      37.991367     15.051025     40.918305
  H      38.789471     14.350778     40.675252
  C      38.346894     16.450533     40.920903
  C      37.213770     17.401701     41.005121
  H      37.442872     18.448272     40.797940
  C      36.003546     17.010363     41.422806
  H      35.225064     17.753364     41.608106
  C      35.647544     15.567497     41.678842
  H      35.287444     15.468419     42.719251
  O      34.621936     15.187379     40.766429
  H      33.904420     14.656134     41.233439
  C      39.489745     16.807384     39.923897
  O      40.463073     16.009276     39.789824
  O      39.353622     17.856506     39.253952
24
Coordinates from ORCA-job neb_MEP_ALL.QMRegion E -1074.547905615126
  C      38.994511     16.636211     42.707423
  H      39.908227     16.025080     42.702118
  H      39.199760     17.682716     43.005712
  C      38.011932     15.985326     43.640331
  C      36.999377     16.736566     44.560704
  O      37.100384     17.979897     44.678985
  O      36.162677     16.011883     45.145763
  O      37.925733     14.755171     43.619072
  C      36.799638     14.632115     41.379444
  H      36.591523     13.566940     41.503175
  C      37.993233     15.049187     40.942768
  H      38.794597     14.351511     40.695590
  C      38.401859     16.477831     41.063540
  C      37.224160     17.408774     41.040732
  H      37.441839     18.455642     40.818806
  C      36.007400     17.006145     41.419219
  H      35.217285     17.743994     41.573474
  C      35.645722     15.561618     41.662281
  H      35.300370     15.452972     42.707340
  O      34.597863     15.207512     40.765252
  H      33.893058     14.662008     41.234539
  C      39.494655     16.813794     39.968376
  O      40.462054     16.012199     39.805831
  O      39.333855     17.847915     39.281838
24
Coordinates from ORCA-job neb_MEP_ALL.QMRegion E -1074.565583938616
  C      39.020000     16.645000     42.613000
  H      39.979000     16.118000     42.662000
  H      39.148000     17.716000     42.823000
  C      38.157000     15.960000     43.660000
  C      37.105000     16.705000     44.550000
  O      37.176000     17.952000     44.643000
  O      36.282000     15.976000     45.146000
  O      38.270000     14.761000     43.814000
  C      36.746000     14.591000     41.164000
  H      36.494000     13.533000     41.067000
  C      37.999000     15.013000     40.982000
  H      38.810000     14.319000     40.768000
  C      38.415000     16.449000     41.155000
  C      37.225000     17.371000     41.095000
  H      37.449000     18.430000     40.950000
  C      35.977000     16.952000     41.318000
  H      35.164000     17.678000     41.380000
  C      35.603000     15.504000     41.519000
  H      35.351000     15.359000     42.590000
  O      34.474000     15.198000     40.719000
  H      33.784000     14.677000     41.235000
  C      39.478000     16.800000     40.036000
  O      40.446000     16.009000     39.837000
  O      39.287000     17.839000     39.369000
24
Coordinates from ORCA-job neb_MEP_ALL.QMRegion E -1074.552193114524
  C      39.054000     16.686000     43.562000
  H      39.807000     16.195000     42.948000
  H      39.264000     17.670000     43.983000
  C      37.867000     16.122000     43.805000
  C      36.838000     16.764000     44.719000
  O      36.918000     18.012000     44.882000
  O      35.992000     16.015000     45.262000
  O      37.515000     14.890000     43.282000
  C      37.016000     14.882000     41.905000
  H      36.687000     13.845000     41.743000
  C      38.153000     15.216000     40.988000
  H      38.949000     14.481000     40.870000
  C      38.280000     16.432000     40.423000
  C      37.250000     17.450000     40.666000
  H      37.472000     18.464000     40.326000
  C      36.113000     17.176000     41.330000
  H      35.398000     17.974000     41.550000
  C      35.756000     15.773000     41.755000
  H      35.271000     15.793000     42.746000
  O      34.868000     15.226000     40.788000
  H      34.133000     14.713000     41.232000
  C      39.499000     16.788000     39.587000
  O      40.533000     16.057000     39.670000
  O      39.417000     17.800000     38.850000
24
Coordinates from ORCA-job neb_MEP_ALL.QMRegion E -1074.554332892798
  C      39.059744     16.664489     43.491538
  H      39.802307     16.159514     42.876426
  H      39.269824     17.664283     43.874211
  C      37.878870     16.100702     43.765681
  C      36.863183     16.754407     44.688230
  O      36.945739     18.002401     44.848926
  O      36.017133     16.011840     45.238285
  O      37.522683     14.864373     43.270688
  C      37.000907     14.845808     41.885045
  H      36.679549     13.808444     41.740042
  C      38.129895     15.185769     40.967544
  H      38.921295     14.451645     40.825508
  C      38.266831     16.417268     40.438899
  C      37.241026     17.434439     40.707216
  H      37.466389     18.458670     40.399868
  C      36.097777     17.144204     41.354410
  H      35.375744     17.935923     41.580335
  C      35.742119     15.731656     41.757399
  H      35.262167     15.739579     42.751260
  O      34.848014     15.199438     40.788104
  H      34.105998     14.695254     41.232332
  C      39.492210     16.786881     39.613604
  O      40.518768     16.044195     39.677329
  O      39.415532     17.817915     38.901894
24
Coordinates from ORCA-job neb_MEP_ALL.QMRegion E -1074.555020996300
  C      39.065860     16.641262     43.413095
  H      39.800156     16.121910     42.797765
  H      39.275405     17.658399     43.751556
  C      37.896226     16.078719     43.725408
  C      36.889473     16.744324     44.649811
  O      36.977990     17.993000     44.809343
  O      36.048005     16.004886     45.212507
  O      37.530081     14.833705     43.250367
  C      36.987635     14.804519     41.873032
  H      36.670149     13.762196     41.735652
  C      38.103519     15.154511     40.940374
  H      38.890451     14.419625     40.777306
  C      38.251202     16.402651     40.456288
  C      37.227999     17.414287     40.753119
  H      37.458301     18.447215     40.486133
  C      36.078648     17.108114     41.382834
  H      35.349992     17.890376     41.617795
  C      35.722019     15.688589     41.759047
  H      35.252210     15.679250     42.758866
  O      34.823100     15.167631     40.786928
  H      34.073370     14.675840     41.234579
  C      39.484103     16.785994     39.648562
  O      40.501905     16.031933     39.689629
  O      39.412364     17.838483     38.967233
24
Coordinates from ORCA-job neb_MEP_ALL.QMRegion E -1074.553431882832
  C      39.079563     16.609198     43.296886
  H      39.807799     16.066719     42.693676
  H      39.276413     17.654462     43.548828
  C      37.923949     16.046352     43.663253
  C      36.929826     16.730288     44.590508
  O      37.028658     17.976559     44.749636
  O      36.094902     15.996043     45.172409
  O      37.548872     14.791896     43.223190
  C      36.965371     14.743719     41.844643
  H      36.658668     13.694864     41.724028
  C      38.063581     15.112800     40.903918
  H      38.844397     14.378688     40.704769
  C      38.230675     16.384275     40.497977
  C      37.209163     17.387336     40.833260
  H      37.447590     18.430856     40.626829
  C      36.047080     17.054817     41.423680
  H      35.304198     17.820577     41.660418
  C      35.691124     15.626671     41.760117
  H      35.239786     15.589250     42.767934
  O      34.779668     15.128037     40.787978
  H      34.018432     14.652687     41.238032
  C      39.470285     16.786603     39.714720
  O      40.479200     16.017497     39.717369
  O      39.407322     17.867199     39.082554
24
Coordinates from ORCA-job neb_MEP_ALL.QMRegion E -1074.546604142175
  C      39.094468     16.602225     43.194909
  H      39.836798     16.032063     42.640494
  H      39.263606     17.671515     43.342640
  C      37.959316     16.022776     43.626257
  C      36.968617     16.720222     44.550489
  O      37.065658     17.967576     44.703768
  O      36.129546     15.997814     45.142763
  O      37.595825     14.759681     43.216888
  C      36.937846     14.693346     41.788493
  H      36.647295     13.636532     41.691651
  C      38.033181     15.083010     40.884988
  H      38.809191     14.355375     40.657067
  C      38.232152     16.379760     40.581915
  C      37.202516     17.375495     40.918629
  H      37.443170     18.425601     40.745670
  C      36.018978     17.016593     41.446010
  H      35.258030     17.768788     41.663527
  C      35.666675     15.581408     41.747118
  H      35.243037     15.516397     42.762707
  O      34.722995     15.123932     40.786897
  H      33.959926     14.646279     41.237883
  C      39.466890     16.789692     39.798276
  O      40.466918     16.011476     39.753685
  O      39.395791     17.882152     39.189126
24
Coordinates from ORCA-job neb_MEP_ALL.QMRegion E -1074.529433891407
  C      39.095369     16.628695     43.126980
  H      39.871467     16.031123     42.656952
  H      39.251518     17.701981     43.242763
  C      37.996381     16.008986     43.652545
  C      36.984807     16.724096     44.555416
  O      37.068619     17.974550     44.692744
  O      36.133957     16.008751     45.139446
  O      37.701856     14.756988     43.321378
  C      36.885463     14.664180     41.652034
  H      36.631026     13.598426     41.647143
  C      38.015236     15.069167     40.885883
  H      38.797839     14.351610     40.656955
  C      38.260161     16.396015     40.681581
  C      37.207435     17.383437     40.959414
  H      37.446496     18.433432     40.779195
  C      36.008160     17.011776     41.435318
  H      35.239347     17.759971     41.639977
  C      35.654718     15.573326     41.715120
  H      35.265312     15.489748     42.741741
  O      34.671883     15.152958     40.776009
  H      33.925220     14.652609     41.234789
  C      39.475826     16.795522     39.852351
  O      40.466067     16.010302     39.771466
  O      39.380933     17.874004     39.222616
24
Coordinates from ORCA-job neb_MEP_ALL.QMRegion E -1074.522998214144
  C      39.087397     16.645350     43.056345
  H      39.894296     16.028935     42.671674
  H      39.245461     17.714885     43.193961
  C      38.016608     15.997016     43.675502
  C      36.988185     16.727929     44.562669
  O      37.070834     17.978464     44.686987
  O      36.136000     16.012769     45.140869
  O      37.798146     14.762334     43.448811
  C      36.834590     14.644730     41.514638
  H      36.617631     13.579846     41.614468
  C      37.997587     15.055499     40.893758
  H      38.791286     14.349000     40.663505
  C      38.285842     16.415193     40.761919
  C      37.209362     17.390101     40.975787
  H      37.446333     18.438592     40.787616
  C      36.003466     17.010518     41.426377
  H      35.233047     17.757155     41.629612
  C      35.648491     15.569806     41.689777
  H      35.279744     15.476479     42.726160
  O      34.639805     15.170743     40.767396
  H      33.909377     14.654052     41.233303
  C      39.480703     16.799156     39.879554
  O      40.464100     16.008478     39.777453
  O      39.371372     17.866433     39.233730
24
Coordinates from ORCA-job neb_MEP_ALL.QMRegion E -1074.529261218970
  C      39.044707     16.649348     42.888783
  H      39.909645     16.024448     42.693600
  H      39.230616     17.703620     43.120699
  C      38.017718     15.983195     43.659880
  C      36.992200     16.730272     44.563046
  O      37.079581     17.978563     44.684762
  O      36.145701     16.014199     45.144298
  O      37.856334     14.763494     43.533262
  C      36.814024     14.636798     41.441236
  H      36.606187     13.574342     41.573182
  C      37.993168     15.050355     40.917820
  H      38.788845     14.349649     40.675862
  C      38.342833     16.445733     40.908955
  C      37.214481     17.398867     41.001677
  H      37.443231     18.446735     40.797581
  C      36.004225     17.009163     41.421856
  H      35.225817     17.752121     41.609625
  C      35.645568     15.565872     41.676169
  H      35.287440     15.467136     42.717241
  O      34.620193     15.186120     40.766363
  H      33.901342     14.656964     41.232945
  C      39.488302     16.805139     39.919724
  O      40.462219     16.008512     39.787294
  O      39.355376     17.856378     39.251666
24
Coordinates from ORCA-job neb_MEP_ALL.QMRegion E -1074.547478973152
  C      38.997185     16.641077     42.702273
  H      39.910596     16.026474     42.706005
  H      39.203261     17.686295     43.016308
  C      38.016516     15.992855     43.639757
  C      36.998053     16.737082     44.562185
  O      37.096739     17.978724     44.679872
  O      36.157701     16.012175     45.147031
  O      37.924413     14.745868     43.623328
  C      36.799851     14.631891     41.380586
  H      36.589595     13.566887     41.503469
  C      37.991244     15.047389     40.941167
  H      38.793832     14.350956     40.696756
  C      38.403749     16.476780     41.070407
  C      37.223667     17.407270     41.036520
  H      37.443252     18.455305     40.818137
  C      36.007914     17.007355     41.419256
  H      35.218152     17.745570     41.577127
  C      35.644107     15.562386     41.661478
  H      35.300679     15.454051     42.706587
  O      34.597531     15.208860     40.765954
  H      33.892198     14.663812     41.233885
  C      39.493996     16.812796     39.966464
  O      40.461422     16.012252     39.803433
  O      39.336181     17.847362     39.279882
24
Coordinates from ORCA-job neb_MEP_ALL.QMRegion E -1074.565583938616
  C      39.020000     16.645000     42.613000
  H      39.979000     16.118000     42.662000
  H      39.148000     17.716000     42.823000
  C      38.157000     15.960000     43.660000
  C      37.105000     16.705000     44.550000
  O      37.176000     17.952000     44.643000
  O      36.282000     15.976000     45.146000
  O      38.270000     14.761000     43.814000
  C      36.746000     14.591000     41.164000
  H      36.494000     13.533000     41.067000
  C      37.999000     15.013000     40.982000
  H      38.810000     14.319000     40.768000
  C      38.415000     16.449000     41.155000
  C      37.225000     17.371000     41.095000
  H      37.449000     18.430000     40.950000
  C      35.977000     16.952000     41.318000
  H      35.164000     17.678000     41.380000
  C      35.603000     15.504000     41.519000
  H      35.351000     15.359000     42.590000
  O      34.474000     15.198000     40.719000
  H      33.784000     14.677000     41.235000
  C      39.478000     16.800000     40.036000
  O      40.446000     16.009000     39.837000
  O      39.287000     17.839000     39.369000
24
Coordinates from ORCA-job neb_MEP_ALL.QMRegion E -1074.552193114524
  C      39.054000     16.686000     43.562000
  H      39.807000     16.195000     42.948000
  H      39.264000     17.670000     43.983000
  C      37.867000     16.122000     43.805000
  C      36.838000     16.764000     44.719000
  O      36.918000     18.012000     44.882000
  O      35.992000     16.015000     45.262000
  O      37.515000     14.890000     43.282000
  C      37.016000     14.882000     41.905000
  H      36.687000     13.845000     41.743000
  C      38.153000     15.216000     40.988000
  H      38.949000     14.481000     40.870000
  C      38.280000     16.432000     40.423000
  C      37.250000     17.450000     40.666000
  H      37.472000     18.464000     40.326000
  C      36.113000     17.176000     41.330000
  H      35.398000     17.974000     41.550000
  C      35.756000     15.773000     41.755000
  H      35.271000     15.793000     42.746000
  O      34.868000     15.226000     40.788000
  H      34.133000     14.713000     41.232000
  C      39.499000     16.788000     39.587000
  O      40.533000     16.057000     39.670000
  O      39.417000     17.800000     38.850000
24
Coordinates from ORCA-job neb_MEP_ALL.QMRegion E -1074.554416828640
  C      39.059973     16.664876     43.491772
  H      39.802413     16.159441     42.876422
  H      39.269803     17.663886     43.874485
  C      37.879071     16.101656     43.766872
  C      36.863067     16.754539     44.687759
  O      36.945913     18.002486     44.849055
  O      36.016904     16.011496     45.238607
  O      37.521668     14.863483     43.268005
  C      37.002182     14.846279     41.887975
  H      36.679209     13.807292     41.739830
  C      38.130049     15.186341     40.966833
  H      38.921511     14.451348     40.825600
  C      38.266988     16.417577     40.438934
  C      37.240749     17.434562     40.707002
  H      37.466312     18.458305     40.399652
  C      36.097764     17.144431     41.354419
  H      35.376157     17.935582     41.580383
  C      35.741357     15.732656     41.757001
  H      35.262415     15.739427     42.751094
  O      34.848143     15.199385     40.788144
  H      34.106001     14.695158     41.232301
  C      39.491543     16.786653     39.613081
  O      40.518780     16.044548     39.677198
  O      39.415860     17.817366     38.902181
24
Coordinates from ORCA-job neb_MEP_ALL.QMRegion E -1074.555232411411
  C      39.067810     16.642013     43.413049
  H      39.799826     16.122021     42.797873
  H      39.275361     17.657450     43.751776
  C      37.894828     16.078800     43.726200
  C      36.889889     16.744514     44.649795
  O      36.977954     17.992076     44.809244
  O      36.047878     16.005010     45.212667
  O      37.529613     14.833673     43.248291
  C      36.988200     14.804585     41.874379
  H      36.670047     13.761747     41.735562
  C      38.103315     15.154508     40.940681
  H      38.890549     14.419441     40.777192
  C      38.251255     16.402435     40.456295
  C      37.227324     17.414263     40.753156
  H      37.458244     18.447210     40.485698
  C      36.078471     17.107881     41.382702
  H      35.350459     17.890189     41.618087
  C      35.721941     15.688775     41.759080
  H      35.252273     15.679032     42.758292
  O      34.823448     15.167667     40.787636
  H      34.073343     14.675657     41.234286
  C      39.482231     16.786353     39.647438
  O      40.502485     16.032265     39.689383
  O      39.413257     17.837507     38.967815
24
Coordinates from ORCA-job neb_MEP_ALL.QMRegion E -1074.553617394788
  C      39.081917     16.609660     43.295728
  H      39.807499     16.066571     42.693349
  H      39.276319     17.653372     43.547368
  C      37.922622     16.046540     43.663662
  C      36.931452     16.729154     44.590452
  O      37.028587     17.976083     44.749096
  O      36.095017     15.996758     45.172085
  O      37.548583     14.791408     43.219885
  C      36.965426     14.743619     41.845782
  H      36.658607     13.694222     41.723689
  C      38.062999     15.110898     40.904871
  H      38.843762     14.378741     40.704131
  C      38.230322     16.384212     40.498591
  C      37.208525     17.386873     40.834021
  H      37.447497     18.431188     40.627422
  C      36.046355     17.053747     41.423695
  H      35.303997     17.820310     41.661099
  C      35.691742     15.625128     41.760310
  H      35.239703     15.588362     42.767099
  O      34.779529     15.128145     40.789023
  H      34.017813     14.652344     41.237653
  C      39.468924     16.786143     39.714476
  O      40.479179     16.018210     39.717331
  O      39.408286     17.867096     39.083676
24
Coordinates from ORCA-job neb_MEP_ALL.QMRegion E -1074.545270200402
  C      39.094664     16.602596     43.194382
  H      39.837452     16.032265     42.640974
  H      39.263498     17.671761     43.341659
  C      37.959921     16.023137     43.627006
  C      36.969593     16.720179     44.551008
  O      37.065407     17.967561     44.703493
  O      36.129391     15.998106     45.142670
  O      37.596525     14.759535     43.215060
  C      36.937657     14.693058     41.789242
  H      36.647079     13.635748     41.690780
  C      38.032714     15.081451     40.885478
  H      38.808986     14.355440     40.656975
  C      38.232658     16.380535     40.583241
  C      37.202192     17.375228     40.919296
  H      37.443312     18.425975     40.746014
  C      36.018870     17.016252     41.445460
  H      35.257581     17.768978     41.663394
  C      35.667044     15.580487     41.746872
  H      35.243479     15.515858     42.761827
  O      34.722307     15.124662     40.787091
  H      33.959119     14.646325     41.237743
  C      39.466092     16.789801     39.798371
  O      40.467156     16.011900     39.753787
  O      39.396349     17.881666     39.189804
24
Coordinates from ORCA-job neb_MEP_ALL.QMRegion E -1074.527449615956
  C      39.094945     16.628227     43.128469
  H      39.871700     16.031287     42.656794
  H      39.251620     17.702181     43.243461
  C      37.996847     16.009618     43.652287
  C      36.984593     16.724405     44.555160
  O      37.068811     17.974389     44.692745
  O      36.134012     16.008289     45.139566
  O      37.701775     14.757027     43.321139
  C      36.885277     14.664268     41.651987
  H      36.631151     13.598332     41.647268
  C      38.015050     15.068834     40.885944
  H      38.798057     14.351414     40.656844
  C      38.260195     16.396244     40.680871
  C      37.207475     17.383310     40.959291
  H      37.446511     18.433364     40.779045
  C      36.008192     17.011694     41.435374
  H      35.239381     17.759941     41.640079
  C      35.654704     15.573297     41.715210
  H      35.265290     15.489738     42.741654
  O      34.672181     15.152827     40.776038
  H      33.925093     14.652579     41.234861
  C      39.475275     16.795435     39.851768
  O      40.466302     16.010376     39.771328
  O      39.381258     17.873758     39.222665
24
Coordinates from ORCA-job neb_MEP_ALL.QMRegion E -1074.523092626602
  C      39.087602     16.645520     43.056646
  H      39.894451     16.029136     42.671855
  H      39.245566     17.715087     43.194440
  C      38.016831     15.996878     43.675661
  C      36.988049     16.727995     44.562572
  O      37.070835     17.978476     44.687066
  O      36.136054     16.012635     45.141013
  O      37.798353     14.762227     43.448997
  C      36.834444     14.644687     41.514494
  H      36.617584     13.579749     41.614290
  C      37.997634     15.055476     40.893716
  H      38.791363     14.348868     40.663538
  C      38.285963     16.415143     40.761708
  C      37.209395     17.390008     40.975618
  H      37.446364     18.438556     40.787507
  C      36.003441     17.010389     41.426350
  H      35.233084     17.757114     41.629670
  C      35.648408     15.569736     41.689694
  H      35.279818     15.476398     42.726089
  O      34.639636     15.170704     40.767273
  H      33.909283     14.654088     41.233341
  C      39.480619     16.799074     39.879363
  O      40.464075     16.008443     39.777369
  O      39.371438     17.866352     39.233653
24
Coordinates from ORCA-job neb_MEP_ALL.QMRegion E -1074.528540458000
  C      39.044287     16.649218     42.889706
  H      39.910674     16.024216     42.693440
  H      39.230664     17.703918     43.121375
  C      38.017514     15.985804     43.661257
  C      36.991964     16.730074     44.563277
  O      37.079941     17.978507     44.684355
  O      36.145858     16.013808     45.144139
  O      37.856570     14.762074     43.532733
  C      36.813832     14.636790     41.440560
  H      36.606140     13.573905     41.573261
  C      37.992553     15.050044     40.917883
  H      38.789161     14.349288     40.675833
  C      38.342751     16.446172     40.908062
  C      37.214371     17.399017     41.001668
  H      37.443320     18.446418     40.797463
  C      36.003833     17.008945     41.421592
  H      35.225933     17.752189     41.609747
  C      35.646162     15.565886     41.676517
  H      35.287354     15.467110     42.717338
  O      34.620100     15.186101     40.765890
  H      33.901205     14.656905     41.233118
  C      39.488335     16.805816     39.919712
  O      40.462457     16.008103     39.786927
  O      39.355414     17.855935     39.251570
24
Coordinates from ORCA-job neb_MEP_ALL.QMRegion E -1074.546326521584
  C      38.995920     16.640357     42.696411
  H      39.909444     16.027878     42.706675
  H      39.201998     17.683962     43.011276
  C      38.014547     15.972096     43.638515
  C      36.997630     16.733511     44.562960
  O      37.097017     17.980691     44.680159
  O      36.160164     16.014246     45.145766
  O      37.929606     14.767261     43.626517
  C      36.797315     14.630883     41.377333
  H      36.588711     13.566541     41.500727
  C      37.994160     15.048829     40.943528
  H      38.793429     14.350998     40.697496
  C      38.405952     16.478258     41.074712
  C      37.225337     17.408061     41.038814
  H      37.443106     18.455335     40.818759
  C      36.007324     17.006954     41.418847
  H      35.217777     17.745387     41.575863
  C      35.644684     15.561932     41.661129
  H      35.300809     15.453510     42.706625
  O      34.596702     15.209780     40.765761
  H      33.891644     14.664075     41.233981
  C      39.495188     16.813852     39.969833
  O      40.461069     16.011869     39.803632
  O      39.334779     17.846411     39.280814
24
Coordinates from ORCA-job neb_MEP_ALL.QMRegion E -1074.565583938616
  C      39.020000     16.645000     42.613000
  H      39.979000     16.118000     42.662000
  H      39.148000     17.716000     42.823000
  C      38.157000     15.960000     43.660000
  C      37.105000     16.705000     44.550000
  O      37.176000     17.952000     44.643000
  O      36.282000     15.976000     45.146000
  O      38.270000     14.761000     43.814000
  C      36.746000     14.591000     41.164000
  H      36.494000     13.533000     41.067000
  C      37.999000     15.013000     40.982000
  H      38.810000     14.319000     40.768000
  C      38.415000     16.449000     41.155000
  C      37.225000     17.371000     41.095000
  H      37.449000     18.430000     40.950000
  C      35.977000     16.952000     41.318000
  H      35.164000     17.678000     41.380000
  C      35.603000     15.504000     41.519000
  H      35.351000     15.359000     42.590000
  O      34.474000     15.198000     40.719000
  H      33.784000     14.677000     41.235000
  C      39.478000     16.800000     40.036000
  O      40.446000     16.009000     39.837000
  O      39.287000     17.839000     39.369000
24
Coordinates from ORCA-job neb_MEP_ALL.QMRegion E -1074.552193114524
  C      39.054000     16.686000     43.562000
  H      39.807000     16.195000     42.948000
  H      39.264000     17.670000     43.983000
  C      37.867000     16.122000     43.805000
  C      36.838000     16.764000     44.719000
  O      36.918000     18.012000     44.882000
  O      35.992000     16.015000     45.262000
  O      37.515000     14.890000     43.282000
  C      37.016000     14.882000     41.905000
  H      36.687000     13.845000     41.743000
  C      38.153000     15.216000     40.988000
  H      38.949000     14.481000     40.870000
  C      38.280000     16.432000     40.423000
  C      37.250000     17.450000     40.666000
  H      37.472000     18.464000     40.326000
  C      36.113000     17.176000     41.330000
  H      35.398000     17.974000     41.550000
  C      35.756000     15.773000     41.755000
  H      35.271000     15.793000     42.746000
  O      34.868000     15.226000     40.788000
  H      34.133000     14.713000     41.232000
  C      39.499000     16.788000     39.587000
  O      40.533000     16.057000     39.670000
  O      39.417000     17.800000     38.850000
24
Coordinates from ORCA-job neb_MEP_ALL.QMRegion E -1074.554557081008
  C      39.060080     16.664947     43.491924
  H      39.802443     16.159428     42.876458
  H      39.269841     17.663735     43.874776
  C      37.879157     16.101876     43.767335
  C      36.862770     16.754533     44.687701
  O      36.946022     18.002500     44.849126
  O      36.016918     16.011413     45.238698
  O      37.521259     14.863355     43.266794
  C      37.002689     14.846346     41.889395
  H      36.679080     13.806870     41.739715
  C      38.130172     15.186524     40.966559
  H      38.921622     14.451223     40.825659
  C      38.267032     16.417867     40.438841
  C      37.240612     17.434581     40.706852
  H      37.466261     18.458120     40.399453
  C      36.097772     17.144577     41.354379
  H      35.376385     17.935457     41.580433
  C      35.741077     15.733127     41.756859
  H      35.262527     15.739377     42.750996
  O      34.848182     15.199336     40.788154
  H      34.106053     14.695110     41.232267
  C      39.491235     16.786322     39.612849
  O      40.518759     16.044770     39.677107
  O      39.416026     17.817220     38.902189
24
Coordinates from ORCA-job neb_MEP_ALL.QMRegion E -1074.555409349980
  C      39.067854     16.641824     43.413355
  H      39.799788     16.122000     42.797791
  H      39.275469     17.657099     43.752039
  C      37.895023     16.079163     43.726224
  C      36.889898     16.744205     44.649891
  O      36.978014     17.991828     44.809201
  O      36.047853     16.005128     45.212746
  O      37.529383     14.833778     43.247233
  C      36.988385     14.804537     41.875037
  H      36.670011     13.761554     41.735508
  C      38.103305     15.154444     40.940856
  H      38.890559     14.419352     40.777110
  C      38.251061     16.402331     40.456286
  C      37.227045     17.414229     40.753084
  H      37.458164     18.447164     40.485401
  C      36.078275     17.107718     41.382659
  H      35.350751     17.890083     41.618324
  C      35.721989     15.688809     41.759126
  H      35.252275     15.678887     42.757976
  O      34.823616     15.167641     40.788041
  H      34.073350     14.675529     41.234099
  C      39.481668     16.785716     39.647037
  O      40.502423     16.032747     39.689196
  O      39.413702     17.837453     38.967834
24
Coordinates from ORCA-job neb_MEP_ALL.QMRegion E -1074.553805167030
  C      39.082075     16.609293     43.295391
  H      39.807564     16.066287     42.692875
  H      39.276403     17.652958     43.546358
  C      37.923051     16.046814     43.663239
  C      36.932289     16.728701     44.590539
  O      37.028679     17.975637     44.748641
  O      36.095100     15.997065     45.171884
  O      37.548506     14.791267     43.218063
  C      36.965371     14.743172     41.846345
  H      36.658563     13.693842     41.723454
  C      38.062608     15.110389     40.905227
  H      38.843416     14.378585     40.703645
  C      38.229920     16.383564     40.499180
  C      37.208158     17.386684     40.834509
  H      37.447367     18.431260     40.627914
  C      36.045823     17.053022     41.423779
  H      35.303859     17.820020     41.661599
  C      35.692034     15.624225     41.760412
  H      35.239636     15.587675     42.766616
  O      34.779347     15.128115     40.789632
  H      34.017380     14.652098     41.237423
  C      39.468234     16.785739     39.714431
  O      40.479055     16.018635     39.717332
  O      39.408832     17.867194     39.084408
24
Coordinates from ORCA-job neb_MEP_ALL.QMRegion E -1074.545286892418
  C      39.094767     16.602819     43.194105
  H      39.837934     16.032409     42.641286
  H      39.263445     17.672000     43.340986
  C      37.960393     16.023237     43.627324
  C      36.970067     16.720089     44.551385
  O      37.065306     17.967598     44.703309
  O      36.129390     15.998301     45.142570
  O      37.597042     14.759532     43.214014
  C      36.937560     14.692632     41.789646
  H      36.646938     13.635275     41.690214
  C      38.032461     15.081247     40.885630
  H      38.808936     14.355338     40.656881
  C      38.232826     16.380312     40.584270
  C      37.202214     17.375290     40.919656
  H      37.443361     18.426102     40.746296
  C      36.018541     17.015980     41.445239
  H      35.257342     17.768995     41.663262
  C      35.667217     15.580036     41.746636
  H      35.243760     15.515463     42.761310
  O      34.721753     15.125079     40.787224
  H      33.958601     14.646397     41.237633
  C      39.465839     16.789592     39.798603
  O      40.467181     16.012214     39.753876
  O      39.396643     17.881622     39.190125
24
Coordinates from ORCA-job neb_MEP_ALL.QMRegion E -1074.527660781295
  C      39.095217     16.628221     43.129130
  H      39.871774     16.031487     42.656804
  H      39.251654     17.702225     43.243912
  C      37.996741     16.009715     43.652349
  C      36.984422     16.724401     44.555040
  O      37.068915     17.974410     44.692767
  O      36.134156     16.008090     45.139577
  O      37.701913     14.757132     43.321195
  C      36.885068     14.664234     41.651798
  H      36.631207     13.598251     41.647293
  C      38.015034     15.068798     40.885901
  H      38.798159     14.351287     40.656794
  C      38.260139     16.396154     40.680558
  C      37.207507     17.383262     40.959215
  H      37.446514     18.433317     40.778953
  C      36.008213     17.011643     41.435402
  H      35.239404     17.759908     41.640138
  C      35.654699     15.573283     41.715205
  H      35.265296     15.489700     42.741592
  O      34.672167     15.152686     40.776080
  H      33.925061     14.652609     41.234867
  C      39.475125     16.795191     39.851471
  O      40.466342     16.010475     39.771243
  O      39.381427     17.873742     39.222608
24
Coordinates from ORCA-job neb_MEP_ALL.QMRegion E -1074.523104710229
  C      39.087743     16.645634     43.056875
  H      39.894577     16.029291     42.671993
  H      39.245643     17.715232     43.194800
  C      38.016981     15.996810     43.675776
  C      36.987964     16.727996     44.562533
  O      37.070827     17.978486     44.687117
  O      36.136111     16.012564     45.141098
  O      37.798526     14.762151     43.449142
  C      36.834369     14.644652     41.514358
  H      36.617547     13.579680     41.614152
  C      37.997657     15.055433     40.893699
  H      38.791408     14.348777     40.663568
  C      38.286016     16.415103     40.761567
  C      37.209400     17.389934     40.975504
  H      37.446383     18.438520     40.787425
  C      36.003451     17.010314     41.426314
  H      35.233117     17.757077     41.629711
  C      35.648344     15.569680     41.689613
  H      35.279867     15.476332     42.726040
  O      34.639529     15.170684     40.767191
  H      33.909198     14.654109     41.233369
  C      39.480588     16.798999     39.879233
  O      40.464061     16.008409     39.777302
  O      39.371479     17.866316     39.233578
24
Coordinates from ORCA-job neb_MEP_ALL.QMRegion E -1074.528562161954
  C      39.044230     16.649242     42.890058
  H      39.911169     16.024186     42.693446
  H      39.230666     17.704051     43.121676
  C      38.017285     15.985820     43.661896
  C      36.991894     16.730076     44.563402
  O      37.080135     17.978466     44.684123
  O      36.145901     16.013533     45.144110
  O      37.857023     14.762613     43.532707
  C      36.813470     14.636579     41.440141
  H      36.606089     13.573679     41.573194
  C      37.992571     15.050021     40.917791
  H      38.789261     14.349120     40.675880
  C      38.342664     16.446298     40.907793
  C      37.214242     17.399047     41.001713
  H      37.443372     18.446295     40.797389
  C      36.003708     17.008852     41.421393
  H      35.225974     17.752224     41.609795
  C      35.646379     15.565863     41.676588
  H      35.287336     15.467058     42.717380
  O      34.620002     15.186095     40.765695
  H      33.901137     14.656911     41.233193
  C      39.488598     16.805826     39.919851
  O      40.462431     16.008008     39.786735
  O      39.355391     17.855886     39.251389
24
Coordinates from ORCA-job neb_MEP_ALL.QMRegion E -1074.548328902751
  C      38.995592     16.639548     42.695760
  H      39.908926     16.028757     42.706822
  H      39.201505     17.682728     43.009917
  C      38.014669     15.975934     43.637819
  C      36.998722     16.734015     44.562816
  O      37.096870     17.979874     44.680115
  O      36.160076     16.014200     45.145926
  O      37.930511     14.764383     43.627402
  C      36.797440     14.631017     41.375551
  H      36.588331     13.566205     41.500076
  C      37.994377     15.049127     40.945171
  H      38.793293     14.350878     40.697591
  C      38.406732     16.479006     41.074915
  C      37.225703     17.408088     41.039865
  H      37.443057     18.455311     40.818805
  C      36.007499     17.006865     41.418476
  H      35.217627     17.745355     41.575581
  C      35.644855     15.561688     41.661092
  H      35.300627     15.453359     42.706810
  O      34.596416     15.209917     40.765716
  H      33.891461     14.664167     41.233971
  C      39.495685     16.814331     39.971047
  O      40.460920     16.011535     39.803514
  O      39.334269     17.846015     39.280951
24
Coordinates from ORCA-job neb_MEP_ALL.QMRegion E -1074.565583938616
  C      39.020000     16.645000     42.613000
  H      39.979000     16.118000     42.662000
  H      39.148000     17.716000     42.823000
  C      38.157000     15.960000     43.660000
  C      37.105000     16.705000     44.550000
  O      37.176000     17.952000     44.643000
  O      36.282000     15.976000     45.146000
  O      38.270000     14.761000     43.814000
  C      36.746000     14.591000     41.164000
  H      36.494000     13.533000     41.067000
  C      37.999000     15.013000     40.982000
  H      38.810000     14.319000     40.768000
  C      38.415000     16.449000     41.155000
  C      37.225000     17.371000     41.095000
  H      37.449000     18.430000     40.950000
  C      35.977000     16.952000     41.318000
  H      35.164000     17.678000     41.380000
  C      35.603000     15.504000     41.519000
  H      35.351000     15.359000     42.590000
  O      34.474000     15.198000     40.719000
  H      33.784000     14.677000     41.235000
  C      39.478000     16.800000     40.036000
  O      40.446000     16.009000     39.837000
  O      39.287000     17.839000     39.369000
24
Coordinates from ORCA-job neb_MEP_ALL.QMRegion E -1074.552193114524
  C      39.054000     16.686000     43.562000
  H      39.807000     16.195000     42.948000
  H      39.264000     17.670000     43.983000
  C      37.867000     16.122000     43.805000
  C      36.838000     16.764000     44.719000
  O      36.918000     18.012000     44.882000
  O      35.992000     16.015000     45.262000
  O      37.515000     14.890000     43.282000
  C      37.016000     14.882000     41.905000
  H      36.687000     13.845000     41.743000
  C      38.153000     15.216000     40.988000
  H      38.949000     14.481000     40.870000
  C      38.280000     16.432000     40.423000
  C      37.250000     17.450000     40.666000
  H      37.472000     18.464000     40.326000
  C      36.113000     17.176000     41.330000
  H      35.398000     17.974000     41.550000
  C      35.756000     15.773000     41.755000
  H      35.271000     15.793000     42.746000
  O      34.868000     15.226000     40.788000
  H      34.133000     14.713000     41.232000
  C      39.499000     16.788000     39.587000
  O      40.533000     16.057000     39.670000
  O      39.417000     17.800000     38.850000
24
Coordinates from ORCA-job neb_MEP_ALL.QMRegion E -1074.554589619007
  C      39.060576     16.665082     43.492891
  H      39.802573     16.159386     42.876698
  H      39.270153     17.662957     43.876660
  C      37.879554     16.102648     43.769468
  C      36.861196     16.754607     44.687504
  O      36.946579     18.002453     44.849525
  O      36.016896     16.010891     45.239259
  O      37.519399     14.863227     43.261015
  C      37.005012     14.846498     41.896301
  H      36.678491     13.804995     41.739133
  C      38.130803     15.187476     40.965327
  H      38.922241     14.450607     40.825975
  C      38.267134     16.419230     40.438222
  C      37.239935     17.434687     40.705900
  H      37.465954     18.457144     40.398183
  C      36.097840     17.145316     41.354094
  H      35.377603     17.934964     41.580779
  C      35.739879     15.735376     41.756236
  H      35.263046     15.739191     42.750470
  O      34.848502     15.199110     40.788143
  H      34.106352     14.694798     41.232088
  C      39.489580     16.784672     39.611424
  O      40.518713     16.045845     39.676589
  O      39.416900     17.816460     38.902083
24
Coordinates from ORCA-job neb_MEP_ALL.QMRegion E -1074.555454566089
  C      39.068556     16.640728     43.415016
  H      39.799485     16.121882     42.797305
  H      39.276215     17.655071     43.753767
  C      37.895626     16.080561     43.726135
  C      36.890119     16.742727     44.650397
  O      36.978409     17.990358     44.808942
  O      36.047553     16.005485     45.213323
  O      37.528378     14.834713     43.241847
  C      36.989216     14.804168     41.878316
  H      36.669834     13.760590     41.735213
  C      38.103273     15.154052     40.941851
  H      38.890573     14.418844     40.776616
  C      38.249691     16.401539     40.456084
  C      37.225508     17.413994     40.752546
  H      37.457616     18.446800     40.483603
  C      36.077278     17.106763     41.382392
  H      35.352366     17.889553     41.619849
  C      35.722382     15.688787     41.759412
  H      35.252198     15.678031     42.756306
  O      34.824597     15.167435     40.790139
  H      34.073362     14.674705     41.233090
  C      39.478517     16.782685     39.644513
  O      40.502203     16.035106     39.688142
  O      39.416079     17.836966     38.967998
24
Coordinates from ORCA-job neb_MEP_ALL.QMRegion E -1074.553852643878
  C      39.083527     16.607177     43.293080
  H      39.807980     16.064513     42.689903
  H      39.277023     17.650634     43.540286
  C      37.925082     16.047390     43.660446
  C      36.936885     16.726174     44.590915
  O      37.029539     17.973214     44.745877
  O      36.095772     15.998491     45.170660
  O      37.548491     14.790788     43.208358
  C      36.964993     14.740249     41.849123
  H      36.658255     13.691451     41.722028
  C      38.060331     15.107309     40.907045
  H      38.841307     14.377510     40.700701
  C      38.227414     16.380100     40.502380
  C      37.205944     17.385435     40.837470
  H      37.446479     18.431399     40.631015
  C      36.042885     17.048894     41.424342
  H      35.302985     17.818028     41.664669
  C      35.693357     15.619099     41.760955
  H      35.239206     15.583407     42.764040
  O      34.778166     15.127729     40.792833
  H      34.014693     14.650573     41.236209
  C      39.464449     16.783525     39.714416
  O      40.478284     16.020782     39.717395
  O      39.411704     17.867844     39.088884
24
Coordinates from ORCA-job neb_MEP_ALL.QMRegion E -1074.545263277107
  C      39.095585     16.604181     43.192582
  H      39.840830     16.033324     42.643115
  H      39.263162     17.673542     43.336977
  C      37.963082     16.023533     43.628870
  C      36.972684     16.719670     44.553396
  O      37.064855     17.967797     44.702245
  O      36.129459     15.999264     45.142061
  O      37.600212     14.759545     43.208438
  C      36.937130     14.690091     41.791508
  H      36.646118     13.632465     41.686909
  C      38.031107     15.079829     40.886514
  H      38.808543     14.354741     40.656320
  C      38.233742     16.379305     40.590075
  C      37.202193     17.375504     40.921978
  H      37.443645     18.426769     40.748043
  C      36.016889     17.014531     41.443920
  H      35.255935     17.768891     41.662416
  C      35.667929     15.577597     41.745177
  H      35.245367     15.513059     42.758456
  O      34.718487     15.127454     40.787867
  H      33.955456     14.646850     41.237043
  C      39.464562     16.788597     39.800105
  O      40.467410     16.013785     39.754440
  O      39.398133     17.881277     39.192142
24
Coordinates from ORCA-job neb_MEP_ALL.QMRegion E -1074.527710061034
  C      39.096814     16.628303     43.132852
  H      39.872280     16.032725     42.657002
  H      39.251875     17.702541     43.246602
  C      37.996311     16.010215     43.652760
  C      36.983554     16.724462     44.554398
  O      37.069421     17.974453     44.692908
  O      36.134931     16.006980     45.139689
  O      37.702992     14.757708     43.321901
  C      36.883863     14.663968     41.650268
  H      36.631471     13.597695     41.647324
  C      38.014926     15.068423     40.885645
  H      38.798643     14.350593     40.656559
  C      38.259803     16.395606     40.678900
  C      37.207660     17.382948     40.958781
  H      37.446540     18.433043     40.778403
  C      36.008374     17.011367     41.435508
  H      35.239551     17.759689     41.640480
  C      35.654589     15.573147     41.715023
  H      35.265371     15.489418     42.741221
  O      34.672102     15.152001     40.776194
  H      33.924704     14.652733     41.234979
  C      39.474336     16.793996     39.849758
  O      40.466621     16.010881     39.770725
  O      39.382341     17.873565     39.222271
24
Coordinates from ORCA-job neb_MEP_ALL.QMRegion E -1074.523109863669
  C      39.088592     16.646325     43.058310
  H      39.895378     16.030267     42.672857
  H      39.246112     17.716096     43.197033
  C      38.017847     15.996445     43.676475
  C      36.987546     16.727973     44.562356
  O      37.070738     17.978497     44.687407
  O      36.136444     16.012161     45.141594
  O      37.799633     14.761730     43.450039
  C      36.833945     14.644405     41.513487
  H      36.617320     13.579273     41.613286
  C      37.997804     15.055146     40.893608
  H      38.791660     14.348234     40.663763
  C      38.286253     16.414827     40.760726
  C      37.209442     17.389492     40.974815
  H      37.446494     18.438260     40.786919
  C      36.003511     17.009888     41.426072
  H      35.233335     17.756832     41.629962
  C      35.647978     15.569339     41.689088
  H      35.280157     15.475919     42.725734
  O      34.638856     15.170560     40.766735
  H      33.908669     14.654243     41.233521
  C      39.480437     16.798575     39.878438
  O      40.463996     16.008162     39.776874
  O      39.371722     17.866105     39.233090
24
Coordinates from ORCA-job neb_MEP_ALL.QMRegion E -1074.528575590747
  C      39.044191     16.649382     42.891834
  H      39.913735     16.024301     42.693714
  H      39.230651     17.704762     43.123342
  C      38.016523     15.986590     43.665229
  C      36.991505     16.729960     44.564187
  O      37.081165     17.978257     44.682854
  O      36.146095     16.012048     45.144063
  O      37.859637     14.764818     43.532915
  C      36.811784     14.635440     41.437381
  H      36.605709     13.572294     41.572648
  C      37.992448     15.049759     40.917375
  H      38.789774     14.348189     40.676227
  C      38.342309     16.446905     40.906719
  C      37.213619     17.399158     41.001905
  H      37.443661     18.445666     40.796947
  C      36.003008     17.008346     41.420283
  H      35.226188     17.752380     41.610041
  C      35.647242     15.565630     41.676730
  H      35.287286     15.466708     42.717563
  O      34.619399     15.186096     40.764753
  H      33.900742     14.657010     41.233570
  C      39.489862     16.806110     39.920497
  O      40.462409     16.007381     39.785666
  O      39.355330     17.855455     39.250475
24
Coordinates from ORCA-job neb_MEP_ALL.QMRegion E -1074.548702975312
  C      38.994129     16.636084     42.695342
  H      39.906515     16.033231     42.707468
  H      39.199228     17.676250     43.003803
  C      38.014550     15.984429     43.634738
  C      37.003056     16.734241     44.562548
  O      37.096136     17.977403     44.680085
  O      36.160852     16.014766     45.145866
  O      37.935628     14.760732     43.630745
  C      36.797101     14.631072     41.367332
  H      36.586569     13.564879     41.497138
  C      37.997227     15.051109     40.953134
  H      38.792229     14.350360     40.698002
  C      38.409665     16.481983     41.073831
  C      37.227844     17.408527     41.044999
  H      37.442752     18.454954     40.818785
  C      36.008099     17.006230     41.416654
  H      35.217097     17.745107     41.574382
  C      35.645680     15.560422     41.660858
  H      35.299538     15.452618     42.707858
  O      34.595199     15.210374     40.765495
  H      33.890493     14.664560     41.233910
  C      39.498619     16.816571     39.976557
  O      40.459927     16.009790     39.802805
  O      39.331729     17.843995     39.281402
24
Coordinates from ORCA-job neb_MEP_ALL.QMRegion E -1074.565583938616
  C      39.020000     16.645000     42.613000
  H      39.979000     16.118000     42.662000
  H      39.148000     17.716000     42.823000
  C      38.157000     15.960000     43.660000
  C      37.105000     16.705000     44.550000
  O      37.176000     17.952000     44.643000
  O      36.282000     15.976000     45.146000
  O      38.270000     14.761000     43.814000
  C      36.746000     14.591000     41.164000
  H      36.494000     13.533000     41.067000
  C      37.999000     15.013000     40.982000
  H      38.810000     14.319000     40.768000
  C      38.415000     16.449000     41.155000
  C      37.225000     17.371000     41.095000
  H      37.449000     18.430000     40.950000
  C      35.977000     16.952000     41.318000
  H      35.164000     17.678000     41.380000
  C      35.603000     15.504000     41.519000
  H      35.351000     15.359000     42.590000
  O      34.474000     15.198000     40.719000
  H      33.784000     14.677000     41.235000
  C      39.478000     16.800000     40.036000
  O      40.446000     16.009000     39.837000
  O      39.287000     17.839000     39.369000
24
Coordinates from ORCA-job neb_MEP_ALL.QMRegion E -1074.552193114524
  C      39.054000     16.686000     43.562000
  H      39.807000     16.195000     42.948000
  H      39.264000     17.670000     43.983000
  C      37.867000     16.122000     43.805000
  C      36.838000     16.764000     44.719000
  O      36.918000     18.012000     44.882000
  O      35.992000     16.015000     45.262000
  O      37.515000     14.890000     43.282000
  C      37.016000     14.882000     41.905000
  H      36.687000     13.845000     41.743000
  C      38.153000     15.216000     40.988000
  H      38.949000     14.481000     40.870000
  C      38.280000     16.432000     40.423000
  C      37.250000     17.450000     40.666000
  H      37.472000     18.464000     40.326000
  C      36.113000     17.176000     41.330000
  H      35.398000     17.974000     41.550000
  C      35.756000     15.773000     41.755000
  H      35.271000     15.793000     42.746000
  O      34.868000     15.226000     40.788000
  H      34.133000     14.713000     41.232000
  C      39.499000     16.788000     39.587000
  O      40.533000     16.057000     39.670000
  O      39.417000     17.800000     38.850000
24
Coordinates from ORCA-job neb_MEP_ALL.QMRegion E -1074.554577552336
  C      39.060867     16.664478     43.494376
  H      39.802579     16.159448     42.877081
  H      39.270814     17.662168     43.879585
  C      37.879642     16.102324     43.770326
  C      36.859843     16.754611     44.687723
  O      36.946987     18.002155     44.850019
  O      36.016598     16.010281     45.239992
  O      37.518912     14.864628     43.258639
  C      37.005738     14.846234     41.899494
  H      36.678285     13.804511     41.738750
  C      38.131269     15.188065     40.965098
  H      38.922850     14.450292     40.826264
  C      38.266733     16.419775     40.437138
  C      37.239467     17.434710     40.704512
  H      37.465547     18.456374     40.396203
  C      36.098033     17.145817     41.353582
  H      35.378707     17.935173     41.581421
  C      35.739830     15.736416     41.756144
  H      35.263201     15.739334     42.750013
  O      34.849041     15.198937     40.787996
  H      34.106844     14.694381     41.231868
  C      39.488313     16.783424     39.609593
  O      40.518743     16.046470     39.675988
  O      39.417591     17.815970     38.901322
24
Coordinates from ORCA-job neb_MEP_ALL.QMRegion E -1074.555538669329
  C      39.069743     16.638994     43.416957
  H      39.799090     16.121622     42.796510
  H      39.277624     17.652748     43.756599
  C      37.895689     16.080669     43.725109
  C      36.890454     16.741242     44.650967
  O      36.979131     17.988862     44.808648
  O      36.047051     16.005108     45.214184
  O      37.528197     14.836427     43.238197
  C      36.989421     14.803494     41.880064
  H      36.669723     13.759897     41.734953
  C      38.103234     15.153348     40.942912
  H      38.890415     14.418257     40.775943
  C      38.247330     16.400137     40.455081
  C      37.223931     17.413458     40.751455
  H      37.456634     18.446014     40.481156
  C      36.076524     17.105631     41.382077
  H      35.354027     17.889155     41.622236
  C      35.723161     15.688019     41.759822
  H      35.251782     15.676937     42.754967
  O      34.825576     15.166821     40.791730
  H      34.073389     14.673495     41.232112
  C      39.475756     16.780268     39.641426
  O      40.501931     16.036649     39.686941
  O      39.417992     17.836546     38.967899
24
Coordinates from ORCA-job neb_MEP_ALL.QMRegion E -1074.553834658483
  C      39.085858     16.604154     43.289384
  H      39.808910     16.061765     42.685305
  H      39.278339     17.648281     43.532172
  C      37.927219     16.045648     43.655780
  C      36.941477     16.723532     44.590589
  O      37.031855     17.970803     44.742128
  O      36.097264     15.998830     45.169077
  O      37.549952     14.790625     43.200220
  C      36.964172     14.735672     41.850218
  H      36.657659     13.687729     41.720123
  C      38.057527     15.103536     40.908002
  H      38.838433     14.375499     40.696662
  C      38.223894     16.376632     40.505482
  C      37.203178     17.383491     40.841410
  H      37.444889     18.430444     40.635728
  C      36.039696     17.044168     41.425528
  H      35.301615     17.814437     41.668982
  C      35.693566     15.613392     41.761335
  H      35.238494     15.577204     42.761924
  O      34.776015     15.126309     40.795398
  H      34.010925     14.648438     41.235161
  C      39.460855     16.781434     39.715422
  O      40.477057     16.022059     39.717738
  O      39.413935     17.868952     39.095134
24
Coordinates from ORCA-job neb_MEP_ALL.QMRegion E -1074.544983710137
  C      39.097181     16.605916     43.191197
  H      39.844692     16.034717     42.645343
  H      39.262918     17.675976     43.331965
  C      37.966211     16.023175     43.629615
  C      36.975208     16.719331     44.555014
  O      37.064865     17.967997     44.701043
  O      36.129938     15.999847     45.141669
  O      37.604541     14.759484     43.203784
  C      36.936883     14.686833     41.791826
  H      36.645193     13.628959     41.682999
  C      38.029966     15.078044     40.887340
  H      38.807833     14.353876     40.655550
  C      38.234564     16.378495     40.596380
  C      37.202169     17.375541     40.925269
  H      37.443937     18.427148     40.750563
  C      36.015332     17.013113     41.442523
  H      35.254239     17.767981     41.661083
  C      35.667852     15.575364     41.743128
  H      35.247143     15.509817     42.755693
  O      34.714262     15.129962     40.788187
  H      33.951328     14.647585     41.236501
  C      39.463895     16.787856     39.802583
  O      40.467826     16.014792     39.755305
  O      39.399059     17.880825     39.194937
24
Coordinates from ORCA-job neb_MEP_ALL.QMRegion E -1074.527770705947
  C      39.098851     16.628806     43.137046
  H      39.873090     16.034504     42.657729
  H      39.252267     17.703130     43.250349
  C      37.996351     16.010541     43.653422
  C      36.982893     16.724517     44.553910
  O      37.069644     17.974391     44.693151
  O      36.135744     16.005919     45.139917
  O      37.704949     14.758271     43.323633
  C      36.882593     14.663403     41.647467
  H      36.631617     13.596826     41.647054
  C      38.014828     15.067598     40.885245
  H      38.798917     14.349847     40.656428
  C      38.259290     16.394733     40.677144
  C      37.207799     17.382452     40.958160
  H      37.446596     18.432635     40.777662
  C      36.008603     17.011072     41.435485
  H      35.239815     17.759323     41.640933
  C      35.654316     15.572834     41.714413
  H      35.265557     15.488895     42.740763
  O      34.671670     15.151311     40.776056
  H      33.924013     14.652856     41.235215
  C      39.473862     16.792972     39.847824
  O      40.466963     16.010888     39.769958
  O      39.383194     17.873332     39.221631
24
Coordinates from ORCA-job neb_MEP_ALL.QMRegion E -1074.523132798959
  C      39.089733     16.647256     43.060445
  H      39.896588     16.031732     42.674131
  H      39.246752     17.717202     43.200279
  C      38.018882     15.996120     43.677428
  C      36.987322     16.727815     44.562367
  O      37.070482     17.978367     44.687710
  O      36.136874     16.011699     45.142186
  O      37.801356     14.761300     43.451306
  C      36.833484     14.643955     41.512147
  H      36.616997     13.578749     41.612009
  C      37.998025     15.054651     40.893536
  H      38.791926     14.347518     40.664086
  C      38.286293     16.414347     40.759576
  C      37.209511     17.388893     40.973880
  H      37.446618     18.437771     40.786189
  C      36.003615     17.009377     41.425646
  H      35.233706     17.756433     41.630304
  C      35.647585     15.568859     41.688252
  H      35.280525     15.475293     42.725271
  O      34.637919     15.170387     40.766242
  H      33.907871     14.654424     41.233679
  C      39.480376     16.798064     39.877352
  O      40.463979     16.007701     39.776212
  O      39.372032     17.865842     39.232316
24
Coordinates from ORCA-job neb_MEP_ALL.QMRegion E -1074.528604037407
  C      39.045094     16.649882     42.893182
  H      39.915879     16.025348     42.694819
  H      39.230582     17.705440     43.125091
  C      38.017207     15.987644     43.667828
  C      36.991254     16.729620     44.565230
  O      37.081945     17.978007     44.681671
  O      36.146143     16.010707     45.144433
  O      37.862975     14.766163     43.534496
  C      36.810457     14.634048     41.433430
  H      36.605034     13.570587     41.571347
  C      37.992310     15.049242     40.916971
  H      38.790066     14.347296     40.676934
  C      38.342291     16.447141     40.906962
  C      37.213245     17.399029     41.001922
  H      37.443951     18.445197     40.796384
  C      36.002340     17.007851     41.419092
  H      35.226340     17.752412     41.610219
  C      35.647108     15.565017     41.675977
  H      35.287476     15.466093     42.717491
  O      34.618436     15.186165     40.764226
  H      33.900249     14.657339     41.233828
  C      39.490874     16.806375     39.920895
  O      40.462502     16.006675     39.784585
  O      39.355450     17.854876     39.249579
24
Coordinates from ORCA-job neb_MEP_ALL.QMRegion E -1074.549279309470
  C      38.991794     16.634228     42.696228
  H      39.906051     16.036710     42.708230
  H      39.197167     17.670982     42.998776
  C      38.014595     15.989882     43.633559
  C      37.005706     16.733623     44.562361
  O      37.096100     17.976745     44.679957
  O      36.162654     16.014626     45.145397
  O      37.940995     14.758837     43.633261
  C      36.796561     14.630638     41.360274
  H      36.585045     13.564218     41.493565
  C      38.000642     15.052494     40.959563
  H      38.791135     14.349916     40.698793
  C      38.411739     16.483557     41.073433
  C      37.229662     17.409333     41.049389
  H      37.442493     18.454572     40.818679
  C      36.008670     17.005426     41.415213
  H      35.217163     17.744403     41.573130
  C      35.645836     15.559253     41.660017
  H      35.298662     15.451680     42.708445
  O      34.593893     15.210680     40.765363
  H      33.889312     14.664967     41.233859
  C      39.501361     16.817993     39.979965
  O      40.459071     16.008158     39.802415
  O      39.329650     17.842393     39.281884
24
Coordinates from ORCA-job neb_MEP_ALL.QMRegion E -1074.565583938616
  C      39.020000     16.645000     42.613000
  H      39.979000     16.118000     42.662000
  H      39.148000     17.716000     42.823000
  C      38.157000     15.960000     43.660000
  C      37.105000     16.705000     44.550000
  O      37.176000     17.952000     44.643000
  O      36.282000     15.976000     45.146000
  O      38.270000     14.761000     43.814000
  C      36.746000     14.591000     41.164000
  H      36.494000     13.533000     41.067000
  C      37.999000     15.013000     40.982000
  H      38.810000     14.319000     40.768000
  C      38.415000     16.449000     41.155000
  C      37.225000     17.371000     41.095000
  H      37.449000     18.430000     40.950000
  C      35.977000     16.952000     41.318000
  H      35.164000     17.678000     41.380000
  C      35.603000     15.504000     41.519000
  H      35.351000     15.359000     42.590000
  O      34.474000     15.198000     40.719000
  H      33.784000     14.677000     41.235000
  C      39.478000     16.800000     40.036000
  O      40.446000     16.009000     39.837000
  O      39.287000     17.839000     39.369000
24
Coordinates from ORCA-job neb_MEP_ALL.QMRegion E -1074.552193114524
  C      39.054000     16.686000     43.562000
  H      39.807000     16.195000     42.948000
  H      39.264000     17.670000     43.983000
  C      37.867000     16.122000     43.805000
  C      36.838000     16.764000     44.719000
  O      36.918000     18.012000     44.882000
  O      35.992000     16.015000     45.262000
  O      37.515000     14.890000     43.282000
  C      37.016000     14.882000     41.905000
  H      36.687000     13.845000     41.743000
  C      38.153000     15.216000     40.988000
  H      38.949000     14.481000     40.870000
  C      38.280000     16.432000     40.423000
  C      37.250000     17.450000     40.666000
  H      37.472000     18.464000     40.326000
  C      36.113000     17.176000     41.330000
  H      35.398000     17.974000     41.550000
  C      35.756000     15.773000     41.755000
  H      35.271000     15.793000     42.746000
  O      34.868000     15.226000     40.788000
  H      34.133000     14.713000     41.232000
  C      39.499000     16.788000     39.587000
  O      40.533000     16.057000     39.670000
  O      39.417000     17.800000     38.850000
24
Coordinates from ORCA-job neb_MEP_ALL.QMRegion E -1074.554542731662
  C      39.061665     16.663889     43.497495
  H      39.802472     16.159596     42.877902
  H      39.272080     17.659932     43.885155
  C      37.879174     16.103007     43.771373
  C      36.858983     16.753674     44.688182
  O      36.947096     18.001695     44.851054
  O      36.015759     16.009542     45.241254
  O      37.518926     14.865387     43.258464
  C      37.006067     14.847117     41.899586
  H      36.678219     13.804526     41.738578
  C      38.131653     15.188273     40.965619
  H      38.923507     14.450485     40.826755
  C      38.265714     16.418947     40.434860
  C      37.238817     17.434467     40.701819
  H      37.464827     18.455681     40.392124
  C      36.098426     17.146161     41.352813
  H      35.380353     17.936204     41.582764
  C      35.740461     15.736685     41.756069
  H      35.262989     15.739965     42.749558
  O      34.850070     15.198604     40.787870
  H      34.108048     14.693751     41.231362
  C      39.487607     16.782290     39.606685
  O      40.518437     16.046717     39.674890
  O      39.418087     17.815520     38.899133
24
Coordinates from ORCA-job neb_MEP_ALL.QMRegion E -1074.555586750256
  C      39.071461     16.636081     43.420166
  H      39.798742     16.120714     42.794673
  H      39.280759     17.648408     43.762329
  C      37.895990     16.080977     43.723500
  C      36.890589     16.738580     44.651697
  O      36.980650     17.986581     44.808329
  O      36.047098     16.003987     45.215289
  O      37.528442     14.837130     43.235541
  C      36.989497     14.802489     41.880110
  H      36.669542     13.758715     41.734760
  C      38.102601     15.151818     40.943698
  H      38.889967     14.417168     40.774726
  C      38.243787     16.397457     40.451414
  C      37.221446     17.411846     40.748865
  H      37.454471     18.444119     40.476674
  C      36.075699     17.103962     41.382050
  H      35.356421     17.888464     41.627126
  C      35.723845     15.686159     41.760254
  H      35.250789     15.674856     42.753937
  O      34.826573     15.164855     40.792666
  H      34.073628     14.671241     41.230899
  C      39.472969     16.777347     39.637530
  O      40.500870     16.037107     39.685002
  O      39.419248     17.836762     38.966807
24
Coordinates from ORCA-job neb_MEP_ALL.QMRegion E -1074.553586620867
  C      39.089934     16.598725     43.281729
  H      39.811565     16.056106     42.675908
  H      39.281366     17.644622     43.517334
  C      37.931356     16.042772     43.648111
  C      36.947989     16.719394     44.587000
  O      37.037720     17.967192     44.735617
  O      36.101306     15.997394     45.166396
  O      37.553775     14.787060     43.192403
  C      36.962002     14.727943     41.847819
  H      36.656226     13.679291     41.716913
  C      38.052773     15.097305     40.906475
  H      38.833142     14.370981     40.689173
  C      38.218431     16.371896     40.508960
  C      37.198891     17.379393     40.848157
  H      37.441395     18.427071     40.645320
  C      36.034668     17.036460     41.428944
  H      35.298446     17.806558     41.677129
  C      35.691592     15.604419     41.761192
  H      35.236932     15.565158     42.760613
  O      34.770787     15.122065     40.797095
  H      34.003931     14.644580     41.234225
  C      39.456656     16.779273     39.719431
  O      40.474197     16.021530     39.718874
  O      39.415059     17.871325     39.106978
24
Coordinates from ORCA-job neb_MEP_ALL.QMRegion E -1074.544432946916
  C      39.100444     16.608713     43.190025
  H      39.851588     16.037573     42.648893
  H      39.262682     17.680620     43.324258
  C      37.971014     16.022835     43.629480
  C      36.978284     16.718595     44.555446
  O      37.065773     17.967938     44.699420
  O      36.131705     15.999972     45.141383
  O      37.612044     14.758316     43.200548
  C      36.935776     14.682136     41.788310
  H      36.644059     13.623283     41.677237
  C      38.029040     15.075646     40.887703
  H      38.806641     14.352022     40.654040
  C      38.235969     16.377507     40.604726
  C      37.202873     17.375323     40.930723
  H      37.444335     18.426912     40.755342
  C      36.013081     17.010839     41.441150
  H      35.251379     17.765375     41.658467
  C      35.666799     15.572399     41.739690
  H      35.249570     15.504227     42.752580
  O      34.707046     15.133077     40.787833
  H      33.944368     14.649136     41.236016
  C      39.464129     16.787051     39.807714
  O      40.468486     16.014953     39.756987
  O      39.399071     17.880238     39.199892
24
Coordinates from ORCA-job neb_MEP_ALL.QMRegion E -1074.527793747922
  C      39.101629     16.630221     43.142896
  H      39.875178     16.037818     42.659905
  H      39.253227     17.704771     43.257367
  C      37.997898     16.010694     43.655045
  C      36.982558     16.724282     44.553956
  O      37.069264     17.974333     44.693592
  O      36.136792     16.004812     45.140431
  O      37.709690     14.758862     43.328338
  C      36.880278     14.661817     41.641058
  H      36.631497     13.595083     41.645826
  C      38.014407     15.065892     40.884482
  H      38.799170     14.348424     40.656451
  C      38.258912     16.393540     40.674816
  C      37.208075     17.381443     40.956881
  H      37.446771     18.431692     40.776319
  C      36.008761     17.010328     41.435086
  H      35.240376     17.758615     41.641739
  C      35.653894     15.572022     41.712769
  H      35.266194     15.487618     42.739711
  O      34.669931     15.150470     40.775432
  H      33.922464     14.653081     41.235652
  C      39.473778     16.791591     39.845404
  O      40.467310     16.010234     39.768408
  O      39.384130     17.872946     39.220083
24
Coordinates from ORCA-job neb_MEP_ALL.QMRegion E -1074.523162485475
  C      39.091827     16.648993     43.064666
  H      39.898985     16.034728     42.676723
  H      39.247903     17.719045     43.206649
  C      38.020685     15.995797     43.679193
  C      36.987441     16.727283     44.562911
  O      37.069827     17.978013     44.688058
  O      36.137588     16.010889     45.143145
  O      37.804888     14.760779     43.453698
  C      36.832668     14.642970     41.509470
  H      36.616376     13.577743     41.609467
  C      37.998470     15.053638     40.893477
  H      38.792362     14.346189     40.664780
  C      38.286165     16.413360     40.757314
  C      37.209620     17.387741     40.972199
  H      37.446831     18.436679     40.784740
  C      36.003796     17.008410     41.424677
  H      35.234469     17.755644     41.630928
  C      35.647114     15.567935     41.686646
  H      35.281222     15.474030     42.724191
  O      34.636201     15.170103     40.765526
  H      33.906224     14.654725     41.233916
  C      39.480413     16.797171     39.875415
  O      40.463999     16.006743     39.774841
  O      39.372620     17.865290     39.230737
24
Coordinates from ORCA-job neb_MEP_ALL.QMRegion E -1074.528692941929
  C      39.046761     16.651749     42.894512
  H      39.919123     16.027846     42.697629
  H      39.230673     17.706801     43.127938
  C      38.019679     15.987371     43.670504
  C      36.991631     16.728957     44.566713
  O      37.082132     17.977348     44.680571
  O      36.146411     16.009529     45.145461
  O      37.869068     14.767800     43.538849
  C      36.808064     14.631663     41.427299
  H      36.603763     13.568121     41.567926
  C      37.992631     15.048242     40.916453
  H      38.790344     14.345986     40.678413
  C      38.343180     16.447213     40.908753
  C      37.213094     17.398465     41.001689
  H      37.444310     18.444527     40.795432
  C      36.001657     17.006945     41.417341
  H      35.226423     17.752227     41.610296
  C      35.646457     15.563644     41.673864
  H      35.288325     15.464693     42.716530
  O      34.616160     15.186460     40.763497
  H      33.898945     14.657882     41.234200
  C      39.491920     16.805842     39.921055
  O      40.462514     16.005868     39.783222
  O      39.355862     17.854120     39.248335
24
Coordinates from ORCA-job neb_MEP_ALL.QMRegion E -1074.549366155402
  C      38.990574     16.631689     42.694553
  H      39.906359     16.041159     42.710098
  H      39.194479     17.668498     42.993048
  C      38.015153     15.987940     43.634868
  C      37.008358     16.736146     44.561869
  O      37.096809     17.975129     44.679411
  O      36.165088     16.012377     45.145555
  O      37.949661     14.761964     43.637285
  C      36.796827     14.630750     41.351966
  H      36.583008     13.563379     41.486097
  C      38.002169     15.052807     40.965698
  H      38.791113     14.348651     40.700854
  C      38.414348     16.484793     41.077842
  C      37.231357     17.409331     41.053948
  H      37.442476     18.454844     40.818839
  C      36.009615     17.004225     41.413867
  H      35.217752     17.742848     41.570827
  C      35.645446     15.557563     41.657845
  H      35.298515     15.449774     42.707575
  O      34.591091     15.211315     40.764988
  H      33.887154     14.665677     41.233922
  C      39.503016     16.818368     39.982867
  O      40.459223     16.005999     39.802250
  O      39.327876     17.841227     39.282588
24
Coordinates from ORCA-job neb_MEP_ALL.QMRegion E -1074.565583938616
  C      39.020000     16.645000     42.613000
  H      39.979000     16.118000     42.662000
  H      39.148000     17.716000     42.823000
  C      38.157000     15.960000     43.660000
  C      37.105000     16.705000     44.550000
  O      37.176000     17.952000     44.643000
  O      36.282000     15.976000     45.146000
  O      38.270000     14.761000     43.814000
  C      36.746000     14.591000     41.164000
  H      36.494000     13.533000     41.067000
  C      37.999000     15.013000     40.982000
  H      38.810000     14.319000     40.768000
  C      38.415000     16.449000     41.155000
  C      37.225000     17.371000     41.095000
  H      37.449000     18.430000     40.950000
  C      35.977000     16.952000     41.318000
  H      35.164000     17.678000     41.380000
  C      35.603000     15.504000     41.519000
  H      35.351000     15.359000     42.590000
  O      34.474000     15.198000     40.719000
  H      33.784000     14.677000     41.235000
  C      39.478000     16.800000     40.036000
  O      40.446000     16.009000     39.837000
  O      39.287000     17.839000     39.369000
24
Coordinates from ORCA-job neb_MEP_ALL.QMRegion E -1074.552193114524
  C      39.054000     16.686000     43.562000
  H      39.807000     16.195000     42.948000
  H      39.264000     17.670000     43.983000
  C      37.867000     16.122000     43.805000
  C      36.838000     16.764000     44.719000
  O      36.918000     18.012000     44.882000
  O      35.992000     16.015000     45.262000
  O      37.515000     14.890000     43.282000
  C      37.016000     14.882000     41.905000
  H      36.687000     13.845000     41.743000
  C      38.153000     15.216000     40.988000
  H      38.949000     14.481000     40.870000
  C      38.280000     16.432000     40.423000
  C      37.250000     17.450000     40.666000
  H      37.472000     18.464000     40.326000
  C      36.113000     17.176000     41.330000
  H      35.398000     17.974000     41.550000
  C      35.756000     15.773000     41.755000
  H      35.271000     15.793000     42.746000
  O      34.868000     15.226000     40.788000
  H      34.133000     14.713000     41.232000
  C      39.499000     16.788000     39.587000
  O      40.533000     16.057000     39.670000
  O      39.417000     17.800000     38.850000
24
Coordinates from ORCA-job neb_MEP_ALL.QMRegion E -1074.554571364320
  C      39.061423     16.663458     43.497570
  H      39.802317     16.159671     42.878055
  H      39.272305     17.660013     43.885535
  C      37.879016     16.102357     43.770285
  C      36.859572     16.753901     44.688688
  O      36.946741     18.001271     44.851024
  O      36.015694     16.009681     45.241120
  O      37.519918     14.865785     43.261479
  C      37.004834     14.846775     41.896154
  H      36.678598     13.805795     41.738862
  C      38.131466     15.187877     40.966201
  H      38.923306     14.450860     40.826729
  C      38.265513     16.418093     40.434552
  C      37.239066     17.434291     40.701665
  H      37.464812     18.456008     40.391845
  C      36.098407     17.145869     41.352835
  H      35.380106     17.936661     41.582893
  C      35.741152     15.735653     41.756359
  H      35.262701     15.740185     42.749716
  O      34.850226     15.198686     40.787750
  H      34.108097     14.693726     41.231390
  C      39.488145     16.783182     39.606855
  O      40.518553     16.045988     39.674906
  O      39.417679     17.815731     38.898695
24
Coordinates from ORCA-job neb_MEP_ALL.QMRegion E -1074.555618549239
  C      39.072320     16.636326     43.419469
  H      39.798675     16.120600     42.794668
  H      39.281157     17.648449     43.762765
  C      37.894927     16.079483     43.723527
  C      36.890980     16.739520     44.651293
  O      36.980693     17.986649     44.808436
  O      36.047135     16.003160     45.215332
  O      37.529131     14.836693     43.238088
  C      36.988948     14.802257     41.878461
  H      36.669605     13.758967     41.734864
  C      38.102579     15.151854     40.942789
  H      38.889805     14.417170     40.774747
  C      38.243820     16.397149     40.450622
  C      37.221773     17.411503     40.748414
  H      37.454202     18.443764     40.476643
  C      36.076118     17.104053     41.382298
  H      35.355989     17.888574     41.627518
  C      35.723557     15.685774     41.760081
  H      35.250629     15.674759     42.754739
  O      34.826278     15.164461     40.791460
  H      34.073602     14.671113     41.231282
  C      39.473945     16.779439     39.637762
  O      40.500892     16.035432     39.685192
  O      39.418033     17.836458     38.966843
24
Coordinates from ORCA-job neb_MEP_ALL.QMRegion E -1074.553026890941
  C      39.090963     16.599106     43.280765
  H      39.811851     16.055825     42.675489
  H      39.281803     17.644972     43.517391
  C      37.930363     16.040874     43.648225
  C      36.946579     16.720023     44.585820
  O      37.038665     17.967592     44.735712
  O      36.102400     15.996287     45.166212
  O      37.554677     14.786492     43.196384
  C      36.961623     14.727515     41.845708
  H      36.656117     13.678750     41.717030
  C      38.052994     15.097584     40.904619
  H      38.833097     14.370453     40.689068
  C      38.218852     16.373001     40.507612
  C      37.198999     17.378830     40.848040
  H      37.441044     18.426148     40.645878
  C      36.035466     17.037040     41.429477
  H      35.298017     17.805782     41.677382
  C      35.690053     15.605206     41.760885
  H      35.236820     15.564661     42.761945
  O      34.770276     15.121179     40.795348
  H      34.003719     14.644500     41.234854
  C      39.458014     16.780144     39.720564
  O      40.473818     16.019930     39.719152
  O      39.413420     17.871543     39.107289
24
Coordinates from ORCA-job neb_MEP_ALL.QMRegion E -1074.543337196422
  C      39.100912     16.608816     43.190460
  H      39.851577     16.037810     42.648745
  H      39.262757     17.680815     43.324869
  C      37.970394     16.022286     43.628701
  C      36.977415     16.718859     44.554204
  O      37.066269     17.967662     44.699663
  O      36.132233     15.999365     45.141584
  O      37.612375     14.758157     43.204151
  C      36.935381     14.682540     41.785312
  H      36.644324     13.623644     41.677835
  C      38.029551     15.075558     40.887152
  H      38.806590     14.351919     40.654021
  C      38.236048     16.378342     40.603186
  C      37.202665     17.374770     40.930798
  H      37.444337     18.426526     40.755521
  C      36.014111     17.011215     41.441491
  H      35.251428     17.764798     41.658315
  C      35.665924     15.573078     41.739735
  H      35.249220     15.504299     42.753567
  O      34.707375     15.132400     40.787230
  H      33.944474     14.649218     41.236373
  C      39.464959     16.787689     39.808020
  O      40.468513     16.013905     39.757092
  O      39.398079     17.880067     39.200052
24
Coordinates from ORCA-job neb_MEP_ALL.QMRegion E -1074.527419845323
  C      39.101478     16.630683     43.141986
  H      39.875426     16.037945     42.660423
  H      39.253362     17.704958     43.257681
  C      37.998407     16.010294     43.655366
  C      36.983148     16.724355     44.554446
  O      37.068793     17.974169     44.693581
  O      36.136478     16.005167     45.140535
  O      37.710184     14.758637     43.328914
  C      36.880487     14.661688     41.640584
  H      36.631288     13.594941     41.645470
  C      38.014463     15.065724     40.884403
  H      38.798942     14.348476     40.656617
  C      38.259010     16.393558     40.675179
  C      37.207934     17.381303     40.956789
  H      37.446819     18.431582     40.776273
  C      36.008823     17.010277     41.434810
  H      35.240452     17.758572     41.641760
  C      35.653809     15.571822     41.712469
  H      35.266335     15.487447     42.739623
  O      34.669795     15.150831     40.775153
  H      33.922132     14.652973     41.235762
  C      39.474167     16.792252     39.845703
  O      40.467256     16.009746     39.768305
  O      39.383831     17.872707     39.219976
24
Coordinates from ORCA-job neb_MEP_ALL.QMRegion E -1074.523213838117
  C      39.091858     16.649034     43.064902
  H      39.899126     16.034952     42.676913
  H      39.247903     17.718975     43.206994
  C      38.020647     15.995950     43.679259
  C      36.987763     16.727196     44.563214
  O      37.069700     17.977888     44.687941
  O      36.137550     16.010894     45.143093
  O      37.805147     14.760919     43.453748
  C      36.832725     14.642862     41.509308
  H      36.616350     13.577702     41.609315
  C      37.998499     15.053562     40.893516
  H      38.792331     14.346167     40.664854
  C      38.285996     16.413266     40.757219
  C      37.209646     17.387700     40.972178
  H      37.446820     18.436536     40.784655
  C      36.003782     17.008399     41.424564
  H      35.234538     17.755585     41.630928
  C      35.647242     15.567895     41.686547
  H      35.281238     15.473942     42.724067
  O      34.636140     15.170089     40.765655
  H      33.906126     14.654727     41.233873
  C      39.480512     16.797200     39.875397
  O      40.464047     16.006645     39.774738
  O      39.372637     17.865251     39.230624
24
Coordinates from ORCA-job neb_MEP_ALL.QMRegion E -1074.528895557218
  C      39.047158     16.651830     42.893515
  H      39.918393     16.028532     42.698257
  H      39.230742     17.706913     43.127752
  C      38.020823     15.988457     43.669354
  C      36.991962     16.728678     44.566596
  O      37.081523     17.977424     44.681123
  O      36.146501     16.010181     45.145699
  O      37.868879     14.765143     43.539712
  C      36.809162     14.632152     41.427321
  H      36.603631     13.568278     41.567274
  C      37.992088     15.047978     40.917005
  H      38.790255     14.346115     40.678534
  C      38.343739     16.446930     40.909834
  C      37.213505     17.398253     41.001500
  H      37.444205     18.444664     40.795471
  C      36.001950     17.006996     41.417605
  H      35.226363     17.751987     41.610118
  C      35.645796     15.563497     41.673269
  H      35.288607     15.464511     42.716068
  O      34.615918     15.186573     40.763823
  H      33.898722     14.657907     41.234087
  C      39.491095     16.806109     39.920497
  O      40.462767     16.005797     39.783546
  O      39.356023     17.853841     39.248822
24
Coordinates from ORCA-job neb_MEP_ALL.QMRegion E -1074.550077459296
  C      38.991432     16.634617     42.696720
  H      39.908508     16.039057     42.710113
  H      39.195570     17.671912     42.996674
  C      38.015664     15.978993     43.636776
  C      37.004383     16.731256     44.562979
  O      37.097401     17.979421     44.679595
  O      36.166571     16.013398     45.144584
  O      37.948025     14.768258     43.635675
  C      36.794735     14.629488     41.356681
  H      36.583919     13.564403     41.486607
  C      38.003286     15.052137     40.960816
  H      38.791365     14.348948     40.701106
  C      38.412388     16.482512     41.077614
  C      37.230863     17.409542     41.051109
  H      37.442611     18.454609     40.818787
  C      36.008821     17.004049     41.414844
  H      35.218226     17.742768     41.571330
  C      35.645014     15.558073     41.657494
  H      35.299191     15.449808     42.706689
  O      34.591537     15.211044     40.764952
  H      33.887227     14.665481     41.234046
  C      39.501913     16.816772     39.979477
  O      40.459325     16.007025     39.802510
  O      39.329348     17.841903     39.282360
24
Coordinates from ORCA-job neb_MEP_ALL.QMRegion E -1074.565583938616
  C      39.020000     16.645000     42.613000
  H      39.979000     16.118000     42.662000
  H      39.148000     17.716000     42.823000
  C      38.157000     15.960000     43.660000
  C      37.105000     16.705000     44.550000
  O      37.176000     17.952000     44.643000
  O      36.282000     15.976000     45.146000
  O      38.270000     14.761000     43.814000
  C      36.746000     14.591000     41.164000
  H      36.494000     13.533000     41.067000
  C      37.999000     15.013000     40.982000
  H      38.810000     14.319000     40.768000
  C      38.415000     16.449000     41.155000
  C      37.225000     17.371000     41.095000
  H      37.449000     18.430000     40.950000
  C      35.977000     16.952000     41.318000
  H      35.164000     17.678000     41.380000
  C      35.603000     15.504000     41.519000
  H      35.351000     15.359000     42.590000
  O      34.474000     15.198000     40.719000
  H      33.784000     14.677000     41.235000
  C      39.478000     16.800000     40.036000
  O      40.446000     16.009000     39.837000
  O      39.287000     17.839000     39.369000
24
Coordinates from ORCA-job neb_MEP_ALL.QMRegion E -1074.552193114524
  C      39.054000     16.686000     43.562000
  H      39.807000     16.195000     42.948000
  H      39.264000     17.670000     43.983000
  C      37.867000     16.122000     43.805000
  C      36.838000     16.764000     44.719000
  O      36.918000     18.012000     44.882000
  O      35.992000     16.015000     45.262000
  O      37.515000     14.890000     43.282000
  C      37.016000     14.882000     41.905000
  H      36.687000     13.845000     41.743000
  C      38.153000     15.216000     40.988000
  H      38.949000     14.481000     40.870000
  C      38.280000     16.432000     40.423000
  C      37.250000     17.450000     40.666000
  H      37.472000     18.464000     40.326000
  C      36.113000     17.176000     41.330000
  H      35.398000     17.974000     41.550000
  C      35.756000     15.773000     41.755000
  H      35.271000     15.793000     42.746000
  O      34.868000     15.226000     40.788000
  H      34.133000     14.713000     41.232000
  C      39.499000     16.788000     39.587000
  O      40.533000     16.057000     39.670000
  O      39.417000     17.800000     38.850000
24
Coordinates from ORCA-job neb_MEP_ALL.QMRegion E -1074.554738999112
  C      39.061336     16.663300     43.497659
  H      39.802218     16.159715     42.878199
  H      39.272466     17.659951     43.885857
  C      37.878859     16.102080     43.769711
  C      36.860020     16.753787     44.688998
  O      36.946468     18.001189     44.851064
  O      36.015669     16.009819     45.241014
  O      37.520445     14.865776     43.263293
  C      37.004175     14.846738     41.894018
  H      36.678830     13.806550     41.739054
  C      38.131329     15.187572     40.966530
  H      38.923168     14.451136     40.826738
  C      38.265397     16.417540     40.434289
  C      37.239181     17.434136     40.701531
  H      37.464791     18.456214     40.391585
  C      36.098433     17.145685     41.352846
  H      35.379969     17.936962     41.582990
  C      35.741559     15.735006     41.756514
  H      35.262521     15.740340     42.749822
  O      34.850252     15.198680     40.787693
  H      34.108214     14.693743     41.231370
  C      39.488661     16.783649     39.607038
  O      40.518505     16.045549     39.674885
  O      39.417361     17.815917     38.898309
24
Coordinates from ORCA-job neb_MEP_ALL.QMRegion E -1074.555842614509
  C      39.072175     16.636242     43.419141
  H      39.798773     16.120407     42.794552
  H      39.281539     17.648477     43.763128
  C      37.894955     16.078858     43.723502
  C      36.890948     16.739666     44.651114
  O      36.980770     17.986946     44.808549
  O      36.047476     16.002793     45.215185
  O      37.529482     14.836044     43.239783
  C      36.988644     14.802130     41.877337
  H      36.669635     13.759045     41.734938
  C      38.102486     15.151747     40.942049
  H      38.889685     14.417145     40.774744
  C      38.243947     16.397099     40.449899
  C      37.221947     17.411144     40.748060
  H      37.453970     18.443468     40.476597
  C      36.076399     17.104130     41.382527
  H      35.355688     17.888590     41.627870
  C      35.723251     15.685502     41.759953
  H      35.250525     15.674628     42.755329
  O      34.825947     15.164063     40.790567
  H      34.073644     14.671031     41.231534
  C      39.474926     16.780219     39.638323
  O      40.500599     16.034393     39.685287
  O      39.417074     17.836722     38.966588
24
Coordinates from ORCA-job neb_MEP_ALL.QMRegion E -1074.553355258697
  C      39.090911     16.599048     43.280212
  H      39.812248     16.055510     42.675041
  H      39.282201     17.645298     43.517334
  C      37.930481     16.040054     43.648226
  C      36.945698     16.720464     44.584698
  O      37.039398     17.967870     44.735775
  O      36.103199     15.995397     45.166125
  O      37.555186     14.785643     43.199163
  C      36.961333     14.727267     41.844134
  H      36.656030     13.678210     41.717122
  C      38.053080     15.097889     40.903082
  H      38.833062     14.369984     40.688920
  C      38.219228     16.373622     40.506669
  C      37.199204     17.378441     40.847893
  H      37.440742     18.425397     40.646417
  C      36.035868     17.037335     41.430028
  H      35.297637     17.805123     41.677617
  C      35.688913     15.605673     41.760633
  H      35.236717     15.564185     42.762975
  O      34.769731     15.120407     40.794061
  H      34.003559     14.644465     41.235301
  C      39.459031     16.780796     39.721509
  O      40.473468     16.018689     39.719392
  O      39.412163     17.871765     39.107617
24
Coordinates from ORCA-job neb_MEP_ALL.QMRegion E -1074.543370280572
  C      39.101078     16.608874     43.190742
  H      39.851671     16.038019     42.648679
  H      39.262800     17.681032     43.325304
  C      37.970153     16.022037     43.628227
  C      36.976781     16.718927     44.553236
  O      37.066629     17.967534     44.699844
  O      36.132679     15.998951     45.141711
  O      37.612812     14.757964     43.207179
  C      36.934840     14.682827     41.782691
  H      36.644519     13.623853     41.678244
  C      38.029917     15.075829     40.886580
  H      38.806608     14.351757     40.653994
  C      38.236150     16.378643     40.602257
  C      37.202891     17.374568     40.930689
  H      37.444321     18.426145     40.755735
  C      36.014486     17.011354     41.441925
  H      35.251494     17.764316     41.658153
  C      35.665350     15.573560     41.739713
  H      35.248989     15.504326     42.754286
  O      34.707422     15.131837     40.786800
  H      33.944594     14.649334     41.236616
  C      39.465661     16.787975     39.808384
  O      40.468446     16.013162     39.757189
  O      39.397322     17.880088     39.200118
24
Coordinates from ORCA-job neb_MEP_ALL.QMRegion E -1074.527635689552
  C      39.101274     16.631068     43.141089
  H      39.875738     16.038062     42.660904
  H      39.253471     17.705181     43.257874
  C      37.998921     16.009978     43.655716
  C      36.983542     16.724243     44.554922
  O      37.068443     17.974166     44.693554
  O      36.136290     16.005496     45.140592
  O      37.710866     14.758477     43.329712
  C      36.880474     14.661494     41.639855
  H      36.631090     13.594794     41.645072
  C      38.014449     15.065617     40.884367
  H      38.798791     14.348463     40.656768
  C      38.259199     16.393646     40.675673
  C      37.207898     17.381226     40.956709
  H      37.446854     18.431473     40.776247
  C      36.008764     17.010188     41.434583
  H      35.240520     17.758518     41.641752
  C      35.653799     15.571681     41.712185
  H      35.266500     15.487262     42.739483
  O      34.669343     15.151033     40.775011
  H      33.921963     14.652976     41.235754
  C      39.474537     16.792504     39.846105
  O      40.467126     16.009441     39.768232
  O      39.383576     17.872653     39.219821
24
Coordinates from ORCA-job neb_MEP_ALL.QMRegion E -1074.523224674435
  C      39.091896     16.649085     43.065112
  H      39.899259     16.035163     42.677099
  H      39.247905     17.718932     43.207324
  C      38.020655     15.996064     43.679336
  C      36.987997     16.727093     44.563471
  O      37.069601     17.977820     44.687848
  O      36.137535     16.010887     45.143057
  O      37.805383     14.761025     43.453808
  C      36.832752     14.642769     41.509158
  H      36.616324     13.577650     41.609168
  C      37.998530     15.053497     40.893544
  H      38.792319     14.346135     40.664922
  C      38.285892     16.413197     40.757124
  C      37.209655     17.387646     40.972156
  H      37.446816     18.436419     40.784572
  C      36.003784     17.008372     41.424458
  H      35.234590     17.755536     41.630928
  C      35.647338     15.567850     41.686462
  H      35.281268     15.473860     42.723947
  O      34.636104     15.170093     40.765739
  H      33.906018     14.654720     41.233853
  C      39.480586     16.797199     39.875378
  O      40.464079     16.006572     39.774647
  O      39.372660     17.865213     39.230524
24
Coordinates from ORCA-job neb_MEP_ALL.QMRegion E -1074.529025671358
  C      39.047407     16.652067     42.893071
  H      39.917960     16.029004     42.698695
  H      39.230845     17.707020     43.127775
  C      38.021400     15.987804     43.668496
  C      36.992280     16.728645     44.566456
  O      37.081008     17.977415     44.681576
  O      36.146600     16.010630     45.145862
  O      37.868865     14.764455     43.540287
  C      36.809500     14.632316     41.427796
  H      36.603588     13.568542     41.566752
  C      37.992262     15.047943     40.917224
  H      38.790140     14.346241     40.678626
  C      38.343998     16.446644     40.910313
  C      37.213782     17.398057     41.001335
  H      37.444126     18.444720     40.795478
  C      36.002217     17.007012     41.417797
  H      35.226340     17.751794     41.610000
  C      35.645467     15.563416     41.672852
  H      35.288835     15.464352     42.715684
  O      34.615702     15.186619     40.764021
  H      33.898520     14.657904     41.234009
  C      39.490734     16.805774     39.920164
  O      40.462754     16.005912     39.783794
  O      39.356106     17.853927     39.248991
24
Coordinates from ORCA-job neb_MEP_ALL.QMRegion E -1074.550175815150
  C      38.992708     16.636234     42.699077
  H      39.909878     16.037735     42.710119
  H      39.196522     17.674862     43.000233
  C      38.016468     15.979276     43.638162
  C      37.003477     16.732047     44.562945
  O      37.097400     17.979407     44.679498
  O      36.165777     16.012638     45.145103
  O      37.946026     14.766104     43.634227
  C      36.795256     14.629578     41.359781
  H      36.584529     13.564663     41.487420
  C      38.001665     15.051122     40.957722
  H      38.791971     14.348835     40.701059
  C      38.410984     16.481063     41.076584
  C      37.229886     17.409043     41.048887
  H      37.442787     18.454538     40.818605
  C      36.008762     17.004140     41.415356
  H      35.218496     17.742807     41.571932
  C      35.644612     15.558410     41.657424
  H      35.299618     15.449895     42.706032
  O      34.591799     15.210664     40.764897
  H      33.887360     14.665330     41.234107
  C      39.500660     16.815717     39.976952
  O      40.459722     16.007527     39.802477
  O      39.330617     17.842509     39.281919
24
Coordinates from ORCA-job neb_MEP_ALL.QMRegion E -1074.565583938616
  C      39.020000     16.645000     42.613000
  H      39.979000     16.118000     42.662000
  H      39.148000     17.716000     42.823000
  C      38.157000     15.960000     43.660000
  C      37.105000     16.705000     44.550000
  O      37.176000     17.952000     44.643000
  O      36.282000     15.976000     45.146000
  O      38.270000     14.761000     43.814000
  C      36.746000     14.591000     41.164000
  H      36.494000     13.533000     41.067000
  C      37.999000     15.013000     40.982000
  H      38.810000     14.319000     40.768000
  C      38.415000     16.449000     41.155000
  C      37.225000     17.371000     41.095000
  H      37.449000     18.430000     40.950000
  C      35.977000     16.952000     41.318000
  H      35.164000     17.678000     41.380000
  C      35.603000     15.504000     41.519000
  H      35.351000     15.359000     42.590000
  O      34.474000     15.198000     40.719000
  H      33.784000     14.677000     41.235000
  C      39.478000     16.800000     40.036000
  O      40.446000     16.009000     39.837000
  O      39.287000     17.839000     39.369000
24
Coordinates from ORCA-job neb_MEP_ALL.QMRegion E -1074.552193114524
  C      39.054000     16.686000     43.562000
  H      39.807000     16.195000     42.948000
  H      39.264000     17.670000     43.983000
  C      37.867000     16.122000     43.805000
  C      36.838000     16.764000     44.719000
  O      36.918000     18.012000     44.882000
  O      35.992000     16.015000     45.262000
  O      37.515000     14.890000     43.282000
  C      37.016000     14.882000     41.905000
  H      36.687000     13.845000     41.743000
  C      38.153000     15.216000     40.988000
  H      38.949000     14.481000     40.870000
  C      38.280000     16.432000     40.423000
  C      37.250000     17.450000     40.666000
  H      37.472000     18.464000     40.326000
  C      36.113000     17.176000     41.330000
  H      35.398000     17.974000     41.550000
  C      35.756000     15.773000     41.755000
  H      35.271000     15.793000     42.746000
  O      34.868000     15.226000     40.788000
  H      34.133000     14.713000     41.232000
  C      39.499000     16.788000     39.587000
  O      40.533000     16.057000     39.670000
  O      39.417000     17.800000     38.850000
24
Coordinates from ORCA-job neb_MEP_ALL.QMRegion E -1074.554780879712
  C      39.061239     16.663446     43.498260
  H      39.801902     16.159777     42.879095
  H      39.273296     17.658884     43.887815
  C      37.878326     16.102022     43.768831
  C      36.862186     16.752907     44.690080
  O      36.945170     18.001310     44.851528
  O      36.015599     16.010312     45.240606
  O      37.521242     14.863695     43.267992
  C      37.003091     14.847666     41.888041
  H      36.679497     13.808550     41.739714
  C      38.130788     15.186546     40.966830
  H      38.922742     14.452185     40.826995
  C      38.265189     16.415612     40.432864
  C      37.239311     17.433373     40.700537
  H      37.464548     18.456612     40.389984
  C      36.098598     17.145091     41.352981
  H      35.379871     17.937868     41.583483
  C      35.742297     15.733248     41.756594
  H      35.262031     15.740860     42.750149
  O      34.850470     15.198531     40.787389
  H      34.108832     14.693744     41.231219
  C      39.490812     16.785285     39.607776
  O      40.517947     16.043910     39.674550
  O      39.415996     17.816300     38.896563
24
Coordinates from ORCA-job neb_MEP_ALL.QMRegion E -1074.555906716536
  C      39.070797     16.635918     43.417475
  H      39.799466     16.119068     42.793842
  H      39.283783     17.647620     43.765103
  C      37.896398     16.076861     43.724457
  C      36.891024     16.740061     44.650139
  O      36.981062     17.987895     44.809112
  O      36.049891     16.001389     45.214134
  O      37.530174     14.831209     43.245599
  C      36.987955     14.801535     41.873479
  H      36.669629     13.758524     41.735191
  C      38.101438     15.151156     40.937663
  H      38.889230     14.416621     40.774576
  C      38.245232     16.396979     40.446077
  C      37.222221     17.409038     40.746001
  H      37.452530     18.441614     40.476094
  C      36.077240     17.104173     41.384021
  H      35.354573     17.888103     41.630105
  C      35.721038     15.684355     41.759162
  H      35.250161     15.673408     42.757831
  O      34.824412     15.161818     40.786479
  H      34.073763     14.670392     41.232597
  C      39.478854     16.782813     39.641348
  O      40.498700     16.029808     39.685479
  O      39.412736     17.838257     38.965339
24
Coordinates from ORCA-job neb_MEP_ALL.QMRegion E -1074.553453699594
  C      39.090064     16.598479     43.276690
  H      39.814606     16.053694     42.672569
  H      39.284333     17.646191     43.515858
  C      37.932567     16.037724     43.648869
  C      36.943103     16.721864     44.578107
  O      37.042865     17.968662     44.735775
  O      36.107793     15.991526     45.165274
  O      37.556623     14.779295     43.209777
  C      36.959835     14.726279     41.837215
  H      36.655682     13.674739     41.717468
  C      38.052746     15.098793     40.895058
  H      38.832612     14.367348     40.687502
  C      38.221490     16.375536     40.502760
  C      37.200024     17.376063     40.847446
  H      37.439100     18.421776     40.650053
  C      36.037022     17.037442     41.433322
  H      35.295123     17.801443     41.679282
  C      35.683609     15.606215     41.759441
  H      35.236105     15.560823     42.767714
  O      34.766667     15.116374     40.788333
  H      34.002082     14.644170     41.237366
  C      39.463329     16.783645     39.726583
  O      40.471336     16.012813     39.720766
  O      39.406410     17.873210     39.110315
24
Coordinates from ORCA-job neb_MEP_ALL.QMRegion E -1074.543318019574
  C      39.101357     16.609994     43.190601
  H      39.853132     16.039427     42.649191
  H      39.262697     17.682649     43.326582
  C      37.970376     16.021356     43.627912
  C      36.974617     16.719121     44.548844
  O      37.067938     17.967134     44.700459
  O      36.134985     15.997384     45.142083
  O      37.617509     14.756676     43.224373
  C      36.930160     14.683973     41.766490
  H      36.645217     13.623877     41.679236
  C      38.030963     15.077029     40.883168
  H      38.806782     14.350660     40.653887
  C      38.237843     16.379876     40.600248
  C      37.204340     17.373685     40.930349
  H      37.444472     18.424405     40.757442
  C      36.015846     17.011366     41.443898
  H      35.251486     17.762016     41.657026
  C      35.662830     15.575022     41.738931
  H      35.248544     15.503929     42.756941
  O      34.706624     15.129673     40.784583
  H      33.944450     14.649958     41.237907
  C      39.468886     16.788938     39.810975
  O      40.467909     16.009820     39.757824
  O      39.393834     17.880159     39.200777
24
Coordinates from ORCA-job neb_MEP_ALL.QMRegion E -1074.527595040413
  C      39.099987     16.633292     43.136027
  H      39.878091     16.038930     42.663826
  H      39.254064     17.706661     43.259055
  C      38.001910     16.008304     43.658242
  C      36.985495     16.723628     44.557638
  O      37.066791     17.974314     44.693254
  O      36.135363     16.006931     45.141050
  O      37.715989     14.757848     43.335433
  C      36.879346     14.660129     41.634269
  H      36.629954     13.593779     41.642397
  C      38.014114     15.065171     40.884350
  H      38.798308     14.347992     40.657632
  C      38.260812     16.394450     40.679022
  C      37.207787     17.380820     40.956274
  H      37.447065     18.430752     40.776028
  C      36.008300     17.009397     41.433128
  H      35.240912     17.758132     41.641643
  C      35.653754     15.570878     41.710384
  H      35.267688     15.485991     42.738307
  O      34.666866     15.152424     40.774255
  H      33.920597     14.652940     41.235730
  C      39.476026     16.793392     39.848355
  O      40.466444     16.008030     39.767819
  O      39.382419     17.872158     39.219075
24
Coordinates from ORCA-job neb_MEP_ALL.QMRegion E -1074.523229336873
  C      39.092277     16.649567     43.066512
  H      39.900165     16.036595     42.678413
  H      39.247959     17.718903     43.209693
  C      38.021062     15.996536     43.680035
  C      36.989079     16.726540     44.564871
  O      37.069072     17.977553     44.687374
  O      36.137522     16.010650     45.143023
  O      37.806890     14.761502     43.454273
  C      36.832752     14.642220     41.508211
  H      36.616139     13.577180     41.608128
  C      37.998758     15.053125     40.893653
  H      38.792391     14.345805     40.665366
  C      38.285609     16.412814     40.756396
  C      37.209708     17.387210     40.971895
  H      37.446844     18.435737     40.783964
  C      36.003803     17.008023     41.423813
  H      35.234884     17.755235     41.630925
  C      35.647806     15.567497     41.685945
  H      35.281574     15.473300     42.723152
  O      34.635744     15.170064     40.766092
  H      33.905330     14.654696     41.233807
  C      39.480900     16.797027     39.875129
  O      40.464223     16.006185     39.774086
  O      39.372886     17.864889     39.229919
24
Coordinates from ORCA-job neb_MEP_ALL.QMRegion E -1074.529067802603
  C      39.048110     16.653525     42.894014
  H      39.917044     16.031121     42.700485
  H      39.231750     17.708040     43.129931
  C      38.023092     15.983777     43.665627
  C      36.993820     16.728603     44.565658
  O      37.078421     17.977373     44.683804
  O      36.147520     16.012394     45.146362
  O      37.868514     14.762073     43.541313
  C      36.810817     14.633302     41.432018
  H      36.603621     13.570114     41.564323
  C      37.993549     15.047898     40.918317
  H      38.789984     14.346484     40.678824
  C      38.344380     16.445078     40.909125
  C      37.214833     17.396897     41.000194
  H      37.443802     18.444374     40.795248
  C      36.003743     17.006799     41.418572
  H      35.226550     17.750684     41.609644
  C      35.644997     15.563261     41.671457
  H      35.289918     15.463494     42.713627
  O      34.614735     15.186611     40.764365
  H      33.897071     14.657612     41.233829
  C      39.489166     16.803822     39.918028
  O      40.462614     16.006269     39.784696
  O      39.356583     17.854423     39.249383
24
Coordinates from ORCA-job neb_MEP_ALL.QMRegion E -1074.549964757331
  C      39.002209     16.642312     42.712758
  H      39.914748     16.033255     42.710649
  H      39.201850     17.689703     43.020429
  C      38.020235     15.973462     43.644525
  C      36.999048     16.732314     44.564020
  O      37.096032     17.979266     44.679402
  O      36.162523     16.011538     45.146985
  O      37.935696     14.763756     43.625907
  C      36.797296     14.629973     41.374896
  H      36.587423     13.564926     41.492801
  C      37.994195     15.046810     40.943521
  H      38.794821     14.347911     40.700273
  C      38.403699     16.474994     41.067405
  C      37.225819     17.405436     41.037433
  H      37.443664     18.453679     40.817177
  C      36.007749     17.004671     41.417282
  H      35.219412     17.743422     41.575688
  C      35.643503     15.559719     41.657642
  H      35.301351     15.450408     42.703183
  O      34.593292     15.208327     40.764325
  H      33.888007     14.664453     41.234432
  C      39.494600     16.810611     39.966178
  O      40.461788     16.009261     39.801194
  O      39.336861     17.845590     39.278404
24
Coordinates from ORCA-job neb_MEP_ALL.QMRegion E -1074.565583938616
  C      39.020000     16.645000     42.613000
  H      39.979000     16.118000     42.662000
  H      39.148000     17.716000     42.823000
  C      38.157000     15.960000     43.660000
  C      37.105000     16.705000     44.550000
  O      37.176000     17.952000     44.643000
  O      36.282000     15.976000     45.146000
  O      38.270000     14.761000     43.814000
  C      36.746000     14.591000     41.164000
  H      36.494000     13.533000     41.067000
  C      37.999000     15.013000     40.982000
  H      38.810000     14.319000     40.768000
  C      38.415000     16.449000     41.155000
  C      37.225000     17.371000     41.095000
  H      37.449000     18.430000     40.950000
  C      35.977000     16.952000     41.318000
  H      35.164000     17.678000     41.380000
  C      35.603000     15.504000     41.519000
  H      35.351000     15.359000     42.590000
  O      34.474000     15.198000     40.719000
  H      33.784000     14.677000     41.235000
  C      39.478000     16.800000     40.036000
  O      40.446000     16.009000     39.837000
  O      39.287000     17.839000     39.369000
24
Coordinates from ORCA-job neb_MEP_ALL.QMRegion E -1074.552193114524
  C      39.054000     16.686000     43.562000
  H      39.807000     16.195000     42.948000
  H      39.264000     17.670000     43.983000
  C      37.867000     16.122000     43.805000
  C      36.838000     16.764000     44.719000
  O      36.918000     18.012000     44.882000
  O      35.992000     16.015000     45.262000
  O      37.515000     14.890000     43.282000
  C      37.016000     14.882000     41.905000
  H      36.687000     13.845000     41.743000
  C      38.153000     15.216000     40.988000
  H      38.949000     14.481000     40.870000
  C      38.280000     16.432000     40.423000
  C      37.250000     17.450000     40.666000
  H      37.472000     18.464000     40.326000
  C      36.113000     17.176000     41.330000
  H      35.398000     17.974000     41.550000
  C      35.756000     15.773000     41.755000
  H      35.271000     15.793000     42.746000
  O      34.868000     15.226000     40.788000
  H      34.133000     14.713000     41.232000
  C      39.499000     16.788000     39.587000
  O      40.533000     16.057000     39.670000
  O      39.417000     17.800000     38.850000
24
Coordinates from ORCA-job neb_MEP_ALL.QMRegion E -1074.554795250416
  C      39.061067     16.663295     43.498400
  H      39.801868     16.159711     42.879590
  H      39.273788     17.658460     43.889037
  C      37.878600     16.101553     43.769290
  C      36.862182     16.753269     44.690603
  O      36.944941     18.000986     44.851703
  O      36.015861     16.010260     45.240455
  O      37.520871     14.863275     43.267324
  C      37.003421     14.847503     41.888976
  H      36.679552     13.808613     41.739666
  C      38.130855     15.186752     40.966002
  H      38.922896     14.452170     40.827217
  C      38.265305     16.415813     40.432250
  C      37.239104     17.433106     40.699889
  H      37.464304     18.456154     40.389160
  C      36.098625     17.145184     41.352962
  H      35.380288     17.937780     41.583714
  C      35.741963     15.733751     41.756386
  H      35.262150     15.740820     42.750025
  O      34.850543     15.198340     40.787176
  H      34.109076     14.693633     41.231115
  C      39.490554     16.785416     39.607601
  O      40.517957     16.043631     39.674291
  O      39.415880     17.815973     38.896199
24
Coordinates from ORCA-job neb_MEP_ALL.QMRegion E -1074.556006079948
  C      39.071602     16.635902     43.416297
  H      39.799451     16.118510     42.793777
  H      39.284829     17.646454     43.765946
  C      37.896232     16.075245     43.725332
  C      36.891890     16.740247     44.649722
  O      36.981107     17.987677     44.809154
  O      36.050780     16.000858     45.213808
  O      37.530179     14.829954     43.245584
  C      36.987768     14.800909     41.873426
  H      36.669575     13.757844     41.735073
  C      38.100972     15.150798     40.935827
  H      38.889052     14.416183     40.774333
  C      38.245350     16.396734     40.445202
  C      37.221589     17.408072     40.745220
  H      37.451758     18.440681     40.475595
  C      36.077254     17.103637     41.384476
  H      35.354552     17.887541     41.631372
  C      35.720278     15.683874     41.758958
  H      35.250059     15.672395     42.758077
  O      34.824022     15.160887     40.785798
  H      34.073685     14.669921     41.232610
  C      39.478692     16.783834     39.641186
  O      40.498171     16.028802     39.685318
  O      39.412153     17.837782     38.965824
24
Coordinates from ORCA-job neb_MEP_ALL.QMRegion E -1074.553353415612
  C      39.091245     16.598601     43.273896
  H      39.815496     16.052999     42.671718
  H      39.284988     17.645744     43.513375
  C      37.932880     16.035746     43.648794
  C      36.943877     16.721713     44.576292
  O      37.043858     17.968090     44.734927
  O      36.110217     15.991138     45.164019
  O      37.557177     14.777575     43.210392
  C      36.958929     14.724862     41.835425
  H      36.655742     13.673256     41.717160
  C      38.051904     15.097602     40.892752
  H      38.831884     14.366293     40.686195
  C      38.222022     16.375467     40.502945
  C      37.199436     17.374559     40.848438
  H      37.438518     18.420910     40.652559
  C      36.036852     17.036094     41.434435
  H      35.293692     17.799639     41.680231
  C      35.682358     15.604527     41.759332
  H      35.235890     15.558433     42.768349
  O      34.765181     15.115045     40.787618
  H      34.000646     14.643922     41.237709
  C      39.463675     16.784084     39.728394
  O      40.470468     16.011651     39.721457
  O      39.405527     17.873777     39.112834
24
Coordinates from ORCA-job neb_MEP_ALL.QMRegion E -1074.542285275912
  C      39.101403     16.611499     43.188933
  H      39.854502     16.040278     42.650371
  H      39.262372     17.683673     43.326196
  C      37.971616     16.020710     43.629765
  C      36.975033     16.719450     44.548802
  O      37.067679     17.967223     44.700194
  O      36.135535     15.997448     45.141875
  O      37.621328     14.756550     43.230247
  C      36.927701     14.683414     41.759814
  H      36.645074     13.622886     41.678264
  C      38.030436     15.076171     40.882057
  H      38.806667     14.350236     40.653956
  C      38.239305     16.380749     40.602249
  C      37.204303     17.373114     40.930891
  H      37.444812     18.424210     40.758420
  C      36.016330     17.011000     41.443678
  H      35.251223     17.761445     41.656447
  C      35.662256     15.574674     41.737961
  H      35.249242     15.503146     42.756549
  O      34.705233     15.129796     40.784035
  H      33.943604     14.650149     41.238256
  C      39.469380     16.789384     39.812091
  O      40.467807     16.009168     39.758054
  O      39.393302     17.879560     39.201502
24
Coordinates from ORCA-job neb_MEP_ALL.QMRegion E -1074.527121934710
  C      39.099805     16.634358     43.134401
  H      39.879408     16.039626     42.665227
  H      39.254254     17.707319     43.259863
  C      38.002954     16.007649     43.659696
  C      36.985967     16.723602     44.558656
  O      37.066422     17.974281     44.693030
  O      36.135172     16.007050     45.141389
  O      37.719036     14.757883     43.338630
  C      36.878232     14.659615     41.630743
  H      36.629518     13.593092     41.641024
  C      38.013976     15.064744     40.884501
  H      38.798268     14.347646     40.658040
  C      38.261609     16.394906     40.680682
  C      37.207691     17.380536     40.956128
  H      37.447158     18.430413     40.775788
  C      36.008260     17.008991     41.432355
  H      35.241100     17.757859     41.641554
  C      35.653746     15.570538     41.709581
  H      35.268339     15.485298     42.737586
  O      34.665427     15.152765     40.774176
  H      33.920062     14.653070     41.235570
  C      39.476284     16.793525     39.848811
  O      40.466233     16.007693     39.767663
  O      39.382229     17.871596     39.218984
24
Coordinates from ORCA-job neb_MEP_ALL.QMRegion E -1074.523248457810
  C      39.092623     16.649979     43.067361
  H      39.900751     16.037442     42.679237
  H      39.248030     17.719167     43.211247
  C      38.021545     15.996540     43.680617
  C      36.989325     16.726406     44.565344
  O      37.068844     17.977451     44.687263
  O      36.137611     16.010387     45.143207
  O      37.807718     14.761540     43.454622
  C      36.832687     14.641937     41.507670
  H      36.616029     13.576836     41.607464
  C      37.998923     15.052934     40.893663
  H      38.792553     14.345524     40.665623
  C      38.285672     16.412609     40.755969
  C      37.209795     17.386908     40.971600
  H      37.446892     18.435402     40.783565
  C      36.003813     17.007738     41.423511
  H      35.235039     17.755032     41.630905
  C      35.647878     15.567239     41.685597
  H      35.281833     15.472954     42.722774
  O      34.635442     15.170004     40.766097
  H      33.904953     14.654703     41.233871
  C      39.480969     16.796835     39.874828
  O      40.464291     16.005988     39.773809
  O      39.373065     17.864679     39.229611
24
Coordinates from ORCA-job neb_MEP_ALL.QMRegion E -1074.528977171952
  C      39.048671     16.653596     42.897500
  H      39.917430     16.032032     42.700811
  H      39.232235     17.708755     43.132733
  C      38.023170     15.984821     43.666222
  C      36.993973     16.728427     44.565615
  O      37.077888     17.977469     44.684178
  O      36.147970     16.012177     45.146340
  O      37.867881     14.760209     43.539758
  C      36.811941     14.633954     41.434024
  H      36.603760     13.570468     41.563917
  C      37.993534     15.047732     40.918860
  H      38.790337     14.346152     40.678693
  C      38.343415     16.444311     40.905487
  C      37.215110     17.396424     40.999365
  H      37.443810     18.443714     40.794855
  C      36.003986     17.006466     41.418640
  H      35.227020     17.750158     41.609782
  C      35.645379     15.563366     41.671490
  H      35.290072     15.463206     42.713115
  O      34.614630     15.186227     40.764279
  H      33.896487     14.657473     41.233826
  C      39.488801     16.803647     39.916803
  O      40.462767     16.005880     39.784481
  O      39.356871     17.854311     39.249100
24
Coordinates from ORCA-job neb_MEP_ALL.QMRegion E -1074.547674742509
  C      39.003226     16.644387     42.712610
  H      39.916694     16.032888     42.711684
  H      39.202836     17.691894     43.024862
  C      38.022167     15.982330     43.644910
  C      37.000683     16.733982     44.564032
  O      37.095032     17.976992     44.679185
  O      36.160221     16.010703     45.148635
  O      37.933675     14.753798     43.625615
  C      36.797391     14.629511     41.376324
  H      36.587611     13.564210     41.493350
  C      37.992929     15.045776     40.941741
  H      38.795176     14.347661     40.700299
  C      38.404022     16.474718     41.066994
  C      37.224885     17.404710     41.035283
  H      37.443846     18.452761     40.816969
  C      36.007779     17.004611     41.416933
  H      35.219080     17.743798     41.576421
  C      35.643536     15.559850     41.657567
  H      35.301677     15.450185     42.702691
  O      34.593333     15.207893     40.764109
  H      33.887863     14.664345     41.234536
  C      39.494238     16.810650     39.964659
  O      40.461609     16.009485     39.800655
  O      39.337976     17.844884     39.278089
24
Coordinates from ORCA-job neb_MEP_ALL.QMRegion E -1074.565583938616
  C      39.020000     16.645000     42.613000
  H      39.979000     16.118000     42.662000
  H      39.148000     17.716000     42.823000
  C      38.157000     15.960000     43.660000
  C      37.105000     16.705000     44.550000
  O      37.176000     17.952000     44.643000
  O      36.282000     15.976000     45.146000
  O      38.270000     14.761000     43.814000
  C      36.746000     14.591000     41.164000
  H      36.494000     13.533000     41.067000
  C      37.999000     15.013000     40.982000
  H      38.810000     14.319000     40.768000
  C      38.415000     16.449000     41.155000
  C      37.225000     17.371000     41.095000
  H      37.449000     18.430000     40.950000
  C      35.977000     16.952000     41.318000
  H      35.164000     17.678000     41.380000
  C      35.603000     15.504000     41.519000
  H      35.351000     15.359000     42.590000
  O      34.474000     15.198000     40.719000
  H      33.784000     14.677000     41.235000
  C      39.478000     16.800000     40.036000
  O      40.446000     16.009000     39.837000
  O      39.287000     17.839000     39.369000
24
Coordinates from ORCA-job neb_MEP_ALL.QMRegion E -1074.552193114524
  C      39.054000     16.686000     43.562000
  H      39.807000     16.195000     42.948000
  H      39.264000     17.670000     43.983000
  C      37.867000     16.122000     43.805000
  C      36.838000     16.764000     44.719000
  O      36.918000     18.012000     44.882000
  O      35.992000     16.015000     45.262000
  O      37.515000     14.890000     43.282000
  C      37.016000     14.882000     41.905000
  H      36.687000     13.845000     41.743000
  C      38.153000     15.216000     40.988000
  H      38.949000     14.481000     40.870000
  C      38.280000     16.432000     40.423000
  C      37.250000     17.450000     40.666000
  H      37.472000     18.464000     40.326000
  C      36.113000     17.176000     41.330000
  H      35.398000     17.974000     41.550000
  C      35.756000     15.773000     41.755000
  H      35.271000     15.793000     42.746000
  O      34.868000     15.226000     40.788000
  H      34.133000     14.713000     41.232000
  C      39.499000     16.788000     39.587000
  O      40.533000     16.057000     39.670000
  O      39.417000     17.800000     38.850000
24
Coordinates from ORCA-job neb_MEP_ALL.QMRegion E -1074.554840995410
  C      39.061049     16.663255     43.498449
  H      39.801933     16.159635     42.879766
  H      39.273970     17.658252     43.889561
  C      37.878801     16.101335     43.769884
  C      36.861854     16.753356     44.690612
  O      36.945049     18.001028     44.851798
  O      36.015977     16.010084     45.240505
  O      37.520435     14.863313     43.265898
  C      37.003923     14.847422     41.890748
  H      36.679433     13.808179     41.739493
  C      38.130966     15.187030     40.965431
  H      38.923101     14.451971     40.827324
  C      38.265382     16.416318     40.432088
  C      37.238895     17.433070     40.699604
  H      37.464164     18.455745     40.388830
  C      36.098663     17.145351     41.352882
  H      35.380603     17.937574     41.583796
  C      35.741622     15.734363     41.756226
  H      35.262313     15.740703     42.749874
  O      34.850603     15.198266     40.787075
  H      34.109114     14.693534     41.231071
  C      39.490119     16.784999     39.607324
  O      40.517939     16.043862     39.674157
  O      39.416063     17.815742     38.896211
24
Coordinates from ORCA-job neb_MEP_ALL.QMRegion E -1074.556056033430
  C      39.071619     16.635588     43.416080
  H      39.799475     16.118253     42.793715
  H      39.285211     17.645796     43.766183
  C      37.896670     16.074938     43.725513
  C      36.892288     16.739905     44.649746
  O      36.981160     17.987454     44.809037
  O      36.051077     16.000885     45.213712
  O      37.529991     14.829910     43.244327
  C      36.987809     14.800610     41.874050
  H      36.669529     13.757399     41.734931
  C      38.100759     15.150522     40.935499
  H      38.889011     14.415951     40.774147
  C      38.245114     16.396639     40.445281
  C      37.221075     17.407774     40.745058
  H      37.451443     18.440347     40.475311
  C      36.076980     17.103212     41.384531
  H      35.354799     17.887175     41.631890
  C      35.720202     15.683660     41.758993
  H      35.250035     15.671854     42.757727
  O      34.824106     15.160676     40.786149
  H      34.073548     14.669659     41.232399
  C      39.477991     16.783201     39.640817
  O      40.497947     16.029225     39.685113
  O      39.412609     17.837712     38.966104
24
Coordinates from ORCA-job neb_MEP_ALL.QMRegion E -1074.553219362621
  C      39.091368     16.598345     43.272778
  H      39.815911     16.052739     42.671418
  H      39.285062     17.645394     43.511600
  C      37.933653     16.035341     43.648278
  C      36.945259     16.721241     44.576139
  O      37.043955     17.967638     44.734207
  O      36.110842     15.991470     45.163409
  O      37.557295     14.777408     43.208513
  C      36.958609     14.724025     41.835431
  H      36.655821     13.672669     41.716803
  C      38.051242     15.096661     40.892698
  H      38.831427     14.365957     40.685418
  C      38.221836     16.374761     40.504139
  C      37.199005     17.374094     40.849303
  H      37.438384     18.420902     40.653862
  C      36.036190     17.034935     41.434697
  H      35.293152     17.798910     41.680581
  C      35.682533     15.603092     41.759427
  H      35.235854     15.557211     42.767818
  O      34.764673     15.114910     40.788315
  H      33.999738     14.643768     41.237543
  C      39.463021     16.783734     39.728827
  O      40.470266     16.012032     39.721716
  O      39.406105     17.873996     39.114267
24
Coordinates from ORCA-job neb_MEP_ALL.QMRegion E -1074.541581110126
  C      39.101196     16.612308     43.187758
  H      39.855329     16.040644     42.651180
  H      39.262151     17.684241     43.325559
  C      37.972783     16.020505     43.631194
  C      36.975814     16.719507     44.549704
  O      37.067222     17.967532     44.699868
  O      36.135415     15.997835     45.141693
  O      37.623357     14.756664     43.231099
  C      36.926825     14.682683     41.758106
  H      36.644775     13.622015     41.677240
  C      38.029844     15.075662     40.881898
  H      38.806573     14.350074     40.654024
  C      38.239957     16.380747     40.604419
  C      37.204336     17.373143     40.931280
  H      37.445001     18.424325     40.758839
  C      36.015988     17.010633     41.443205
  H      35.251086     17.761432     41.656201
  C      35.662376     15.574140     41.737283
  H      35.249908     15.502585     42.755667
  O      34.704244     15.130391     40.784084
  H      33.942935     14.650168     41.238235
  C      39.469222     16.789217     39.812593
  O      40.467770     16.009441     39.758099
  O      39.393611     17.879337     39.201785
24
Coordinates from ORCA-job neb_MEP_ALL.QMRegion E -1074.526855319751
  C      39.099896     16.634652     43.134351
  H      39.879931     16.039998     42.665684
  H      39.254275     17.707541     43.260275
  C      38.003198     16.007558     43.660230
  C      36.985868     16.723580     44.558839
  O      37.066498     17.974308     44.692947
  O      36.135261     16.006856     45.141556
  O      37.720304     14.758047     43.339912
  C      36.877599     14.659429     41.629162
  H      36.629439     13.592812     41.640541
  C      38.013925     15.064568     40.884624
  H      38.798367     14.347459     40.658168
  C      38.261875     16.395009     40.681218
  C      37.207730     17.380457     40.956068
  H      37.447176     18.430286     40.775638
  C      36.008230     17.008825     41.432116
  H      35.241175     17.757715     41.641499
  C      35.653699     15.570444     41.709283
  H      35.268587     15.485035     42.737309
  O      34.665160     15.152886     40.774156
  H      33.919750     14.653075     41.235568
  C      39.476170     16.793299     39.848754
  O      40.466237     16.007728     39.767621
  O      39.382330     17.871413     39.218981
24
Coordinates from ORCA-job neb_MEP_ALL.QMRegion E -1074.523260587998
  C      39.092815     16.650201     43.067745
  H      39.901029     16.037806     42.679607
  H      39.248075     17.719396     43.211975
  C      38.021836     15.996441     43.680919
  C      36.989271     16.726373     44.565413
  O      37.068776     17.977448     44.687286
  O      36.137702     16.010246     45.143359
  O      37.808053     14.761459     43.454811
  C      36.832634     14.641827     41.507437
  H      36.615985     13.576671     41.607158
  C      37.999010     15.052851     40.893650
  H      38.792667     14.345373     40.665733
  C      38.285778     16.412528     40.755792
  C      37.209833     17.386757     40.971426
  H      37.446926     18.435283     40.783378
  C      36.003842     17.007592     41.423403
  H      35.235097     17.754933     41.630888
  C      35.647833     15.567110     41.685432
  H      35.281974     15.472798     42.722653
  O      34.635263     15.169950     40.766023
  H      33.904812     14.654719     41.233931
  C      39.480967     16.796709     39.874646
  O      40.464314     16.005913     39.773711
  O      39.373156     17.864594     39.229490
24
Coordinates from ORCA-job neb_MEP_ALL.QMRegion E -1074.528738702407
  C      39.048942     16.653591     42.899871
  H      39.917956     16.032250     42.700724
  H      39.232371     17.708988     43.134290
  C      38.022802     15.985059     43.667121
  C      36.993805     16.728422     44.565743
  O      37.078015     17.977481     44.683992
  O      36.148096     16.011627     45.146265
  O      37.867729     14.760608     43.538603
  C      36.812022     14.633964     41.434703
  H      36.603866     13.570475     41.564038
  C      37.993804     15.047752     40.918825
  H      38.790540     14.345918     40.678620
  C      38.342607     16.444002     40.903188
  C      37.214992     17.396254     40.999042
  H      37.443894     18.443346     40.794601
  C      36.003967     17.006279     41.418467
  H      35.227287     17.750019     41.609938
  C      35.645731     15.563425     41.671733
  H      35.289982     15.463144     42.713171
  O      34.614797     15.185976     40.764153
  H      33.896331     14.657437     41.233877
  C      39.489044     16.803581     39.916474
  O      40.462781     16.005639     39.784146
  O      39.356955     17.854301     39.248701
24
Coordinates from ORCA-job neb_MEP_ALL.QMRegion E -1074.547195172451
  C      39.002498     16.644325     42.709958
  H      39.916677     16.033862     42.712360
  H      39.202505     17.690530     43.023894
  C      38.022124     15.981521     43.643952
  C      37.001585     16.733181     44.564423
  O      37.094703     17.976635     44.679160
  O      36.160385     16.011240     45.148679
  O      37.935089     14.755442     43.626957
  C      36.797057     14.629134     41.374301
  H      36.587120     13.563576     41.492617
  C      37.993702     15.046152     40.943450
  H      38.794873     14.347607     40.700468
  C      38.405441     16.475687     41.068336
  C      37.225303     17.404791     41.036098
  H      37.443800     18.452354     40.817065
  C      36.007759     17.004505     41.416311
  H      35.218728     17.743857     41.576154
  C      35.643771     15.559583     41.657477
  H      35.301583     15.449914     42.702916
  O      34.593055     15.208065     40.764055
  H      33.887617     14.664454     41.234551
  C      39.495268     16.811295     39.966206
  O      40.461192     16.009166     39.800479
  O      39.337384     17.844243     39.278244
24
Coordinates from ORCA-job neb_MEP_ALL.QMRegion E -1074.565583938616
  C      39.020000     16.645000     42.613000
  H      39.979000     16.118000     42.662000
  H      39.148000     17.716000     42.823000
  C      38.157000     15.960000     43.660000
  C      37.105000     16.705000     44.550000
  O      37.176000     17.952000     44.643000
  O      36.282000     15.976000     45.146000
  O      38.270000     14.761000     43.814000
  C      36.746000     14.591000     41.164000
  H      36.494000     13.533000     41.067000
  C      37.999000     15.013000     40.982000
  H      38.810000     14.319000     40.768000
  C      38.415000     16.449000     41.155000
  C      37.225000     17.371000     41.095000
  H      37.449000     18.430000     40.950000
  C      35.977000     16.952000     41.318000
  H      35.164000     17.678000     41.380000
  C      35.603000     15.504000     41.519000
  H      35.351000     15.359000     42.590000
  O      34.474000     15.198000     40.719000
  H      33.784000     14.677000     41.235000
  C      39.478000     16.800000     40.036000
  O      40.446000     16.009000     39.837000
  O      39.287000     17.839000     39.369000
24
Coordinates from ORCA-job neb_MEP_ALL.QMRegion E -1074.552193114524
  C      39.054000     16.686000     43.562000
  H      39.807000     16.195000     42.948000
  H      39.264000     17.670000     43.983000
  C      37.867000     16.122000     43.805000
  C      36.838000     16.764000     44.719000
  O      36.918000     18.012000     44.882000
  O      35.992000     16.015000     45.262000
  O      37.515000     14.890000     43.282000
  C      37.016000     14.882000     41.905000
  H      36.687000     13.845000     41.743000
  C      38.153000     15.216000     40.988000
  H      38.949000     14.481000     40.870000
  C      38.280000     16.432000     40.423000
  C      37.250000     17.450000     40.666000
  H      37.472000     18.464000     40.326000
  C      36.113000     17.176000     41.330000
  H      35.398000     17.974000     41.550000
  C      35.756000     15.773000     41.755000
  H      35.271000     15.793000     42.746000
  O      34.868000     15.226000     40.788000
  H      34.133000     14.713000     41.232000
  C      39.499000     16.788000     39.587000
  O      40.533000     16.057000     39.670000
  O      39.417000     17.800000     38.850000
24
Coordinates from ORCA-job neb_MEP_ALL.QMRegion E -1074.554880096344
  C      39.060758     16.662474     43.499701
  H      39.802337     16.158958     42.881833
  H      39.276216     17.655535     43.895806
  C      37.879900     16.098936     43.773415
  C      36.860904     16.753276     44.691320
  O      36.945189     18.001284     44.852879
  O      36.016480     16.008642     45.241029
  O      37.518428     14.863472     43.259557
  C      37.006158     14.847335     41.898429
  H      36.679110     13.806743     41.738559
  C      38.131270     15.188283     40.961952
  H      38.924528     14.451254     40.828284
  C      38.265353     16.418375     40.429726
  C      37.237413     17.432296     40.696287
  H      37.462701     18.452753     40.384507
  C      36.099118     17.146044     41.352077
  H      35.383011     17.936986     41.585013
  C      35.740408     15.737029     41.755398
  H      35.262996     15.740256     42.748896
  O      34.851354     15.197609     40.786012
  H      34.109942     14.692639     41.230506
  C      39.488163     16.782880     39.604927
  O      40.517490     16.044488     39.672834
  O      39.416703     17.814280     38.894849
24
Coordinates from ORCA-job neb_MEP_ALL.QMRegion E -1074.556116425744
  C      39.071743     16.632207     43.413291
  H      39.800221     16.114883     42.792394
  H      39.290247     17.639104     43.769726
  C      37.900709     16.070069     43.726571
  C      36.896388     16.737639     44.649436
  O      36.982239     17.985493     44.807905
  O      36.054734     15.999422     45.212606
  O      37.529617     14.827306     43.238174
  C      36.987293     14.797353     41.875368
  H      36.669137     13.753266     41.733803
  C      38.097968     15.147439     40.930589
  H      38.888230     14.413500     40.772120
  C      38.242660     16.394811     40.443529
  C      37.216726     17.403832     40.742322
  H      37.447411     18.435985     40.472256
  C      36.075069     17.099151     41.385803
  H      35.356212     17.883575     41.638288
  C      35.718796     15.680187     41.758997
  H      35.249226     15.665992     42.756398
  O      34.823838     15.157228     40.786584
  H      34.072226     14.666691     41.231152
  C      39.474164     16.780303     39.638845
  O      40.495270     16.029367     39.683457
  O      39.413835     17.837959     38.968034
24
Coordinates from ORCA-job neb_MEP_ALL.QMRegion E -1074.553232914859
  C      39.092918     16.595558     43.259516
  H      39.821851     16.048923     42.666510
  H      39.286882     17.643356     43.492740
  C      37.941676     16.029070     43.642768
  C      36.956223     16.717766     44.570597
  O      37.047989     17.964720     44.726790
  O      36.119183     15.991086     45.157404
  O      37.560730     14.772488     43.199199
  C      36.954996     14.715021     41.829985
  H      36.656011     13.663923     41.713208
  C      38.044815     15.088434     40.887239
  H      38.826619     14.360734     40.676910
  C      38.220693     16.369876     40.513359
  C      37.195452     17.368464     40.858188
  H      37.435960     18.417835     40.669344
  C      36.030832     17.024488     41.439045
  H      35.286513     17.788823     41.684685
  C      35.680142     15.590732     41.759134
  H      35.235238     15.542925     42.766125
  O      34.757370     15.110975     40.790726
  H      33.989694     14.642042     41.237513
  C      39.460062     16.782394     39.737034
  O      40.467348     16.011483     39.725188
  O      39.407525     17.877068     39.130093
24
Coordinates from ORCA-job neb_MEP_ALL.QMRegion E -1074.541326641725
  C      39.100154     16.620586     43.177357
  H      39.864196     16.045126     42.659058
  H      39.260052     17.691259     43.319845
  C      37.983829     16.017750     43.643340
  C      36.981291     16.720315     44.555095
  O      37.064188     17.970266     44.697317
  O      36.135503     16.000106     45.140842
  O      37.645571     14.756659     43.249765
  C      36.916809     14.676312     41.732194
  H      36.642169     13.613357     41.667964
  C      38.025574     15.071615     40.878892
  H      38.805481     14.347878     40.654630
  C      38.246543     16.381803     40.623132
  C      37.205350     17.372895     40.935575
  H      37.446789     18.424150     40.763795
  C      36.014068     17.007715     41.439568
  H      35.249854     17.759448     41.652991
  C      35.661183     15.570790     41.729995
  H      35.255975     15.496754     42.749385
  O      34.694277     15.134788     40.782752
  H      33.936090     14.650687     41.238897
  C      39.470337     16.788745     39.819526
  O      40.467483     16.009215     39.758989
  O      39.393658     17.877087     39.205017
24
Coordinates from ORCA-job neb_MEP_ALL.QMRegion E -1074.526829501021
  C      39.100311     16.638869     43.131287
  H      39.886152     16.044188     42.671884
  H      39.254776     17.710620     43.264970
  C      38.007472     16.005637     43.666553
  C      36.986330     16.723092     44.561964
  O      37.066007     17.974428     44.692160
  O      36.135543     16.006008     45.143547
  O      37.735507     14.759104     43.355999
  C      36.871147     14.656566     41.610235
  H      36.628030     13.589554     41.634352
  C      38.013226     15.062354     40.885778
  H      38.798845     14.345570     40.660002
  C      38.265151     16.396128     40.688209
  C      37.208010     17.379434     40.955315
  H      37.447461     18.428740     40.774018
  C      36.007814     17.006971     41.429067
  H      35.242052     17.756104     41.640854
  C      35.653229     15.569111     41.705227
  H      35.271627     15.481773     42.734222
  O      34.660518     15.154500     40.773421
  H      33.916249     14.653247     41.235510
  C      39.476346     16.792117     39.849606
  O      40.466064     16.006784     39.766946
  O      39.382396     17.869487     39.218389
24
Coordinates from ORCA-job neb_MEP_ALL.QMRegion E -1074.523267480364
  C      39.094874     16.652593     43.072429
  H      39.904328     16.042193     42.683960
  H      39.248529     17.721617     43.220458
  C      38.024678     15.995862     43.684115
  C      36.989604     16.725634     44.566928
  O      37.067712     17.977119     44.687241
  O      36.138582     16.008860     45.144804
  O      37.812269     14.761002     43.456989
  C      36.832228     14.640385     41.504542
  H      36.615493     13.574889     41.603564
  C      38.000015     15.051724     40.893659
  H      38.793769     14.343764     40.667080
  C      38.286410     16.411434     40.753740
  C      37.210253     17.385091     40.969583
  H      37.447247     18.433662     40.781203
  C      36.004177     17.006049     41.421947
  H      35.235885     17.753731     41.630679
  C      35.647711     15.565652     41.683456
  H      35.283486     15.470935     42.721088
  O      34.633333     15.169384     40.765545
  H      33.903021     14.654849     41.234478
  C      39.481267     16.795473     39.872750
  O      40.464701     16.004853     39.772415
  O      39.374135     17.863637     39.227908
24
Coordinates from ORCA-job neb_MEP_ALL.QMRegion E -1074.528613873941
  C      39.052397     16.654847     42.919590
  H      39.921560     16.036144     42.701915
  H      39.233664     17.711351     43.148411
  C      38.022325     15.985757     43.672206
  C      36.993320     16.727934     44.566580
  O      37.077476     17.977417     44.683716
  O      36.149563     16.008099     45.146462
  O      37.866952     14.761468     43.531075
  C      36.813957     14.634428     41.440948
  H      36.604498     13.571011     41.562843
  C      37.996613     15.047553     40.919379
  H      38.792085     14.344105     40.678592
  C      38.336732     16.440293     40.885071
  C      37.214830     17.393947     40.995604
  H      37.444471     18.440296     40.792223
  C      36.004722     17.004515     41.417281
  H      35.229514     17.748095     41.610771
  C      35.647424     15.563294     41.672229
  H      35.290017     15.461885     42.712433
  O      34.615347     15.183819     40.763814
  H      33.894263     14.657321     41.234075
  C      39.489879     16.802182     39.912473
  O      40.463096     16.003655     39.781848
  O      39.358093     17.854111     39.245780
24
Coordinates from ORCA-job neb_MEP_ALL.QMRegion E -1074.547640918668
  C      39.002690     16.646854     42.701429
  H      39.919390     16.040471     42.718223
  H      39.203386     17.687371     43.030215
  C      38.023979     15.975894     43.640441
  C      37.005694     16.727468     44.568432
  O      37.091356     17.973895     44.678730
  O      36.160309     16.013700     45.149986
  O      37.940014     14.763732     43.631126
  C      36.795962     14.626130     41.367278
  H      36.585037     13.558946     41.490741
  C      37.996970     15.046991     40.949534
  H      38.793721     14.346491     40.701027
  C      38.411117     16.479051     41.070681
  C      37.226634     17.402988     41.035675
  H      37.443957     18.448467     40.816131
  C      36.006686     17.003813     41.412287
  H      35.217089     17.744212     41.576639
  C      35.644681     15.557888     41.656640
  H      35.301594     15.448077     42.703338
  O      34.591958     15.207425     40.763588
  H      33.886002     14.664789     41.234743
  C      39.499901     16.813323     39.971220
  O      40.459736     16.006562     39.798027
  O      39.336404     17.841576     39.276589
24
Coordinates from ORCA-job neb_MEP_ALL.QMRegion E -1074.565583938616
  C      39.020000     16.645000     42.613000
  H      39.979000     16.118000     42.662000
  H      39.148000     17.716000     42.823000
  C      38.157000     15.960000     43.660000
  C      37.105000     16.705000     44.550000
  O      37.176000     17.952000     44.643000
  O      36.282000     15.976000     45.146000
  O      38.270000     14.761000     43.814000
  C      36.746000     14.591000     41.164000
  H      36.494000     13.533000     41.067000
  C      37.999000     15.013000     40.982000
  H      38.810000     14.319000     40.768000
  C      38.415000     16.449000     41.155000
  C      37.225000     17.371000     41.095000
  H      37.449000     18.430000     40.950000
  C      35.977000     16.952000     41.318000
  H      35.164000     17.678000     41.380000
  C      35.603000     15.504000     41.519000
  H      35.351000     15.359000     42.590000
  O      34.474000     15.198000     40.719000
  H      33.784000     14.677000     41.235000
  C      39.478000     16.800000     40.036000
  O      40.446000     16.009000     39.837000
  O      39.287000     17.839000     39.369000
24
Coordinates from ORCA-job neb_MEP_ALL.QMRegion E -1074.552193114524
  C      39.054000     16.686000     43.562000
  H      39.807000     16.195000     42.948000
  H      39.264000     17.670000     43.983000
  C      37.867000     16.122000     43.805000
  C      36.838000     16.764000     44.719000
  O      36.918000     18.012000     44.882000
  O      35.992000     16.015000     45.262000
  O      37.515000     14.890000     43.282000
  C      37.016000     14.882000     41.905000
  H      36.687000     13.845000     41.743000
  C      38.153000     15.216000     40.988000
  H      38.949000     14.481000     40.870000
  C      38.280000     16.432000     40.423000
  C      37.250000     17.450000     40.666000
  H      37.472000     18.464000     40.326000
  C      36.113000     17.176000     41.330000
  H      35.398000     17.974000     41.550000
  C      35.756000     15.773000     41.755000
  H      35.271000     15.793000     42.746000
  O      34.868000     15.226000     40.788000
  H      34.133000     14.713000     41.232000
  C      39.499000     16.788000     39.587000
  O      40.533000     16.057000     39.670000
  O      39.417000     17.800000     38.850000
24
Coordinates from ORCA-job neb_MEP_ALL.QMRegion E -1074.554950199879
  C      39.061148     16.661929     43.500564
  H      39.802429     16.158847     42.881506
  H      39.276134     17.654949     43.895904
  C      37.879239     16.099540     43.771711
  C      36.861584     16.752542     44.691200
  O      36.945352     18.000553     44.852610
  O      36.015885     16.008628     45.241516
  O      37.520545     14.864450     43.264946
  C      37.003924     14.847786     41.891054
  H      36.679476     13.808169     41.738873
  C      38.130821     15.187195     40.964551
  H      38.924121     14.451996     40.827947
  C      38.264389     16.416072     40.429861
  C      37.237837     17.432315     40.696273
  H      37.462662     18.453725     40.384005
  C      36.099025     17.145270     41.351866
  H      35.382413     17.937996     41.585236
  C      35.742340     15.734368     41.756111
  H      35.262218     15.740631     42.749176
  O      34.851532     15.197806     40.786311
  H      34.110063     14.692645     41.230320
  C      39.489040     16.783678     39.604321
  O      40.517618     16.043955     39.673034
  O      39.416612     17.815018     38.894322
24
Coordinates from ORCA-job neb_MEP_ALL.QMRegion E -1074.556443067157
  C      39.073540     16.631489     43.414236
  H      39.800492     16.114567     42.791668
  H      39.290211     17.638619     43.769662
  C      37.899254     16.070329     43.724488
  C      36.896295     16.736627     44.649838
  O      36.983281     17.985008     44.807029
  O      36.054126     15.998831     45.213193
  O      37.530889     14.828530     43.239852
  C      36.986798     14.797083     41.872486
  H      36.669162     13.753582     41.733786
  C      38.097875     15.146788     40.932890
  H      38.887880     14.413627     40.771641
  C      38.240821     16.393310     40.443304
  C      37.216702     17.404097     40.742872
  H      37.447050     18.436094     40.471928
  C      36.074778     17.098755     41.385411
  H      35.356189     17.883504     41.638561
  C      35.720055     15.678897     41.759399
  H      35.248666     15.665683     42.756527
  O      34.823885     15.157205     40.786863
  H      34.071922     14.666418     41.230947
  C      39.474207     16.780517     39.638360
  O      40.495904     16.029026     39.683467
  O      39.414043     17.838532     38.968018
24
Coordinates from ORCA-job neb_MEP_ALL.QMRegion E -1074.552634150599
  C      39.095024     16.595825     43.257809
  H      39.823518     16.048578     42.665490
  H      39.285763     17.644813     43.487918
  C      37.941496     16.028807     43.640943
  C      36.956415     16.717437     44.571423
  O      37.049554     17.965276     44.724767
  O      36.118534     15.990316     45.157528
  O      37.564174     14.773203     43.200188
  C      36.955093     14.713478     41.827839
  H      36.655264     13.661253     41.711595
  C      38.044586     15.087890     40.888403
  H      38.825693     14.360033     40.675849
  C      38.219254     16.370208     40.516474
  C      37.195280     17.368986     40.861643
  H      37.436020     18.417144     40.672308
  C      36.030272     17.024271     41.438319
  H      35.286174     17.786943     41.683860
  C      35.679598     15.591099     41.758037
  H      35.235825     15.540898     42.765611
  O      34.755507     15.111433     40.790740
  H      33.987735     14.641900     41.237632
  C      39.460162     16.782243     39.739337
  O      40.468058     16.011691     39.725805
  O      39.407723     17.876915     39.132623
24
Coordinates from ORCA-job neb_MEP_ALL.QMRegion E -1074.537758763707
  C      39.101839     16.620488     43.179029
  H      39.864578     16.045657     42.659248
  H      39.260107     17.692373     43.318987
  C      37.983564     16.017246     43.641597
  C      36.980525     16.720275     44.555372
  O      37.064759     17.970022     44.697430
  O      36.135110     15.999992     45.141890
  O      37.646338     14.756607     43.248046
  C      36.918584     14.675335     41.733822
  H      36.641740     13.612499     41.667014
  C      38.026568     15.071435     40.880902
  H      38.805080     14.347890     40.654678
  C      38.245455     16.381990     40.622784
  C      37.205324     17.373172     40.937009
  H      37.446649     18.424092     40.763350
  C      36.014070     17.008303     41.438502
  H      35.249875     17.759113     41.652738
  C      35.660807     15.571483     41.729310
  H      35.256359     15.496088     42.749373
  O      34.693253     15.135240     40.782536
  H      33.935331     14.650688     41.238576
  C      39.470853     16.789037     39.820221
  O      40.468175     16.008662     39.759023
  O      39.393109     17.876694     39.205205
24
Coordinates from ORCA-job neb_MEP_ALL.QMRegion E -1074.525990761994
  C      39.101500     16.638739     43.133819
  H      39.885662     16.044673     42.671814
  H      39.254596     17.710677     43.265760
  C      38.007156     16.005815     43.665829
  C      36.986075     16.723080     44.561180
  O      37.065938     17.974082     44.692565
  O      36.136013     16.005908     45.143703
  O      37.735137     14.759109     43.356120
  C      36.871370     14.656218     41.609859
  H      36.628363     13.589630     41.634737
  C      38.013245     15.061795     40.885781
  H      38.798897     14.345739     40.660038
  C      38.264566     16.395548     40.686992
  C      37.208164     17.379322     40.955305
  H      37.447428     18.428886     40.773680
  C      36.008108     17.007267     41.429468
  H      35.241903     17.756100     41.640767
  C      35.653168     15.569101     41.705127
  H      35.271508     15.481899     42.734775
  O      34.660650     15.153917     40.773090
  H      33.916405     14.653227     41.235808
  C      39.476722     16.792275     39.849056
  O      40.466486     16.006429     39.766865
  O      39.382429     17.869712     39.218166
24
Coordinates from ORCA-job neb_MEP_ALL.QMRegion E -1074.523327737475
  C      39.095038     16.652718     43.072970
  H      39.904627     16.042432     42.684164
  H      39.248525     17.721930     43.220979
  C      38.024523     15.995818     43.683997
  C      36.989704     16.725507     44.566777
  O      37.067555     17.976891     44.687391
  O      36.138727     16.008942     45.145015
  O      37.812542     14.760862     43.457325
  C      36.832288     14.640259     41.504274
  H      36.615575     13.574950     41.603354
  C      38.000135     15.051507     40.893791
  H      38.793875     14.343702     40.667160
  C      38.286241     16.411262     40.753778
  C      37.210301     17.385061     40.969421
  H      37.447258     18.433540     40.781072
  C      36.004283     17.006037     41.421871
  H      35.235989     17.753535     41.630561
  C      35.647681     15.565557     41.683281
  H      35.283565     15.470809     42.721209
  O      34.633224     15.169252     40.765436
  H      33.902964     14.654859     41.234568
  C      39.481457     16.795489     39.872646
  O      40.464820     16.004667     39.772364
  O      39.374147     17.863668     39.227780
24
Coordinates from ORCA-job neb_MEP_ALL.QMRegion E -1074.527562142720
  C      39.052640     16.655436     42.913413
  H      39.921223     16.036674     42.703415
  H      39.232415     17.710736     43.144799
  C      38.024752     15.986652     43.670510
  C      36.993548     16.727344     44.566881
  O      37.077710     17.976891     44.683413
  O      36.149216     16.008618     45.147441
  O      37.869576     14.760937     43.536078
  C      36.813171     14.633387     41.435191
  H      36.603790     13.569870     41.561170
  C      37.996167     15.047100     40.919527
  H      38.791873     14.344294     40.679697
  C      38.339624     16.441205     40.893095
  C      37.215238     17.394234     40.996494
  H      37.444535     18.441228     40.792539
  C      36.004299     17.004516     41.416893
  H      35.228758     17.748332     41.609867
  C      35.645866     15.562240     41.670978
  H      35.290329     15.461587     42.712697
  O      34.614628     15.184337     40.764359
  H      33.894652     14.657978     41.234047
  C      39.489884     16.802606     39.914080
  O      40.463317     16.003835     39.782183
  O      39.357952     17.853506     39.246608
24
Coordinates from ORCA-job neb_MEP_ALL.QMRegion E -1074.548459547233
  C      39.002343     16.644240     42.709409
  H      39.918218     16.042053     42.717072
  H      39.202861     17.685577     43.029499
  C      38.022549     15.982141     43.642273
  C      37.003496     16.730042     44.567159
  O      37.093158     17.975858     44.678612
  O      36.162364     16.010348     45.149263
  O      37.940754     14.758340     43.628651
  C      36.797041     14.627011     41.368020
  H      36.585544     13.560903     41.490694
  C      37.998640     15.047263     40.950631
  H      38.793667     14.346385     40.700819
  C      38.408343     16.477383     41.067914
  C      37.226838     17.403092     41.036969
  H      37.443993     18.449771     40.815058
  C      36.007248     17.003192     41.412889
  H      35.218697     17.742914     41.576246
  C      35.644038     15.557448     41.656194
  H      35.301383     15.448299     42.703495
  O      34.592059     15.206855     40.764176
  H      33.886040     14.664811     41.234560
  C      39.499124     16.812645     39.968602
  O      40.461014     16.005642     39.798644
  O      39.336373     17.842775     39.276587
24
Coordinates from ORCA-job neb_MEP_ALL.QMRegion E -1074.565583938616
  C      39.020000     16.645000     42.613000
  H      39.979000     16.118000     42.662000
  H      39.148000     17.716000     42.823000
  C      38.157000     15.960000     43.660000
  C      37.105000     16.705000     44.550000
  O      37.176000     17.952000     44.643000
  O      36.282000     15.976000     45.146000
  O      38.270000     14.761000     43.814000
  C      36.746000     14.591000     41.164000
  H      36.494000     13.533000     41.067000
  C      37.999000     15.013000     40.982000
  H      38.810000     14.319000     40.768000
  C      38.415000     16.449000     41.155000
  C      37.225000     17.371000     41.095000
  H      37.449000     18.430000     40.950000
  C      35.977000     16.952000     41.318000
  H      35.164000     17.678000     41.380000
  C      35.603000     15.504000     41.519000
  H      35.351000     15.359000     42.590000
  O      34.474000     15.198000     40.719000
  H      33.784000     14.677000     41.235000
  C      39.478000     16.800000     40.036000
  O      40.446000     16.009000     39.837000
  O      39.287000     17.839000     39.369000
24
Coordinates from ORCA-job neb_MEP_ALL.QMRegion E -1074.552193114524
  C      39.054000     16.686000     43.562000
  H      39.807000     16.195000     42.948000
  H      39.264000     17.670000     43.983000
  C      37.867000     16.122000     43.805000
  C      36.838000     16.764000     44.719000
  O      36.918000     18.012000     44.882000
  O      35.992000     16.015000     45.262000
  O      37.515000     14.890000     43.282000
  C      37.016000     14.882000     41.905000
  H      36.687000     13.845000     41.743000
  C      38.153000     15.216000     40.988000
  H      38.949000     14.481000     40.870000
  C      38.280000     16.432000     40.423000
  C      37.250000     17.450000     40.666000
  H      37.472000     18.464000     40.326000
  C      36.113000     17.176000     41.330000
  H      35.398000     17.974000     41.550000
  C      35.756000     15.773000     41.755000
  H      35.271000     15.793000     42.746000
  O      34.868000     15.226000     40.788000
  H      34.133000     14.713000     41.232000
  C      39.499000     16.788000     39.587000
  O      40.533000     16.057000     39.670000
  O      39.417000     17.800000     38.850000
24
Coordinates from ORCA-job neb_MEP_ALL.QMRegion E -1074.555064937318
  C      39.061627     16.661594     43.501108
  H      39.802481     16.158749     42.881342
  H      39.276099     17.654536     43.896040
  C      37.878866     16.100200     43.770903
  C      36.861765     16.751990     44.691212
  O      36.945511     18.000044     44.852436
  O      36.015668     16.008714     45.241768
  O      37.521463     14.864661     43.267291
  C      37.003018     14.847921     41.887665
  H      36.679623     13.808781     41.738991
  C      38.130719     15.186589     40.965896
  H      38.923849     14.452419     40.827777
  C      38.263919     16.414859     40.429795
  C      37.237968     17.432231     40.696271
  H      37.462618     18.454299     40.383601
  C      36.098922     17.144891     41.351771
  H      35.382165     17.938445     41.585360
  C      35.743131     15.733171     41.756357
  H      35.261850     15.740771     42.749289
  O      34.851648     15.197874     40.786531
  H      34.110150     14.692637     41.230172
  C      39.489460     16.783890     39.604066
  O      40.517641     16.043741     39.673102
  O      39.416603     17.815485     38.893961
24
Coordinates from ORCA-job neb_MEP_ALL.QMRegion E -1074.556472104392
  C      39.074181     16.630593     43.415124
  H      39.800853     16.114212     42.791013
  H      39.290275     17.638298     43.769629
  C      37.899019     16.071131     43.723010
  C      36.896214     16.736071     44.649963
  O      36.984086     17.984332     44.806376
  O      36.053738     15.998402     45.213698
  O      37.531504     14.828953     43.240399
  C      36.986602     14.796760     41.871186
  H      36.669133     13.753561     41.733722
  C      38.097962     15.146379     40.934233
  H      38.887602     14.413649     40.771276
  C      38.239697     16.392391     40.443010
  C      37.216572     17.404119     40.743263
  H      37.446748     18.436164     40.471660
  C      36.074524     17.098394     41.385225
  H      35.356166     17.883323     41.638813
  C      35.720625     15.678188     41.759570
  H      35.248359     15.665311     42.756550
  O      34.823893     15.157095     40.787111
  H      34.071683     14.666199     41.230772
  C      39.474267     16.780338     39.638083
  O      40.496057     16.029039     39.683447
  O      39.414219     17.838853     38.968143
24
Coordinates from ORCA-job neb_MEP_ALL.QMRegion E -1074.552412612148
  C      39.095835     16.595847     43.256635
  H      39.825116     16.048238     42.664534
  H      39.284859     17.646167     43.483590
  C      37.942386     16.029363     43.639553
  C      36.956677     16.717251     44.571647
  O      37.050705     17.965238     44.723232
  O      36.118280     15.990061     45.157607
  O      37.566671     14.773117     43.200398
  C      36.954883     14.711983     41.826451
  H      36.654737     13.659201     41.710265
  C      38.044455     15.087452     40.889142
  H      38.824872     14.359473     40.674901
  C      38.218666     16.370354     40.519041
  C      37.195459     17.369283     40.864435
  H      37.436145     18.416837     40.674962
  C      36.029479     17.023785     41.437962
  H      35.285572     17.785546     41.683181
  C      35.679230     15.590923     41.757188
  H      35.236394     15.539172     42.765111
  O      34.753775     15.111831     40.790741
  H      33.986059     14.641837     41.237730
  C      39.460229     16.782074     39.741475
  O      40.468440     16.011854     39.726461
  O      39.407787     17.876838     39.134905
24
Coordinates from ORCA-job neb_MEP_ALL.QMRegion E -1074.537846216125
  C      39.102826     16.620554     43.180517
  H      39.865105     16.046057     42.659399
  H      39.260121     17.693173     43.318216
  C      37.983594     16.017395     43.640530
  C      36.980097     16.720018     44.555340
  O      37.065165     17.969803     44.697584
  O      36.134927     15.999979     45.142710
  O      37.647059     14.756245     43.246926
  C      36.919329     14.674660     41.734771
  H      36.641458     13.611836     41.666203
  C      38.027334     15.071648     40.882231
  H      38.804947     14.347798     40.654721
  C      38.244956     16.381780     40.622801
  C      37.205706     17.373552     40.937857
  H      37.446548     18.424096     40.763037
  C      36.013674     17.008480     41.437934
  H      35.249758     17.758959     41.652473
  C      35.660695     15.571664     41.728795
  H      35.256734     15.495588     42.749237
  O      34.692555     15.135737     40.782314
  H      33.934583     14.650671     41.238381
  C      39.471235     16.788874     39.820810
  O      40.468490     16.008479     39.759137
  O      39.392752     17.876519     39.205355
24
Coordinates from ORCA-job neb_MEP_ALL.QMRegion E -1074.526040140873
  C      39.102319     16.638635     43.135899
  H      39.885394     16.045037     42.671758
  H      39.254468     17.710803     43.266514
  C      38.006939     16.005980     43.665367
  C      36.985867     16.723007     44.560628
  O      37.065891     17.973937     44.692858
  O      36.136379     16.005767     45.143811
  O      37.734879     14.759097     43.356204
  C      36.871363     14.656030     41.609634
  H      36.628619     13.589561     41.635036
  C      38.013308     15.061539     40.885673
  H      38.799045     14.345767     40.660053
  C      38.264181     16.395083     40.685970
  C      37.208358     17.379296     40.955230
  H      37.447406     18.428928     40.773396
  C      36.008249     17.007393     41.429792
  H      35.241796     17.756103     41.640696
  C      35.653145     15.569040     41.705115
  H      35.271475     15.481986     42.735079
  O      34.660774     15.153462     40.772880
  H      33.916522     14.653204     41.236041
  C      39.476989     16.792185     39.848650
  O      40.466723     16.006300     39.766769
  O      39.382529     17.869877     39.217963
24
Coordinates from ORCA-job neb_MEP_ALL.QMRegion E -1074.523333351221
  C      39.095207     16.652843     43.073432
  H      39.904866     16.042680     42.684382
  H      39.248510     17.722169     43.221463
  C      38.024462     15.995781     43.683920
  C      36.989712     16.725384     44.566704
  O      37.067455     17.976764     44.687492
  O      36.138862     16.008955     45.145190
  O      37.812781     14.760740     43.457606
  C      36.832288     14.640172     41.504053
  H      36.615637     13.574947     41.603163
  C      38.000243     15.051361     40.893896
  H      38.793998     14.343622     40.667232
  C      38.286204     16.411146     40.753744
  C      37.210334     17.384991     40.969290
  H      37.447282     18.433455     40.780941
  C      36.004360     17.005970     41.421792
  H      35.236058     17.753386     41.630460
  C      35.647674     15.565468     41.683170
  H      35.283657     15.470697     42.721252
  O      34.633138     15.169141     40.765357
  H      33.902904     14.654863     41.234647
  C      39.481575     16.795461     39.872577
  O      40.464894     16.004552     39.772310
  O      39.374183     17.863648     39.227682
24
Coordinates from ORCA-job neb_MEP_ALL.QMRegion E -1074.528073859293
  C      39.052736     16.655905     42.909297
  H      39.921327     16.036925     42.704419
  H      39.231595     17.710618     43.142478
  C      38.025909     15.986131     43.669762
  C      36.993814     16.727038     44.567082
  O      37.077825     17.976452     44.683175
  O      36.149060     16.008975     45.148064
  O      37.871691     14.761624     43.539501
  C      36.812107     14.632454     41.431358
  H      36.603345     13.569014     41.559984
  C      37.996066     15.046835     40.919409
  H      38.791834     14.344340     40.680484
  C      38.341621     16.441990     40.898468
  C      37.215351     17.394423     40.997178
  H      37.444598     18.441771     40.792717
  C      36.004069     17.004476     41.416521
  H      35.228208     17.748548     41.609237
  C      35.645140     15.561559     41.670236
  H      35.290608     15.461350     42.712847
  O      34.614034     15.184696     40.764462
  H      33.894852     14.658346     41.234153
  C      39.490136     16.802590     39.915264
  O      40.463352     16.004067     39.782387
  O      39.357849     17.853216     39.247063
24
Coordinates from ORCA-job neb_MEP_ALL.QMRegion E -1074.548123234352
  C      39.001572     16.643138     42.714246
  H      39.917703     16.042837     42.716421
  H      39.202328     17.684280     43.028460
  C      38.021286     15.979541     43.643522
  C      37.002025     16.731104     44.566119
  O      37.094198     17.977380     44.678767
  O      36.164152     16.008681     45.148673
  O      37.941942     14.761239     43.627300
  C      36.797726     14.627693     41.368258
  H      36.585865     13.562208     41.490313
  C      37.999528     15.047420     40.951514
  H      38.793822     14.346232     40.700789
  C      38.406979     16.476322     41.066616
  C      37.227101     17.403561     41.037995
  H      37.443964     18.450483     40.814408
  C      36.007688     17.002548     41.413310
  H      35.219694     17.742047     41.575797
  C      35.643766     15.557113     41.656006
  H      35.301307     15.448384     42.703504
  O      34.592061     15.206577     40.764380
  H      33.885924     14.664770     41.234545
  C      39.498940     16.811857     39.967224
  O      40.461439     16.005472     39.799073
  O      39.336337     17.843356     39.276690
24
Coordinates from ORCA-job neb_MEP_ALL.QMRegion E -1074.565583938616
  C      39.020000     16.645000     42.613000
  H      39.979000     16.118000     42.662000
  H      39.148000     17.716000     42.823000
  C      38.157000     15.960000     43.660000
  C      37.105000     16.705000     44.550000
  O      37.176000     17.952000     44.643000
  O      36.282000     15.976000     45.146000
  O      38.270000     14.761000     43.814000
  C      36.746000     14.591000     41.164000
  H      36.494000     13.533000     41.067000
  C      37.999000     15.013000     40.982000
  H      38.810000     14.319000     40.768000
  C      38.415000     16.449000     41.155000
  C      37.225000     17.371000     41.095000
  H      37.449000     18.430000     40.950000
  C      35.977000     16.952000     41.318000
  H      35.164000     17.678000     41.380000
  C      35.603000     15.504000     41.519000
  H      35.351000     15.359000     42.590000
  O      34.474000     15.198000     40.719000
  H      33.784000     14.677000     41.235000
  C      39.478000     16.800000     40.036000
  O      40.446000     16.009000     39.837000
  O      39.287000     17.839000     39.369000
