24
Coordinates from ORCA-job neb_MEP.QMRegion E -1074.552193114524
  C      39.054000     16.686000     43.562000
  H      39.807000     16.195000     42.948000
  H      39.264000     17.670000     43.983000
  C      37.867000     16.122000     43.805000
  C      36.838000     16.764000     44.719000
  O      36.918000     18.012000     44.882000
  O      35.992000     16.015000     45.262000
  O      37.515000     14.890000     43.282000
  C      37.016000     14.882000     41.905000
  H      36.687000     13.845000     41.743000
  C      38.153000     15.216000     40.988000
  H      38.949000     14.481000     40.870000
  C      38.280000     16.432000     40.423000
  C      37.250000     17.450000     40.666000
  H      37.472000     18.464000     40.326000
  C      36.113000     17.176000     41.330000
  H      35.398000     17.974000     41.550000
  C      35.756000     15.773000     41.755000
  H      35.271000     15.793000     42.746000
  O      34.868000     15.226000     40.788000
  H      34.133000     14.713000     41.232000
  C      39.499000     16.788000     39.587000
  O      40.533000     16.057000     39.670000
  O      39.417000     17.800000     38.850000
24
Coordinates from ORCA-job neb_MEP.QMRegion E -1074.555064937318
  C      39.061627     16.661594     43.501108
  H      39.802481     16.158749     42.881342
  H      39.276099     17.654536     43.896040
  C      37.878866     16.100200     43.770903
  C      36.861765     16.751990     44.691212
  O      36.945511     18.000044     44.852436
  O      36.015668     16.008714     45.241768
  O      37.521463     14.864661     43.267291
  C      37.003018     14.847921     41.887665
  H      36.679623     13.808781     41.738991
  C      38.130719     15.186589     40.965896
  H      38.923849     14.452419     40.827777
  C      38.263919     16.414859     40.429795
  C      37.237968     17.432231     40.696271
  H      37.462618     18.454299     40.383601
  C      36.098922     17.144891     41.351771
  H      35.382165     17.938445     41.585360
  C      35.743131     15.733171     41.756357
  H      35.261850     15.740771     42.749289
  O      34.851648     15.197874     40.786531
  H      34.110150     14.692637     41.230172
  C      39.489460     16.783890     39.604066
  O      40.517641     16.043741     39.673102
  O      39.416603     17.815485     38.893961
24
Coordinates from ORCA-job neb_MEP.QMRegion E -1074.556472104392
  C      39.074181     16.630593     43.415124
  H      39.800853     16.114212     42.791013
  H      39.290275     17.638298     43.769629
  C      37.899019     16.071131     43.723010
  C      36.896214     16.736071     44.649963
  O      36.984086     17.984332     44.806376
  O      36.053738     15.998402     45.213698
  O      37.531504     14.828953     43.240399
  C      36.986602     14.796760     41.871186
  H      36.669133     13.753561     41.733722
  C      38.097962     15.146379     40.934233
  H      38.887602     14.413649     40.771276
  C      38.239697     16.392391     40.443010
  C      37.216572     17.404119     40.743263
  H      37.446748     18.436164     40.471660
  C      36.074524     17.098394     41.385225
  H      35.356166     17.883323     41.638813
  C      35.720625     15.678188     41.759570
  H      35.248359     15.665311     42.756550
  O      34.823893     15.157095     40.787111
  H      34.071683     14.666199     41.230772
  C      39.474267     16.780338     39.638083
  O      40.496057     16.029039     39.683447
  O      39.414219     17.838853     38.968143
24
Coordinates from ORCA-job neb_MEP.QMRegion E -1074.552412612148
  C      39.095835     16.595847     43.256635
  H      39.825116     16.048238     42.664534
  H      39.284859     17.646167     43.483590
  C      37.942386     16.029363     43.639553
  C      36.956677     16.717251     44.571647
  O      37.050705     17.965238     44.723232
  O      36.118280     15.990061     45.157607
  O      37.566671     14.773117     43.200398
  C      36.954883     14.711983     41.826451
  H      36.654737     13.659201     41.710265
  C      38.044455     15.087452     40.889142
  H      38.824872     14.359473     40.674901
  C      38.218666     16.370354     40.519041
  C      37.195459     17.369283     40.864435
  H      37.436145     18.416837     40.674962
  C      36.029479     17.023785     41.437962
  H      35.285572     17.785546     41.683181
  C      35.679230     15.590923     41.757188
  H      35.236394     15.539172     42.765111
  O      34.753775     15.111831     40.790741
  H      33.986059     14.641837     41.237730
  C      39.460229     16.782074     39.741475
  O      40.468440     16.011854     39.726461
  O      39.407787     17.876838     39.134905
24
Coordinates from ORCA-job neb_MEP.QMRegion E -1074.537846216125
  C      39.102826     16.620554     43.180517
  H      39.865105     16.046057     42.659399
  H      39.260121     17.693173     43.318216
  C      37.983594     16.017395     43.640530
  C      36.980097     16.720018     44.555340
  O      37.065165     17.969803     44.697584
  O      36.134927     15.999979     45.142710
  O      37.647059     14.756245     43.246926
  C      36.919329     14.674660     41.734771
  H      36.641458     13.611836     41.666203
  C      38.027334     15.071648     40.882231
  H      38.804947     14.347798     40.654721
  C      38.244956     16.381780     40.622801
  C      37.205706     17.373552     40.937857
  H      37.446548     18.424096     40.763037
  C      36.013674     17.008480     41.437934
  H      35.249758     17.758959     41.652473
  C      35.660695     15.571664     41.728795
  H      35.256734     15.495588     42.749237
  O      34.692555     15.135737     40.782314
  H      33.934583     14.650671     41.238381
  C      39.471235     16.788874     39.820810
  O      40.468490     16.008479     39.759137
  O      39.392752     17.876519     39.205355
24
Coordinates from ORCA-job neb_MEP.QMRegion E -1074.526040140873
  C      39.102319     16.638635     43.135899
  H      39.885394     16.045037     42.671758
  H      39.254468     17.710803     43.266514
  C      38.006939     16.005980     43.665367
  C      36.985867     16.723007     44.560628
  O      37.065891     17.973937     44.692858
  O      36.136379     16.005767     45.143811
  O      37.734879     14.759097     43.356204
  C      36.871363     14.656030     41.609634
  H      36.628619     13.589561     41.635036
  C      38.013308     15.061539     40.885673
  H      38.799045     14.345767     40.660053
  C      38.264181     16.395083     40.685970
  C      37.208358     17.379296     40.955230
  H      37.447406     18.428928     40.773396
  C      36.008249     17.007393     41.429792
  H      35.241796     17.756103     41.640696
  C      35.653145     15.569040     41.705115
  H      35.271475     15.481986     42.735079
  O      34.660774     15.153462     40.772880
  H      33.916522     14.653204     41.236041
  C      39.476989     16.792185     39.848650
  O      40.466723     16.006300     39.766769
  O      39.382529     17.869877     39.217963
24
Coordinates from ORCA-job neb_MEP.QMRegion E -1074.523333351221
  C      39.095207     16.652843     43.073432
  H      39.904866     16.042680     42.684382
  H      39.248510     17.722169     43.221463
  C      38.024462     15.995781     43.683920
  C      36.989712     16.725384     44.566704
  O      37.067455     17.976764     44.687492
  O      36.138862     16.008955     45.145190
  O      37.812781     14.760740     43.457606
  C      36.832288     14.640172     41.504053
  H      36.615637     13.574947     41.603163
  C      38.000243     15.051361     40.893896
  H      38.793998     14.343622     40.667232
  C      38.286204     16.411146     40.753744
  C      37.210334     17.384991     40.969290
  H      37.447282     18.433455     40.780941
  C      36.004360     17.005970     41.421792
  H      35.236058     17.753386     41.630460
  C      35.647674     15.565468     41.683170
  H      35.283657     15.470697     42.721252
  O      34.633138     15.169141     40.765357
  H      33.902904     14.654863     41.234647
  C      39.481575     16.795461     39.872577
  O      40.464894     16.004552     39.772310
  O      39.374183     17.863648     39.227682
24
Coordinates from ORCA-job neb_MEP.QMRegion E -1074.528073859293
  C      39.052736     16.655905     42.909297
  H      39.921327     16.036925     42.704419
  H      39.231595     17.710618     43.142478
  C      38.025909     15.986131     43.669762
  C      36.993814     16.727038     44.567082
  O      37.077825     17.976452     44.683175
  O      36.149060     16.008975     45.148064
  O      37.871691     14.761624     43.539501
  C      36.812107     14.632454     41.431358
  H      36.603345     13.569014     41.559984
  C      37.996066     15.046835     40.919409
  H      38.791834     14.344340     40.680484
  C      38.341621     16.441990     40.898468
  C      37.215351     17.394423     40.997178
  H      37.444598     18.441771     40.792717
  C      36.004069     17.004476     41.416521
  H      35.228208     17.748548     41.609237
  C      35.645140     15.561559     41.670236
  H      35.290608     15.461350     42.712847
  O      34.614034     15.184696     40.764462
  H      33.894852     14.658346     41.234153
  C      39.490136     16.802590     39.915264
  O      40.463352     16.004067     39.782387
  O      39.357849     17.853216     39.247063
24
Coordinates from ORCA-job neb_MEP.QMRegion E -1074.548123234352
  C      39.001572     16.643138     42.714246
  H      39.917703     16.042837     42.716421
  H      39.202328     17.684280     43.028460
  C      38.021286     15.979541     43.643522
  C      37.002025     16.731104     44.566119
  O      37.094198     17.977380     44.678767
  O      36.164152     16.008681     45.148673
  O      37.941942     14.761239     43.627300
  C      36.797726     14.627693     41.368258
  H      36.585865     13.562208     41.490313
  C      37.999528     15.047420     40.951514
  H      38.793822     14.346232     40.700789
  C      38.406979     16.476322     41.066616
  C      37.227101     17.403561     41.037995
  H      37.443964     18.450483     40.814408
  C      36.007688     17.002548     41.413310
  H      35.219694     17.742047     41.575797
  C      35.643766     15.557113     41.656006
  H      35.301307     15.448384     42.703504
  O      34.592061     15.206577     40.764380
  H      33.885924     14.664770     41.234545
  C      39.498940     16.811857     39.967224
  O      40.461439     16.005472     39.799073
  O      39.336337     17.843356     39.276690
24
Coordinates from ORCA-job neb_MEP.QMRegion E -1074.565583938616
  C      39.020000     16.645000     42.613000
  H      39.979000     16.118000     42.662000
  H      39.148000     17.716000     42.823000
  C      38.157000     15.960000     43.660000
  C      37.105000     16.705000     44.550000
  O      37.176000     17.952000     44.643000
  O      36.282000     15.976000     45.146000
  O      38.270000     14.761000     43.814000
  C      36.746000     14.591000     41.164000
  H      36.494000     13.533000     41.067000
  C      37.999000     15.013000     40.982000
  H      38.810000     14.319000     40.768000
  C      38.415000     16.449000     41.155000
  C      37.225000     17.371000     41.095000
  H      37.449000     18.430000     40.950000
  C      35.977000     16.952000     41.318000
  H      35.164000     17.678000     41.380000
  C      35.603000     15.504000     41.519000
  H      35.351000     15.359000     42.590000
  O      34.474000     15.198000     40.719000
  H      33.784000     14.677000     41.235000
  C      39.478000     16.800000     40.036000
  O      40.446000     16.009000     39.837000
  O      39.287000     17.839000     39.369000
