24
Coordinates from ORCA-job neb_initial_path.QMRegion E   0.000000000000
  C      39.054000     16.686000     43.562000
  H      39.807000     16.195000     42.948000
  H      39.264000     17.670000     43.983000
  C      37.867000     16.122000     43.805000
  C      36.838000     16.764000     44.719000
  O      36.918000     18.012000     44.882000
  O      35.992000     16.015000     45.262000
  O      37.515000     14.890000     43.282000
  C      37.016000     14.882000     41.905000
  H      36.687000     13.845000     41.743000
  C      38.153000     15.216000     40.988000
  H      38.949000     14.481000     40.870000
  C      38.280000     16.432000     40.423000
  C      37.250000     17.450000     40.666000
  H      37.472000     18.464000     40.326000
  C      36.113000     17.176000     41.330000
  H      35.398000     17.974000     41.550000
  C      35.756000     15.773000     41.755000
  H      35.271000     15.793000     42.746000
  O      34.868000     15.226000     40.788000
  H      34.133000     14.713000     41.232000
  C      39.499000     16.788000     39.587000
  O      40.533000     16.057000     39.670000
  O      39.417000     17.800000     38.850000
24
Coordinates from ORCA-job neb_initial_path.QMRegion E   0.000000000000
  C      39.054000     16.676833     43.463333
  H      39.820333     16.164500     42.898667
  H      39.258000     17.674500     43.841333
  C      37.887833     16.100667     43.776333
  C      36.863167     16.757667     44.690000
  O      36.946167     18.005667     44.849167
  O      36.017500     16.014167     45.241167
  O      37.552833     14.869333     43.298167
  C      36.989333     14.843833     41.848333
  H      36.677333     13.802167     41.724167
  C      38.127500     15.191000     40.974167
  H      38.922333     14.460500     40.835000
  C      38.285333     16.431333     40.492167
  C      37.243833     17.441333     40.722167
  H      37.466833     18.461000     40.404667
  C      36.095167     17.148833     41.348333
  H      35.369000     17.937500     41.561333
  C      35.738833     15.739500     41.747833
  H      35.270500     15.740833     42.745333
  O      34.833500     15.215667     40.785833
  H      34.098167     14.703000     41.232333
  C      39.496667     16.790833     39.641500
  O      40.521667     16.049667     39.690333
  O      39.407167     17.810333     38.917667
24
Coordinates from ORCA-job neb_initial_path.QMRegion E   0.000000000000
  C      39.054000     16.667667     43.364667
  H      39.833667     16.134000     42.849333
  H      39.252000     17.679000     43.699667
  C      37.908667     16.079333     43.747667
  C      36.888333     16.751333     44.661000
  O      36.974333     17.999333     44.816333
  O      36.043000     16.013333     45.220333
  O      37.590667     14.848667     43.314333
  C      36.962667     14.805667     41.791667
  H      36.667667     13.759333     41.705333
  C      38.102000     15.166000     40.960333
  H      38.895667     14.440000     40.800000
  C      38.290667     16.430667     40.561333
  C      37.237667     17.432667     40.778333
  H      37.461667     18.458000     40.483333
  C      36.077333     17.121667     41.366667
  H      35.340000     17.901000     41.572667
  C      35.721667     15.706000     41.740667
  H      35.270000     15.688667     42.744667
  O      34.799000     15.205333     40.783667
  H      34.063333     14.693000     41.232667
  C      39.494333     16.793667     39.696000
  O      40.510333     16.042333     39.710667
  O      39.397333     17.820667     38.985333
24
Coordinates from ORCA-job neb_initial_path.QMRegion E   0.000000000000
  C      39.054000     16.658500     43.266000
  H      39.847000     16.103500     42.800000
  H      39.246000     17.683500     43.558000
  C      37.929500     16.058000     43.719000
  C      36.913500     16.745000     44.632000
  O      37.002500     17.993000     44.783500
  O      36.068500     16.012500     45.199500
  O      37.628500     14.828000     43.330500
  C      36.936000     14.767500     41.735000
  H      36.658000     13.716500     41.686500
  C      38.076500     15.141000     40.946500
  H      38.869000     14.419500     40.765000
  C      38.296000     16.430000     40.630500
  C      37.231500     17.424000     40.834500
  H      37.456500     18.455000     40.562000
  C      36.059500     17.094500     41.385000
  H      35.311000     17.864500     41.584000
  C      35.704500     15.672500     41.733500
  H      35.269500     15.636500     42.744000
  O      34.764500     15.195000     40.781500
  H      34.028500     14.683000     41.233000
  C      39.492000     16.796500     39.750500
  O      40.499000     16.035000     39.731000
  O      39.387500     17.831000     39.053000
24
Coordinates from ORCA-job neb_initial_path.QMRegion E   0.000000000000
  C      39.054000     16.649333     43.167333
  H      39.860333     16.073000     42.750667
  H      39.240000     17.688000     43.416333
  C      37.950333     16.036667     43.690333
  C      36.938667     16.738667     44.603000
  O      37.030667     17.986667     44.750667
  O      36.094000     16.011667     45.178667
  O      37.666333     14.807333     43.346667
  C      36.909333     14.729333     41.678333
  H      36.648333     13.673667     41.667667
  C      38.051000     15.116000     40.932667
  H      38.842333     14.399000     40.730000
  C      38.301333     16.429333     40.699667
  C      37.225333     17.415333     40.890667
  H      37.451333     18.452000     40.640667
  C      36.041667     17.067333     41.403333
  H      35.282000     17.828000     41.595333
  C      35.687333     15.639000     41.726333
  H      35.269000     15.584333     42.743333
  O      34.730000     15.184667     40.779333
  H      33.993667     14.673000     41.233333
  C      39.489667     16.799333     39.805000
  O      40.487667     16.027667     39.751333
  O      39.377667     17.841333     39.120667
24
Coordinates from ORCA-job neb_initial_path.QMRegion E   0.000000000000
  C      39.054000     16.640167     43.068667
  H      39.873667     16.042500     42.701333
  H      39.234000     17.692500     43.274667
  C      37.971167     16.015333     43.661667
  C      36.963833     16.732333     44.574000
  O      37.058833     17.980333     44.717833
  O      36.119500     16.010833     45.157833
  O      37.704167     14.786667     43.362833
  C      36.882667     14.691167     41.621667
  H      36.638667     13.630833     41.648833
  C      38.025500     15.091000     40.918833
  H      38.815667     14.378500     40.695000
  C      38.306667     16.428667     40.768833
  C      37.219167     17.406667     40.946833
  H      37.446167     18.449000     40.719333
  C      36.023833     17.040167     41.421667
  H      35.253000     17.791500     41.606667
  C      35.670167     15.605500     41.719167
  H      35.268500     15.532167     42.742667
  O      34.695500     15.174333     40.777167
  H      33.958833     14.663000     41.233667
  C      39.487333     16.802167     39.859500
  O      40.476333     16.020333     39.771667
  O      39.367833     17.851667     39.188333
24
Coordinates from ORCA-job neb_initial_path.QMRegion E   0.000000000000
  C      39.054000     16.631000     42.970000
  H      39.887000     16.012000     42.652000
  H      39.228000     17.697000     43.133000
  C      37.992000     15.994000     43.633000
  C      36.989000     16.726000     44.545000
  O      37.087000     17.974000     44.685000
  O      36.145000     16.010000     45.137000
  O      37.742000     14.766000     43.379000
  C      36.856000     14.653000     41.565000
  H      36.629000     13.588000     41.630000
  C      38.000000     15.066000     40.905000
  H      38.789000     14.358000     40.660000
  C      38.312000     16.428000     40.838000
  C      37.213000     17.398000     41.003000
  H      37.441000     18.446000     40.798000
  C      36.006000     17.013000     41.440000
  H      35.224000     17.755000     41.618000
  C      35.653000     15.572000     41.712000
  H      35.268000     15.480000     42.742000
  O      34.661000     15.164000     40.775000
  H      33.924000     14.653000     41.234000
  C      39.485000     16.805000     39.914000
  O      40.465000     16.013000     39.792000
  O      39.358000     17.862000     39.256000
24
Coordinates from ORCA-job neb_initial_path.QMRegion E   0.000000000000
  C      39.042667     16.635667     42.851000
  H      39.917667     16.047333     42.655333
  H      39.201333     17.703333     43.029667
  C      38.047000     15.982667     43.642000
  C      37.027667     16.719000     44.546667
  O      37.116667     17.966667     44.671000
  O      36.190667     15.998667     45.140000
  O      37.918000     14.764333     43.524000
  C      36.819333     14.632333     41.431333
  H      36.584000     13.569667     41.442333
  C      37.999667     15.048333     40.930667
  H      38.796000     14.345000     40.696000
  C      38.346333     16.435000     40.943667
  C      37.217000     17.389000     41.033667
  H      37.443667     18.440667     40.848667
  C      35.996333     16.992667     41.399333
  H      35.204000     17.729333     41.538667
  C      35.636333     15.549333     41.647667
  H      35.295667     15.439667     42.691333
  O      34.598667     15.175333     40.756333
  H      33.877333     14.661000     41.234333
  C      39.482667     16.803333     39.954667
  O      40.458667     16.011667     39.807000
  O      39.334333     17.854333     39.293667
24
Coordinates from ORCA-job neb_initial_path.QMRegion E   0.000000000000
  C      39.031333     16.640333     42.732000
  H      39.948333     16.082667     42.658667
  H      39.174667     17.709667     42.926333
  C      38.102000     15.971333     43.651000
  C      37.066333     16.712000     44.548333
  O      37.146333     17.959333     44.657000
  O      36.236333     15.987333     45.143000
  O      38.094000     14.762667     43.669000
  C      36.782667     14.611667     41.297667
  H      36.539000     13.551333     41.254667
  C      37.999333     15.030667     40.956333
  H      38.803000     14.332000     40.732000
  C      38.380667     16.442000     41.049333
  C      37.221000     17.380000     41.064333
  H      37.446333     18.435333     40.899333
  C      35.986667     16.972333     41.358667
  H      35.184000     17.703667     41.459333
  C      35.619667     15.526667     41.583333
  H      35.323333     15.399333     42.640667
  O      34.536333     15.186667     40.737667
  H      33.830667     14.669000     41.234667
  C      39.480333     16.801667     39.995333
  O      40.452333     16.010333     39.822000
  O      39.310667     17.846667     39.331333
24
Coordinates from ORCA-job neb_initial_path.QMRegion E   0.000000000000
  C      39.020000     16.645000     42.613000
  H      39.979000     16.118000     42.662000
  H      39.148000     17.716000     42.823000
  C      38.157000     15.960000     43.660000
  C      37.105000     16.705000     44.550000
  O      37.176000     17.952000     44.643000
  O      36.282000     15.976000     45.146000
  O      38.270000     14.761000     43.814000
  C      36.746000     14.591000     41.164000
  H      36.494000     13.533000     41.067000
  C      37.999000     15.013000     40.982000
  H      38.810000     14.319000     40.768000
  C      38.415000     16.449000     41.155000
  C      37.225000     17.371000     41.095000
  H      37.449000     18.430000     40.950000
  C      35.977000     16.952000     41.318000
  H      35.164000     17.678000     41.380000
  C      35.603000     15.504000     41.519000
  H      35.351000     15.359000     42.590000
  O      34.474000     15.198000     40.719000
  H      33.784000     14.677000     41.235000
  C      39.478000     16.800000     40.036000
  O      40.446000     16.009000     39.837000
  O      39.287000     17.839000     39.369000
