24
Coordinates from ORCA-job neb_MEP.QMRegion E -1076.194049253571
  C      46.871000     28.542000     61.702000
  H      47.660000     27.888000     61.330000
  H      47.117000     29.414000     62.309000
  C      45.578000     28.316000     61.432000
  C      44.464000     29.211000     61.967000
  O      44.799000     30.248000     62.582000
  O      43.287000     28.824000     61.738000
  O      45.146000     27.228000     60.712000
  C      45.260000     27.231000     59.250000
  H      44.823000     26.264000     58.962000
  C      46.711000     27.275000     58.905000
  H      47.332000     26.427000     59.196000
  C      47.293000     28.370000     58.386000
  C      46.472000     29.551000     58.093000
  H      47.008000     30.448000     57.775000
  C      45.137000     29.563000     58.257000
  H      44.570000     30.482000     58.079000
  C      44.362000     28.316000     58.600000
  H      43.584000     28.550000     59.347000
  O      43.774000     27.838000     57.397000
  H      42.846000     27.511000     57.554000
  C      48.806000     28.434000     58.184000
  O      49.503000     27.517000     58.693000
  O      49.227000     29.423000     57.526000
24
Coordinates from ORCA-job neb_MEP.QMRegion E -1076.191967662958
  C      46.987494     28.407672     61.526048
  H      47.721279     27.699736     61.140252
  H      47.335066     29.307725     62.035634
  C      45.668477     28.231568     61.353495
  C      44.618517     29.191027     61.914429
  O      45.010049     30.202013     62.538304
  O      43.417121     28.866589     61.700850
  O      45.146494     27.141534     60.691897
  C      45.173668     27.094258     59.210438
  H      44.711825     26.125211     58.973773
  C      46.613418     27.124762     58.842020
  H      47.221999     26.258813     59.095171
  C      47.212204     28.264821     58.458009
  C      46.394570     29.456460     58.203065
  H      46.931043     30.373541     57.950702
  C      45.052415     29.448088     58.290432
  H      44.484493     30.358709     58.075737
  C      44.272985     28.191816     58.581923
  H      43.502360     28.401158     59.341940
  O      43.677462     27.764691     57.363699
  H      42.729288     27.482391     57.504751
  C      48.729957     28.357933     58.331429
  O      49.430334     27.426174     58.811942
  O      49.155701     29.388795     57.746224
24
Coordinates from ORCA-job neb_MEP.QMRegion E -1076.182954538773
  C      47.058596     28.330991     61.439223
  H      47.764234     27.585212     61.074048
  H      47.466828     29.254112     61.853478
  C      45.727182     28.189315     61.311569
  C      44.714624     29.185485     61.874664
  O      45.138570     30.173944     62.512837
  O      43.500472     28.899377     61.668072
  O      45.156629     27.097048     60.693433
  C      45.134855     27.022812     59.186044
  H      44.668102     26.048695     58.986623
  C      46.567097     27.052944     58.820913
  H      47.170575     26.176734     59.043782
  C      47.169165     28.218215     58.531348
  C      46.349936     29.411739     58.291316
  H      46.881833     30.340607     58.076667
  C      45.005955     29.383477     58.304595
  H      44.435981     30.273533     58.022518
  C      44.226727     28.124724     58.570840
  H      43.468449     28.321946     59.345674
  O      43.614685     27.727416     57.350757
  H      42.653225     27.481260     57.484709
  C      48.684503     28.323830     58.439433
  O      49.389614     27.385193     58.900280
  O      49.105056     29.374277     57.888364
24
Coordinates from ORCA-job neb_MEP.QMRegion E -1076.169914641257
  C      47.073218     28.385483     61.413554
  H      47.775309     27.614617     61.093221
  H      47.484246     29.328012     61.779894
  C      45.732473     28.185474     61.367187
  C      44.703457     29.195793     61.898415
  O      45.114515     30.196414     62.528172
  O      43.492903     28.910525     61.666027
  O      45.195861     27.081214     60.793216
  C      45.139582     27.017823     59.071890
  H      44.667623     26.036547     58.934815
  C      46.561760     27.073219     58.821949
  H      47.160515     26.197191     59.052981
  C      47.168577     28.264198     58.615533
  C      46.356622     29.448806     58.324103
  H      46.891140     30.376966     58.111923
  C      45.014875     29.406682     58.280879
  H      44.448523     30.291666     57.979356
  C      44.235186     28.144675     58.527032
  H      43.503996     28.319650     59.333304
  O      43.591353     27.795570     57.308294
  H      42.641423     27.508441     57.462695
  C      48.682816     28.352017     58.481380
  O      49.386913     27.399163     58.908722
  O      49.094623     29.385197     57.891807
24
Coordinates from ORCA-job neb_MEP.QMRegion E -1076.156054807526
  C      47.102737     28.404995     61.369360
  H      47.787580     27.594163     61.119288
  H      47.517744     29.340838     61.738393
  C      45.742578     28.162000     61.432904
  C      44.710286     29.206287     61.911185
  O      45.117108     30.213986     62.531931
  O      43.504578     28.918411     61.660415
  O      45.247045     27.052300     61.014325
  C      45.139419     26.978969     58.878790
  H      44.651349     26.003448     58.895057
  C      46.527036     27.055392     58.823895
  H      47.134159     26.186735     59.065149
  C      47.156000     28.280138     58.695158
  C      46.355117     29.449473     58.339350
  H      46.895322     30.370599     58.115074
  C      45.015446     29.398162     58.258460
  H      44.448962     30.286296     57.968279
  C      44.240152     28.131197     58.480404
  H      43.536228     28.288792     59.320197
  O      43.554513     27.826227     57.272380
  H      42.619300     27.508059     57.452239
  C      48.675743     28.349675     58.507608
  O      49.380270     27.387436     58.905626
  O      49.078224     29.370410     57.890798
24
Coordinates from ORCA-job neb_MEP.QMRegion E -1076.153775623132
  C      47.128008     28.421644     61.259362
  H      47.802236     27.575666     61.135211
  H      47.550326     29.343194     61.658696
  C      45.755290     28.154046     61.447267
  C      44.722233     29.214012     61.911667
  O      45.129673     30.219582     62.534155
  O      43.518877     28.920975     61.662885
  O      45.285360     27.029132     61.151556
  C      45.140353     26.957773     58.784740
  H      44.648908     25.985753     58.837562
  C      46.502344     27.048218     58.842773
  H      47.115423     26.181967     59.076754
  C      47.145876     28.303017     58.811128
  C      46.350415     29.455192     58.381090
  H      46.892682     30.369327     58.137351
  C      45.016644     29.390728     58.245434
  H      44.453525     30.274225     57.934678
  C      44.242159     28.121457     58.449931
  H      43.554131     28.266670     59.306348
  O      43.529328     27.854889     57.250761
  H      42.604135     27.514858     57.441057
  C      48.666628     28.350941     58.550451
  O      49.373798     27.380964     58.921046
  O      49.058087     29.360091     57.908088
24
Coordinates from ORCA-job neb_MEP.QMRegion E -1076.158306916274
  C      47.136072     28.431569     61.074227
  H      47.795224     27.564735     61.141349
  H      47.553777     29.324494     61.558814
  C      45.751934     28.153128     61.424208
  C      44.726144     29.219517     61.908718
  O      45.143901     30.217773     62.533409
  O      43.523467     28.922246     61.672011
  O      45.302364     27.022874     61.237407
  C      45.150273     26.952170     58.743656
  H      44.657781     25.980380     58.799454
  C      46.489450     27.049487     58.866036
  H      47.108132     26.182032     59.085026
  C      47.145553     28.336965     58.976896
  C      46.347225     29.465858     58.433715
  H      46.891054     30.369849     58.154211
  C      45.023195     29.388291     58.250850
  H      44.465034     30.264061     57.907625
  C      44.244151     28.119137     58.446469
  H      43.556442     28.255678     59.302736
  O      43.522710     27.873818     57.247951
  H      42.604786     27.518357     57.440162
  C      48.662096     28.357686     58.589636
  O      49.373329     27.380141     58.930201
  O      49.037619     29.352193     57.917422
24
Coordinates from ORCA-job neb_MEP.QMRegion E -1076.171653546799
  C      47.138455     28.419590     60.894128
  H      47.776808     27.558801     61.130411
  H      47.558714     29.291318     61.428743
  C      45.751500     28.158208     61.394201
  C      44.734882     29.222527     61.902203
  O      45.164725     30.211458     62.529790
  O      43.531727     28.923414     61.676597
  O      45.323674     27.006129     61.331265
  C      45.158732     26.944492     58.714439
  H      44.666332     25.970514     58.750799
  C      46.480075     27.045520     58.890461
  H      47.099066     26.173606     59.098408
  C      47.146442     28.357690     59.134445
  C      46.344475     29.468545     58.495133
  H      46.890432     30.361431     58.180640
  C      45.030728     29.380049     58.260481
  H      44.483450     30.247106     57.875678
  C      44.243626     28.113392     58.446003
  H      43.553537     28.241085     59.301772
  O      43.516505     27.889179     57.246454
  H      42.604819     27.521178     57.438489
  C      48.654691     28.359423     58.629425
  O      49.370672     27.375082     58.940952
  O      49.013224     29.340714     57.930566
24
Coordinates from ORCA-job neb_MEP.QMRegion E -1076.183229362435
  C      47.153207     28.364890     60.805066
  H      47.776678     27.507110     61.091532
  H      47.622667     29.241265     61.266450
  C      45.786348     28.123744     61.413230
  C      44.774063     29.211667     61.882867
  O      45.208888     30.198978     62.508498
  O      43.570316     28.920748     61.650453
  O      45.416949     26.971275     61.539228
  C      45.141881     26.911436     58.652444
  H      44.647723     25.939081     58.620503
  C      46.447028     27.004606     58.916722
  H      47.054221     26.124995     59.124516
  C      47.125846     28.318489     59.198713
  C      46.334019     29.437108     58.554383
  H      46.887096     30.328081     58.249382
  C      45.035522     29.348336     58.254753
  H      44.515284     30.206731     57.817093
  C      44.232508     28.090958     58.418554
  H      43.553708     28.206479     59.288745
  O      43.486225     27.908720     57.226624
  H      42.577920     27.536409     57.423872
  C      48.629772     28.330477     58.667460
  O      49.359360     27.352566     58.967378
  O      48.974299     29.320216     57.974710
24
Coordinates from ORCA-job neb_MEP.QMRegion E -1076.187371260500
  C      47.182000     28.274000     60.788000
  H      47.818000     27.422000     61.070000
  H      47.664000     29.187000     61.158000
  C      45.852000     28.044000     61.480000
  C      44.832000     29.154000     61.849000
  O      45.267000     30.151000     62.461000
  O      43.630000     28.885000     61.586000
  O      45.551000     26.909000     61.792000
  C      45.079000     26.821000     58.641000
  H      44.584000     25.851000     58.565000
  C      46.378000     26.899000     58.940000
  H      46.962000     26.009000     59.169000
  C      47.085000     28.202000     59.198000
  C      46.303000     29.333000     58.580000
  H      46.861000     30.232000     58.319000
  C      45.015000     29.258000     58.241000
  H      44.525000     30.120000     57.778000
  C      44.189000     28.013000     58.384000
  H      43.507000     28.147000     59.248000
  O      43.441000     27.842000     57.191000
  H      42.521000     27.513000     57.395000
  C      48.586000     28.235000     58.666000
  O      49.334000     27.274000     58.972000
  O      48.924000     29.254000     58.014000
