24
Coordinates from ORCA-job neb_initial_path.QMRegion E   0.000000000000
  C      46.871000     28.542000     61.702000
  H      47.660000     27.888000     61.330000
  H      47.117000     29.414000     62.309000
  C      45.578000     28.316000     61.432000
  C      44.464000     29.211000     61.967000
  O      44.799000     30.248000     62.582000
  O      43.287000     28.824000     61.738000
  O      45.146000     27.228000     60.712000
  C      45.260000     27.231000     59.250000
  H      44.823000     26.264000     58.962000
  C      46.711000     27.275000     58.905000
  H      47.332000     26.427000     59.196000
  C      47.293000     28.370000     58.386000
  C      46.472000     29.551000     58.093000
  H      47.008000     30.448000     57.775000
  C      45.137000     29.563000     58.257000
  H      44.570000     30.482000     58.079000
  C      44.362000     28.316000     58.600000
  H      43.584000     28.550000     59.347000
  O      43.774000     27.838000     57.397000
  H      42.846000     27.511000     57.554000
  C      48.806000     28.434000     58.184000
  O      49.503000     27.517000     58.693000
  O      49.227000     29.423000     57.526000
24
Coordinates from ORCA-job neb_initial_path.QMRegion E   0.000000000000
  C      46.904250     28.526250     61.588000
  H      47.677750     27.845750     61.242250
  H      47.179500     29.403750     62.170750
  C      45.600750     28.296000     61.401250
  C      44.506000     29.210250     61.948250
  O      44.857000     30.238500     62.568500
  O      43.321250     28.838750     61.730000
  O      45.144500     27.202500     60.732250
  C      45.235500     27.190000     59.198500
  H      44.788000     26.221250     58.953750
  C      46.679250     27.237750     58.886500
  H      47.297250     26.382500     59.156750
  C      47.268250     28.360000     58.465250
  C      46.450000     29.538250     58.153750
  H      46.988500     30.437750     57.849500
  C      45.113750     29.538500     58.267750
  H      44.547250     30.450500     58.063500
  C      44.337500     28.287500     58.586250
  H      43.566000     28.506250     59.344000
  O      43.743500     27.837750     57.377000
  H      42.814500     27.508750     57.532750
  C      48.782250     28.422500     58.257000
  O      49.480500     27.495000     58.742750
  O      49.199250     29.415500     57.603250
24
Coordinates from ORCA-job neb_initial_path.QMRegion E   0.000000000000
  C      46.937500     28.510500     61.474000
  H      47.695500     27.803500     61.154500
  H      47.242000     29.393500     62.032500
  C      45.623500     28.276000     61.370500
  C      44.548000     29.209500     61.929500
  O      44.915000     30.229000     62.555000
  O      43.355500     28.853500     61.722000
  O      45.143000     27.177000     60.752500
  C      45.211000     27.149000     59.147000
  H      44.753000     26.178500     58.945500
  C      46.647500     27.200500     58.868000
  H      47.262500     26.338000     59.117500
  C      47.243500     28.350000     58.544500
  C      46.428000     29.525500     58.214500
  H      46.969000     30.427500     57.924000
  C      45.090500     29.514000     58.278500
  H      44.524500     30.419000     58.048000
  C      44.313000     28.259000     58.572500
  H      43.548000     28.462500     59.341000
  O      43.713000     27.837500     57.357000
  H      42.783000     27.506500     57.511500
  C      48.758500     28.411000     58.330000
  O      49.458000     27.473000     58.792500
  O      49.171500     29.408000     57.680500
24
Coordinates from ORCA-job neb_initial_path.QMRegion E   0.000000000000
  C      46.970750     28.494750     61.360000
  H      47.713250     27.761250     61.066750
  H      47.304500     29.383250     61.894250
  C      45.646250     28.256000     61.339750
  C      44.590000     29.208750     61.910750
  O      44.973000     30.219500     62.541500
  O      43.389750     28.868250     61.714000
  O      45.141500     27.151500     60.772750
  C      45.186500     27.108000     59.095500
  H      44.718000     26.135750     58.937250
  C      46.615750     27.163250     58.849500
  H      47.227750     26.293500     59.078250
  C      47.218750     28.340000     58.623750
  C      46.406000     29.512750     58.275250
  H      46.949500     30.417250     57.998500
  C      45.067250     29.489500     58.289250
  H      44.501750     30.387500     58.032500
  C      44.288500     28.230500     58.558750
  H      43.530000     28.418750     59.338000
  O      43.682500     27.837250     57.337000
  H      42.751500     27.504250     57.490250
  C      48.734750     28.399500     58.403000
  O      49.435500     27.451000     58.842250
  O      49.143750     29.400500     57.757750
24
Coordinates from ORCA-job neb_initial_path.QMRegion E   0.000000000000
  C      47.004000     28.479000     61.246000
  H      47.731000     27.719000     60.979000
  H      47.367000     29.373000     61.756000
  C      45.669000     28.236000     61.309000
  C      44.632000     29.208000     61.892000
  O      45.031000     30.210000     62.528000
  O      43.424000     28.883000     61.706000
  O      45.140000     27.126000     60.793000
  C      45.162000     27.067000     59.044000
  H      44.683000     26.093000     58.929000
  C      46.584000     27.126000     58.831000
  H      47.193000     26.249000     59.039000
  C      47.194000     28.330000     58.703000
  C      46.384000     29.500000     58.336000
  H      46.930000     30.407000     58.073000
  C      45.044000     29.465000     58.300000
  H      44.479000     30.356000     58.017000
  C      44.264000     28.202000     58.545000
  H      43.512000     28.375000     59.335000
  O      43.652000     27.837000     57.317000
  H      42.720000     27.502000     57.469000
  C      48.711000     28.388000     58.476000
  O      49.413000     27.429000     58.892000
  O      49.116000     29.393000     57.835000
24
Coordinates from ORCA-job neb_initial_path.QMRegion E   0.000000000000
  C      47.039600     28.438000     61.154400
  H      47.748400     27.659600     60.997200
  H      47.426400     29.335800     61.636400
  C      45.705600     28.197600     61.343200
  C      44.672000     29.197200     61.883400
  O      45.078200     30.198200     62.514600
  O      43.465200     28.883400     61.682000
  O      45.222200     27.082600     60.992800
  C      45.145400     27.017800     58.963400
  H      44.663200     26.044600     58.856200
  C      46.542800     27.080600     58.852800
  H      47.146800     26.201000     59.065000
  C      47.172200     28.304400     58.802000
  C      46.367800     29.466600     58.384800
  H      46.916200     30.372000     58.122200
  C      45.038200     29.423600     58.288200
  H      44.488200     30.308800     57.969200
  C      44.249000     28.164200     58.512800
  H      43.511000     28.329400     59.317600
  O      43.609800     27.838000     57.291800
  H      42.680200     27.504200     57.454200
  C      48.686000     28.357400     58.514000
  O      49.397200     27.398000     58.908000
  O      49.077600     29.365200     57.870800
24
Coordinates from ORCA-job neb_initial_path.QMRegion E   0.000000000000
  C      47.075200     28.397000     61.062800
  H      47.765800     27.600200     61.015400
  H      47.485800     29.298600     61.516800
  C      45.742200     28.159200     61.377400
  C      44.712000     29.186400     61.874800
  O      45.125400     30.186400     62.501200
  O      43.506400     28.883800     61.658000
  O      45.304400     27.039200     61.192600
  C      45.128800     26.968600     58.882800
  H      44.643400     25.996200     58.783400
  C      46.501600     27.035200     58.874600
  H      47.100600     26.153000     59.091000
  C      47.150400     28.278800     58.901000
  C      46.351600     29.433200     58.433600
  H      46.902400     30.337000     58.171400
  C      45.032400     29.382200     58.276400
  H      44.497400     30.261600     57.921400
  C      44.234000     28.126400     58.480600
  H      43.510000     28.283800     59.300200
  O      43.567600     27.839000     57.266600
  H      42.640400     27.506400     57.439400
  C      48.661000     28.326800     58.552000
  O      49.381400     27.367000     58.924000
  O      49.039200     29.337400     57.906600
24
Coordinates from ORCA-job neb_initial_path.QMRegion E   0.000000000000
  C      47.110800     28.356000     60.971200
  H      47.783200     27.540800     61.033600
  H      47.545200     29.261400     61.397200
  C      45.778800     28.120800     61.411600
  C      44.752000     29.175600     61.866200
  O      45.172600     30.174600     62.487800
  O      43.547600     28.884200     61.634000
  O      45.386600     26.995800     61.392400
  C      45.112200     26.919400     58.802200
  H      44.623600     25.947800     58.710600
  C      46.460400     26.989800     58.896400
  H      47.054400     26.105000     59.117000
  C      47.128600     28.253200     59.000000
  C      46.335400     29.399800     58.482400
  H      46.888600     30.302000     58.220600
  C      45.026600     29.340800     58.264600
  H      44.506600     30.214400     57.873600
  C      44.219000     28.088600     58.448400
  H      43.509000     28.238200     59.282800
  O      43.525400     27.840000     57.241400
  H      42.600600     27.508600     57.424600
  C      48.636000     28.296200     58.590000
  O      49.365600     27.336000     58.940000
  O      49.000800     29.309600     57.942400
24
Coordinates from ORCA-job neb_initial_path.QMRegion E   0.000000000000
  C      47.146400     28.315000     60.879600
  H      47.800600     27.481400     61.051800
  H      47.604600     29.224200     61.277600
  C      45.815400     28.082400     61.445800
  C      44.792000     29.164800     61.857600
  O      45.219800     30.162800     62.474400
  O      43.588800     28.884600     61.610000
  O      45.468800     26.952400     61.592200
  C      45.095600     26.870200     58.721600
  H      44.603800     25.899400     58.637800
  C      46.419200     26.944400     58.918200
  H      47.008200     26.057000     59.143000
  C      47.106800     28.227600     59.099000
  C      46.319200     29.366400     58.531200
  H      46.874800     30.267000     58.269800
  C      45.020800     29.299400     58.252800
  H      44.515800     30.167200     57.825800
  C      44.204000     28.050800     58.416200
  H      43.508000     28.192600     59.265400
  O      43.483200     27.841000     57.216200
  H      42.560800     27.510800     57.409800
  C      48.611000     28.265600     58.628000
  O      49.349800     27.305000     58.956000
  O      48.962400     29.281800     57.978200
24
Coordinates from ORCA-job neb_initial_path.QMRegion E   0.000000000000
  C      47.182000     28.274000     60.788000
  H      47.818000     27.422000     61.070000
  H      47.664000     29.187000     61.158000
  C      45.852000     28.044000     61.480000
  C      44.832000     29.154000     61.849000
  O      45.267000     30.151000     62.461000
  O      43.630000     28.885000     61.586000
  O      45.551000     26.909000     61.792000
  C      45.079000     26.821000     58.641000
  H      44.584000     25.851000     58.565000
  C      46.378000     26.899000     58.940000
  H      46.962000     26.009000     59.169000
  C      47.085000     28.202000     59.198000
  C      46.303000     29.333000     58.580000
  H      46.861000     30.232000     58.319000
  C      45.015000     29.258000     58.241000
  H      44.525000     30.120000     57.778000
  C      44.189000     28.013000     58.384000
  H      43.507000     28.147000     59.248000
  O      43.441000     27.842000     57.191000
  H      42.521000     27.513000     57.395000
  C      48.586000     28.235000     58.666000
  O      49.334000     27.274000     58.972000
  O      48.924000     29.254000     58.014000
