24
Coordinates from ORCA-job neb_initial_path.QMRegion E   0.000000000000
  C      57.899000     33.042000     57.801000
  H      58.349000     32.076000     58.037000
  H      58.544000     33.901000     57.626000
  C      56.572000     33.197000     57.722000
  C      55.922000     34.545000     57.419000
  O      56.664000     35.482000     57.038000
  O      54.676000     34.632000     57.572000
  O      55.717000     32.149000     57.973000
  C      55.359000     31.226000     56.883000
  H      54.718000     30.482000     57.377000
  C      56.606000     30.590000     56.350000
  H      57.090000     29.802000     56.928000
  C      57.214000     31.073000     55.249000
  C      56.583000     32.158000     54.490000
  H      57.179000     32.585000     53.682000
  C      55.350000     32.612000     54.777000
  H      54.930000     33.450000     54.215000
  C      54.495000     31.957000     55.833000
  H      53.937000     32.733000     56.379000
  O      53.602000     31.052000     55.203000
  H      52.688000     31.141000     55.617000
  C      58.609000     30.613000     54.835000
  O      59.205000     29.780000     55.550000
  O      59.088000     31.155000     53.801000
24
Coordinates from ORCA-job neb_initial_path.QMRegion E   0.000000000000
  C      57.885222     32.967222     57.713778
  H      58.350778     32.041889     58.002111
  H      58.524111     33.825667     57.520667
  C      56.575000     33.170667     57.726778
  C      55.930111     34.523889     57.416222
  O      56.676333     35.456778     57.034556
  O      54.685222     34.614778     57.571000
  O      55.760667     32.172111     58.053333
  C      55.333111     31.136000     56.833111
  H      54.697111     30.386778     57.323111
  C      56.589556     30.562111     56.356000
  H      57.079778     29.768667     56.919111
  C      57.225778     31.112556     55.312444
  C      56.578111     32.171111     54.530444
  H      57.173222     32.610778     53.730000
  C      55.334444     32.586556     54.791778
  H      54.903444     33.409111     54.219111
  C      54.478667     31.913222     55.833667
  H      53.943222     32.677000     56.408889
  O      53.562000     31.052222     55.193444
  H      52.652667     31.154889     55.613667
  C      58.605556     30.630667     54.867667
  O      59.196556     29.785444     55.569778
  O      59.072667     31.162000     53.824333
24
Coordinates from ORCA-job neb_initial_path.QMRegion E   0.000000000000
  C      57.871444     32.892444     57.626556
  H      58.352556     32.007778     57.967222
  H      58.504222     33.750333     57.415333
  C      56.578000     33.144333     57.731556
  C      55.938222     34.502778     57.413444
  O      56.688667     35.431556     57.031111
  O      54.694444     34.597556     57.570000
  O      55.804333     32.195222     58.133667
  C      55.307222     31.046000     56.783222
  H      54.676222     30.291556     57.269222
  C      56.573111     30.534222     56.362000
  H      57.069556     29.735333     56.910222
  C      57.237556     31.152111     55.375889
  C      56.573222     32.184222     54.570889
  H      57.167444     32.636556     53.778000
  C      55.318889     32.561111     54.806556
  H      54.876889     33.368222     54.223222
  C      54.462333     31.869444     55.834333
  H      53.949444     32.621000     56.438778
  O      53.522000     31.052444     55.183889
  H      52.617333     31.168778     55.610333
  C      58.602111     30.648333     54.900333
  O      59.188111     29.790889     55.589556
  O      59.057333     31.169000     53.847667
24
Coordinates from ORCA-job neb_initial_path.QMRegion E   0.000000000000
  C      57.857667     32.817667     57.539333
  H      58.354333     31.973667     57.932333
  H      58.484333     33.675000     57.310000
  C      56.581000     33.118000     57.736333
  C      55.946333     34.481667     57.410667
  O      56.701000     35.406333     57.027667
  O      54.703667     34.580333     57.569000
  O      55.848000     32.218333     58.214000
  C      55.281333     30.956000     56.733333
  H      54.655333     30.196333     57.215333
  C      56.556667     30.506333     56.368000
  H      57.059333     29.702000     56.901333
  C      57.249333     31.191667     55.439333
  C      56.568333     32.197333     54.611333
  H      57.161667     32.662333     53.826000
  C      55.303333     32.535667     54.821333
  H      54.850333     33.327333     54.227333
  C      54.446000     31.825667     55.835000
  H      53.955667     32.565000     56.468667
  O      53.482000     31.052667     55.174333
  H      52.582000     31.182667     55.607000
  C      58.598667     30.666000     54.933000
  O      59.179667     29.796333     55.609333
  O      59.042000     31.176000     53.871000
24
Coordinates from ORCA-job neb_initial_path.QMRegion E   0.000000000000
  C      57.843889     32.742889     57.452111
  H      58.356111     31.939556     57.897444
  H      58.464444     33.599667     57.204667
  C      56.584000     33.091667     57.741111
  C      55.954444     34.460556     57.407889
  O      56.713333     35.381111     57.024222
  O      54.712889     34.563111     57.568000
  O      55.891667     32.241444     58.294333
  C      55.255444     30.866000     56.683444
  H      54.634444     30.101111     57.161444
  C      56.540222     30.478444     56.374000
  H      57.049111     29.668667     56.892444
  C      57.261111     31.231222     55.502778
  C      56.563444     32.210444     54.651778
  H      57.155889     32.688111     53.874000
  C      55.287778     32.510222     54.836111
  H      54.823778     33.286444     54.231444
  C      54.429667     31.781889     55.835667
  H      53.961889     32.509000     56.498556
  O      53.442000     31.052889     55.164778
  H      52.546667     31.196556     55.603667
  C      58.595222     30.683667     54.965667
  O      59.171222     29.801778     55.629111
  O      59.026667     31.183000     53.894333
24
Coordinates from ORCA-job neb_initial_path.QMRegion E   0.000000000000
  C      57.830111     32.668111     57.364889
  H      58.357889     31.905444     57.862556
  H      58.444556     33.524333     57.099333
  C      56.587000     33.065333     57.745889
  C      55.962556     34.439444     57.405111
  O      56.725667     35.355889     57.020778
  O      54.722111     34.545889     57.567000
  O      55.935333     32.264556     58.374667
  C      55.229556     30.776000     56.633556
  H      54.613556     30.005889     57.107556
  C      56.523778     30.450556     56.380000
  H      57.038889     29.635333     56.883556
  C      57.272889     31.270778     55.566222
  C      56.558556     32.223556     54.692222
  H      57.150111     32.713889     53.922000
  C      55.272222     32.484778     54.850889
  H      54.797222     33.245556     54.235556
  C      54.413333     31.738111     55.836333
  H      53.968111     32.453000     56.528444
  O      53.402000     31.053111     55.155222
  H      52.511333     31.210444     55.600333
  C      58.591778     30.701333     54.998333
  O      59.162778     29.807222     55.648889
  O      59.011333     31.190000     53.917667
24
Coordinates from ORCA-job neb_initial_path.QMRegion E   0.000000000000
  C      57.816333     32.593333     57.277667
  H      58.359667     31.871333     57.827667
  H      58.424667     33.449000     56.994000
  C      56.590000     33.039000     57.750667
  C      55.970667     34.418333     57.402333
  O      56.738000     35.330667     57.017333
  O      54.731333     34.528667     57.566000
  O      55.979000     32.287667     58.455000
  C      55.203667     30.686000     56.583667
  H      54.592667     29.910667     57.053667
  C      56.507333     30.422667     56.386000
  H      57.028667     29.602000     56.874667
  C      57.284667     31.310333     55.629667
  C      56.553667     32.236667     54.732667
  H      57.144333     32.739667     53.970000
  C      55.256667     32.459333     54.865667
  H      54.770667     33.204667     54.239667
  C      54.397000     31.694333     55.837000
  H      53.974333     32.397000     56.558333
  O      53.362000     31.053333     55.145667
  H      52.476000     31.224333     55.597000
  C      58.588333     30.719000     55.031000
  O      59.154333     29.812667     55.668667
  O      58.996000     31.197000     53.941000
24
Coordinates from ORCA-job neb_initial_path.QMRegion E   0.000000000000
  C      57.802556     32.518556     57.190444
  H      58.361444     31.837222     57.792778
  H      58.404778     33.373667     56.888667
  C      56.593000     33.012667     57.755444
  C      55.978778     34.397222     57.399556
  O      56.750333     35.305444     57.013889
  O      54.740556     34.511444     57.565000
  O      56.022667     32.310778     58.535333
  C      55.177778     30.596000     56.533778
  H      54.571778     29.815444     56.999778
  C      56.490889     30.394778     56.392000
  H      57.018444     29.568667     56.865778
  C      57.296444     31.349889     55.693111
  C      56.548778     32.249778     54.773111
  H      57.138556     32.765444     54.018000
  C      55.241111     32.433889     54.880444
  H      54.744111     33.163778     54.243778
  C      54.380667     31.650556     55.837667
  H      53.980556     32.341000     56.588222
  O      53.322000     31.053556     55.136111
  H      52.440667     31.238222     55.593667
  C      58.584889     30.736667     55.063667
  O      59.145889     29.818111     55.688444
  O      58.980667     31.204000     53.964333
24
Coordinates from ORCA-job neb_initial_path.QMRegion E   0.000000000000
  C      57.788778     32.443778     57.103222
  H      58.363222     31.803111     57.757889
  H      58.384889     33.298333     56.783333
  C      56.596000     32.986333     57.760222
  C      55.986889     34.376111     57.396778
  O      56.762667     35.280222     57.010444
  O      54.749778     34.494222     57.564000
  O      56.066333     32.333889     58.615667
  C      55.151889     30.506000     56.483889
  H      54.550889     29.720222     56.945889
  C      56.474444     30.366889     56.398000
  H      57.008222     29.535333     56.856889
  C      57.308222     31.389444     55.756556
  C      56.543889     32.262889     54.813556
  H      57.132778     32.791222     54.066000
  C      55.225556     32.408444     54.895222
  H      54.717556     33.122889     54.247889
  C      54.364333     31.606778     55.838333
  H      53.986778     32.285000     56.618111
  O      53.282000     31.053778     55.126556
  H      52.405333     31.252111     55.590333
  C      58.581444     30.754333     55.096333
  O      59.137444     29.823556     55.708222
  O      58.965333     31.211000     53.987667
24
Coordinates from ORCA-job neb_initial_path.QMRegion E   0.000000000000
  C      57.775000     32.369000     57.016000
  H      58.365000     31.769000     57.723000
  H      58.365000     33.223000     56.678000
  C      56.599000     32.960000     57.765000
  C      55.995000     34.355000     57.394000
  O      56.775000     35.255000     57.007000
  O      54.759000     34.477000     57.563000
  O      56.110000     32.357000     58.696000
  C      55.126000     30.416000     56.434000
  H      54.530000     29.625000     56.892000
  C      56.458000     30.339000     56.404000
  H      56.998000     29.502000     56.848000
  C      57.320000     31.429000     55.820000
  C      56.539000     32.276000     54.854000
  H      57.127000     32.817000     54.114000
  C      55.210000     32.383000     54.910000
  H      54.691000     33.082000     54.252000
  C      54.348000     31.563000     55.839000
  H      53.993000     32.229000     56.648000
  O      53.242000     31.054000     55.117000
  H      52.370000     31.266000     55.587000
  C      58.578000     30.772000     55.129000
  O      59.129000     29.829000     55.728000
  O      58.950000     31.218000     54.011000
