24
Coordinates from ORCA-job neb_MEP.QMRegion E -1076.527283455264
  C      57.899000     33.042000     57.801000
  H      58.349000     32.076000     58.037000
  H      58.544000     33.901000     57.626000
  C      56.572000     33.197000     57.722000
  C      55.922000     34.545000     57.419000
  O      56.664000     35.482000     57.038000
  O      54.676000     34.632000     57.572000
  O      55.717000     32.149000     57.973000
  C      55.359000     31.226000     56.883000
  H      54.718000     30.482000     57.377000
  C      56.606000     30.590000     56.350000
  H      57.090000     29.802000     56.928000
  C      57.214000     31.073000     55.249000
  C      56.583000     32.158000     54.490000
  H      57.179000     32.585000     53.682000
  C      55.350000     32.612000     54.777000
  H      54.930000     33.450000     54.215000
  C      54.495000     31.957000     55.833000
  H      53.937000     32.733000     56.379000
  O      53.602000     31.052000     55.203000
  H      52.688000     31.141000     55.617000
  C      58.609000     30.613000     54.835000
  O      59.205000     29.780000     55.550000
  O      59.088000     31.155000     53.801000
24
Coordinates from ORCA-job neb_MEP.QMRegion E -1076.531547003736
  C      57.903819     32.945549     57.696849
  H      58.356299     31.969050     57.870231
  H      58.540399     33.808018     57.506022
  C      56.576737     33.117711     57.690696
  C      55.937006     34.477073     57.417769
  O      56.682940     35.417602     57.052487
  O      54.690383     34.567949     57.566586
  O      55.717670     32.082807     57.975771
  C      55.300601     31.145699     56.915162
  H      54.671380     30.420556     57.449800
  C      56.526157     30.495879     56.345156
  H      57.012806     29.696875     56.906497
  C      57.129436     31.006065     55.251448
  C      56.483421     32.104284     54.521637
  H      57.070446     32.554300     53.719037
  C      55.254504     32.552420     54.835260
  H      54.831390     33.412084     54.308187
  C      54.412890     31.877470     55.889968
  H      53.857548     32.644531     56.448868
  O      53.515674     30.967489     55.269230
  H      52.591096     31.111744     55.641739
  C      58.546815     30.591680     54.848997
  O      59.159911     29.777886     55.573038
  O      59.029545     31.155326     53.827473
24
Coordinates from ORCA-job neb_MEP.QMRegion E -1076.522061531546
  C      57.896168     32.836994     57.497257
  H      58.385968     31.884558     57.697730
  H      58.487165     33.665801     57.108072
  C      56.575818     33.034469     57.652502
  C      55.956315     34.413528     57.384935
  O      56.710951     35.345736     57.006844
  O      54.714836     34.535640     57.556911
  O      55.715749     32.018147     58.000626
  C      55.265634     31.011534     56.903241
  H      54.656046     30.267822     57.442917
  C      56.502747     30.425030     56.340159
  H      56.981770     29.579907     56.835908
  C      57.156434     31.077408     55.354320
  C      56.500856     32.188653     54.657638
  H      57.102768     32.716598     53.916347
  C      55.222567     32.526737     54.901198
  H      54.748225     33.336863     54.342447
  C      54.377724     31.799400     55.914625
  H      53.868722     32.540059     56.546341
  O      53.431958     30.987724     55.238849
  H      52.506920     31.161855     55.613458
  C      58.562062     30.655900     54.947089
  O      59.147829     29.814732     55.661486
  O      59.046245     31.189013     53.910864
24
Coordinates from ORCA-job neb_MEP.QMRegion E -1076.506011541853
  C      57.909809     32.817695     57.441274
  H      58.406376     31.884263     57.703725
  H      58.495999     33.628237     57.011679
  C      56.592196     33.042052     57.685313
  C      55.970093     34.421938     57.383193
  O      56.719478     35.354254     56.995396
  O      54.726513     34.540039     57.549847
  O      55.767303     32.075170     58.096382
  C      55.223802     30.893795     56.814144
  H      54.628475     30.186667     57.409314
  C      56.488699     30.410200     56.340394
  H      56.978586     29.571708     56.833974
  C      57.178039     31.137603     55.416024
  C      56.508520     32.217714     54.691021
  H      57.107106     32.739271     53.943125
  C      55.216192     32.517540     54.904323
  H      54.730624     33.311650     54.333094
  C      54.369269     31.771762     55.899579
  H      53.887253     32.499036     56.566594
  O      53.397967     31.007169     55.202280
  H      52.476598     31.176950     55.596090
  C      58.570339     30.688188     54.986443
  O      59.139969     29.823557     55.683298
  O      59.038329     31.195620     53.930636
24
Coordinates from ORCA-job neb_MEP.QMRegion E -1076.498515598566
  C      57.916609     32.793787     57.389682
  H      58.416495     31.883565     57.715804
  H      58.499897     33.608432     56.968352
  C      56.601281     33.053847     57.713121
  C      55.975103     34.431543     57.382847
  O      56.723141     35.360946     56.988600
  O      54.731270     34.543783     57.547673
  O      55.822092     32.148682     58.196172
  C      55.187846     30.795936     56.727746
  H      54.609009     30.140331     57.385337
  C      56.472439     30.405115     56.346086
  H      56.976385     29.574846     56.839198
  C      57.196025     31.187102     55.460565
  C      56.512653     32.231626     54.702834
  H      57.108791     32.747772     53.949569
  C      55.213903     32.511570     54.902932
  H      54.725113     33.301060     54.327933
  C      54.366851     31.754206     55.888798
  H      53.898063     32.477128     56.572996
  O      53.379217     31.017667     55.180721
  H      52.463753     31.181797     55.590825
  C      58.575342     30.706679     55.006158
  O      59.134137     29.826279     55.690399
  O      59.032076     31.197217     53.937407
24
Coordinates from ORCA-job neb_MEP.QMRegion E -1076.496128265002
  C      57.911805     32.745589     57.310275
  H      58.426209     31.882508     57.728789
  H      58.496387     33.575626     56.920297
  C      56.607765     33.058328     57.726493
  C      55.979048     34.437308     57.382751
  O      56.728556     35.362557     56.983632
  O      54.737063     34.545837     57.550039
  O      55.870190     32.203428     58.281255
  C      55.164506     30.727635     56.668575
  H      54.591265     30.092292     57.348505
  C      56.462652     30.409595     56.360693
  H      56.974769     29.580083     56.847234
  C      57.223679     31.253038     55.524529
  C      56.517867     32.249196     54.719069
  H      57.109834     32.757556     53.957362
  C      55.212314     32.504027     54.901307
  H      54.719383     33.286160     54.319589
  C      54.364202     31.737187     55.880015
  H      53.905753     32.455869     56.577698
  O      53.362903     31.029090     55.161475
  H      52.452451     31.186612     55.584981
  C      58.580608     30.727870     55.029326
  O      59.128239     29.829397     55.698290
  O      59.024096     31.199736     53.946765
24
Coordinates from ORCA-job neb_MEP.QMRegion E -1076.499481235820
  C      57.884380     32.660199     57.193362
  H      58.422741     31.882793     57.737268
  H      58.476131     33.523645     56.875265
  C      56.601627     33.050710     57.718631
  C      55.980239     34.439274     57.382076
  O      56.735934     35.358493     56.984336
  O      54.741487     34.548407     57.556500
  O      55.902179     32.242768     58.338214
  C      55.158323     30.692315     56.636322
  H      54.584043     30.061718     57.319314
  C      56.461092     30.423354     56.381079
  H      56.975189     29.586895     56.854993
  C      57.269235     31.345048     55.616247
  C      56.525663     32.270645     54.738268
  H      57.110786     32.766097     53.962173
  C      55.215675     32.499865     54.902082
  H      54.717444     33.270173     54.308278
  C      54.364984     31.730181     55.878938
  H      53.907981     32.446309     56.581119
  O      53.357258     31.039253     55.152323
  H      52.449818     31.189830     55.582693
  C      58.587721     30.750490     55.051926
  O      59.123702     29.831997     55.702036
  O      59.014546     31.202137     53.954171
24
Coordinates from ORCA-job neb_MEP.QMRegion E -1076.510934954556
  C      57.849000     32.565062     57.077031
  H      58.407098     31.884630     57.733874
  H      58.446423     33.457678     56.821377
  C      56.591932     33.039691     57.704511
  C      55.981799     34.440472     57.381651
  O      56.743821     35.353059     56.985613
  O      54.746147     34.551156     57.563075
  O      55.933577     32.281002     58.395533
  C      55.156661     30.664651     56.610637
  H      54.578417     30.026614     57.283867
  C      56.463824     30.439265     56.403260
  H      56.977680     29.594657     56.864649
  C      57.318630     31.438319     55.711950
  C      56.537181     32.293642     54.763424
  H      57.112161     32.775163     53.969966
  C      55.221762     32.496667     54.907038
  H      54.717238     33.249556     54.295393
  C      54.366574     31.723581     55.879647
  H      53.909914     32.437009     56.586017
  O      53.353029     31.050155     55.144530
  H      52.448144     31.193596     55.580912
  C      58.593667     30.772330     55.073926
  O      59.118730     29.835233     55.706088
  O      59.004041     31.205109     53.962387
24
Coordinates from ORCA-job neb_MEP.QMRegion E -1076.525992918986
  C      57.800320     32.473428     56.996093
  H      58.377890     31.871534     57.713327
  H      58.386607     33.352755     56.707704
  C      56.588184     33.028519     57.704724
  C      55.986934     34.432734     57.376205
  O      56.757488     35.337759     56.982832
  O      54.755290     34.553067     57.574109
  O      56.023486     32.358441     58.540851
  C      55.149922     30.605340     56.558236
  H      54.558838     29.911452     57.160134
  C      56.468906     30.445433     56.430257
  H      56.990816     29.609673     56.895718
  C      57.344143     31.490286     55.786392
  C      56.556288     32.318914     54.807227
  H      57.130475     32.804375     54.016183
  C      55.234424     32.481674     54.912989
  H      54.723943     33.197517     54.264963
  C      54.371145     31.697095     55.868775
  H      53.935628     32.397632     56.604300
  O      53.337198     31.080675     55.118536
  H      52.439232     31.215455     55.570514
  C      58.594102     30.794785     55.111248
  O      59.112514     29.845734     55.730272
  O      58.988645     31.216060     53.989696
24
Coordinates from ORCA-job neb_MEP.QMRegion E -1076.531862411586
  C      57.775000     32.369000     57.016000
  H      58.365000     31.769000     57.723000
  H      58.365000     33.223000     56.678000
  C      56.599000     32.960000     57.765000
  C      55.995000     34.355000     57.394000
  O      56.775000     35.255000     57.007000
  O      54.759000     34.477000     57.563000
  O      56.110000     32.357000     58.696000
  C      55.126000     30.416000     56.434000
  H      54.530000     29.625000     56.892000
  C      56.458000     30.339000     56.404000
  H      56.998000     29.502000     56.848000
  C      57.320000     31.429000     55.820000
  C      56.539000     32.276000     54.854000
  H      57.127000     32.817000     54.114000
  C      55.210000     32.383000     54.910000
  H      54.691000     33.082000     54.252000
  C      54.348000     31.563000     55.839000
  H      53.993000     32.229000     56.648000
  O      53.242000     31.054000     55.117000
  H      52.370000     31.266000     55.587000
  C      58.578000     30.772000     55.129000
  O      59.129000     29.829000     55.728000
  O      58.950000     31.218000     54.011000
