24
Coordinates from ORCA-job neb_NEB-CI_converged.QMRegion
  C          57.91180542515869     32.74558934589031     57.31027544225732
  H          58.42620856189806     31.88250783142282     57.72878933568552
  H          58.49638658861579     33.57562575273955     56.92029683503985
  C          56.60776520214679     33.05832846070309     57.72649345109983
  C          55.97904755951876     34.43730760758383     57.38275138238203
  O          56.72855638062661     35.36255703026724     56.98363184457383
  O          54.73706291941991     34.54583688032514     57.55003898378354
  O          55.87019004675886     32.20342842567828     58.28125456791044
  C          55.16450597949315     30.72763535019622     56.66857535547844
  H          54.59126515593562     30.09229241852634     57.34850536689218
  C          56.46265159810665     30.40959470704107     56.36069344555628
  H          56.97476938438246     29.58008301022378     56.84723403279084
  C          57.22367888178839     31.25303831604664     55.52452883576900
  C          56.51786656891993     32.24919597546393     54.71906853309466
  H          57.10983407564928     32.75755643555402     53.95736179380017
  C          55.21231429778376     32.50402696279863     54.90130680762482
  H          54.71938308622771     33.28615952783406     54.31958867025441
  C          54.36420191602289     31.73718683721359     55.88001529944342
  H          53.90575275498158     32.45586879248206     56.57769757048883
  O          53.36290326362731     31.02909003779883     55.16147513744149
  H          52.45245126255845     31.18661205278146     55.58498125236324
  C          58.58060773023463     30.72786996149671     55.02932576096342
  O          59.12823893394257     29.82939691216200     55.69828995228081
  O          59.02409571209136     31.19973602972991     53.94676475321130
