25
Coordinates from ORCA-job job
  C          44.31201765128121     21.27543612734983     41.97527556278489
  H          45.02940239961648     21.70452837613731     41.27373355440923
  H          44.41800267679715     21.44630947763622     43.04706644685857
  C          43.30359785553760     20.51340770166039     41.51439738167483
  C          42.34102118553860     19.92242262320009     42.49756899067604
  O          42.41470978256483     20.01656230699646     43.70810396679607
  O          41.36055201587367     19.22195106979262     41.91714580381779
  O          43.21499762525014     20.14291565176435     40.22863116876816
  C          42.15598881241782     20.60443610773017     39.29833009933952
  H          41.51779797972229     19.71838694767331     39.13866202282352
  C          42.89200000000000     20.97500000000000     38.05400000000000
  H          43.46468680104360     20.20518021059465     37.52995652197347
  C          42.96900000000000     22.24400000000000     37.60500000000000
  C          42.11800000000000     23.28100000000000     38.20199999999999
  H          42.21740919880118     24.26577605404934     37.73775386574896
  C          41.18800000000000     23.00200000000000     39.13000000000000
  H          40.49630300431487     23.75640510230352     39.51999923438126
  C          41.24302012869028     21.70751342137666     39.90308887546546
  H          41.70235831131938     22.00127153515679     40.87211244147431
  O          39.93634926183262     21.20244716513984     40.16113951753434
  H          40.08726533117555     20.42799079577010     40.72407957827478
  C          43.88091701381685     22.63504837702183     36.40238120883259
  O          44.43875327873810     21.68701995466166     35.81616475212587
  O          43.94679641718097     23.86866954320852     36.19160932271867
  N          40.83200000000000     18.75000000000000     42.55100000000000
