25
Coordinates from ORCA-job job E -836.339138445021
  C      44.842000     22.068000     40.142000
  H      45.265000     21.440000     39.358000
  H      45.368000     22.976000     40.435000
  C      43.689000     21.758000     40.746000
  C      43.115000     22.623000     41.859000
  O      43.577000     23.785000     42.012000
  O      42.221000     22.117000     42.579000
  O      42.985000     20.610000     40.433000
  C      42.079000     20.646000     39.270000
  H      41.683000     19.622000     39.219000
  C      42.892000     20.975000     38.054000
  H      43.551000     20.209000     37.638000
  C      42.969000     22.244000     37.605000
  C      42.118000     23.281000     38.202000
  H      42.307000     24.301000     37.867000
  C      41.188000     23.002000     39.130000
  H      40.598000     23.809000     39.575000
  C      40.887000     21.588000     39.553000
  H      40.742000     21.566000     40.644000
  O      39.715000     21.144000     38.884000
  H      39.068000     20.737000     39.535000
  C      44.024000     22.694000     36.600000
  O      44.937000     21.905000     36.259000
  O      43.944000     23.900000     36.236000
  N      40.832000     18.750000     42.551000
25
Coordinates from ORCA-job job E -836.379789986321
  C      44.667897     21.942261     40.672072
  H      45.206020     21.488371     39.838305
  H      45.118362     22.780552     41.202614
  C      43.458790     21.513151     41.052634
  C      42.686025     22.101298     42.232389
  O      43.063817     23.201521     42.694760
  O      41.725222     21.397247     42.665248
  O      42.811525     20.446212     40.466991
  C      42.033941     20.598677     39.227920
  H      41.635407     19.576802     39.099500
  C      42.892000     20.975000     38.054000
  H      43.553025     20.216242     37.627673
  C      42.969000     22.244000     37.605000
  C      42.118000     23.281000     38.202000
  H      42.320425     24.301467     37.874832
  C      41.188000     23.002000     39.130000
  H      40.597319     23.803021     39.584940
  C      40.856258     21.568206     39.501461
  H      40.679094     21.496742     40.589386
  O      39.681906     21.167439     38.788460
  H      39.038246     20.764994     39.405234
  C      44.037754     22.681450     36.601099
  O      44.922398     21.853261     36.280986
  O      43.959313     23.881497     36.223656
  N      40.832000     18.750000     42.551000
25
Coordinates from ORCA-job job E -836.448454637764
  C      44.437070     21.764042     41.071359
  H      45.050395     21.529836     40.198805
  H      44.801059     22.485321     41.802947
  C      43.234442     21.210477     41.261166
  C      42.325085     21.451506     42.472227
  O      42.571504     22.420114     43.214498
  O      41.402533     20.579393     42.623436
  O      42.669586     20.267360     40.445556
  C      41.991764     20.548178     39.176050
  H      41.598038     19.536541     38.968000
  C      42.892000     20.975000     38.054000
  H      43.554701     20.224617     37.614898
  C      42.969000     22.244000     37.605000
  C      42.118000     23.281000     38.202000
  H      42.332854     24.302274     37.883439
  C      41.188000     23.002000     39.130000
  H      40.596677     23.796870     39.594891
  C      40.826829     21.546265     39.448067
  H      40.615860     21.424400     40.525565
  O      39.656011     21.196676     38.694100
  H      39.003519     20.790880     39.284255
  C      44.049971     22.679045     36.605715
  O      44.921033     21.833865     36.297517
  O      43.973038     23.876701     36.226296
  N      40.832000     18.750000     42.551000
25
Coordinates from ORCA-job job E -836.531465566134
  C      44.076177     21.346838     41.620408
  H      44.773177     21.494831     40.792911
  H      44.298267     21.784531     42.593875
  C      42.936391     20.664040     41.471270
  C      41.884600     20.322023     42.542854
  O      41.899342     20.932005     43.620077
  O      41.112830     19.332499     42.206573
  O      42.504877     20.008006     40.373845
  C      41.949150     20.471337     39.099311
  H      41.581631     19.478249     38.783892
  C      42.892000     20.975000     38.054000
  H      43.558432     20.239611     37.594875
  C      42.969000     22.244000     37.605000
  C      42.118000     23.281000     38.202000
  H      42.346932     24.303375     37.895457
  C      41.188000     23.002000     39.130000
  H      40.594151     23.787872     39.606830
  C      40.794989     21.507531     39.373570
  H      40.536535     21.316231     40.429593
  O      39.636748     21.226940     38.570617
  H      38.964700     20.808799     39.124549
  C      44.064699     22.683353     36.618559
  O      44.932373     21.832729     36.319938
  O      43.989983     23.881401     36.243790
  N      40.832000     18.750000     42.551000
25
Coordinates from ORCA-job job E -836.544219089299
  C      44.201963     21.595548     41.389920
  H      44.916531     21.604619     40.564294
  H      44.419710     22.161691     42.296147
  C      43.045196     20.930182     41.314168
  C      41.956475     20.742854     42.326425
  O      41.864558     21.435955     43.340474
  O      41.223220     19.771593     41.921721
  O      42.572254     20.132715     40.339485
  C      41.965300     20.518423     39.097594
  H      41.579767     19.522954     38.814607
  C      42.892000     20.975000     38.054000
  H      43.556651     20.231705     37.604480
  C      42.969000     22.244000     37.605000
  C      42.118000     23.281000     38.202000
  H      42.345155     24.302975     37.891633
  C      41.188000     23.002000     39.130000
  H      40.594884     23.787072     39.609013
  C      40.808075     21.531133     39.388492
  H      40.569427     21.359380     40.452086
  O      39.644016     21.228858     38.601529
  H      38.986849     20.810395     39.169968
  C      44.062345     22.680921     36.611246
  O      44.923476     21.825034     36.312011
  O      43.984845     23.877580     36.235258
  N      40.832000     18.750000     42.551000
25
Coordinates from ORCA-job job E -836.530003741606
  C      44.272769     21.864980     41.002407
  H      44.820866     21.872116     40.058466
  H      44.585483     22.524974     41.813090
  C      43.201789     21.087470     41.186296
  C      42.392304     20.955847     42.466938
  O      42.495750     21.765672     43.384282
  O      41.697320     19.879947     42.462068
  O      42.712282     20.179583     40.306804
  C      41.980294     20.543029     39.121760
  H      41.570486     19.551322     38.862060
  C      42.892000     20.975000     38.054000
  H      43.548710     20.226948     37.599747
  C      42.969000     22.244000     37.605000
  C      42.118000     23.281000     38.202000
  H      42.339188     24.302045     37.882967
  C      41.188000     23.002000     39.130000
  H      40.594013     23.789047     39.604762
  C      40.820768     21.547784     39.425491
  H      40.598466     21.411312     40.495704
  O      39.653425     21.214218     38.657979
  H      39.010563     20.801631     39.246787
  C      44.052370     22.677632     36.594698
  O      44.904935     21.817056     36.285898
  O      43.968643     23.872740     36.215566
  N      40.832000     18.750000     42.551000
25
Coordinates from ORCA-job job E -836.621229406096
  C      44.128999     21.603006     41.309354
  H      44.759387     21.709691     40.424888
  H      44.380485     22.146047     42.222322
  C      43.029857     20.844167     41.297251
  C      42.086508     20.567872     42.482207
  O      42.114007     21.240603     43.499327
  O      41.326739     19.520768     42.284943
  O      42.593597     20.071932     40.290728
  C      41.949552     20.509479     39.084154
  H      41.551472     19.527711     38.774186
  C      42.892000     20.975000     38.054000
  H      43.554180     20.235602     37.592894
  C      42.969000     22.244000     37.605000
  C      42.118000     23.281000     38.202000
  H      42.348439     24.302467     37.889507
  C      41.188000     23.002000     39.130000
  H      40.592455     23.783909     39.611396
  C      40.799620     21.533310     39.383395
  H      40.550129     21.360174     40.441535
  O      39.638453     21.240173     38.590005
  H      38.985234     20.822506     39.161530
  C      44.062627     22.681824     36.602435
  O      44.913111     21.818215     36.300793
  O      43.979228     23.877305     36.228019
  N      40.832000     18.750000     42.551000
25
Coordinates from ORCA-job job E -836.627623660913
  C      44.083140     21.623012     41.324320
  H      44.693983     21.780461     40.433942
  H      44.328273     22.145338     42.251084
  C      43.011154     20.825799     41.298931
  C      42.119074     20.489378     42.491181
  O      42.122499     21.109449     43.536631
  O      41.380742     19.443664     42.222486
  O      42.587437     20.063432     40.270378
  C      41.932751     20.519392     39.073821
  H      41.511453     19.551969     38.750611
  C      42.892000     20.975000     38.054000
  H      43.552449     20.234181     37.592345
  C      42.969000     22.244000     37.605000
  C      42.118000     23.281000     38.202000
  H      42.350184     24.301953     37.888340
  C      41.188000     23.002000     39.130000
  H      40.592275     23.783126     39.612442
  C      40.793429     21.545058     39.380792
  H      40.538925     21.374365     40.440130
  O      39.633405     21.256744     38.584285
  H      38.981060     20.838081     39.156619
  C      44.060356     22.682422     36.595521
  O      44.903448     21.814615     36.287173
  O      43.973437     23.877507     36.222506
  N      40.832000     18.750000     42.551000
25
Coordinates from ORCA-job job E -836.622095862251
  C      44.070013     21.612874     41.368800
  H      44.640073     21.879741     40.477608
  H      44.314018     22.067137     42.331157
  C      43.042471     20.760034     41.296113
  C      42.234363     20.282272     42.466761
  O      42.192761     20.744766     43.580408
  O      41.576073     19.240067     42.017293
  O      42.611834     20.046562     40.228112
  C      41.921742     20.530512     39.060952
  H      41.476049     19.579456     38.723628
  C      42.892000     20.975000     38.054000
  H      43.549507     20.234636     37.587234
  C      42.969000     22.244000     37.605000
  C      42.118000     23.281000     38.202000
  H      42.352208     24.300676     37.884259
  C      41.188000     23.002000     39.130000
  H      40.589469     23.779559     39.615032
  C      40.792918     21.555939     39.380196
  H      40.533864     21.387057     40.442120
  O      39.633250     21.266489     38.582490
  H      38.987377     20.844912     39.160121
  C      44.058130     22.684146     36.584539
  O      44.891653     21.810354     36.272062
  O      43.965064     23.878388     36.215141
  N      40.832000     18.750000     42.551000
25
Coordinates from ORCA-job job E -836.636513610713
  C      43.883641     21.712646     41.325560
  H      44.467698     21.966257     40.439130
  H      44.067073     22.230789     42.268782
  C      42.906192     20.801282     41.266947
  C      42.084820     20.379886     42.468485
  O      42.074905     20.902703     43.565394
  O      41.383186     19.329636     42.122883
  O      42.578293     20.041295     40.199733
  C      41.893468     20.543769     39.044624
  H      41.402351     19.622984     38.686248
  C      42.892000     20.975000     38.054000
  H      43.553689     20.231961     37.599111
  C      42.969000     22.244000     37.605000
  C      42.118000     23.281000     38.202000
  H      42.351876     24.300217     37.882959
  C      41.188000     23.002000     39.130000
  H      40.591821     23.783421     39.612800
  C      40.784047     21.572648     39.382315
  H      40.529231     21.411733     40.445585
  O      39.616243     21.290600     38.590724
  H      38.976499     20.858710     39.167864
  C      44.045092     22.681675     36.569676
  O      44.864660     21.802889     36.233396
  O      43.957621     23.879752     36.208970
  N      40.832000     18.750000     42.551000
25
Coordinates from ORCA-job job E -836.640555806132
  C      43.844977     21.768193     41.314286
  H      44.401727     22.066562     40.424126
  H      44.004495     22.288401     42.260652
  C      42.926206     20.796447     41.256377
  C      42.141163     20.331735     42.460072
  O      42.133156     20.825095     43.570822
  O      41.419855     19.301811     42.084572
  O      42.628541     20.037934     40.184181
  C      41.903745     20.542868     39.051724
  H      41.389030     19.634214     38.693525
  C      42.892000     20.975000     38.054000
  H      43.560206     20.234903     37.604660
  C      42.969000     22.244000     37.605000
  C      42.118000     23.281000     38.202000
  H      42.346557     24.298924     37.875096
  C      41.188000     23.002000     39.130000
  H      40.588978     23.784061     39.608809
  C      40.798757     21.573012     39.405969
  H      40.563760     21.427623     40.475795
  O      39.615630     21.273730     38.640308
  H      38.998050     20.829187     39.231892
  C      44.029578     22.678328     36.551037
  O      44.827068     21.790539     36.187365
  O      43.942140     23.877400     36.194603
  N      40.832000     18.750000     42.551000
25
Coordinates from ORCA-job job E -836.642531464938
  C      43.796243     21.769699     41.376878
  H      44.355077     22.117917     40.506617
  H      43.911829     22.269062     42.340602
  C      42.924943     20.757099     41.270966
  C      42.132408     20.249333     42.437798
  O      42.103908     20.670654     43.574033
  O      41.437303     19.218105     41.992365
  O      42.668068     20.019580     40.175715
  C      41.910072     20.541572     39.061539
  H      41.366818     19.651105     38.699255
  C      42.892000     20.975000     38.054000
  H      43.563297     20.237122     37.605819
  C      42.969000     22.244000     37.605000
  C      42.118000     23.281000     38.202000
  H      42.343344     24.297317     37.867565
  C      41.188000     23.002000     39.130000
  H      40.585433     23.783883     39.604975
  C      40.811231     21.575252     39.427175
  H      40.587685     21.446392     40.502216
  O      39.616725     21.259859     38.681853
  H      39.020789     20.802631     39.286203
  C      44.017221     22.675803     36.534581
  O      44.806858     21.784660     36.164239
  O      43.938048     23.879225     36.193681
  N      40.832000     18.750000     42.551000
25
Coordinates from ORCA-job job E -836.644823862013
  C      43.725898     21.842703     41.422084
  H      44.252115     22.251854     40.558004
  H      43.803205     22.330892     42.395283
  C      42.942153     20.762495     41.298930
  C      42.194994     20.181158     42.465103
  O      42.174248     20.578634     43.611406
  O      41.445055     19.188736     42.007714
  O      42.751862     20.033040     40.185698
  C      41.943217     20.541031     39.095527
  H      41.386214     19.650841     38.754565
  C      42.892000     20.975000     38.054000
  H      43.568609     20.239913     37.609115
  C      42.969000     22.244000     37.605000
  C      42.118000     23.281000     38.202000
  H      42.330950     24.295172     37.853255
  C      41.188000     23.002000     39.130000
  H      40.579802     23.784434     39.596837
  C      40.846399     21.575222     39.477997
  H      40.660385     21.476101     40.562550
  O      39.629164     21.223827     38.786018
  H      39.075523     20.749539     39.416882
  C      43.996280     22.669363     36.512021
  O      44.754664     21.766853     36.105476
  O      43.914452     23.872280     36.169627
  N      40.832000     18.750000     42.551000
25
Coordinates from ORCA-job job E -836.646121597092
  C      43.604044     21.942477     41.489002
  H      44.139430     22.375513     40.642277
  H      43.614744     22.441112     42.459676
  C      42.890120     20.817593     41.345158
  C      42.112236     20.227950     42.476255
  O      42.101806     20.585264     43.639153
  O      41.410943     19.210592     42.006015
  O      42.786448     20.078376     40.220949
  C      41.963531     20.553684     39.124187
  H      41.388117     19.666006     38.809324
  C      42.892000     20.975000     38.054000
  H      43.573852     20.238660     37.618715
  C      42.969000     22.244000     37.605000
  C      42.118000     23.281000     38.202000
  H      42.318748     24.293219     37.840929
  C      41.188000     23.002000     39.130000
  H      40.574068     23.785380     39.587155
  C      40.877055     21.587607     39.523417
  H      40.733760     21.522460     40.617566
  O      39.636527     21.209425     38.890991
  H      39.131511     20.707598     39.542212
  C      43.976675     22.663902     36.493131
  O      44.721671     21.758391     36.067919
  O      43.919796     23.876190     36.178006
  N      40.832000     18.750000     42.551000
25
Coordinates from ORCA-job job E -836.647501467343
  C      43.638515     21.965209     41.632079
  H      44.166891     22.459333     40.814911
  H      43.608044     22.421028     42.622916
  C      42.991539     20.809087     41.428527
  C      42.167433     20.174057     42.493273
  O      42.121456     20.474978     43.672093
  O      41.452007     19.184497     41.960558
  O      42.929840     20.126607     40.270435
  C      42.039642     20.559114     39.191012
  H      41.457732     19.658012     38.933572
  C      42.892000     20.975000     38.054000
  H      43.575362     20.240913     37.616373
  C      42.969000     22.244000     37.605000
  C      42.118000     23.281000     38.202000
  H      42.294486     24.287723     37.814032
  C      41.188000     23.002000     39.130000
  H      40.553997     23.781322     39.566057
  C      40.951807     21.594399     39.609614
  H      40.882373     21.595498     40.711358
  O      39.677278     21.156227     39.092354
  H      39.282087     20.594741     39.770439
  C      43.941476     22.654216     36.458865
  O      44.622728     21.731197     35.970384
  O      43.893444     23.869818     36.155073
  N      40.832000     18.750000     42.551000
25
Coordinates from ORCA-job job E -836.647390773130
  C      43.865515     21.824322     41.627202
  H      44.391715     22.313004     40.805325
  H      43.919116     22.235358     42.636680
  C      43.132142     20.723196     41.410953
  C      42.320981     20.104136     42.509284
  O      42.382678     20.355759     43.698178
  O      41.456721     19.219147     42.004082
  O      43.000089     20.093065     40.233636
  C      42.064575     20.553385     39.203848
  H      41.483500     19.648778     38.957477
  C      42.892000     20.975000     38.054000
  H      43.561072     20.238730     37.598420
  C      42.969000     22.244000     37.605000
  C      42.118000     23.281000     38.202000
  H      42.285794     24.285757     37.805094
  C      41.188000     23.002000     39.130000
  H      40.542103     23.778012     39.554977
  C      40.982926     21.596638     39.646750
  H      40.962205     21.627920     40.747520
  O      39.686060     21.143216     39.203016
  H      39.369565     20.526245     39.873567
  C      43.933260     22.651082     36.450271
  O      44.661119     21.737873     36.014866
  O      43.980869     23.886522     36.241701
  N      40.832000     18.750000     42.551000
25
Coordinates from ORCA-job job E -836.648796121848
  C      43.934274     21.688006     41.609350
  H      44.517123     22.136916     40.803035
  H      44.023690     22.066978     42.629077
  C      43.103996     20.663971     41.363056
  C      42.268045     20.087587     42.480316
  O      42.388537     20.301102     43.672412
  O      41.359224     19.253262     41.989196
  O      42.979794     20.060217     40.168538
  C      42.034705     20.560534     39.182813
  H      41.445259     19.663897     38.925419
  C      42.892000     20.975000     38.054000
  H      43.538452     20.229397     37.582369
  C      42.969000     22.244000     37.605000
  C      42.118000     23.281000     38.202000
  H      42.291561     24.287917     37.813531
  C      41.188000     23.002000     39.130000
  H      40.541139     23.779705     39.551280
  C      40.973928     21.609765     39.653939
  H      40.992994     21.653786     40.753446
  O      39.657699     21.171244     39.260459
  H      39.399492     20.493260     39.897401
  C      43.954097     22.655159     36.469313
  O      44.572309     21.719774     35.925074
  O      43.925092     23.876109     36.183555
  N      40.832000     18.750000     42.551000
25
Coordinates from ORCA-job job E -836.650772703701
  C      43.766344     21.821263     41.728578
  H      44.394847     22.284177     40.965389
  H      43.753161     22.219955     42.744262
  C      43.008384     20.754242     41.433342
  C      42.107558     20.152379     42.467267
  O      42.057230     20.445729     43.650344
  O      41.314044     19.251585     41.905278
  O      43.002175     20.130137     40.243044
  C      42.058978     20.577577     39.217382
  H      41.462132     19.676795     38.990935
  C      42.892000     20.975000     38.054000
  H      43.535459     20.224858     37.585868
  C      42.969000     22.244000     37.605000
  C      42.118000     23.281000     38.202000
  H      42.281440     24.285760     37.804562
  C      41.188000     23.002000     39.130000
  H      40.538573     23.779899     39.546106
  C      41.008530     21.624816     39.693119
  H      41.071006     21.704259     40.792626
  O      39.686047     21.161851     39.365524
  H      39.484990     20.458477     39.998585
  C      43.942413     22.651759     36.460395
  O      44.591757     21.723146     35.939494
  O      43.958817     23.881422     36.210875
  N      40.832000     18.750000     42.551000
25
Coordinates from ORCA-job job E -836.651195079426
  C      43.921305     21.829226     41.783200
  H      44.530420     22.290785     41.003823
  H      43.957565     22.209294     42.805404
  C      43.119593     20.792747     41.494968
  C      42.261282     20.167433     42.544432
  O      42.315783     20.381304     43.741233
  O      41.418784     19.286867     42.005427
  O      43.057253     20.178563     40.301366
  C      42.095633     20.578746     39.252120
  H      41.512819     19.662866     39.052029
  C      42.892000     20.975000     38.054000
  H      43.534520     20.225872     37.582274
  C      42.969000     22.244000     37.605000
  C      42.118000     23.281000     38.202000
  H      42.271381     24.283051     37.793458
  C      41.188000     23.002000     39.130000
  H      40.530412     23.775250     39.541048
  C      41.040821     21.624802     39.720315
  H      41.125864     21.729144     40.818018
  O      39.720552     21.139043     39.434862
  H      39.566297     20.420890     40.064697
  C      43.927628     22.648177     36.446402
  O      44.567052     21.716002     35.919628
  O      43.949261     23.878347     36.201905
  N      40.832000     18.750000     42.551000
25
Coordinates from ORCA-job job E -836.652830043010
  C      43.907383     21.758358     41.802600
  H      44.519496     22.250314     41.044625
  H      43.936140     22.099594     42.838743
  C      43.110355     20.731873     41.468420
  C      42.260563     20.067345     42.511391
  O      42.317360     20.244808     43.712484
  O      41.391310     19.224764     41.955873
  O      43.079341     20.168334     40.246722
  C      42.086131     20.580265     39.240598
  H      41.504707     19.664626     39.037804
  C      42.892000     20.975000     38.054000
  H      43.524351     20.222682     37.574026
  C      42.969000     22.244000     37.605000
  C      42.118000     23.281000     38.202000
  H      42.272320     24.283430     37.794399
  C      41.188000     23.002000     39.130000
  H      40.529029     23.775295     39.539524
  C      41.036143     21.628808     39.723853
  H      41.140404     21.742093     40.817697
  O      39.709338     21.147333     39.463354
  H      39.584602     20.403641     40.068972
  C      43.929944     22.648050     36.447030
  O      44.564680     21.713746     35.919664
  O      43.965186     23.880116     36.216594
  N      40.832000     18.750000     42.551000
25
Coordinates from ORCA-job job E -836.653329660878
  C      43.924963     21.739869     41.828759
  H      44.557666     22.220645     41.080430
  H      43.947481     22.077352     42.866172
  C      43.111984     20.731109     41.479346
  C      42.229399     20.087508     42.508284
  O      42.267795     20.272220     43.710541
  O      41.360041     19.253941     41.942028
  O      43.092674     20.178393     40.252465
  C      42.094908     20.586580     39.250158
  H      41.514521     19.668134     39.057129
  C      42.892000     20.975000     38.054000
  H      43.517207     20.219888     37.569449
  C      42.969000     22.244000     37.605000
  C      42.118000     23.281000     38.202000
  H      42.268079     24.282616     37.791052
  C      41.188000     23.002000     39.130000
  H      40.526631     23.774593     39.537305
  C      41.052338     21.636193     39.741249
  H      41.184613     21.765954     40.830962
  O      39.722309     21.147943     39.521507
  H      39.630525     20.388584     40.114094
  C      43.925519     22.646564     36.443145
  O      44.540941     21.709259     35.898674
  O      43.955118     23.877676     36.207170
  N      40.832000     18.750000     42.551000
25
Coordinates from ORCA-job job E -836.653907090368
  C      43.931390     21.746478     41.892879
  H      44.571097     22.241817     41.160195
  H      43.947686     22.059728     42.937846
  C      43.120093     20.747453     41.511671
  C      42.236674     20.077607     42.520539
  O      42.270746     20.243023     43.726159
  O      41.367252     19.252583     41.941398
  O      43.127508     20.222032     40.271617
  C      42.112691     20.597269     39.270309
  H      41.538592     19.670275     39.099630
  C      42.892000     20.975000     38.054000
  H      43.507782     20.216029     37.563710
  C      42.969000     22.244000     37.605000
  C      42.118000     23.281000     38.202000
  H      42.259984     24.280648     37.783621
  C      41.188000     23.002000     39.130000
  H      40.521534     23.772700     39.532602
  C      41.078081     21.647265     39.768656
  H      41.252087     21.805694     40.850218
  O      39.747065     21.145338     39.611810
  H      39.704726     20.368881     40.188733
  C      43.915629     22.643765     36.433794
  O      44.517966     21.703779     35.879389
  O      43.953298     23.875622     36.203690
  N      40.832000     18.750000     42.551000
25
Coordinates from ORCA-job job E -836.654545827809
  C      44.034408     21.665207     41.959893
  H      44.690969     22.162369     41.243615
  H      44.073129     21.929091     43.017662
  C      43.178625     20.720559     41.536550
  C      42.282006     20.046042     42.530741
  O      42.342528     20.165620     43.739733
  O      41.372373     19.264482     41.948976
  O      43.183514     20.254638     40.271264
  C      42.135252     20.606797     39.291839
  H      41.566298     19.672740     39.142798
  C      42.892000     20.975000     38.054000
  H      43.489801     20.210779     37.550288
  C      42.969000     22.244000     37.605000
  C      42.118000     23.281000     38.202000
  H      42.248801     24.277696     37.772945
  C      41.188000     23.002000     39.130000
  H      40.513220     23.768992     39.526092
  C      41.116449     21.662608     39.807375
  H      41.358727     21.863631     40.870008
  O      39.786417     21.145967     39.753127
  H      39.813925     20.351755     40.306734
  C      43.901845     22.640013     36.419743
  O      44.482732     21.695316     35.851083
  O      43.953601     23.872903     36.200155
  N      40.832000     18.750000     42.551000
25
Coordinates from ORCA-job job E -836.655001257900
  C      44.102385     21.585401     42.049992
  H      44.786766     22.082825     41.360654
  H      44.150906     21.790478     43.119903
  C      43.205374     20.706009     41.570194
  C      42.289851     20.017023     42.534217
  O      42.349988     20.104519     43.745547
  O      41.364674     19.261273     41.940021
  O      43.233923     20.302027     40.281396
  C      42.158582     20.619751     39.317162
  H      41.591247     19.680722     39.193510
  C      42.892000     20.975000     38.054000
  H      43.466790     20.203573     37.535307
  C      42.969000     22.244000     37.605000
  C      42.118000     23.281000     38.202000
  H      42.232904     24.273271     37.758270
  C      41.188000     23.002000     39.130000
  H      40.502914     23.764694     39.516853
  C      41.164582     21.686090     39.854904
  H      41.498119     21.939606     40.883601
  O      39.844106     21.158802     39.937397
  H      39.944718     20.362550     40.480109
  C      43.881624     22.634718     36.400979
  O      44.434553     21.684684     35.813795
  O      43.949509     23.868129     36.191562
  N      40.832000     18.750000     42.551000
25
Coordinates from ORCA-job job E -836.655203947602
  C      44.133665     21.534250     42.057170
  H      44.828516     22.025289     41.373727
  H      44.183300     21.727848     43.129051
  C      43.221696     20.675783     41.566438
  C      42.289404     20.000561     42.525113
  O      42.346872     20.082551     43.736879
  O      41.352024     19.259093     41.928708
  O      43.246092     20.289077     40.273073
  C      42.164532     20.618232     39.318808
  H      41.588568     19.685059     39.194377
  C      42.892000     20.975000     38.054000
  H      43.462631     20.202953     37.531407
  C      42.969000     22.244000     37.605000
  C      42.118000     23.281000     38.202000
  H      42.229238     24.271912     37.754185
  C      41.188000     23.002000     39.130000
  H      40.499402     23.762874     39.514134
  C      41.177813     21.690684     39.864725
  H      41.530429     21.954120     40.884407
  O      39.858963     21.163269     39.975843
  H      39.967058     20.379915     40.535679
  C      43.876696     22.633872     36.396706
  O      44.423673     21.683053     35.805237
  O      43.949062     23.867501     36.190586
  N      40.832000     18.750000     42.551000
25
Coordinates from ORCA-job job E -836.655396985898
  C      44.177597     21.471190     42.060642
  H      44.884963     21.948667     41.380414
  H      44.232065     21.654087     43.133972
  C      43.243962     20.639017     41.563211
  C      42.291347     19.990174     42.521084
  O      42.336176     20.090803     43.732411
  O      41.348854     19.247176     41.930274
  O      43.252819     20.272519     40.266415
  C      42.170818     20.614604     39.317395
  H      41.581653     19.691037     39.191284
  C      42.892000     20.975000     38.054000
  H      43.460316     20.203189     37.528045
  C      42.969000     22.244000     37.605000
  C      42.118000     23.281000     38.202000
  H      42.225319     24.270189     37.749179
  C      41.188000     23.002000     39.130000
  H      40.495505     23.759927     39.512411
  C      41.196642     21.694838     39.874308
  H      41.576614     21.966350     40.882507
  O      39.880549     21.167850     40.019716
  H      39.990173     20.423335     40.630197
  C      43.872454     22.634125     36.393746
  O      44.417004     21.683930     35.798920
  O      43.945145     23.867955     36.188985
  N      40.832000     18.750000     42.551000
25
Coordinates from ORCA-job job E -836.655445093171
  C      44.214866     21.420355     42.077550
  H      44.934517     21.894534     41.408000
  H      44.271324     21.580517     43.154435
  C      43.267205     20.613862     41.563953
  C      42.301794     19.968301     42.512007
  O      42.349092     20.048224     43.725143
  O      41.354303     19.236485     41.912457
  O      43.272939     20.267634     40.265502
  C      42.183433     20.616599     39.322308
  H      41.587836     19.696597     39.202716
  C      42.892000     20.975000     38.054000
  H      43.460759     20.203424     37.527900
  C      42.969000     22.244000     37.605000
  C      42.118000     23.281000     38.202000
  H      42.223119     24.268819     37.745675
  C      41.188000     23.002000     39.130000
  H      40.492810     23.757654     39.511569
  C      41.211309     21.698359     39.881597
  H      41.597337     21.978112     40.884623
  O      39.897702     21.167832     40.038910
  H      40.011541     20.431253     40.658166
  C      43.869126     22.633715     36.391751
  O      44.412614     21.684011     35.795294
  O      43.943370     23.867832     36.188186
  N      40.832000     18.750000     42.551000
25
Coordinates from ORCA-job job E -836.655540584044
  C      44.211820     21.424474     42.065550
  H      44.933525     21.889065     41.391528
  H      44.271799     21.592058     43.141159
  C      43.258285     20.619466     41.560898
  C      42.291355     19.983693     42.514534
  O      42.332586     20.083117     43.726654
  O      41.349331     19.243342     41.919164
  O      43.256726     20.260219     40.266523
  C      42.175541     20.615135     39.317613
  H      41.580494     19.694789     39.194697
  C      42.892000     20.975000     38.054000
  H      43.463560     20.204196     37.529990
  C      42.969000     22.244000     37.605000
  C      42.118000     23.281000     38.202000
  H      42.225217     24.269387     37.747513
  C      41.188000     23.002000     39.130000
  H      40.494639     23.758475     39.513153
  C      41.203809     21.695183     39.876344
  H      41.582617     21.966889     40.884365
  O      39.887528     21.167631     40.020138
  H      39.996703     20.415656     40.621314
  C      43.873945     22.634560     36.396237
  O      44.420228     21.685594     35.801102
  O      43.947782     23.868833     36.192419
  N      40.832000     18.750000     42.551000
25
Coordinates from ORCA-job job E -836.655590027885
  C      44.222025     21.410506     42.068822
  H      44.946398     21.872908     41.396205
  H      44.284094     21.573675     43.144971
  C      43.261625     20.614542     41.562607
  C      42.292097     19.981491     42.515541
  O      42.328991     20.087441     43.727267
  O      41.354139     19.236436     41.920906
  O      43.253330     20.259994     40.267514
  C      42.173985     20.615667     39.316898
  H      41.579663     19.694360     39.195632
  C      42.892000     20.975000     38.054000
  H      43.464135     20.204358     37.530515
  C      42.969000     22.244000     37.605000
  C      42.118000     23.281000     38.202000
  H      42.224723     24.268894     37.746303
  C      41.188000     23.002000     39.130000
  H      40.494795     23.758270     39.513776
  C      41.205454     21.695697     39.878081
  H      41.588780     21.968270     40.884676
  O      39.889453     21.169962     40.028511
  H      40.003455     20.407145     40.615103
  C      43.874891     22.634406     36.397521
  O      44.421577     21.685548     35.802551
  O      43.949262     23.868792     36.193957
  N      40.832000     18.750000     42.551000
25
Coordinates from ORCA-job job E -836.655616928259
  C      44.238678     21.384590     42.071578
  H      44.967379     21.843858     41.401520
  H      44.303136     21.540712     43.148621
  C      43.269856     20.600653     41.562645
  C      42.294651     19.972849     42.513291
  O      42.327321     20.081855     43.725050
  O      41.356763     19.229026     41.917549
  O      43.252810     20.253585     40.266785
  C      42.174664     20.615980     39.316961
  H      41.578273     19.695790     39.196256
  C      42.892000     20.975000     38.054000
  H      43.463823     20.204378     37.530254
  C      42.969000     22.244000     37.605000
  C      42.118000     23.281000     38.202000
  H      42.223674     24.268137     37.744382
  C      41.188000     23.002000     39.130000
  H      40.494855     23.757977     39.514465
  C      41.211171     21.697557     39.882157
  H      41.601550     21.973423     40.885451
  O      39.895874     21.173539     40.044567
  H      40.015888     20.401641     40.618008
  C      43.874612     22.633877     36.397694
  O      44.421462     21.685028     35.802852
  O      43.948343     23.868270     36.193209
  N      40.832000     18.750000     42.551000
25
Coordinates from ORCA-job job E -836.655626488317
  C      44.247693     21.369132     42.071066
  H      44.977199     21.828005     41.401659
  H      44.314209     21.521394     43.148531
  C      43.275235     20.590311     41.561485
  C      42.298552     19.964128     42.511198
  O      42.332694     20.068998     43.723330
  O      41.358205     19.224148     41.914545
  O      43.253047     20.247991     40.264616
  C      42.174983     20.615692     39.316765
  H      41.576527     19.697054     39.194196
  C      42.892000     20.975000     38.054000
  H      43.462999     20.204218     37.529606
  C      42.969000     22.244000     37.605000
  C      42.118000     23.281000     38.202000
  H      42.222828     24.267698     37.743222
  C      41.188000     23.002000     39.130000
  H      40.494883     23.757908     39.514698
  C      41.215118     21.698925     39.884841
  H      41.611255     21.977547     40.885274
  O      39.900498     21.175844     40.056657
  H      40.024438     20.401472     40.625964
  C      43.873853     22.633693     36.396988
  O      44.420979     21.684680     35.802562
  O      43.946696     23.867930     36.191660
  N      40.832000     18.750000     42.551000
25
Coordinates from ORCA-job job E -836.655634218130
  C      44.261130     21.349510     42.066492
  H      44.990919     21.806107     41.395839
  H      44.332406     21.498211     43.144194
  C      43.282601     20.577348     41.558612
  C      42.305027     19.954904     42.509130
  O      42.343373     20.054856     43.721593
  O      41.357876     19.223063     41.912893
  O      43.253006     20.238774     40.261051
  C      42.175300     20.615064     39.316617
  H      41.572857     19.699526     39.190419
  C      42.892000     20.975000     38.054000
  H      43.461610     20.203886     37.528565
  C      42.969000     22.244000     37.605000
  C      42.118000     23.281000     38.202000
  H      42.221438     24.267180     37.741756
  C      41.188000     23.002000     39.130000
  H      40.494731     23.757756     39.514715
  C      41.221166     21.701185     39.888975
  H      41.626799     21.984023     40.884515
  O      39.907962     21.179422     40.075610
  H      40.037623     20.405020     40.643629
  C      43.872678     22.633453     36.395698
  O      44.419668     21.684133     35.801588
  O      43.944367     23.867462     36.189162
  N      40.832000     18.750000     42.551000
25
Coordinates from ORCA-job job E -836.655642545214
  C      44.267747     21.335850     42.054250
  H      44.995008     21.790653     41.379646
  H      44.344374     21.485796     43.131481
  C      43.285484     20.564710     41.552562
  C      42.310503     19.944473     42.506150
  O      42.355456     20.037978     43.718850
  O      41.357174     19.220452     41.910187
  O      43.246950     20.223824     40.255765
  C      42.172480     20.612979     39.313939
  H      41.564606     19.702082     39.179959
  C      42.892000     20.975000     38.054000
  H      43.461813     20.204013     37.528589
  C      42.969000     22.244000     37.605000
  C      42.118000     23.281000     38.202000
  H      42.220731     24.267002     37.741149
  C      41.188000     23.002000     39.130000
  H      40.495179     23.757948     39.515122
  C      41.224150     21.701899     39.890607
  H      41.636805     21.985973     40.882934
  O      39.911141     21.182598     40.086613
  H      40.043179     20.408516     40.654549
  C      43.873120     22.633526     36.395592
  O      44.422252     21.684150     35.803589
  O      43.942571     23.867270     36.187044
  N      40.832000     18.750000     42.551000
25
Coordinates from ORCA-job job E -836.655651745332
  C      44.280458     21.320148     42.039020
  H      45.004450     21.771149     41.358418
  H      44.365494     21.471547     43.115455
  C      43.291584     20.552231     41.545775
  C      42.320369     19.936010     42.505110
  O      42.375492     20.023163     43.717778
  O      41.356393     19.223590     41.912095
  O      43.241698     20.208222     40.249997
  C      42.170000     20.611217     39.311809
  H      41.555487     19.705705     39.171016
  C      42.892000     20.975000     38.054000
  H      43.461737     20.203941     37.528546
  C      42.969000     22.244000     37.605000
  C      42.118000     23.281000     38.202000
  H      42.219464     24.266686     37.740175
  C      41.188000     23.002000     39.130000
  H      40.495220     23.757811     39.515403
  C      41.229438     21.703780     39.894270
  H      41.653591     21.990991     40.880936
  O      39.917921     21.187368     40.106149
  H      40.055385     20.414530     40.674552
  C      43.873632     22.633782     36.395686
  O      44.424262     21.684439     35.804973
  O      43.941476     23.867314     36.185909
  N      40.832000     18.750000     42.551000
25
Coordinates from ORCA-job job E -836.655660829001
  C      44.289646     21.308015     42.014681
  H      45.007958     21.754246     41.324938
  H      44.384591     21.465695     43.089471
  C      43.294884     20.539428     41.534912
  C      42.330848     19.927239     42.503443
  O      42.398958     20.008598     43.715628
  O      41.355992     19.226230     41.914761
  O      43.230268     20.185823     40.242362
  C      42.164381     20.608269     39.306939
  H      41.540906     19.710173     39.157153
  C      42.892000     20.975000     38.054000
  H      43.463615     20.204383     37.529884
  C      42.969000     22.244000     37.605000
  C      42.118000     23.281000     38.202000
  H      42.218749     24.266552     37.739732
  C      41.188000     23.002000     39.130000
  H      40.495698     23.757673     39.516434
  C      41.232652     21.704526     39.896348
  H      41.667645     21.992393     40.878119
  O      39.921905     21.192435     40.121263
  H      40.062614     20.420777     40.690520
  C      43.876476     22.634554     36.398048
  O      44.430976     21.685796     35.809949
  O      43.942237     23.867968     36.186965
  N      40.832000     18.750000     42.551000
25
Coordinates from ORCA-job job E -836.655665391674
  C      44.292470     21.304529     42.004526
  H      45.009259     21.747603     41.311144
  H      44.390419     21.466286     43.078455
  C      43.295420     20.535545     41.530205
  C      42.333423     19.926471     42.502925
  O      42.405146     20.008725     43.714685
  O      41.355756     19.227581     41.916451
  O      43.224980     20.176409     40.239668
  C      42.161708     20.607192     39.304462
  H      41.534400     19.712061     39.152593
  C      42.892000     20.975000     38.054000
  H      43.464715     20.204688     37.530671
  C      42.969000     22.244000     37.605000
  C      42.118000     23.281000     38.202000
  H      42.218640     24.266480     37.739566
  C      41.188000     23.002000     39.130000
  H      40.495882     23.757410     39.517298
  C      41.233653     21.704714     39.897119
  H      41.673196     21.992567     40.876895
  O      39.923402     21.194462     40.127322
  H      40.065419     20.423245     40.696892
  C      43.878289     22.634885     36.399900
  O      44.434285     21.686540     35.812518
  O      43.944108     23.868427     36.189048
  N      40.832000     18.750000     42.551000
25
Coordinates from ORCA-job job E -836.655669410061
  C      44.298365     21.296454     41.993077
  H      45.014186     21.735400     41.296052
  H      44.399749     21.461926     43.066117
  C      43.297859     20.528654     41.524304
  C      42.337229     19.924370     42.501641
  O      42.412443     20.008042     43.712945
  O      41.356458     19.227591     41.917717
  O      43.219933     20.164460     40.235900
  C      42.158915     20.605989     39.301550
  H      41.527115     19.714310     39.147789
  C      42.892000     20.975000     38.054000
  H      43.465562     20.205022     37.531134
  C      42.969000     22.244000     37.605000
  C      42.118000     23.281000     38.202000
  H      42.218489     24.266312     37.739159
  C      41.188000     23.002000     39.130000
  H      40.496087     23.756956     39.518577
  C      41.235753     21.705238     39.898604
  H      41.681718     21.993994     40.875257
  O      39.926536     21.197050     40.137126
  H      40.071133     20.425574     40.705753
  C      43.880217     22.635052     36.401914
  O      44.437524     21.687089     35.815160
  O      43.946382     23.868774     36.191429
  N      40.832000     18.750000     42.551000
25
Coordinates from ORCA-job job E -836.655671901376
  C      44.303561     21.288441     41.985608
  H      45.019419     21.724058     41.286508
  H      44.407100     21.455982     43.058128
  C      43.300169     20.522476     41.520136
  C      42.339563     19.922498     42.500194
  O      42.415960     20.008126     43.711220
  O      41.357322     19.226381     41.917789
  O      43.217115     20.155508     40.233027
  C      42.157266     20.605266     39.299709
  H      41.522394     19.716039     39.144503
  C      42.892000     20.975000     38.054000
  H      43.465605     20.205179     37.530980
  C      42.969000     22.244000     37.605000
  C      42.118000     23.281000     38.202000
  H      42.218229     24.266116     37.738668
  C      41.188000     23.002000     39.130000
  H      40.496203     23.756598     39.519505
  C      41.238184     21.705996     39.900233
  H      41.689762     21.996313     40.873895
  O      39.930077     21.199211     40.146629
  H      40.077331     20.427294     40.714016
  C      43.881130     22.634999     36.402857
  O      44.438955     21.687178     35.816384
  O      43.947529     23.868808     36.192519
  N      40.832000     18.750000     42.551000
25
Coordinates from ORCA-job job E -836.655674073782
  C      44.308966     21.280012     41.978613
  H      45.025080     21.712326     41.277715
  H      44.414495     21.449327     43.050675
  C      43.302698     20.516065     41.516179
  C      42.341732     19.920697     42.498550
  O      42.418398     20.009011     43.709327
  O      41.358753     19.224338     41.917490
  O      43.215096     20.146942     40.230091
  C      42.156017     20.604625     39.298264
  H      41.518575     19.717626     39.141038
  C      42.892000     20.975000     38.054000
  H      43.465284     20.205272     37.530511
  C      42.969000     22.244000     37.605000
  C      42.118000     23.281000     38.202000
  H      42.217875     24.265909     37.738136
  C      41.188000     23.002000     39.130000
  H      40.496283     23.756322     39.520199
  C      41.240945     21.706847     39.901926
  H      41.697850     21.999074     40.872569
  O      39.933910     21.201289     40.156057
  H      40.083740     20.428452     40.721539
  C      43.881516     22.634928     36.403172
  O      44.439572     21.687110     35.816911
  O      43.947902     23.868735     36.192771
  N      40.832000     18.750000     42.551000
25
Coordinates from ORCA-job job E -836.655675431840
  C      44.311800     21.275457     41.975325
  H      45.028592     21.705448     41.273703
  H      44.418075     21.445836     43.047158
  C      43.303769     20.512992     41.514341
  C      42.341949     19.920834     42.497617
  O      42.417333     20.012366     43.708232
  O      41.359843     19.222678     41.917152
  O      43.214501     20.142776     40.228650
  C      42.155660     20.604394     39.297893
  H      41.517205     19.718426     39.139021
  C      42.892000     20.975000     38.054000
  H      43.464864     20.205252     37.530076
  C      42.969000     22.244000     37.605000
  C      42.118000     23.281000     38.202000
  H      42.217561     24.265789     37.737804
  C      41.188000     23.002000     39.130000
  H      40.496301     23.756272     39.520302
  C      41.242711     21.707418     39.902943
  H      41.702289     22.000923     40.871948
  O      39.936174     21.202430     40.161144
  H      40.087264     20.428675     40.725030
  C      43.881314     22.634949     36.402854
  O      44.439302     21.687030     35.816653
  O      43.947462     23.868672     36.192261
  N      40.832000     18.750000     42.551000
25
Coordinates from ORCA-job job E -836.655676175998
  C      44.312018     21.275436     41.975276
  H      45.029402     21.704528     41.273734
  H      44.418003     21.446309     43.047066
  C      43.303598     20.513408     41.514397
  C      42.341021     19.922423     42.497569
  O      42.414710     20.016562     43.708104
  O      41.360552     19.221951     41.917146
  O      43.214998     20.142916     40.228631
  C      42.155989     20.604436     39.298330
  H      41.517798     19.718387     39.138662
  C      42.892000     20.975000     38.054000
  H      43.464687     20.205180     37.529957
  C      42.969000     22.244000     37.605000
  C      42.118000     23.281000     38.202000
  H      42.217409     24.265776     37.737754
  C      41.188000     23.002000     39.130000
  H      40.496303     23.756405     39.519999
  C      41.243020     21.707513     39.903089
  H      41.702358     22.001272     40.872112
  O      39.936349     21.202447     40.161140
  H      40.087265     20.427991     40.724080
  C      43.880917     22.635048     36.402381
  O      44.438753     21.687020     35.816165
  O      43.946796     23.868670     36.191609
  N      40.832000     18.750000     42.551000
