24
Coordinates from ORCA-job neb.QMRegion E -1076.115250983588
  C      42.580707     20.059214     56.493985
  H      43.246204     19.239762     56.232437
  H      43.013008     20.976288     56.894865
  C      41.209172     19.833429     56.584513
  C      40.256697     20.890379     57.169753
  O      40.751858     21.943903     57.650311
  O      39.028675     20.623154     57.162155
  O      40.674790     18.798191     56.065785
  C      40.536890     19.038643     53.983854
  H      40.053838     18.070988     53.843533
  C      41.908900     19.158424     53.821338
  H      42.545420     18.280747     53.703590
  C      42.526235     20.379569     54.093980
  C      41.700308     21.590199     54.145342
  H      42.227103     22.535866     54.265713
  C      40.360389     21.532151     54.087351
  H      39.761901     22.440095     54.186440
  C      39.616707     20.239223     53.886660
  H      38.849673     20.149982     54.669757
  O      39.014700     20.224638     52.591919
  H      38.013160     20.185778     52.660869
  C      44.035278     20.505957     53.901225
  O      44.732907     19.463508     53.995938
  O      44.465582     21.648982     53.621208
24
Coordinates from ORCA-job neb.QMRegion E -1076.115406475317
  C      42.594412     20.041068     56.508399
  H      43.258694     19.218173     56.254251
  H      43.027318     20.952767     56.920821
  C      41.221208     19.821407     56.585347
  C      40.268233     20.879216     57.168940
  O      40.762721     21.932865     57.649939
  O      39.040030     20.612716     57.160010
  O      40.686426     18.789529     56.058887
  C      40.539654     19.029792     53.969529
  H      40.059806     18.061824     53.819489
  C      41.912888     19.153372     53.816977
  H      42.551545     18.276880     53.702962
  C      42.526261     20.375463     54.093714
  C      41.697214     21.584067     54.141637
  H      42.221452     22.531422     54.259299
  C      40.357587     21.522969     54.078871
  H      39.756831     22.429789     54.173858
  C      39.617106     20.228970     53.873728
  H      38.850026     20.135365     54.656117
  O      39.014050     20.218162     52.579457
  H      38.012351     20.180574     52.649847
  C      44.035524     20.504993     53.901803
  O      44.733628     19.463007     53.996088
  O      44.465741     21.648218     53.621567
24
Coordinates from ORCA-job neb.QMRegion E -1076.115476984683
  C      42.596223     20.043640     56.506398
  H      43.265816     19.223766     56.255476
  H      43.024002     20.959523     56.915552
  C      41.224190     19.816851     56.586483
  C      40.270500     20.873566     57.169641
  O      40.764789     21.928435     57.648364
  O      39.042605     20.606299     57.161642
  O      40.692623     18.777940     56.071367
  C      40.543255     19.024881     53.974914
  H      40.064663     18.056094     53.826154
  C      41.915799     19.149857     53.820514
  H      42.554597     18.273595     53.704868
  C      42.528355     20.372987     54.094807
  C      41.697621     21.579956     54.146131
  H      42.220800     22.528181     54.261796
  C      40.357779     21.516972     54.084794
  H      39.755679     22.423074     54.178614
  C      39.618456     20.222263     53.880454
  H      38.852809     20.127197     54.664269
  O      39.013403     20.211421     52.586487
  H      38.011575     20.174928     52.656849
  C      44.036736     20.504064     53.902140
  O      44.735107     19.462347     53.995901
  O      44.465839     21.647547     53.621524
24
Coordinates from ORCA-job neb.QMRegion E -1076.115472783266
  C      42.600895     20.055317     56.502505
  H      43.275482     19.243523     56.238047
  H      43.025044     20.975731     56.905189
  C      41.231725     19.821304     56.586251
  C      40.275964     20.874279     57.171167
  O      40.768005     21.929963     57.650464
  O      39.048616     20.604463     57.163342
  O      40.700062     18.786966     56.057897
  C      40.546560     19.018035     53.965938
  H      40.070184     18.048794     53.812752
  C      41.920592     19.145724     53.815677
  H      42.560734     18.270133     53.703413
  C      42.529398     20.369307     54.089457
  C      41.696731     21.574552     54.143136
  H      42.217952     22.523377     54.262781
  C      40.357050     21.509652     54.079748
  H      39.753193     22.414290     54.175351
  C      39.619960     20.214427     53.871713
  H      38.854759     20.115621     54.655248
  O      39.014117     20.206432     52.578353
  H      38.012410     20.171107     52.649654
  C      44.037658     20.502939     53.900984
  O      44.736617     19.461769     53.995540
  O      44.466325     21.646975     53.621720
24
Coordinates from ORCA-job neb.QMRegion E -1076.115569599012
  C      42.602689     20.034097     56.502553
  H      43.273010     19.216247     56.247365
  H      43.030588     20.949238     56.913364
  C      41.231087     19.807219     56.584934
  C      40.278459     20.865399     57.168368
  O      40.772645     21.921245     57.645590
  O      39.050684     20.598115     57.162123
  O      40.696913     18.771536     56.065548
  C      40.549253     19.015311     53.966429
  H      40.074039     18.045311     53.813957
  C      41.922273     19.143895     53.818708
  H      42.563052     18.268596     53.706609
  C      42.530520     20.368933     54.092068
  C      41.696320     21.573237     54.143498
  H      42.216353     22.522639     54.263251
  C      40.356739     21.506492     54.080203
  H      39.751488     22.409996     54.177073
  C      39.621049     20.210389     53.873047
  H      38.856549     20.110744     54.657254
  O      39.013834     20.202279     52.580040
  H      38.012216     20.167364     52.651546
  C      44.038534     20.502897     53.901727
  O      44.737998     19.461681     53.995379
  O      44.466390     21.647080     53.622427
24
Coordinates from ORCA-job neb.QMRegion E -1076.115583044650
  C      42.607826     20.043491     56.501741
  H      43.281956     19.230482     56.240371
  H      43.032677     20.960626     56.911225
  C      41.238331     19.811856     56.583619
  C      40.283435     20.865994     57.168997
  O      40.775140     21.922788     57.646629
  O      39.056184     20.596160     57.162019
  O      40.705693     18.774356     56.062257
  C      40.552019     19.008926     53.967642
  H      40.078818     18.038313     53.813009
  C      41.925663     19.140311     53.817266
  H      42.567438     18.265752     53.706375
  C      42.531348     20.365714     54.088497
  C      41.695292     21.568340     54.143504
  H      42.213674     22.518641     54.263760
  C      40.355633     21.499514     54.081116
  H      39.748713     22.401852     54.178909
  C      39.621737     20.202567     53.872939
  H      38.857970     20.100516     54.657466
  O      39.013686     20.194832     52.580562
  H      38.012056     20.162146     52.652476
  C      44.039346     20.501934     53.900599
  O      44.739426     19.461257     53.994943
  O      44.466882     21.646669     53.622732
