24
Coordinates from ORCA-job neb.QMRegion
  C          42.60782594229661     20.04349073737161     56.50174079286747
  H          43.28195611129429     19.23048227829388     56.24037117631926
  H          43.03267715221057     20.96062604535635     56.91122464710742
  C          41.23833074050255     19.81185629433732     56.58361923279701
  C          40.28343548657860     20.86599385671575     57.16899711875247
  O          40.77514044765078     21.92278831794107     57.64662934331432
  O          39.05618369785594     20.59616001943007     57.16201871037652
  O          40.70569273826618     18.77435595446795     56.06225730213839
  C          40.55201902015506     19.00892576529867     53.96764179351318
  H          40.07881751460025     18.03831349523541     53.81300884488251
  C          41.92566310340660     19.14031114400711     53.81726637553472
  H          42.56743777478648     18.26575155199784     53.70637500878993
  C          42.53134813403764     20.36571353742328     54.08849674626814
  C          41.69529157701194     21.56834000533653     54.14350401183436
  H          42.21367365778416     22.51864116239664     54.26375971019241
  C          40.35563251133909     21.49951354298441     54.08111588212910
  H          39.74871265192957     22.40185187408745     54.17890872709146
  C          39.62173746917171     20.20256680027876     53.87293932095294
  H          38.85797032498039     20.10051643990599     54.65746615872867
  O          39.01368607266000     20.19483207756716     52.58056172884395
  H          38.01205599985006     20.16214563113043     52.65247620291724
  C          44.03934571239095     20.50193378053615     53.90059885860565
  O          44.73942630526236     19.46125709946958     53.99494333306388
  O          44.46688177401916     21.64666850731577     53.62273198870641
