24
Coordinates from ORCA-job neb_MEP.QMRegion E -1076.135916675124
  C      42.394000     19.871000     56.917000
  H      43.081000     19.125000     56.517000
  H      42.772000     20.646000     57.583000
  C      41.093000     19.875000     56.600000
  C      40.130000     20.896000     57.181000
  O      40.619000     21.952000     57.663000
  O      38.904000     20.616000     57.157000
  O      40.534000     18.917000     55.790000
  C      40.530000     19.125000     54.332000
  H      40.032000     18.225000     53.947000
  C      41.961000     19.207000     53.905000
  H      42.559000     18.294000     53.866000
  C      42.576000     20.401000     53.813000
  C      41.786000     21.634000     53.919000
  H      42.351000     22.566000     53.920000
  C      40.448000     21.625000     54.039000
  H      39.897000     22.559000     54.169000
  C      39.656000     20.344000     53.957000
  H      38.842000     20.373000     54.696000
  O      39.126000     20.193000     52.642000
  H      38.128000     20.171000     52.669000
  C      44.090000     20.517000     53.728000
  O      44.781000     19.478000     53.903000
  O      44.542000     21.670000     53.521000
24
Coordinates from ORCA-job neb_MEP.QMRegion E -1076.137826385842
  C      42.434857     19.905297     56.835487
  H      43.119005     19.171470     56.412585
  H      42.829455     20.709173     57.452357
  C      41.122585     19.880995     56.575194
  C      40.161711     20.893216     57.170400
  O      40.653050     21.945662     57.657962
  O      38.935508     20.613349     57.157541
  O      40.554695     18.910841     55.788634
  C      40.529346     19.102387     54.320147
  H      40.033917     18.194169     53.951340
  C      41.953687     19.194840     53.881469
  H      42.555891     18.286853     53.817352
  C      42.562839     20.394957     53.824681
  C      41.765928     21.620685     53.956880
  H      42.323123     22.555857     54.000571
  C      40.425848     21.599593     54.056890
  H      39.865614     22.526727     54.194132
  C      39.643887     20.315065     53.954317
  H      38.833165     20.328675     54.696885
  O      39.111438     20.172469     52.641815
  H      38.113275     20.159734     52.671798
  C      44.077012     20.514949     53.741521
  O      44.770031     19.478361     53.920270
  O      44.529297     21.667902     53.540311
24
Coordinates from ORCA-job neb_MEP.QMRegion E -1076.136340340774
  C      42.494392     19.960941     56.701333
  H      43.176201     19.233529     56.267130
  H      42.907903     20.823716     57.215134
  C      41.168314     19.886389     56.531307
  C      40.212416     20.886239     57.153890
  O      40.702785     21.935636     57.649050
  O      38.985925     20.606551     57.154944
  O      40.589150     18.896834     55.780020
  C      40.530341     19.065982     54.299111
  H      40.044143     18.144664     53.952606
  C      41.942016     19.179352     53.845175
  H      42.554754     18.283100     53.740593
  C      42.541698     20.386028     53.853675
  C      41.730809     21.599634     54.024239
  H      42.272951     22.538579     54.135757
  C      40.388706     21.560548     54.083164
  H      39.811133     22.477784     54.219076
  C      39.625382     20.267801     53.949921
  H      38.820036     20.254965     54.696976
  O      39.084515     20.149990     52.640020
  H      38.085519     20.153657     52.674440
  C      44.055627     20.512041     53.776029
  O      44.751274     19.476098     53.952505
  O      44.507914     21.664751     53.579942
24
Coordinates from ORCA-job neb_MEP.QMRegion E -1076.131064831182
  C      42.539646     20.006115     56.598782
  H      43.220248     19.263226     56.190365
  H      42.969122     20.916487     57.010582
  C      41.203988     19.879747     56.513942
  C      40.251455     20.881647     57.146968
  O      40.741901     21.930123     57.645045
  O      39.023667     20.605553     57.152999
  O      40.623870     18.873371     55.789636
  C      40.532694     19.037192     54.262443
  H      40.055671     18.103492     53.932355
  C      41.934098     19.170682     53.820695
  H      42.554429     18.283444     53.691120
  C      42.527614     20.379655     53.912374
  C      41.704532     21.585632     54.087469
  H      42.233240     22.527432     54.236195
  C      40.362079     21.533830     54.098132
  H      39.769569     22.443640     54.221179
  C      39.613180     20.236251     53.936460
  H      38.818846     20.192262     54.691319
  O      39.055497     20.154888     52.629764
  H      38.053903     20.158893     52.673041
  C      44.039124     20.509005     53.821901
  O      44.737436     19.471864     53.980101
  O      44.487321     21.659951     53.610963
24
Coordinates from ORCA-job neb_MEP.QMRegion E -1076.118849442550
  C      42.562931     20.035718     56.547103
  H      43.238203     19.253359     56.207370
  H      43.000020     20.960648     56.921531
  C      41.212131     19.854795     56.549627
  C      40.259951     20.885062     57.157764
  O      40.751885     21.936896     57.647771
  O      39.030473     20.615489     57.156954
  O      40.652392     18.831453     55.912544
  C      40.534551     19.033174     54.129750
  H      40.056553     18.079412     53.882275
  C      41.925218     19.166157     53.818055
  H      42.550923     18.282436     53.692994
  C      42.525439     20.377488     54.010329
  C      41.699565     21.586126     54.129029
  H      42.225469     22.531239     54.262782
  C      40.358543     21.530857     54.094584
  H      39.760526     22.438597     54.198443
  C      39.612965     20.236389     53.908760
  H      38.835694     20.161899     54.678898
  O      39.030341     20.195409     52.608069
  H      38.027010     20.175645     52.665394
  C      44.035221     20.506193     53.872280
  O      44.734229     19.466427     53.993222
  O      44.472637     21.653107     53.620724
24
Coordinates from ORCA-job neb_MEP.QMRegion E -1076.115217169700
  C      42.580707     20.059214     56.493985
  H      43.246204     19.239762     56.232437
  H      43.013008     20.976288     56.894865
  C      41.209172     19.833429     56.584513
  C      40.256697     20.890379     57.169753
  O      40.751858     21.943903     57.650311
  O      39.028675     20.623154     57.162155
  O      40.674790     18.798191     56.065785
  C      40.536890     19.038643     53.983854
  H      40.053838     18.070988     53.843533
  C      41.908900     19.158424     53.821338
  H      42.545420     18.280747     53.703590
  C      42.526235     20.379569     54.093980
  C      41.700308     21.590199     54.145342
  H      42.227103     22.535866     54.265713
  C      40.360389     21.532151     54.087351
  H      39.761901     22.440095     54.186440
  C      39.616707     20.239223     53.886660
  H      38.849673     20.149982     54.669757
  O      39.014700     20.224638     52.591919
  H      38.013160     20.185778     52.660869
  C      44.035278     20.505957     53.901225
  O      44.732907     19.463508     53.995938
  O      44.465582     21.648982     53.621208
24
Coordinates from ORCA-job neb_MEP.QMRegion E -1076.119649018765
  C      42.583982     20.089507     56.346465
  H      43.234545     19.222620     56.247587
  H      43.012912     20.974996     56.819628
  C      41.195146     19.831637     56.586082
  C      40.248405     20.897022     57.173694
  O      40.754315     21.945503     57.649351
  O      39.022507     20.631101     57.166327
  O      40.679534     18.779633     56.175749
  C      40.541467     19.041223     53.911961
  H      40.054705     18.069192     53.827243
  C      41.895242     19.152758     53.842563
  H      42.538682     18.279666     53.719352
  C      42.532034     20.377354     54.240686
  C      41.699982     21.596405     54.171459
  H      42.227420     22.545811     54.258110
  C      40.364151     21.533057     54.085338
  H      39.764706     22.442847     54.168156
  C      39.620583     20.238330     53.881984
  H      38.855182     20.146099     54.668955
  O      39.011177     20.241374     52.589492
  H      38.011345     20.185267     52.660596
  C      44.035956     20.506116     53.938403
  O      44.734351     19.462315     54.001887
  O      44.457930     21.642840     53.623278
24
Coordinates from ORCA-job neb_MEP.QMRegion E -1076.132753755307
  C      42.581205     20.115031     56.179338
  H      43.216745     19.228773     56.251423
  H      43.005321     20.964345     56.727230
  C      41.186101     19.840010     56.564782
  C      40.247795     20.899818     57.176712
  O      40.760582     21.941627     57.653000
  O      39.023105     20.633048     57.174200
  O      40.683020     18.762317     56.255473
  C      40.551972     19.042554     53.867089
  H      40.060353     18.069639     53.798238
  C      41.891422     19.147849     53.875365
  H      42.536228     18.278307     53.732961
  C      42.545146     20.371381     54.395091
  C      41.703019     21.596151     54.209690
  H      42.225175     22.551601     54.262156
  C      40.371717     21.529033     54.087876
  H      39.769469     22.440482     54.148477
  C      39.625255     20.233865     53.880974
  H      38.858856     20.139131     54.669543
  O      39.008196     20.255528     52.592954
  H      38.009911     20.187665     52.662065
  C      44.037525     20.507729     53.972411
  O      44.736286     19.462495     54.004804
  O      44.447547     21.637624     53.622264
24
Coordinates from ORCA-job neb_MEP.QMRegion E -1076.151426048762
  C      42.609542     20.129492     56.097590
  H      43.257140     19.257424     56.269493
  H      43.024066     21.002460     56.619969
  C      41.222139     19.807209     56.592706
  C      40.281526     20.881392     57.197224
  O      40.791684     21.927112     57.666364
  O      39.060764     20.606441     57.196255
  O      40.773820     18.696856     56.428742
  C      40.571159     19.053768     53.746806
  H      40.093374     18.093299     53.546129
  C      41.895408     19.137206     53.910725
  H      42.539299     18.266774     53.775632
  C      42.550436     20.355677     54.501063
  C      41.703625     21.582270     54.273701
  H      42.210402     22.543171     54.366384
  C      40.382815     21.519356     54.072027
  H      39.785977     22.435788     54.092632
  C      39.636122     20.233163     53.822121
  H      38.894832     20.093999     54.630847
  O      38.969639     20.321612     52.563524
  H      37.974749     20.236982     52.661945
  C      44.030357     20.502646     54.004046
  O      44.733372     19.460474     54.018857
  O      44.419845     21.632311     53.632693
24
Coordinates from ORCA-job neb_MEP.QMRegion E -1076.159997922397
  C      42.654000     20.127000     56.113000
  H      43.340000     19.287000     56.293000
  H      43.050000     21.046000     56.568000
  C      41.303000     19.764000     56.682000
  C      40.332000     20.849000     57.228000
  O      40.829000     21.908000     57.680000
  O      39.113000     20.562000     57.217000
  O      40.921000     18.612000     56.668000
  C      40.598000     19.077000     53.588000
  H      40.155000     18.162000     53.194000
  C      41.892000     19.124000     53.921000
  H      42.542000     18.255000     53.804000
  C      42.538000     20.334000     54.544000
  C      41.692000     21.561000     54.333000
  H      42.184000     22.518000     54.504000
  C      40.389000     21.510000     54.043000
  H      39.797000     22.428000     54.036000
  C      39.648000     20.238000     53.725000
  H      38.948000     20.030000     54.556000
  O      38.917000     20.394000     52.514000
  H      37.928000     20.307000     52.657000
  C      44.007000     20.492000     54.022000
  O      44.720000     19.457000     54.031000
  O      44.380000     21.625000     53.646000
