24
Coordinates from ORCA-job neb_initial_path.QMRegion E   0.000000000000
  C      42.394000     19.871000     56.917000
  H      43.081000     19.125000     56.517000
  H      42.772000     20.646000     57.583000
  C      41.093000     19.875000     56.600000
  C      40.130000     20.896000     57.181000
  O      40.619000     21.952000     57.663000
  O      38.904000     20.616000     57.157000
  O      40.534000     18.917000     55.790000
  C      40.530000     19.125000     54.332000
  H      40.032000     18.225000     53.947000
  C      41.961000     19.207000     53.905000
  H      42.559000     18.294000     53.866000
  C      42.576000     20.401000     53.813000
  C      41.786000     21.634000     53.919000
  H      42.351000     22.566000     53.920000
  C      40.448000     21.625000     54.039000
  H      39.897000     22.559000     54.169000
  C      39.656000     20.344000     53.957000
  H      38.842000     20.373000     54.696000
  O      39.126000     20.193000     52.642000
  H      38.128000     20.171000     52.669000
  C      44.090000     20.517000     53.728000
  O      44.781000     19.478000     53.903000
  O      44.542000     21.670000     53.521000
24
Coordinates from ORCA-job neb_initial_path.QMRegion E   0.000000000000
  C      42.428400     19.910000     56.822000
  H      43.112000     19.148000     56.457000
  H      42.817600     20.711200     57.440400
  C      41.113800     19.869000     56.590600
  C      40.154600     20.894800     57.177000
  O      40.645400     21.949200     57.660600
  O      38.928000     20.617000     57.158400
  O      40.557800     18.897800     55.831600
  C      40.531600     19.108600     54.275000
  H      40.036800     18.196200     53.931000
  C      41.951600     19.198800     53.892400
  H      42.556200     18.292400     53.835000
  C      42.567000     20.396000     53.879800
  C      41.769400     21.625800     53.968000
  H      42.327200     22.560800     53.988400
  C      40.431400     21.607400     54.050400
  H      39.871600     22.537200     54.169000
  C      39.648200     20.324200     53.947400
  H      38.841200     20.331800     54.693000
  O      39.107000     20.197600     52.635200
  H      38.108400     20.172800     52.668400
  C      44.079600     20.514400     53.767000
  O      44.772000     19.474800     53.923200
  O      44.526200     21.665000     53.542000
24
Coordinates from ORCA-job neb_initial_path.QMRegion E   0.000000000000
  C      42.462800     19.949000     56.727000
  H      43.143000     19.171000     56.397000
  H      42.863200     20.776400     57.297800
  C      41.134600     19.863000     56.581200
  C      40.179200     20.893600     57.173000
  O      40.671800     21.946400     57.658200
  O      38.952000     20.618000     57.159800
  O      40.581600     18.878600     55.873200
  C      40.533200     19.092200     54.218000
  H      40.041600     18.167400     53.915000
  C      41.942200     19.190600     53.879800
  H      42.553400     18.290800     53.804000
  C      42.558000     20.391000     53.946600
  C      41.752800     21.617600     54.017000
  H      42.303400     22.555600     54.056800
  C      40.414800     21.589800     54.061800
  H      39.846200     22.515400     54.169000
  C      39.640400     20.304400     53.937800
  H      38.840400     20.290600     54.690000
  O      39.088000     20.202200     52.628400
  H      38.088800     20.174600     52.667800
  C      44.069200     20.511800     53.806000
  O      44.763000     19.471600     53.943400
  O      44.510400     21.660000     53.563000
24
Coordinates from ORCA-job neb_initial_path.QMRegion E   0.000000000000
  C      42.497200     19.988000     56.632000
  H      43.174000     19.194000     56.337000
  H      42.908800     20.841600     57.155200
  C      41.155400     19.857000     56.571800
  C      40.203800     20.892400     57.169000
  O      40.698200     21.943600     57.655800
  O      38.976000     20.619000     57.161200
  O      40.605400     18.859400     55.914800
  C      40.534800     19.075800     54.161000
  H      40.046400     18.138600     53.899000
  C      41.932800     19.182400     53.867200
  H      42.550600     18.289200     53.773000
  C      42.549000     20.386000     54.013400
  C      41.736200     21.609400     54.066000
  H      42.279600     22.550400     54.125200
  C      40.398200     21.572200     54.073200
  H      39.820800     22.493600     54.169000
  C      39.632600     20.284600     53.928200
  H      38.839600     20.249400     54.687000
  O      39.069000     20.206800     52.621600
  H      38.069200     20.176400     52.667200
  C      44.058800     20.509200     53.845000
  O      44.754000     19.468400     53.963600
  O      44.494600     21.655000     53.584000
24
Coordinates from ORCA-job neb_initial_path.QMRegion E   0.000000000000
  C      42.531600     20.027000     56.537000
  H      43.205000     19.217000     56.277000
  H      42.954400     20.906800     57.012600
  C      41.176200     19.851000     56.562400
  C      40.228400     20.891200     57.165000
  O      40.724600     21.940800     57.653400
  O      39.000000     20.620000     57.162600
  O      40.629200     18.840200     55.956400
  C      40.536400     19.059400     54.104000
  H      40.051200     18.109800     53.883000
  C      41.923400     19.174200     53.854600
  H      42.547800     18.287600     53.742000
  C      42.540000     20.381000     54.080200
  C      41.719600     21.601200     54.115000
  H      42.255800     22.545200     54.193600
  C      40.381600     21.554600     54.084600
  H      39.795400     22.471800     54.169000
  C      39.624800     20.264800     53.918600
  H      38.838800     20.208200     54.684000
  O      39.050000     20.211400     52.614800
  H      38.049600     20.178200     52.666600
  C      44.048400     20.506600     53.884000
  O      44.745000     19.465200     53.983800
  O      44.478800     21.650000     53.605000
24
Coordinates from ORCA-job neb_initial_path.QMRegion E   0.000000000000
  C      42.566000     20.066000     56.442000
  H      43.236000     19.240000     56.217000
  H      43.000000     20.972000     56.870000
  C      41.197000     19.845000     56.553000
  C      40.253000     20.890000     57.161000
  O      40.751000     21.938000     57.651000
  O      39.024000     20.621000     57.164000
  O      40.653000     18.821000     55.998000
  C      40.538000     19.043000     54.047000
  H      40.056000     18.081000     53.867000
  C      41.914000     19.166000     53.842000
  H      42.545000     18.286000     53.711000
  C      42.531000     20.376000     54.147000
  C      41.703000     21.593000     54.164000
  H      42.232000     22.540000     54.262000
  C      40.365000     21.537000     54.096000
  H      39.770000     22.450000     54.169000
  C      39.617000     20.245000     53.909000
  H      38.838000     20.167000     54.681000
  O      39.031000     20.216000     52.608000
  H      38.030000     20.180000     52.666000
  C      44.038000     20.504000     53.923000
  O      44.736000     19.462000     54.004000
  O      44.463000     21.645000     53.626000
24
Coordinates from ORCA-job neb_initial_path.QMRegion E   0.000000000000
  C      42.588000     20.081250     56.359750
  H      43.262000     19.251750     56.236000
  H      43.012500     20.990500     56.794500
  C      41.223500     19.824750     56.585250
  C      40.272750     20.879750     57.177750
  O      40.770500     21.930500     57.658250
  O      39.046250     20.606250     57.177250
  O      40.720000     18.768750     56.165500
  C      40.553000     19.051500     53.932250
  H      40.080750     18.101250     53.698750
  C      41.908500     19.155500     53.861750
  H      42.544250     18.278250     53.734250
  C      42.532750     20.365500     54.246250
  C      41.700250     21.585000     54.206250
  H      42.220000     22.534500     54.322500
  C      40.371000     21.530250     54.082750
  H      39.776750     22.444500     54.135750
  C      39.624750     20.243250     53.863000
  H      38.865500     20.132750     54.649750
  O      39.002500     20.260500     52.584500
  H      38.004500     20.211750     52.663750
  C      44.030250     20.501000     53.947750
  O      44.732000     19.460750     54.010750
  O      44.442250     21.640000     53.631000
24
Coordinates from ORCA-job neb_initial_path.QMRegion E   0.000000000000
  C      42.610000     20.096500     56.277500
  H      43.288000     19.263500     56.255000
  H      43.025000     21.009000     56.719000
  C      41.250000     19.804500     56.617500
  C      40.292500     20.869500     57.194500
  O      40.790000     21.923000     57.665500
  O      39.068500     20.591500     57.190500
  O      40.787000     18.716500     56.333000
  C      40.568000     19.060000     53.817500
  H      40.105500     18.121500     53.530500
  C      41.903000     19.145000     53.881500
  H      42.543500     18.270500     53.757500
  C      42.534500     20.355000     54.345500
  C      41.697500     21.577000     54.248500
  H      42.208000     22.529000     54.383000
  C      40.377000     21.523500     54.069500
  H      39.783500     22.439000     54.102500
  C      39.632500     20.241500     53.817000
  H      38.893000     20.098500     54.618500
  O      38.974000     20.305000     52.561000
  H      37.979000     20.243500     52.661500
  C      44.022500     20.498000     53.972500
  O      44.728000     19.459500     54.017500
  O      44.421500     21.635000     53.636000
24
Coordinates from ORCA-job neb_initial_path.QMRegion E   0.000000000000
  C      42.632000     20.111750     56.195250
  H      43.314000     19.275250     56.274000
  H      43.037500     21.027500     56.643500
  C      41.276500     19.784250     56.649750
  C      40.312250     20.859250     57.211250
  O      40.809500     21.915500     57.672750
  O      39.090750     20.576750     57.203750
  O      40.854000     18.664250     56.500500
  C      40.583000     19.068500     53.702750
  H      40.130250     18.141750     53.362250
  C      41.897500     19.134500     53.901250
  H      42.542750     18.262750     53.780750
  C      42.536250     20.344500     54.444750
  C      41.694750     21.569000     54.290750
  H      42.196000     22.523500     54.443500
  C      40.383000     21.516750     54.056250
  H      39.790250     22.433500     54.069250
  C      39.640250     20.239750     53.771000
  H      38.920500     20.064250     54.587250
  O      38.945500     20.349500     52.537500
  H      37.953500     20.275250     52.659250
  C      44.014750     20.495000     53.997250
  O      44.724000     19.458250     54.024250
  O      44.400750     21.630000     53.641000
24
Coordinates from ORCA-job neb_initial_path.QMRegion E   0.000000000000
  C      42.654000     20.127000     56.113000
  H      43.340000     19.287000     56.293000
  H      43.050000     21.046000     56.568000
  C      41.303000     19.764000     56.682000
  C      40.332000     20.849000     57.228000
  O      40.829000     21.908000     57.680000
  O      39.113000     20.562000     57.217000
  O      40.921000     18.612000     56.668000
  C      40.598000     19.077000     53.588000
  H      40.155000     18.162000     53.194000
  C      41.892000     19.124000     53.921000
  H      42.542000     18.255000     53.804000
  C      42.538000     20.334000     54.544000
  C      41.692000     21.561000     54.333000
  H      42.184000     22.518000     54.504000
  C      40.389000     21.510000     54.043000
  H      39.797000     22.428000     54.036000
  C      39.648000     20.238000     53.725000
  H      38.948000     20.030000     54.556000
  O      38.917000     20.394000     52.514000
  H      37.928000     20.307000     52.657000
  C      44.007000     20.492000     54.022000
  O      44.720000     19.457000     54.031000
  O      44.380000     21.625000     53.646000
