25
p1 converged geometry (sphere 2.674 A from O2), q=+0.0, def2-SVPD
C      44.92159365    19.99149622    40.35176200
H      45.08712499    19.78525467    39.29278262
H      45.76841771    20.21888334    41.00077817
C      43.69357508    20.00930320    40.88847943
C      43.49561778    20.39814576    42.37681645
O      44.44527315    20.18697254    43.14313696
O      42.37657412    20.92908363    42.68560203
O      42.57015974    19.65249957    40.16674207
C      41.99527059    20.59027869    39.20646686
H      41.12423515    20.01739798    38.82528160
C      42.89200000    20.97500000    38.05400000
H      43.44817836    20.20394690    37.51310243
C      42.96900000    22.24400000    37.60500000
C      42.11800000    23.28100000    38.20200000
H      42.16485714    24.24118550    37.67909608
C      41.18800000    23.00200000    39.13000000
H      40.49858606    23.75403332    39.53186563
C      41.47142257    21.79475414    39.99299683
H      42.33729964    22.12088447    40.60390633
O      40.45649869    21.42117047    40.90094329
H      41.02451710    21.17886156    41.68117020
C      43.85897846    22.61746071    36.38035763
O      44.48181764    21.67181205    35.85176718
O      43.84046196    23.83222478    36.06776372
N      40.83200000    18.75000000    42.55100000
