24
frame 21634 P, aligned onto 20000 on 8 atoms
C      48.20289570    28.22908354    56.09383493
H      49.08558958    27.58350053    56.19146744
H      48.31937263    29.12984725    56.70827440
C      46.99268735    27.44257851    56.53057695
C      45.75326904    28.16502273    57.14892281
O      45.90592737    29.33442497    57.58715431
O      44.69310201    27.50932717    57.17177416
O      46.93499138    26.24359050    56.34277675
C      46.56662374    27.06979512    53.31579868
H      46.40272208    26.12143239    52.80329659
C      47.77934589    27.39603729    53.76827080
H      48.62937247    26.72214807    53.64805795
C      48.05177260    28.63708364    54.56999185
C      46.91062563    29.61716640    54.47479015
H      47.11487116    30.61849346    54.85459653
C      45.69808096    29.28997812    54.02204711
H      44.88555181    30.02074650    54.04939606
C      45.34671581    27.93450654    53.47593237
H      44.65669561    27.44779884    54.19205021
O      44.69129875    28.07405293    52.21593623
H      43.79179348    27.63506357    52.24428451
C      49.40036987    29.29681839    54.10925389
O      50.42274882    28.56938001    54.00104720
O      49.36242688    30.52675436    53.89008308
