24
frame 21634 R, aligned onto 20000 on 8 atoms
C      48.02017790    27.92551913    56.86445796
H      48.89878091    27.42896595    56.45372606
H      48.15444713    28.72993437    57.58709820
C      46.77907500    27.59349105    56.49849628
C      45.55381759    28.25120594    57.10485954
O      45.69627098    29.38937508    57.63440562
O      44.47857325    27.61012999    57.05570434
O      46.53036385    26.59534122    55.57645958
C      46.55781833    26.97082886    54.15395746
H      46.37311142    26.02270533    53.63068113
C      47.92010797    27.50382157    53.83474326
H      48.75616819    26.80523559    53.79162782
C      48.14779311    28.82860949    53.77579042
C      47.03354545    29.77196715    53.94089180
H      47.30716980    30.82530956    54.03316039
C      45.75666684    29.36264424    54.01336781
H      44.94704950    30.07737806    54.18351876
C      45.38462945    27.91629641    53.80429338
H      44.55911668    27.64983106    54.48195250
O      44.99115199    27.72775992    52.44422592
H      44.04116785    27.42226352    52.40149317
C      49.55009389    29.40841567    53.64413050
O      50.55049754    28.65884322    53.82029711
O      49.59322683    30.63664490    53.39913761
