24
frame 21634 TS, aligned onto 20000 on 8 atoms
C      48.12672209    28.12380765    56.46096510
H      49.00245153    27.53536639    56.19548268
H      48.27231062    29.06281725    56.99120460
C      46.86423186    27.54115135    56.44545800
C      45.65238151    28.24108970    57.07664452
O      45.80801921    29.38465292    57.59058780
O      44.57195702    27.60805336    57.06309601
O      46.63562735    26.46806745    55.78411450
C      46.56397839    26.92155066    53.77212747
H      46.38767522    25.88609161    53.48402403
C      47.85155479    27.43622796    53.73063177
H      48.71561507    26.78436201    53.60803976
C      48.07443726    28.74238707    54.15732539
C      46.93561977    29.66469545    54.26561645
H      47.16977146    30.69863809    54.52166205
C      45.67742337    29.24634620    54.06663256
H      44.83756711    29.93691944    54.16674822
C      45.35275078    27.82860865    53.68694037
H      44.57868646    27.45338102    54.37317155
O      44.87743874    27.79339900    52.33722531
H      43.93486972    27.45152035    52.31618749
C      49.46546108    29.35391549    53.99574741
O      50.47967827    28.60926692    53.95838193
O      49.47099930    30.59914660    53.86056768
