24
frame 45688 P, aligned onto 20000 on 8 atoms
C      48.12496096    28.38498572    56.12550769
H      49.04564343    27.81575229    56.31996358
H      48.12869816    29.32235788    56.69714783
C      46.95449360    27.52058702    56.49966013
C      45.68046736    28.10380938    57.15836630
O      45.83800241    29.10138831    57.89108520
O      44.61382935    27.47745495    56.93979251
O      46.98000884    26.33020818    56.25645403
C      46.60700347    27.07198835    53.38132166
H      46.45881175    26.13042471    52.84742174
C      47.82398905    27.44700028    53.78054858
H      48.68719282    26.81423909    53.59065772
C      48.06925213    28.70532252    54.57115288
C      46.93967031    29.68587816    54.37467248
H      47.15815250    30.72189850    54.63962038
C      45.71968908    29.31114076    53.97826526
H      44.91140014    30.04502455    53.89959778
C      45.36478702    27.88721553    53.62743129
H      44.80950692    27.45165568    54.48502130
O      44.53694170    27.89359336    52.48132639
H      43.93945569    27.08417071    52.46301100
C      49.47762785    29.29299479    54.20113511
O      50.44872436    28.48880630    54.21100621
O      49.54919190    30.51217159    53.94567571
