24
frame 45688 R, aligned onto 20000 on 8 atoms
C      47.86713828    28.19689397    56.81291656
H      48.81184866    27.91312800    56.34830039
H      47.85881890    29.01113408    57.53800747
C      46.70811747    27.60889647    56.49494377
C      45.39507896    27.97784219    57.16001890
O      45.33731558    29.08252337    57.76245469
O      44.45557458    27.15274670    57.07493680
O      46.61511036    26.58983521    55.57007738
C      46.55029342    26.96965778    54.14636899
H      46.34045718    26.01902804    53.63687724
C      47.89840555    27.49903085    53.79673513
H      48.70932708    26.77885168    53.72330314
C      48.15995909    28.81914877    53.80634910
C      47.04696138    29.76923099    53.94041572
H      47.31385129    30.82473123    54.02614804
C      45.76305441    29.36940154    53.99454806
H      44.95836376    30.10089065    54.10967252
C      45.36809831    27.91779839    53.84856185
H      44.57762489    27.67040782    54.57769399
O      44.90091011    27.71872042    52.52435486
H      44.19711316    26.99975136    52.49954872
C      49.59892142    29.32918388    53.78386395
O      50.51337584    28.51487965    54.09734721
O      49.76884405    30.53614102    53.48974874
