24
frame 45688 TS, aligned onto 20000 on 8 atoms
C      48.03586292    28.26036878    56.52814628
H      48.98076651    27.79699291    56.25490813
H      48.05780624    29.21761353    57.04992352
C      46.85939302    27.51783713    56.48498014
C      45.55331949    28.01915341    57.12344246
O      45.57158876    29.10421916    57.75614302
O      44.54915844    27.27337845    56.99986674
O      46.77922984    26.43181822    55.81838715
C      46.54413986    26.93207766    53.76476349
H      46.37108800    25.89609811    53.46815696
C      47.82346078    27.45504363    53.73205296
H      48.67449317    26.79953090    53.57658348
C      48.04986240    28.76371879    54.15732544
C      46.91111333    29.68849699    54.21792715
H      47.14269434    30.73546829    54.42188924
C      45.64987698    29.25838374    54.04532823
H      44.81065265    29.95824897    54.09243868
C      45.31593898    27.81549275    53.76963794
H      44.62637797    27.45075191    54.55165611
O      44.70946278    27.73392772    52.48784233
H      44.03260804    26.97917615    52.45706631
C      49.48026654    29.30583186    54.08616949
O      50.43281122    28.48502430    54.19104592
O      49.59720659    30.53523288    53.88847011
