24
frame 57397 P
C     41.226000    18.084000    48.286000
H     41.977000    17.280000    48.267000
H     41.697000    19.047000    48.054000
C     40.593000    18.074000    49.654000
C     40.111000    19.380000    50.350000
O     40.535000    20.470000    49.893000
O     39.347000    19.230000    51.325000
O     40.398000    17.010000    50.204000
C     38.109000    16.670000    48.169000
H     37.556000    15.781000    48.484000
C     39.313000    16.555000    47.604000
H     39.773000    15.579000    47.461000
C     40.130000    17.746000    47.185000
C     39.264000    18.965000    47.026000
H     39.696000    19.749000    46.398000
C     38.075000    19.094000    47.615000
H     37.518000    20.029000    47.522000
C     37.416000    17.990000    48.404000
H     37.476000    18.242000    49.483000
O     36.066000    17.909000    47.995000
H     35.446000    17.696000    48.769000
C     40.940000    17.456000    45.877000
O     41.340000    16.282000    45.685000
O     41.169000    18.429000    45.134000
