24
Coordinates from ORCA-job neb_NEB-CI_converged.QMRegion
  C          41.45860272218151     18.16065280073190     48.57869233561078
  H          41.88561818056616     17.22942390273170     48.21150287440803
  H          41.93738489920293     19.10298862781132     48.31089476651906
  C          40.50000276579565     18.13160404657661     49.58780691241148
  C          40.04125503531924     19.41920765452583     50.30336196903890
  O          40.51097835350335     20.52229198376345     49.91561122651192
  O          39.23255409667198     19.27458049849198     51.24970644255930
  O          39.88159220348391     17.05536255794095     49.88435490242545
  C          38.28058108967338     16.80856156567555     48.44016488063478
  H          37.83983278705709     15.96941819783213     48.98138584218469
  C          39.22285029819296     16.57512197449545     47.45543990718755
  H          39.65566171191417     15.58782352955025     47.32138264135950
  C          39.79994766273968     17.64913947517931     46.78435007969255
  C          39.16542281325829     18.96376381793898     46.85630109318416
  H          39.59610562408600     19.72639430920376     46.20318373670900
  C          38.12973356301266     19.19830645348363     47.67667013366608
  H          37.68269866900386     20.19228814770402     47.74402923354521
  C          37.51033676349574     18.10955944988444     48.51438812762334
  H          37.46511444106205     18.44473004380256     49.56401151727088
  O          36.20894056698894     17.85872148267741     47.99968380398815
  H          35.54633997366849     17.64633183425063     48.74524029952255
  C          40.81180306560160     17.37562678264210     45.67837831442816
  O          41.34010700819695     16.23567754641048     45.63594014721276
  O          41.02215329259396     18.30007539995491     44.86647838384159
