24
Coordinates from ORCA-job neb_MEP.QMRegion E -1075.675924706763
  C      45.331000     29.762000     68.304000
  H      45.885000     28.823000     68.346000
  H      45.713000     30.629000     68.839000
  C      44.202000     29.873000     67.595000
  C      43.427000     31.187000     67.518000
  O      43.958000     32.195000     68.032000
  O      42.300000     31.164000     66.953000
  O      43.677000     28.783000     66.933000
  C      44.098000     28.496000     65.547000
  H      43.767000     27.462000     65.393000
  C      45.590000     28.628000     65.465000
  H      46.216000     27.840000     65.889000
  C      46.159000     29.780000     65.055000
  C      45.325000     30.830000     64.461000
  H      45.830000     31.760000     64.193000
  C      44.019000     30.640000     64.213000
  H      43.442000     31.419000     63.713000
  C      43.289000     29.374000     64.562000
  H      42.384000     29.664000     65.114000
  O      42.940000     28.671000     63.380000
  H      41.971000     28.406000     63.425000
  C      47.649000     30.065000     65.228000
  O      48.380000     29.185000     65.741000
  O      48.029000     31.218000     64.863000
24
Coordinates from ORCA-job neb_MEP.QMRegion E -1075.675609269654
  C      45.494343     29.743812     68.012063
  H      46.089230     28.834377     67.930433
  H      45.949149     30.615061     68.473172
  C      44.263019     29.821779     67.489769
  C      43.460552     31.125688     67.504587
  O      43.997478     32.125394     68.031077
  O      42.312970     31.114901     66.981556
  O      43.700495     28.725998     66.870295
  C      44.087934     28.410099     65.455817
  H      43.730433     27.382195     65.319470
  C      45.573758     28.534880     65.336230
  H      46.212619     27.699832     65.633409
  C      46.116455     29.751498     65.103251
  C      45.256836     30.841244     64.628718
  H      45.730614     31.814709     64.501465
  C      43.970737     30.634324     64.298533
  H      43.388347     31.424760     63.825495
  C      43.260769     29.333594     64.532793
  H      42.363190     29.567219     65.123115
  O      42.893892     28.728935     63.307748
  H      41.923901     28.463413     63.351953
  C      47.595693     30.063167     65.320507
  O      48.321004     29.198487     65.868717
  O      47.973699     31.216592     64.954680
24
Coordinates from ORCA-job neb_MEP.QMRegion E -1075.666103051644
  C      45.548810     29.761420     67.884842
  H      46.133341     28.846092     67.815453
  H      46.063920     30.645514     68.244754
  C      44.268472     29.807454     67.469705
  C      43.468508     31.120710     67.496254
  O      44.010722     32.123966     68.012756
  O      42.314373     31.114170     66.986616
  O      43.696655     28.706501     66.886682
  C      44.118087     28.351640     65.380122
  H      43.755249     27.322114     65.264383
  C      45.582150     28.501144     65.302195
  H      46.231513     27.664054     65.567922
  C      46.096123     29.753284     65.190012
  C      45.233993     30.845051     64.728140
  H      45.694497     31.830140     64.650031
  C      43.972562     30.618438     64.324500
  H      43.398834     31.401634     63.829473
  C      43.272825     29.306292     64.510237
  H      42.400165     29.502958     65.147177
  O      42.862806     28.773105     63.267184
  H      41.893311     28.498626     63.325387
  C      47.572445     30.073229     65.408225
  O      48.304301     29.205169     65.942246
  O      47.947720     31.223032     65.030044
24
Coordinates from ORCA-job neb_MEP.QMRegion E -1075.655163423388
  C      45.578696     29.780474     67.831949
  H      46.137294     28.846954     67.810344
  H      46.102605     30.659481     68.186364
  C      44.255692     29.806141     67.497970
  C      43.468771     31.134234     67.502701
  O      44.012846     32.139674     68.012362
  O      42.316952     31.124944     66.988228
  O      43.668048     28.727369     67.011439
  C      44.162984     28.304431     65.244598
  H      43.765791     27.287546     65.224137
  C      45.575558     28.484798     65.283084
  H      46.230784     27.658976     65.566666
  C      46.076011     29.767220     65.255209
  C      45.226946     30.848887     64.754172
  H      45.688353     31.832927     64.671468
  C      43.975276     30.614200     64.324813
  H      43.404322     31.394086     63.821012
  C      43.282649     29.296976     64.492256
  H      42.425078     29.474839     65.155784
  O      42.844006     28.796498     63.243046
  H      41.878330     28.508478     63.316110
  C      47.563092     30.078013     65.441707
  O      48.301371     29.202038     65.950566
  O      47.938835     31.218976     65.039340
24
Coordinates from ORCA-job neb_MEP.QMRegion E -1075.652896032598
  C      45.610073     29.794760     67.768222
  H      46.139563     28.845285     67.809145
  H      46.126609     30.665943     68.149241
  C      44.242876     29.806784     67.518959
  C      43.466164     31.145562     67.505940
  O      44.014447     32.149862     68.011347
  O      42.317002     31.131328     66.989433
  O      43.642460     28.746405     67.139577
  C      44.200782     28.264932     65.122925
  H      43.775049     27.264787     65.185398
  C      45.563322     28.470578     65.273370
  H      46.225824     27.655000     65.569387
  C      46.056823     29.783860     65.322412
  C      45.222152     30.851990     64.771218
  H      45.684771     31.834624     64.680479
  C      43.978244     30.609909     64.322497
  H      43.408511     31.388802     63.814471
  C      43.291007     29.287916     64.477229
  H      42.442384     29.454291     65.157946
  O      42.828950     28.813261     63.223753
  H      41.868160     28.512863     63.309218
  C      47.555561     30.081812     65.464023
  O      48.299125     29.199192     65.952081
  O      47.932353     31.215190     65.041956
24
Coordinates from ORCA-job neb_MEP.QMRegion E -1075.654229611356
  C      45.637970     29.805605     67.685415
  H      46.141384     28.847118     67.800096
  H      46.138958     30.666736     68.110822
  C      44.238285     29.809549     67.519608
  C      43.463819     31.151147     67.507232
  O      44.016666     32.152319     68.012396
  O      42.314852     31.134254     66.994222
  O      43.632086     28.754042     67.208413
  C      44.218517     28.249423     65.075027
  H      43.784137     27.255079     65.159935
  C      45.555803     28.465137     65.279287
  H      46.221944     27.652533     65.575650
  C      46.042752     29.798397     65.396574
  C      45.218310     30.856158     64.794285
  H      45.684226     31.836076     64.689703
  C      43.983940     30.608204     64.325651
  H      43.418863     31.385024     63.807750
  C      43.295835     29.284647     64.474082
  H      42.449320     29.445197     65.159410
  O      42.824025     28.823949     63.217854
  H      41.866758     28.515560     63.308386
  C      47.552475     30.085361     65.482496
  O      48.301511     29.198833     65.954472
  O      47.928510     31.212323     65.043291
24
Coordinates from ORCA-job neb_MEP.QMRegion E -1075.658999282206
  C      45.668011     29.814595     67.577950
  H      46.139690     28.852389     67.787789
  H      46.144103     30.660999     68.068657
  C      44.233777     29.812105     67.511491
  C      43.459855     31.155108     67.507831
  O      44.018748     32.151539     68.013861
  O      42.311088     31.135570     66.999423
  O      43.623178     28.761423     67.269228
  C      44.233638     28.237442     65.037783
  H      43.793552     27.246173     65.132467
  C      45.548801     28.459938     65.287032
  H      46.217950     27.648379     65.580105
  C      46.027318     29.813904     65.490210
  C      45.212900     30.859682     64.821035
  H      45.682665     31.836216     64.698565
  C      43.990052     30.605823     64.329715
  H      43.429958     31.380037     63.800341
  C      43.299107     29.281349     64.472702
  H      42.453176     29.436783     65.160460
  O      42.819586     28.832991     63.213827
  H      41.865576     28.517676     63.307505
  C      47.549709     30.088209     65.498697
  O      48.304221     29.197982     65.954394
  O      47.924094     31.208484     65.042320
24
Coordinates from ORCA-job neb_MEP.QMRegion E -1075.670539248692
  C      45.698555     29.822343     67.443873
  H      46.134840     28.866479     67.764823
  H      46.145760     30.649730     68.007124
  C      44.230312     29.815766     67.493392
  C      43.455744     31.158539     67.508357
  O      44.021659     32.147989     68.017251
  O      42.305425     31.136207     67.007820
  O      43.615972     28.768525     67.335165
  C      44.250213     28.228117     65.004185
  H      43.807579     27.236916     65.094364
  C      45.543979     28.456630     65.300408
  H      46.214136     27.642553     65.585271
  C      46.012992     29.830735     65.608132
  C      45.205937     30.863426     64.861548
  H      45.679911     31.835119     64.711861
  C      43.998668     30.602579     64.339271
  H      43.446378     31.372393     63.792769
  C      43.303404     29.277882     64.472862
  H      42.457072     29.428166     65.162622
  O      42.815341     28.843216     63.211310
  H      41.864449     28.520792     63.307148
  C      47.547816     30.091489     65.516691
  O      48.308926     29.197249     65.953577
  O      47.919003     31.203449     65.039728
24
Coordinates from ORCA-job neb_MEP.QMRegion E -1075.691253842404
  C      45.722688     29.845397     67.288836
  H      46.143313     28.919910     67.709712
  H      46.182252     30.681909     67.820820
  C      44.236946     29.838424     67.510186
  C      43.447294     31.173358     67.517200
  O      44.018255     32.168091     68.008840
  O      42.287882     31.133595     67.043118
  O      43.635575     28.785050     67.603265
  C      44.299535     28.203959     64.905962
  H      43.874957     27.202405     64.895382
  C      45.552325     28.441978     65.310677
  H      46.220580     27.626643     65.598784
  C      46.006783     29.831940     65.693015
  C      45.205255     30.865564     64.921562
  H      45.665066     31.848525     64.811142
  C      44.024448     30.598552     64.348499
  H      43.484034     31.365741     63.786234
  C      43.336307     29.266797     64.447225
  H      42.521140     29.380938     65.183642
  O      42.793026     28.888711     63.192609
  H      41.845337     28.559282     63.304503
  C      47.547054     30.085200     65.538583
  O      48.313922     29.194496     65.974141
  O      47.912322     31.190111     65.043363
24
Coordinates from ORCA-job neb_MEP.QMRegion E -1075.697985971542
  C      45.738000     29.814000     67.238000
  H      46.203000     28.913000     67.662000
  H      46.181000     30.692000     67.712000
  C      44.260000     29.788000     67.536000
  C      43.459000     31.122000     67.492000
  O      44.027000     32.135000     67.953000
  O      42.294000     31.069000     67.035000
  O      43.691000     28.747000     67.809000
  C      44.404000     28.198000     64.694000
  H      44.069000     27.194000     64.448000
  C      45.610000     28.443000     65.211000
  H      46.317000     27.637000     65.422000
  C      46.013000     29.821000     65.682000
  C      45.208000     30.880000     64.964000
  H      45.640000     31.880000     64.947000
  C      44.051000     30.615000     64.351000
  H      43.526000     31.393000     63.792000
  C      43.387000     29.264000     64.387000
  H      42.634000     29.290000     65.198000
  O      42.752000     28.979000     63.156000
  H      41.813000     28.646000     63.300000
  C      47.547000     30.085000     65.517000
  O      48.319000     29.184000     65.920000
  O      47.902000     31.199000     65.037000
