24
Coordinates from ORCA-job neb_NEB-CI_converged.QMRegion
  C          45.61007280776547     29.79476020163064     67.76822174330928
  H          46.13956276274578     28.84528523567195     67.80914538579296
  H          46.12660910915319     30.66594276223169     68.14924114349657
  C          44.24287624580947     29.80678443984099     67.51895919221556
  C          43.46616363339377     31.14556242561940     67.50593963033920
  O          44.01444738242956     32.14986169863787     68.01134659444661
  O          42.31700184149187     31.13132837383841     66.98943337373815
  O          43.64246048911794     28.74640490779413     67.13957673723409
  C          44.20078155267795     28.26493189595212     65.12292543170008
  H          43.77504908067127     27.26478686930748     65.18539798321689
  C          45.56332155092046     28.47057755777938     65.27337032575871
  H          46.22582351066144     27.65500007726262     65.56938656898284
  C          46.05682313693265     29.78386003607138     65.32241213475308
  C          45.22215218139315     30.85198978128868     64.77121800060240
  H          45.68477062480329     31.83462378231843     64.68047910308779
  C          43.97824357599014     30.60990903702168     64.32249746153161
  H          43.40851124395023     31.38880170549851     63.81447139418932
  C          43.29100730017625     29.28791627788597     64.47722867498103
  H          42.44238445503343     29.45429117820139     65.15794575527831
  O          42.82894994456664     28.81326136683282     63.22375292686701
  H          41.86815966179612     28.51286290298463     63.30921829838851
  C          47.55556095625420     30.08181157316195     65.46402336966851
  O          48.29912506982323     29.19919221338972     65.95208079261739
  O          47.93235304076752     31.21519023339838     65.04195632158211
