24
Coordinates from ORCA-job neb_initial_path.QMRegion E   0.000000000000
  C      45.331000     29.762000     68.304000
  H      45.885000     28.823000     68.346000
  H      45.713000     30.629000     68.839000
  C      44.202000     29.873000     67.595000
  C      43.427000     31.187000     67.518000
  O      43.958000     32.195000     68.032000
  O      42.300000     31.164000     66.953000
  O      43.677000     28.783000     66.933000
  C      44.098000     28.496000     65.547000
  H      43.767000     27.462000     65.393000
  C      45.590000     28.628000     65.465000
  H      46.216000     27.840000     65.889000
  C      46.159000     29.780000     65.055000
  C      45.325000     30.830000     64.461000
  H      45.830000     31.760000     64.193000
  C      44.019000     30.640000     64.213000
  H      43.442000     31.419000     63.713000
  C      43.289000     29.374000     64.562000
  H      42.384000     29.664000     65.114000
  O      42.940000     28.671000     63.380000
  H      41.971000     28.406000     63.425000
  C      47.649000     30.065000     65.228000
  O      48.380000     29.185000     65.741000
  O      48.029000     31.218000     64.863000
24
Coordinates from ORCA-job neb_initial_path.QMRegion E   0.000000000000
  C      45.376222     29.767778     68.185556
  H      45.920333     28.833000     68.270000
  H      45.765000     30.636000     68.713778
  C      44.208444     29.863556     67.588444
  C      43.430556     31.179778     67.515111
  O      43.965667     32.188333     68.023222
  O      42.299333     31.153444     66.962111
  O      43.678556     28.779000     67.030333
  C      44.132000     28.462889     65.452222
  H      43.800556     27.432222     65.288000
  C      45.592222     28.607444     65.436778
  H      46.227222     27.817444     65.837111
  C      46.142778     29.784556     65.124667
  C      45.312000     30.835556     64.516889
  H      45.808889     31.773333     64.276778
  C      44.022556     30.637222     64.228333
  H      43.451333     31.416111     63.721778
  C      43.299889     29.361778     64.542556
  H      42.411778     29.622444     65.123333
  O      42.919111     28.705222     63.355111
  H      41.953444     28.432667     63.411111
  C      47.637667     30.067222     65.260111
  O      48.373222     29.184889     65.760889
  O      48.014889     31.215889     64.882333
24
Coordinates from ORCA-job neb_initial_path.QMRegion E   0.000000000000
  C      45.421444     29.773556     68.067111
  H      45.955667     28.843000     68.194000
  H      45.817000     30.643000     68.588556
  C      44.214889     29.854111     67.581889
  C      43.434111     31.172556     67.512222
  O      43.973333     32.181667     68.014444
  O      42.298667     31.142889     66.971222
  O      43.680111     28.775000     67.127667
  C      44.166000     28.429778     65.357444
  H      43.834111     27.402444     65.183000
  C      45.594444     28.586889     65.408556
  H      46.238444     27.794889     65.785222
  C      46.126556     29.789111     65.194333
  C      45.299000     30.841111     64.572778
  H      45.787778     31.786667     64.360556
  C      44.026111     30.634444     64.243667
  H      43.460667     31.413222     63.730556
  C      43.310778     29.349556     64.523111
  H      42.439556     29.580889     65.132667
  O      42.898222     28.739444     63.330222
  H      41.935889     28.459333     63.397222
  C      47.626333     30.069444     65.292222
  O      48.366444     29.184778     65.780778
  O      48.000778     31.213778     64.901667
24
Coordinates from ORCA-job neb_initial_path.QMRegion E   0.000000000000
  C      45.466667     29.779333     67.948667
  H      45.991000     28.853000     68.118000
  H      45.869000     30.650000     68.463333
  C      44.221333     29.844667     67.575333
  C      43.437667     31.165333     67.509333
  O      43.981000     32.175000     68.005667
  O      42.298000     31.132333     66.980333
  O      43.681667     28.771000     67.225000
  C      44.200000     28.396667     65.262667
  H      43.867667     27.372667     65.078000
  C      45.596667     28.566333     65.380333
  H      46.249667     27.772333     65.733333
  C      46.110333     29.793667     65.264000
  C      45.286000     30.846667     64.628667
  H      45.766667     31.800000     64.444333
  C      44.029667     30.631667     64.259000
  H      43.470000     31.410333     63.739333
  C      43.321667     29.337333     64.503667
  H      42.467333     29.539333     65.142000
  O      42.877333     28.773667     63.305333
  H      41.918333     28.486000     63.383333
  C      47.615000     30.071667     65.324333
  O      48.359667     29.184667     65.800667
  O      47.986667     31.211667     64.921000
24
Coordinates from ORCA-job neb_initial_path.QMRegion E   0.000000000000
  C      45.511889     29.785111     67.830222
  H      46.026333     28.863000     68.042000
  H      45.921000     30.657000     68.338111
  C      44.227778     29.835222     67.568778
  C      43.441222     31.158111     67.506444
  O      43.988667     32.168333     67.996889
  O      42.297333     31.121778     66.989444
  O      43.683222     28.767000     67.322333
  C      44.234000     28.363556     65.167889
  H      43.901222     27.342889     64.973000
  C      45.598889     28.545778     65.352111
  H      46.260889     27.749778     65.681444
  C      46.094111     29.798222     65.333667
  C      45.273000     30.852222     64.684556
  H      45.745556     31.813333     64.528111
  C      44.033222     30.628889     64.274333
  H      43.479333     31.407444     63.748111
  C      43.332556     29.325111     64.484222
  H      42.495111     29.497778     65.151333
  O      42.856444     28.807889     63.280444
  H      41.900778     28.512667     63.369444
  C      47.603667     30.073889     65.356444
  O      48.352889     29.184556     65.820556
  O      47.972556     31.209556     64.940333
24
Coordinates from ORCA-job neb_initial_path.QMRegion E   0.000000000000
  C      45.557111     29.790889     67.711778
  H      46.061667     28.873000     67.966000
  H      45.973000     30.664000     68.212889
  C      44.234222     29.825778     67.562222
  C      43.444778     31.150889     67.503556
  O      43.996333     32.161667     67.988111
  O      42.296667     31.111222     66.998556
  O      43.684778     28.763000     67.419667
  C      44.268000     28.330444     65.073111
  H      43.934778     27.313111     64.868000
  C      45.601111     28.525222     65.323889
  H      46.272111     27.727222     65.629556
  C      46.077889     29.802778     65.403333
  C      45.260000     30.857778     64.740444
  H      45.724444     31.826667     64.611889
  C      44.036778     30.626111     64.289667
  H      43.488667     31.404556     63.756889
  C      43.343444     29.312889     64.464778
  H      42.522889     29.456222     65.160667
  O      42.835556     28.842111     63.255556
  H      41.883222     28.539333     63.355556
  C      47.592333     30.076111     65.388556
  O      48.346111     29.184444     65.840444
  O      47.958444     31.207444     64.959667
24
Coordinates from ORCA-job neb_initial_path.QMRegion E   0.000000000000
  C      45.602333     29.796667     67.593333
  H      46.097000     28.883000     67.890000
  H      46.025000     30.671000     68.087667
  C      44.240667     29.816333     67.555667
  C      43.448333     31.143667     67.500667
  O      44.004000     32.155000     67.979333
  O      42.296000     31.100667     67.007667
  O      43.686333     28.759000     67.517000
  C      44.302000     28.297333     64.978333
  H      43.968333     27.283333     64.763000
  C      45.603333     28.504667     65.295667
  H      46.283333     27.704667     65.577667
  C      46.061667     29.807333     65.473000
  C      45.247000     30.863333     64.796333
  H      45.703333     31.840000     64.695667
  C      44.040333     30.623333     64.305000
  H      43.498000     31.401667     63.765667
  C      43.354333     29.300667     64.445333
  H      42.550667     29.414667     65.170000
  O      42.814667     28.876333     63.230667
  H      41.865667     28.566000     63.341667
  C      47.581000     30.078333     65.420667
  O      48.339333     29.184333     65.860333
  O      47.944333     31.205333     64.979000
24
Coordinates from ORCA-job neb_initial_path.QMRegion E   0.000000000000
  C      45.647556     29.802444     67.474889
  H      46.132333     28.893000     67.814000
  H      46.077000     30.678000     67.962444
  C      44.247111     29.806889     67.549111
  C      43.451889     31.136444     67.497778
  O      44.011667     32.148333     67.970556
  O      42.295333     31.090111     67.016778
  O      43.687889     28.755000     67.614333
  C      44.336000     28.264222     64.883556
  H      44.001889     27.253556     64.658000
  C      45.605556     28.484111     65.267444
  H      46.294556     27.682111     65.525778
  C      46.045444     29.811889     65.542667
  C      45.234000     30.868889     64.852222
  H      45.682222     31.853333     64.779444
  C      44.043889     30.620556     64.320333
  H      43.507333     31.398778     63.774444
  C      43.365222     29.288444     64.425889
  H      42.578444     29.373111     65.179333
  O      42.793778     28.910556     63.205778
  H      41.848111     28.592667     63.327778
  C      47.569667     30.080556     65.452778
  O      48.332556     29.184222     65.880222
  O      47.930222     31.203222     64.998333
24
Coordinates from ORCA-job neb_initial_path.QMRegion E   0.000000000000
  C      45.692778     29.808222     67.356444
  H      46.167667     28.903000     67.738000
  H      46.129000     30.685000     67.837222
  C      44.253556     29.797444     67.542556
  C      43.455444     31.129222     67.494889
  O      44.019333     32.141667     67.961778
  O      42.294667     31.079556     67.025889
  O      43.689444     28.751000     67.711667
  C      44.370000     28.231111     64.788778
  H      44.035444     27.223778     64.553000
  C      45.607778     28.463556     65.239222
  H      46.305778     27.659556     65.473889
  C      46.029222     29.816444     65.612333
  C      45.221000     30.874444     64.908111
  H      45.661111     31.866667     64.863222
  C      44.047444     30.617778     64.335667
  H      43.516667     31.395889     63.783222
  C      43.376111     29.276222     64.406444
  H      42.606222     29.331556     65.188667
  O      42.772889     28.944778     63.180889
  H      41.830556     28.619333     63.313889
  C      47.558333     30.082778     65.484889
  O      48.325778     29.184111     65.900111
  O      47.916111     31.201111     65.017667
24
Coordinates from ORCA-job neb_initial_path.QMRegion E   0.000000000000
  C      45.738000     29.814000     67.238000
  H      46.203000     28.913000     67.662000
  H      46.181000     30.692000     67.712000
  C      44.260000     29.788000     67.536000
  C      43.459000     31.122000     67.492000
  O      44.027000     32.135000     67.953000
  O      42.294000     31.069000     67.035000
  O      43.691000     28.747000     67.809000
  C      44.404000     28.198000     64.694000
  H      44.069000     27.194000     64.448000
  C      45.610000     28.443000     65.211000
  H      46.317000     27.637000     65.422000
  C      46.013000     29.821000     65.682000
  C      45.208000     30.880000     64.964000
  H      45.640000     31.880000     64.947000
  C      44.051000     30.615000     64.351000
  H      43.526000     31.393000     63.792000
  C      43.387000     29.264000     64.387000
  H      42.634000     29.290000     65.198000
  O      42.752000     28.979000     63.156000
  H      41.813000     28.646000     63.300000
  C      47.547000     30.085000     65.517000
  O      48.319000     29.184000     65.920000
  O      47.902000     31.199000     65.037000
