28
-2 1 None
C       49.97821958    43.52222259    63.37791474
H       50.14744191    44.47900757    63.88245114
H       48.96831703    43.27320375    63.04311632
C       50.96894388    42.64690990    63.14524569
C       50.73473860    41.34612629    62.35321756
O       49.58221265    40.87422552    62.34923206
O       51.74788013    40.88865209    61.74711909
O       52.25846103    42.82905361    63.57860581
C       53.07169586    43.86849115    63.01871679
H       54.08903704    43.61534779    63.37920790
C       52.73733357    45.25592140    63.50025457
H       52.27944950    45.38261346    64.48423903
C       53.12083308    46.34394549    62.80197950
C       53.81699049    46.15345030    61.51765951
H       54.26745047    47.04353858    61.07346007
C       53.86240640    44.95080888    60.91603711
H       54.34842027    44.80171440    59.94611701
C       53.12800394    43.76417853    61.49113378
H       52.07624159    43.82930250    61.12222705
O       53.70382218    42.54892100    61.08802113
H       53.04268035    41.84971467    61.36157298
C       52.88579967    47.77143564    63.33475190
O       52.30056230    47.87514962    64.43964339
O       53.30757477    48.70383339    62.60344126
C       63.00440000    29.11630000    52.22560000
O       64.18822500    29.17807600    51.82906300
O       62.29311600    28.08891700    52.25815900
H       62.54642100    30.05215000    52.57836100
