28
-2 1 None
C       51.57652276    42.81930982    62.44379937
H       51.71156031    42.92319666    63.53287172
H       50.66641077    43.33802428    62.12203103
C       51.46278317    41.34697447    62.10455714
C       50.43308385    40.93340290    60.98330273
O       49.71791458    41.86742912    60.54234875
O       50.43504358    39.72766696    60.66669817
O       52.15165012    40.51535637    62.66829061
C       55.05246584    42.41378739    61.51662547
H       55.98264328    42.05318966    61.97438370
C       54.08679307    42.95537724    62.27155717
H       54.22277794    43.04171724    63.35223088
C       52.79588450    43.49967746    61.74024690
C       52.69299467    43.32774058    60.25274194
H       51.76082465    43.67609988    59.80730790
C       53.64805312    42.77893760    59.48842925
H       53.50735154    42.69197865    58.40504780
C       54.96574744    42.28757527    60.02012479
H       55.11756943    41.22887422    59.72658302
O       56.06883350    42.96756142    59.38134256
H       55.94527039    43.90802052    59.57503475
C       52.65661020    45.05368622    62.11960704
O       53.32957256    45.43993223    63.09905528
O       51.85649331    45.71099883    61.42165250
C       63.00440000    29.11630000    52.22560000
O       64.18260400    29.20765600    51.81818100
O       62.31553900    28.07362700    52.25392700
H       62.53013800    30.03830100    52.59300900
