38
-2 1 None
C       53.73312661    32.60344570    57.73800195
H       53.27518705    32.21878147    56.82520754
H       53.83225750    33.68129049    57.87748012
C       54.15266392    31.82829145    58.74584445
C       54.71753836    32.42777739    60.02124493
O       55.04844711    33.64650677    60.02618121
O       54.88131005    31.63172894    60.99157481
O       54.01613891    30.46706390    58.76740433
C       55.13267605    29.61272345    58.48631352
H       54.95059924    28.71665387    59.10899732
C       56.54163165    30.08943391    58.74901579
H       56.79808144    30.84893073    59.51481223
C       57.58943699    29.44728185    58.19138197
C       57.35878286    28.39563674    57.19263746
H       58.21826020    27.79848408    56.88643917
C       56.14226697    28.24636088    56.64170032
H       55.95348673    27.52413719    55.84209842
C       55.02141161    29.17501141    57.01928877
H       55.13217046    30.09738179    56.39953367
O       53.77399202    28.56564973    56.78767137
H       53.10252181    29.19541500    57.09284786
C       59.04200415    29.70354465    58.62014398
O       59.28060946    30.75642382    59.32011888
O       59.88241136    28.87651392    58.28546064
C       57.49940000    32.31300000    60.99950000
N       57.64997700    32.69822000    59.73544600
H       57.33946000    33.36072200    60.43170000
H       57.84614600    31.74318200    59.99911300
N       57.09050100    33.18540400    61.91634900
H       57.28667000    32.23036600    62.18001600
H       57.20484900    33.47794000    60.95642800
N       57.75772100    31.05537600    61.34670500
H       57.87207000    31.34791100    60.38678400
H       57.44720400    31.71787800    62.04295900
C       63.00440000    29.11630000    52.22560000
O       64.18822500    29.17807600    51.82906300
O       62.29311600    28.08891700    52.25815900
H       62.54642100    30.05215000    52.57836100
