38
-2 1 None
C       60.31742238    34.88997445    62.99172344
H       60.48591637    35.18493512    64.03626899
H       61.09229699    35.32701601    62.34767106
C       58.96480775    35.41706185    62.54968674
C       58.77140461    35.71177353    61.03501219
O       59.61013551    36.46521947    60.54361878
O       57.74290905    35.21533917    60.45502758
O       58.07141441    35.65900348    63.33877975
C       61.04024321    32.49779756    60.59852403
H       60.72977477    32.18592549    59.59790898
C       60.16538399    32.84637306    61.53501983
H       59.05412019    32.75948570    61.34853049
C       60.44534141    33.32455150    62.92019245
C       61.89144434    32.99198205    63.24627126
H       62.15229481    33.12639272    64.29730454
C       62.80587731    32.61996553    62.34637792
H       63.83704552    32.42605254    62.65375324
C       62.52964717    32.44140376    60.87811193
H       63.02781447    33.25658852    60.31542732
O       63.02841799    31.18158332    60.46264663
H       63.33519616    31.24661914    59.54587405
C       59.52226996    32.69450551    64.05176908
O       58.52821031    31.96871949    63.70993563
O       59.85103920    32.95558162    65.20660297
C       63.00440000    29.11630000    52.22560000
O       64.18260400    29.20765600    51.81818100
O       62.31553900    28.07362700    52.25392700
H       62.53013800    30.03830100    52.59300900
C       57.49940000    32.31300000    60.99950000
N       57.64997700    32.69822000    59.73544600
H       57.33946000    33.36072200    60.43170000
H       57.84614600    31.74318200    59.99911300
N       57.09050100    33.18540400    61.91634900
H       57.28667000    32.23036600    62.18001600
H       57.20484900    33.47794000    60.95642800
N       57.75772100    31.05537600    61.34670500
H       57.87207000    31.34791100    60.38678400
H       57.44720400    31.71787800    62.04295900
