42
-2 1 None
C       54.23377455    35.77926236    58.33761196
H       53.40334457    36.00733900    57.66457684
H       55.25396234    35.82786734    57.95697957
C       54.01099165    35.46251649    59.61901710
C       55.13815262    35.19571455    60.61391239
O       56.27426422    34.88423845    60.11058667
O       54.88465972    35.30195755    61.82216703
O       52.72765684    35.47895363    60.12680143
C       52.04648115    34.22061436    60.29933955
H       51.24357944    34.43873030    61.02050471
C       52.96670747    33.17260230    60.85541759
H       53.29428021    33.27686115    61.88766429
C       53.53238210    32.23771071    60.06349759
C       53.16992273    32.14733074    58.64464589
H       53.75022423    31.46235731    58.02422342
C       52.17774485    32.89242304    58.12767829
H       51.91785486    32.82491238    57.06597315
C       51.33808528    33.78230663    59.00651213
H       51.05978692    34.70434911    58.46269194
O       50.15884986    33.08595298    59.42998565
H       49.87980908    32.51678524    58.69806991
C       54.70234552    31.42532292    60.57903719
O       54.93191296    31.41040394    61.82355678
O       55.45185628    30.90166743    59.70795634
C       62.71590000    31.47760000    50.09950000
O       63.10478500    32.46312300    49.43616600
O       62.70629800    30.28903800    49.71255400
H       62.34830400    31.67438200    51.11741500
C       63.00440000    29.11630000    52.22560000
O       64.18822500    29.17807600    51.82906300
O       62.29311600    28.08891700    52.25815900
H       62.54642100    30.05215000    52.57836100
C       57.49940000    32.31300000    60.99950000
N       57.64997700    32.69822000    59.73544600
H       57.33946000    33.36072200    60.43170000
H       57.84614600    31.74318200    59.99911300
N       57.09050100    33.18540400    61.91634900
H       57.28667000    32.23036600    62.18001600
H       57.20484900    33.47794000    60.95642800
N       57.75772100    31.05537600    61.34670500
H       57.87207000    31.34791100    60.38678400
H       57.44720400    31.71787800    62.04295900
