42
-2 1 None
C       60.24677276    34.94830977    62.99297832
H       60.42229211    35.25577996    64.03303447
H       61.00587738    35.39623420    62.33679271
C       58.87889167    35.45229212    62.57082391
C       58.66017827    35.78180869    61.07023498
O       59.42541444    36.63703660    60.62813681
O       57.68618115    35.22368955    60.45582600
O       57.99195544    35.67148568    63.37649586
C       61.03987444    32.52811870    60.63494085
H       60.74589064    32.19385898    59.63632024
C       60.15222123    32.88558452    61.55506537
H       59.04375629    32.78595264    61.35768330
C       60.40751587    33.38671112    62.93765550
C       61.85788081    33.09197728    63.28170057
H       62.10590237    33.25463307    64.33259078
C       62.78705877    32.71781698    62.39774114
H       63.82177976    32.56009633    62.71704129
C       62.52709697    32.49727488    60.93253981
H       63.01876451    33.30347969    60.35237205
O       63.04712120    31.23448799    60.56078417
H       63.32404209    31.26325306    59.63125514
C       59.48553552    32.74646250    64.06427627
O       58.52598006    31.97829315    63.71697020
O       59.77955994    33.04240538    65.22212973
C       62.71590000    31.47760000    50.09950000
O       63.18124900    32.41538300    49.41648100
O       62.66360200    30.27606300    49.75880300
H       62.31557800    31.73322600    51.09166800
C       63.00440000    29.11630000    52.22560000
O       64.18260400    29.20765600    51.81818100
O       62.31553900    28.07362700    52.25392700
H       62.53013800    30.03830100    52.59300900
C       57.49940000    32.31300000    60.99950000
N       57.64997700    32.69822000    59.73544600
H       57.33946000    33.36072200    60.43170000
H       57.84614600    31.74318200    59.99911300
N       57.09050100    33.18540400    61.91634900
H       57.28667000    32.23036600    62.18001600
H       57.20484900    33.47794000    60.95642800
N       57.75772100    31.05537600    61.34670500
H       57.87207000    31.34791100    60.38678400
H       57.44720400    31.71787800    62.04295900
