40
-2 1 None
C       53.51706369    31.81472213    64.77506551
H       52.59393136    32.18388739    65.22337399
H       54.28617424    31.38787933    65.41679173
C       53.70090936    31.88345109    63.45094280
C       54.97470191    31.41729548    62.76184511
O       56.01588195    31.28422079    63.47143838
O       54.92834438    31.26426626    61.51498432
O       52.70497646    32.35529219    62.62624855
C       52.80651260    33.70600294    62.11837895
H       52.04086451    33.73234428    61.31865488
C       54.12243018    34.13333044    61.51955391
H       54.78762558    33.37802243    61.11437956
C       54.42497053    35.44161756    61.39301597
C       53.48915004    36.45391246    61.90941048
H       53.66111323    37.49050779    61.61449214
C       52.49340357    36.10214449    62.74119614
H       51.80460787    36.83334082    63.17358569
C       52.37040193    34.67721571    63.21282015
H       53.08228313    34.55030840    64.06234594
O       51.05255190    34.39523589    63.64028698
H       50.99534975    33.42891265    63.70803420
C       55.72410676    35.91420678    60.72932046
O       56.49604870    35.02762720    60.22946313
O       55.93358513    37.13439342    60.72938113
C       62.71590000    31.47760000    50.09950000
O       63.10478500    32.46312300    49.43616600
O       62.70629800    30.28903800    49.71255400
H       62.34830400    31.67438200    51.11741500
He      64.30860000    30.09970000    52.53550000
He      62.38720000    28.69680000    53.61720000
C       57.49940000    32.31300000    60.99950000
N       57.64997700    32.69822000    59.73544600
H       57.33946000    33.36072200    60.43170000
H       57.84614600    31.74318200    59.99911300
N       57.09050100    33.18540400    61.91634900
H       57.28667000    32.23036600    62.18001600
H       57.20484900    33.47794000    60.95642800
N       57.75772100    31.05537600    61.34670500
H       57.87207000    31.34791100    60.38678400
H       57.44720400    31.71787800    62.04295900
