40
-2 1 None
C       54.86065910    36.66637203    60.25600712
H       55.59569450    37.45436088    60.48798566
H       53.93421456    36.79286297    60.82773670
C       55.42660455    35.30033136    60.32837125
C       54.43745700    34.12731520    60.55181172
O       53.28813788    34.40398038    60.94862113
O       54.90156054    32.94988078    60.38345426
O       56.68727280    35.09631592    60.26953760
C       55.45315415    36.58460314    56.47300632
H       56.29173796    36.69371826    55.77997571
C       55.66213953    36.64331336    57.81796354
H       56.68256626    36.79277472    58.18887232
C       54.61384055    36.45674487    58.78178272
C       53.32463674    36.10927239    58.25616746
H       52.53496334    35.85932489    58.97065375
C       53.07518084    36.03479283    56.91649590
H       52.07830759    35.74453920    56.56244919
C       54.07975642    36.45497254    55.88186792
H       54.08933507    35.75272223    55.02436677
O       53.66955740    37.70826606    55.23962393
H       53.83630700    38.39332813    55.90429811
C       63.78363365    30.38264386    55.12848712
O       64.58450327    29.60972332    55.48516281
O       63.03532307    31.27978346    55.08410584
C       62.71590000    31.47760000    50.09950000
O       63.18124900    32.41538300    49.41648100
O       62.66360200    30.27606300    49.75880300
H       62.31557800    31.73322600    51.09166800
He      64.30860000    30.09970000    52.53550000
He      62.38720000    28.69680000    53.61720000
C       57.49940000    32.31300000    60.99950000
N       57.64997700    32.69822000    59.73544600
H       57.33946000    33.36072200    60.43170000
H       57.84614600    31.74318200    59.99911300
N       57.09050100    33.18540400    61.91634900
H       57.28667000    32.23036600    62.18001600
H       57.20484900    33.47794000    60.95642800
N       57.75772100    31.05537600    61.34670500
H       57.87207000    31.34791100    60.38678400
H       57.44720400    31.71787800    62.04295900
