24
Coordinates from ORCA-job neb_NEB-CI_converged.QMRegion
  C          46.41347974378365     23.69940397256606     65.82579757859364
  H          46.77380977762205     22.68140413428514     65.95694191568856
  H          47.10794784877261     24.52567350475785     65.97929023730163
  C          45.05293418652735     23.97518209956271     65.74702115489869
  C          44.55646135045586     25.43522351180741     65.74180522563978
  O          45.34425404246887     26.32139103891131     66.13512108826181
  O          43.36733211747099     25.62021259178233     65.35907891899247
  O          44.18426873028712     23.05637096937127     65.55176316075131
  C          44.17403034364188     22.50474533503557     63.49696571969583
  H          43.35474068723295     21.79432726511131     63.62453082215331
  C          45.48708925415116     22.07344470853637     63.57953253981903
  H          45.73171576262989     21.08083109766271     63.95720059374712
  C          46.52943348382811     22.98705707126468     63.43869843340048
  C          46.24566553024907     24.30017813508746     62.85547845887426
  H          47.09753123045575     24.95697343578322     62.67415210239456
  C          44.99043618310652     24.67937847605513     62.56178354035163
  H          44.79915175814225     25.66203385374946     62.12222388147391
  C          43.79579365840524     23.79431287512754     62.79815399654770
  H          43.09416757836492     24.33845886528495     63.44953267193959
  O          43.18900244974239     23.46513904305986     61.55237965887742
  H          42.23536391545087     23.78089060165924     61.52644806328014
  C          47.96078190866388     22.45113457058920     63.44645759974099
  O          48.20460744849787     21.41602101437229     64.11622842840417
  O          48.78448128350913     23.06935984113857     62.72713047172945
