24
Coordinates from ORCA-job neb_initial_path.QMRegion E   0.000000000000
  C      46.198000     24.002000     66.118000
  H      46.675000     23.022000     66.103000
  H      46.771000     24.870000     66.447000
  C      44.932000     24.190000     65.729000
  C      44.275000     25.564000     65.757000
  O      45.023000     26.562000     65.903000
  O      43.029000     25.613000     65.633000
  O      44.127000     23.152000     65.297000
  C      44.254000     22.750000     63.890000
  H      43.472000     21.987000     63.763000
  C      45.621000     22.170000     63.707000
  H      45.843000     21.201000     64.160000
  C      46.627000     22.887000     63.170000
  C      46.355000     24.226000     62.635000
  H      47.217000     24.825000     62.338000
  C      45.109000     24.730000     62.564000
  H      44.947000     25.745000     62.192000
  C      43.896000     23.909000     62.927000
  H      43.169000     24.539000     63.463000
  O      43.320000     23.381000     61.739000
  H      42.369000     23.686000     61.649000
  C      48.059000     22.359000     63.196000
  O      48.323000     21.412000     63.983000
  O      48.889000     22.928000     62.439000
24
Coordinates from ORCA-job neb_initial_path.QMRegion E   0.000000000000
  C      46.235889     23.959111     66.037444
  H      46.700000     22.993000     66.089778
  H      46.819667     24.826444     66.343889
  C      44.954667     24.162778     65.741889
  C      44.312111     25.545889     65.761333
  O      45.065000     26.531556     65.932444
  O      43.072222     25.606000     65.609444
  O      44.156778     23.140667     65.398111
  C      44.252222     22.716222     63.805778
  H      43.470667     21.953222     63.682778
  C      45.599444     22.167889     63.702333
  H      45.821556     21.195444     64.146667
  C      46.614556     22.918778     63.248111
  C      46.344889     24.245889     62.680333
  H      47.205000     24.853778     62.402778
  C      45.104667     24.727222     62.559222
  H      44.945000     25.733444     62.167444
  C      43.891778     23.898667     62.894222
  H      43.168444     24.509889     63.451667
  O      43.310222     23.417778     61.697333
  H      42.356333     23.712889     61.623556
  C      48.042333     22.375222     63.238000
  O      48.304778     21.413778     64.003778
  O      48.865333     22.946000     62.476222
24
Coordinates from ORCA-job neb_initial_path.QMRegion E   0.000000000000
  C      46.273778     23.916222     65.956889
  H      46.725000     22.964000     66.076556
  H      46.868333     24.782889     66.240778
  C      44.977333     24.135556     65.754778
  C      44.349222     25.527778     65.765667
  O      45.107000     26.501111     65.961889
  O      43.115444     25.599000     65.585889
  O      44.186556     23.129333     65.499222
  C      44.250444     22.682444     63.721556
  H      43.469333     21.919444     63.602556
  C      45.577889     22.165778     63.697667
  H      45.800111     21.189889     64.133333
  C      46.602111     22.950556     63.326222
  C      46.334778     24.265778     62.725667
  H      47.193000     24.882556     62.467556
  C      45.100333     24.724444     62.554444
  H      44.943000     25.721889     62.142889
  C      43.887556     23.888333     62.861444
  H      43.167889     24.480778     63.440333
  O      43.300444     23.454556     61.655667
  H      42.343667     23.739778     61.598111
  C      48.025667     22.391444     63.280000
  O      48.286556     21.415556     64.024556
  O      48.841667     22.964000     62.513444
24
Coordinates from ORCA-job neb_initial_path.QMRegion E   0.000000000000
  C      46.311667     23.873333     65.876333
  H      46.750000     22.935000     66.063333
  H      46.917000     24.739333     66.137667
  C      45.000000     24.108333     65.767667
  C      44.386333     25.509667     65.770000
  O      45.149000     26.470667     65.991333
  O      43.158667     25.592000     65.562333
  O      44.216333     23.118000     65.600333
  C      44.248667     22.648667     63.637333
  H      43.468000     21.885667     63.522333
  C      45.556333     22.163667     63.693000
  H      45.778667     21.184333     64.120000
  C      46.589667     22.982333     63.404333
  C      46.324667     24.285667     62.771000
  H      47.181000     24.911333     62.532333
  C      45.096000     24.721667     62.549667
  H      44.941000     25.710333     62.118333
  C      43.883333     23.878000     62.828667
  H      43.167333     24.451667     63.429000
  O      43.290667     23.491333     61.614000
  H      42.331000     23.766667     61.572667
  C      48.009000     22.407667     63.322000
  O      48.268333     21.417333     64.045333
  O      48.818000     22.982000     62.550667
24
Coordinates from ORCA-job neb_initial_path.QMRegion E   0.000000000000
  C      46.349556     23.830444     65.795778
  H      46.775000     22.906000     66.050111
  H      46.965667     24.695778     66.034556
  C      45.022667     24.081111     65.780556
  C      44.423444     25.491556     65.774333
  O      45.191000     26.440222     66.020778
  O      43.201889     25.585000     65.538778
  O      44.246111     23.106667     65.701444
  C      44.246889     22.614889     63.553111
  H      43.466667     21.851889     63.442111
  C      45.534778     22.161556     63.688333
  H      45.757222     21.178778     64.106667
  C      46.577222     23.014111     63.482444
  C      46.314556     24.305556     62.816333
  H      47.169000     24.940111     62.597111
  C      45.091667     24.718889     62.544889
  H      44.939000     25.698778     62.093778
  C      43.879111     23.867667     62.795889
  H      43.166778     24.422556     63.417667
  O      43.280889     23.528111     61.572333
  H      42.318333     23.793556     61.547222
  C      47.992333     22.423889     63.364000
  O      48.250111     21.419111     64.066111
  O      48.794333     23.000000     62.587889
24
Coordinates from ORCA-job neb_initial_path.QMRegion E   0.000000000000
  C      46.387444     23.787556     65.715222
  H      46.800000     22.877000     66.036889
  H      47.014333     24.652222     65.931444
  C      45.045333     24.053889     65.793444
  C      44.460556     25.473444     65.778667
  O      45.233000     26.409778     66.050222
  O      43.245111     25.578000     65.515222
  O      44.275889     23.095333     65.802556
  C      44.245111     22.581111     63.468889
  H      43.465333     21.818111     63.361889
  C      45.513222     22.159444     63.683667
  H      45.735778     21.173222     64.093333
  C      46.564778     23.045889     63.560556
  C      46.304444     24.325444     62.861667
  H      47.157000     24.968889     62.661889
  C      45.087333     24.716111     62.540111
  H      44.937000     25.687222     62.069222
  C      43.874889     23.857333     62.763111
  H      43.166222     24.393444     63.406333
  O      43.271111     23.564889     61.530667
  H      42.305667     23.820444     61.521778
  C      47.975667     22.440111     63.406000
  O      48.231889     21.420889     64.086889
  O      48.770667     23.018000     62.625111
24
Coordinates from ORCA-job neb_initial_path.QMRegion E   0.000000000000
  C      46.425333     23.744667     65.634667
  H      46.825000     22.848000     66.023667
  H      47.063000     24.608667     65.828333
  C      45.068000     24.026667     65.806333
  C      44.497667     25.455333     65.783000
  O      45.275000     26.379333     66.079667
  O      43.288333     25.571000     65.491667
  O      44.305667     23.084000     65.903667
  C      44.243333     22.547333     63.384667
  H      43.464000     21.784333     63.281667
  C      45.491667     22.157333     63.679000
  H      45.714333     21.167667     64.080000
  C      46.552333     23.077667     63.638667
  C      46.294333     24.345333     62.907000
  H      47.145000     24.997667     62.726667
  C      45.083000     24.713333     62.535333
  H      44.935000     25.675667     62.044667
  C      43.870667     23.847000     62.730333
  H      43.165667     24.364333     63.395000
  O      43.261333     23.601667     61.489000
  H      42.293000     23.847333     61.496333
  C      47.959000     22.456333     63.448000
  O      48.213667     21.422667     64.107667
  O      48.747000     23.036000     62.662333
24
Coordinates from ORCA-job neb_initial_path.QMRegion E   0.000000000000
  C      46.463222     23.701778     65.554111
  H      46.850000     22.819000     66.010444
  H      47.111667     24.565111     65.725222
  C      45.090667     23.999444     65.819222
  C      44.534778     25.437222     65.787333
  O      45.317000     26.348889     66.109111
  O      43.331556     25.564000     65.468111
  O      44.335444     23.072667     66.004778
  C      44.241556     22.513556     63.300444
  H      43.462667     21.750556     63.201444
  C      45.470111     22.155222     63.674333
  H      45.692889     21.162111     64.066667
  C      46.539889     23.109444     63.716778
  C      46.284222     24.365222     62.952333
  H      47.133000     25.026444     62.791444
  C      45.078667     24.710556     62.530556
  H      44.933000     25.664111     62.020111
  C      43.866444     23.836667     62.697556
  H      43.165111     24.335222     63.383667
  O      43.251556     23.638444     61.447333
  H      42.280333     23.874222     61.470889
  C      47.942333     22.472556     63.490000
  O      48.195444     21.424444     64.128444
  O      48.723333     23.054000     62.699556
24
Coordinates from ORCA-job neb_initial_path.QMRegion E   0.000000000000
  C      46.501111     23.658889     65.473556
  H      46.875000     22.790000     65.997222
  H      47.160333     24.521556     65.622111
  C      45.113333     23.972222     65.832111
  C      44.571889     25.419111     65.791667
  O      45.359000     26.318444     66.138556
  O      43.374778     25.557000     65.444556
  O      44.365222     23.061333     66.105889
  C      44.239778     22.479778     63.216222
  H      43.461333     21.716778     63.121222
  C      45.448556     22.153111     63.669667
  H      45.671444     21.156556     64.053333
  C      46.527444     23.141222     63.794889
  C      46.274111     24.385111     62.997667
  H      47.121000     25.055222     62.856222
  C      45.074333     24.707778     62.525778
  H      44.931000     25.652556     61.995556
  C      43.862222     23.826333     62.664778
  H      43.164556     24.306111     63.372333
  O      43.241778     23.675222     61.405667
  H      42.267667     23.901111     61.445444
  C      47.925667     22.488778     63.532000
  O      48.177222     21.426222     64.149222
  O      48.699667     23.072000     62.736778
24
Coordinates from ORCA-job neb_initial_path.QMRegion E   0.000000000000
  C      46.539000     23.616000     65.393000
  H      46.900000     22.761000     65.984000
  H      47.209000     24.478000     65.519000
  C      45.136000     23.945000     65.845000
  C      44.609000     25.401000     65.796000
  O      45.401000     26.288000     66.168000
  O      43.418000     25.550000     65.421000
  O      44.395000     23.050000     66.207000
  C      44.238000     22.446000     63.132000
  H      43.460000     21.683000     63.041000
  C      45.427000     22.151000     63.665000
  H      45.650000     21.151000     64.040000
  C      46.515000     23.173000     63.873000
  C      46.264000     24.405000     63.043000
  H      47.109000     25.084000     62.921000
  C      45.070000     24.705000     62.521000
  H      44.929000     25.641000     61.971000
  C      43.858000     23.816000     62.632000
  H      43.164000     24.277000     63.361000
  O      43.232000     23.712000     61.364000
  H      42.255000     23.928000     61.420000
  C      47.909000     22.505000     63.574000
  O      48.159000     21.428000     64.170000
  O      48.676000     23.090000     62.774000
