24
Coordinates from ORCA-job neb_MEP.QMRegion E -1075.166331619851
  C      46.198000     24.002000     66.118000
  H      46.675000     23.022000     66.103000
  H      46.771000     24.870000     66.447000
  C      44.932000     24.190000     65.729000
  C      44.275000     25.564000     65.757000
  O      45.023000     26.562000     65.903000
  O      43.029000     25.613000     65.633000
  O      44.127000     23.152000     65.297000
  C      44.254000     22.750000     63.890000
  H      43.472000     21.987000     63.763000
  C      45.621000     22.170000     63.707000
  H      45.843000     21.201000     64.160000
  C      46.627000     22.887000     63.170000
  C      46.355000     24.226000     62.635000
  H      47.217000     24.825000     62.338000
  C      45.109000     24.730000     62.564000
  H      44.947000     25.745000     62.192000
  C      43.896000     23.909000     62.927000
  H      43.169000     24.539000     63.463000
  O      43.320000     23.381000     61.739000
  H      42.369000     23.686000     61.649000
  C      48.059000     22.359000     63.196000
  O      48.323000     21.412000     63.983000
  O      48.889000     22.928000     62.439000
24
Coordinates from ORCA-job neb_MEP.QMRegion E -1075.175708512838
  C      46.224839     23.935881     66.150961
  H      46.680095     22.945320     66.151509
  H      46.802419     24.790822     66.503673
  C      44.976720     24.161015     65.723858
  C      44.367703     25.558727     65.745601
  O      45.120458     26.508900     66.053926
  O      43.147894     25.660672     65.449592
  O      44.155660     23.151470     65.260089
  C      44.292903     22.750009     63.854251
  H      43.514578     21.984174     63.721676
  C      45.660535     22.173120     63.685965
  H      45.883898     21.206844     64.143851
  C      46.666799     22.893705     63.155146
  C      46.396511     24.227225     62.605816
  H      47.256382     24.820646     62.292837
  C      45.150648     24.726237     62.523044
  H      44.985627     25.730330     62.121043
  C      43.938527     23.906270     62.888053
  H      43.212680     24.535780     63.424979
  O      43.368306     23.384781     61.693905
  H      42.412014     23.677231     61.613185
  C      48.092738     22.358419     63.173679
  O      48.361555     21.423847     63.972644
  O      48.911609     22.902925     62.388136
24
Coordinates from ORCA-job neb_MEP.QMRegion E -1075.166176300208
  C      46.351328     23.707329     65.926683
  H      46.757657     22.696571     65.918532
  H      47.043913     24.533941     66.097087
  C      45.058171     23.990118     65.675593
  C      44.545570     25.429901     65.730295
  O      45.330043     26.314559     66.134465
  O      43.351165     25.620105     65.363151
  O      44.150701     23.038031     65.267715
  C      44.168133     22.617171     63.749377
  H      43.372625     21.858067     63.690969
  C      45.521925     22.076541     63.579418
  H      45.748519     21.077806     63.952001
  C      46.537127     22.918898     63.295136
  C      46.249623     24.277440     62.814706
  H      47.100930     24.939396     62.647090
  C      44.992299     24.690257     62.578526
  H      44.804800     25.680034     62.151909
  C      43.791883     23.821105     62.849487
  H      43.077977     24.398124     63.450902
  O      43.205793     23.416450     61.617899
  H      42.263964     23.757635     61.552440
  C      47.972155     22.427835     63.386434
  O      48.216248     21.420441     64.101282
  O      48.816535     23.067322     62.711576
24
Coordinates from ORCA-job neb_MEP.QMRegion E -1075.152394168063
  C      46.385905     23.708161     65.880815
  H      46.768774     22.690423     65.939447
  H      47.086003     24.532665     66.023063
  C      45.057832     23.981767     65.717806
  C      44.554370     25.433058     65.737503
  O      45.339004     26.320578     66.135296
  O      43.362901     25.621947     65.359098
  O      44.169998     23.044321     65.414370
  C      44.170399     22.557147     63.615075
  H      43.360979     21.820040     63.655670
  C      45.506662     22.075081     63.576863
  H      45.740422     21.079875     63.953043
  C      46.531739     22.956209     63.372821
  C      46.247110     24.293614     62.842183
  H      47.098765     24.953334     62.668066
  C      44.991280     24.686050     62.569418
  H      44.800965     25.670112     62.132495
  C      43.794013     23.808270     62.820038
  H      43.087546     24.363800     63.451792
  O      43.196331     23.447968     61.579253
  H      42.246469     23.774746     61.536135
  C      47.965011     22.443850     63.424961
  O      48.209436     21.419951     64.112979
  O      48.796829     23.071779     62.723886
24
Coordinates from ORCA-job neb_MEP.QMRegion E -1075.149316490204
  C      46.413480     23.699404     65.825798
  H      46.773810     22.681404     65.956942
  H      47.107948     24.525674     65.979290
  C      45.052934     23.975182     65.747021
  C      44.556461     25.435224     65.741805
  O      45.344254     26.321391     66.135121
  O      43.367332     25.620213     65.359079
  O      44.184269     23.056371     65.551763
  C      44.174030     22.504745     63.496966
  H      43.354741     21.794327     63.624531
  C      45.487089     22.073445     63.579533
  H      45.731716     21.080831     63.957201
  C      46.529433     22.987057     63.438698
  C      46.245666     24.300178     62.855478
  H      47.097531     24.956973     62.674152
  C      44.990436     24.679378     62.561784
  H      44.799152     25.662034     62.122224
  C      43.795794     23.794313     62.798154
  H      43.094168     24.338459     63.449533
  O      43.189002     23.465139     61.552380
  H      42.235364     23.780891     61.526448
  C      47.960782     22.451135     63.446458
  O      48.204607     21.416021     64.116228
  O      48.784481     23.069360     62.727130
24
Coordinates from ORCA-job neb_MEP.QMRegion E -1075.150721738421
  C      46.433847     23.688923     65.758090
  H      46.776420     22.678462     65.969582
  H      47.122600     24.517119     65.935525
  C      45.053095     23.974909     65.754277
  C      44.558877     25.438894     65.744457
  O      45.349804     26.321729     66.137744
  O      43.370022     25.621964     65.364176
  O      44.192769     23.064965     65.625893
  C      44.178477     22.483948     63.445476
  H      43.356379     21.782532     63.599436
  C      45.478058     22.079843     63.590268
  H      45.728147     21.087147     63.965189
  C      46.530285     23.019524     63.506907
  C      46.245592     24.311947     62.872204
  H      47.097500     24.966023     62.681906
  C      44.992207     24.679040     62.559689
  H      44.800435     25.658347     62.112275
  C      43.797782     23.790540     62.788902
  H      43.097935     24.329683     63.448231
  O      43.187412     23.479547     61.540226
  H      42.232297     23.789581     61.522561
  C      47.959071     22.461799     63.466397
  O      48.203633     21.417352     64.120756
  O      48.775008     23.073151     62.732538
24
Coordinates from ORCA-job neb_MEP.QMRegion E -1075.155293045378
  C      46.451759     23.669328     65.669937
  H      46.775323     22.676782     65.980576
  H      47.130912     24.500551     65.890025
  C      45.052393     23.971865     65.753898
  C      44.560463     25.439438     65.746664
  O      45.354708     26.318594     66.139999
  O      43.371806     25.620168     65.369395
  O      44.199771     23.070759     65.688970
  C      44.183712     22.466396     63.408970
  H      43.359021     21.769166     63.573116
  C      45.470129     22.084270     63.602836
  H      45.724557     21.089737     63.972469
  C      46.531632     23.052712     63.587270
  C      46.244602     24.320828     62.889046
  H      47.096301     24.972216     62.689240
  C      44.993966     24.675384     62.557086
  H      44.801775     25.651287     62.101281
  C      43.798907     23.785014     62.781973
  H      43.099769     24.319589     63.446457
  O      43.186389     23.490575     61.530402
  H      42.229674     23.794603     61.518270
  C      47.956854     22.469945     63.485077
  O      48.202072     21.416618     64.124263
  O      48.764485     23.074241     62.736475
24
Coordinates from ORCA-job neb_MEP.QMRegion E -1075.165266764231
  C      46.467178     23.639760     65.555344
  H      46.770412     22.681188     65.985856
  H      47.135735     24.474122     65.826304
  C      45.051029     23.968596     65.748258
  C      44.563414     25.440326     65.749899
  O      45.361462     26.314450     66.143225
  O      43.374830     25.618303     65.375863
  O      44.206887     23.076580     65.758463
  C      44.190806     22.451512     63.378071
  H      43.365920     21.752308     63.538415
  C      45.464098     22.091207     63.621695
  H      45.720561     21.093487     63.982757
  C      46.534990     23.094300     63.692129
  C      46.243403     24.332133     62.914246
  H      47.094222     24.980393     62.699717
  C      44.997256     24.671305     62.556573
  H      44.806288     25.640959     62.085017
  C      43.800382     23.779832     62.776231
  H      43.100148     24.307409     63.445516
  O      43.186842     23.504171     61.520840
  H      42.227635     23.799435     61.514252
  C      47.954617     22.479870     63.507299
  O      48.200929     21.415902     64.127935
  O      48.751652     23.075947     62.741531
24
Coordinates from ORCA-job neb_MEP.QMRegion E -1075.194509513121
  C      46.510104     23.634193     65.393038
  H      46.881836     22.810615     66.019087
  H      47.155845     24.513724     65.519324
  C      45.094136     23.964880     65.791170
  C      44.599042     25.430086     65.789326
  O      45.399590     26.293169     66.199779
  O      43.417802     25.608082     65.396068
  O      44.310844     23.069494     66.056205
  C      44.236413     22.394601     63.158214
  H      43.455333     21.633361     63.093426
  C      45.433030     22.115246     63.683137
  H      45.666925     21.118053     64.059337
  C      46.507993     23.153713     63.883072
  C      46.237008     24.375475     63.042130
  H      47.073692     25.066487     62.922025
  C      45.037775     24.656174     62.521676
  H      44.884035     25.589343     61.971479
  C      43.835370     23.754760     62.652386
  H      43.149565     24.216533     63.388151
  O      43.183855     23.628463     61.399326
  H      42.214708     23.879803     61.465623
  C      47.909141     22.504131     63.586160
  O      48.165263     21.420341     64.167060
  O      48.671658     23.107114     62.794218
24
Coordinates from ORCA-job neb_MEP.QMRegion E -1075.197480421487
  C      46.539000     23.616000     65.393000
  H      46.900000     22.761000     65.984000
  H      47.209000     24.478000     65.519000
  C      45.136000     23.945000     65.845000
  C      44.609000     25.401000     65.796000
  O      45.401000     26.288000     66.168000
  O      43.418000     25.550000     65.421000
  O      44.395000     23.050000     66.207000
  C      44.238000     22.446000     63.132000
  H      43.460000     21.683000     63.041000
  C      45.427000     22.151000     63.665000
  H      45.650000     21.151000     64.040000
  C      46.515000     23.173000     63.873000
  C      46.264000     24.405000     63.043000
  H      47.109000     25.084000     62.921000
  C      45.070000     24.705000     62.521000
  H      44.929000     25.641000     61.971000
  C      43.858000     23.816000     62.632000
  H      43.164000     24.277000     63.361000
  O      43.232000     23.712000     61.364000
  H      42.255000     23.928000     61.420000
  C      47.909000     22.505000     63.574000
  O      48.159000     21.428000     64.170000
  O      48.676000     23.090000     62.774000
