25
Coordinates from ORCA-job job
  C          44.76068582261542     21.36348303009363     41.42355037825556
  H          45.08127876151078     21.23008872229605     40.38946495806234
  H          45.29523757163505     22.05515406380275     42.07589791365083
  C          43.71074740890112     20.72591558258184     41.95406553594194
  C          43.25158892244067     20.99038363898850     43.41513725072524
  O          44.07803251368173     21.52954939324591     44.15799750959072
  O          42.05557150834134     20.65944048144195     43.68870254981456
  O          42.96383111116985     19.78491125556863     41.24262255815838
  C          42.23925860218245     20.20452440373141     40.06010682098538
  H          41.74846407390724     19.25643862536931     39.75037492135534
  C          43.08594898868333     20.64196338917781     38.90878368616063
  H          43.92263683919247     20.00911528132562     38.59885760541578
  C          42.79085318495067     21.71197023876632     38.14814646875475
  C          41.66370671778812     22.57440732797714     38.50476134218442
  H          41.52897074108470     23.43659940020019     37.84615220138674
  C          40.87531537078982     22.33870097443948     39.57121194389873
  H          40.07662093963616     23.03151442942094     39.85985764999614
  C          41.06718250384411     21.14781923390515     40.45821438778366
  H          41.23787580834301     21.45575802335659     41.50446855375751
  O          39.82942039561240     20.37166801476443     40.53082498407993
  H          39.48223179624095     20.36338390799201     39.62728885750826
  C          43.61217411507494     22.04695555990738     36.86684767666281
  O          44.59259318425271     21.30790799804326     36.65121426805622
  O          43.16574196009062     23.01652598879220     36.21141459644983
  N          40.83200000000000     18.75000000000000     42.55100000000000
