25
Coordinates from ORCA-job job E -836.340705524819
  C      44.842000     22.068000     40.142000
  H      45.265000     21.440000     39.358000
  H      45.368000     22.976000     40.435000
  C      43.689000     21.758000     40.746000
  C      43.115000     22.623000     41.859000
  O      43.577000     23.785000     42.012000
  O      42.221000     22.117000     42.579000
  O      42.985000     20.610000     40.433000
  C      42.079000     20.646000     39.270000
  H      41.683000     19.622000     39.219000
  C      42.892000     20.975000     38.054000
  H      43.551000     20.209000     37.638000
  C      42.969000     22.244000     37.605000
  C      42.118000     23.281000     38.202000
  H      42.307000     24.301000     37.867000
  C      41.188000     23.002000     39.130000
  H      40.598000     23.809000     39.575000
  C      40.887000     21.588000     39.553000
  H      40.742000     21.566000     40.644000
  O      39.715000     21.144000     38.884000
  H      39.068000     20.737000     39.535000
  C      44.024000     22.694000     36.600000
  O      44.937000     21.905000     36.259000
  O      43.944000     23.900000     36.236000
  N      40.832000     18.750000     42.551000
25
Coordinates from ORCA-job job E -836.349548424640
  C      44.839292     22.051616     40.162103
  H      45.256778     21.443418     39.355499
  H      45.344839     22.976767     40.442931
  C      43.683111     21.737672     40.764239
  C      43.079371     22.596145     41.882354
  O      43.567995     23.736715     42.048358
  O      42.163414     22.047862     42.569602
  O      42.977422     20.585104     40.432529
  C      42.083802     20.646424     39.267357
  H      41.676178     19.617641     39.214361
  C      42.881124     20.976055     38.043989
  H      43.558797     20.219682     37.638206
  C      42.975952     22.250113     37.612166
  C      42.118815     23.280961     38.205680
  H      42.313538     24.300246     37.868931
  C      41.180684     23.000969     39.126760
  H      40.587563     23.803538     39.575392
  C      40.892138     21.589636     39.556815
  H      40.758161     21.569817     40.655150
  O      39.704371     21.128951     38.888980
  H      39.094148     20.751973     39.533056
  C      44.051544     22.706949     36.615893
  O      44.905061     21.862145     36.248585
  O      43.925192     23.894069     36.208478
  N      40.832000     18.750000     42.551000
25
Coordinates from ORCA-job job E -836.348497219450
  C      44.836540     22.041025     40.167616
  H      45.250532     21.445186     39.348130
  H      45.336302     22.970204     40.451365
  C      43.678596     21.732408     40.772825
  C      43.066658     22.581485     41.916896
  O      43.555777     23.708614     42.061435
  O      42.117177     21.994653     42.559917
  O      42.971893     20.565998     40.435142
  C      42.092914     20.648009     39.269855
  H      41.670955     19.615201     39.217210
  C      42.871814     20.975566     38.038534
  H      43.565007     20.228165     37.639007
  C      42.989261     22.254404     37.623772
  C      42.124371     23.280421     38.211562
  H      42.317436     24.297076     37.861500
  C      41.176302     23.001455     39.124843
  H      40.577169     23.798527     39.575226
  C      40.899670     21.593609     39.560053
  H      40.768531     21.572899     40.663281
  O      39.695118     21.110682     38.886827
  H      39.116804     20.768918     39.533061
  C      44.005457     22.688008     36.524589
  O      44.903668     21.846807     36.286800
  O      43.939162     23.908663     36.241539
  N      40.832000     18.750000     42.551000
25
Coordinates from ORCA-job job E -836.357702244091
  C      44.809445     22.026196     40.191392
  H      45.229617     21.451776     39.359854
  H      45.298935     22.955634     40.490231
  C      43.659345     21.687967     40.794072
  C      43.026285     22.503267     41.949962
  O      43.502986     23.630121     42.146221
  O      42.060895     21.908262     42.554685
  O      42.966707     20.526160     40.428155
  C      42.089913     20.634445     39.263513
  H      41.658566     19.612041     39.193567
  C      42.881369     20.975395     38.043638
  H      43.563567     20.228394     37.628721
  C      42.978891     22.250371     37.615144
  C      42.122297     23.278344     38.211315
  H      42.317670     24.295423     37.864555
  C      41.178021     22.997266     39.126298
  H      40.571176     23.791530     39.573124
  C      40.906399     21.588027     39.560066
  H      40.777155     21.565969     40.660451
  O      39.706193     21.106539     38.893519
  H      39.105410     20.776426     39.571120
  C      44.035052     22.693286     36.565094
  O      44.879467     21.824110     36.253647
  O      43.927728     23.883724     36.193401
  N      40.832000     18.750000     42.551000
25
Coordinates from ORCA-job job E -836.359552584275
  C      44.791221     22.014602     40.210918
  H      45.219676     21.452675     39.376092
  H      45.269081     22.949197     40.514052
  C      43.643943     21.657071     40.808062
  C      42.963874     22.469863     41.938635
  O      43.482884     23.570264     42.208401
  O      42.058139     21.838080     42.579530
  O      42.962636     20.497319     40.423398
  C      42.087692     20.624942     39.259818
  H      41.647792     19.610277     39.178441
  C      42.884819     20.973850     38.045577
  H      43.565927     20.229712     37.624043
  C      42.974671     22.247355     37.612821
  C      42.120572     23.276424     38.210181
  H      42.316704     24.293397     37.863005
  C      41.177825     22.994013     39.126259
  H      40.566075     23.785666     39.571552
  C      40.909735     21.583786     39.560729
  H      40.781804     21.560913     40.659245
  O      39.710249     21.099881     38.897559
  H      39.104276     20.787852     39.584237
  C      44.031952     22.686528     36.560805
  O      44.870107     21.814348     36.242195
  O      43.929560     23.875416     36.181348
  N      40.832000     18.750000     42.551000
25
Coordinates from ORCA-job job E -836.365509741691
  C      44.763161     22.000349     40.233772
  H      45.195002     21.463029     39.383312
  H      45.237339     22.928326     40.562807
  C      43.624551     21.613483     40.830180
  C      42.947360     22.374545     42.000294
  O      43.412237     23.493285     42.276466
  O      41.997455     21.738278     42.575586
  O      42.956555     20.455283     40.417078
  C      42.083935     20.611307     39.254108
  H      41.631701     19.604562     39.156241
  C      42.886715     20.969607     38.045830
  H      43.568560     20.229243     37.618327
  C      42.973364     22.242953     37.612923
  C      42.119044     23.271911     38.209419
  H      42.314917     24.288867     37.860969
  C      41.177595     22.987840     39.126683
  H      40.560983     23.776657     39.570608
  C      40.912870     21.576840     39.562512
  H      40.789355     21.552356     40.660362
  O      39.709084     21.090948     38.906486
  H      39.102890     20.804008     39.600267
  C      44.029278     22.677329     36.553974
  O      44.856116     21.797580     36.225093
  O      43.925473     23.862586     36.162182
  N      40.832000     18.750000     42.551000
25
Coordinates from ORCA-job job E -836.368864430217
  C      44.744126     21.989777     40.253333
  H      45.181175     21.466608     39.397567
  H      45.211572     22.916829     40.594500
  C      43.608250     21.585853     40.843009
  C      42.926325     22.315336     42.030448
  O      43.373866     23.434699     42.321463
  O      41.970497     21.661813     42.582091
  O      42.949963     20.428405     40.411538
  C      42.081909     20.602574     39.248236
  H      41.621101     19.600526     39.139702
  C      42.888047     20.966392     38.044345
  H      43.571480     20.229129     37.614045
  C      42.973020     22.239965     37.611504
  C      42.117711     23.268421     38.206983
  H      42.312772     24.285364     37.857592
  C      41.176993     22.982695     39.124769
  H      40.558743     23.769488     39.570199
  C      40.914415     21.571362     39.561055
  H      40.792832     21.544571     40.659561
  O      39.706774     21.081411     38.910372
  H      39.096879     20.820126     39.611307
  C      44.024111     22.670321     36.544639
  O      44.849028     21.788650     36.219367
  O      43.922369     23.856087     36.157085
  N      40.832000     18.750000     42.551000
25
Coordinates from ORCA-job job E -836.373883692290
  C      44.714490     21.974159     40.282162
  H      45.158139     21.472050     39.418839
  H      45.174095     22.897776     40.641509
  C      43.583835     21.543622     40.861824
  C      42.891625     22.225582     42.068988
  O      43.315083     23.343664     42.387663
  O      41.936502     21.546758     42.591497
  O      42.941084     20.389249     40.403465
  C      42.079639     20.589839     39.240612
  H      41.606168     19.596616     39.115822
  C      42.891419     20.962360     38.043903
  H      43.577267     20.230200     37.608763
  C      42.971015     22.235648     37.608851
  C      42.114742     23.263563     38.203229
  H      42.308372     24.280520     37.852694
  C      41.175626     22.974725     39.122241
  H      40.554564     23.758222     39.570065
  C      40.916936     21.562564     39.559469
  H      40.796129     21.531217     40.657826
  O      39.705977     21.064232     38.916047
  H      39.087172     20.849266     39.624424
  C      44.016514     22.659956     36.533115
  O      44.838435     21.776389     36.209607
  O      43.919051     23.847132     36.150237
  N      40.832000     18.750000     42.551000
25
Coordinates from ORCA-job job E -836.381133476264
  C      44.671933     21.951935     40.328796
  H      45.126250     21.481877     39.452870
  H      45.117374     22.872298     40.713668
  C      43.547657     21.481076     40.890276
  C      42.837653     22.093648     42.123964
  O      43.233360     23.206115     42.493618
  O      41.886417     21.388005     42.605755
  O      42.927575     20.332611     40.388441
  C      42.075623     20.570085     39.226521
  H      41.585050     19.589080     39.078431
  C      42.895224     20.955228     38.040189
  H      43.585454     20.230464     37.599582
  C      42.967862     22.228556     37.603417
  C      42.109705     23.254915     38.196974
  H      42.300842     24.272156     37.845537
  C      41.173154     22.961334     39.117856
  H      40.549621     23.740818     39.570009
  C      40.919659     21.547978     39.555832
  H      40.801139     21.509541     40.653952
  O      39.703234     21.038338     38.924781
  H      39.068575     20.897040     39.641965
  C      44.006347     22.646264     36.517915
  O      44.824152     21.760463     36.194149
  O      43.914120     23.835860     36.141710
  N      40.832000     18.750000     42.551000
25
Coordinates from ORCA-job job E -836.387653635330
  C      44.626308     21.926551     40.379249
  H      45.091947     21.490054     39.489862
  H      45.060050     22.839338     40.798838
  C      43.507129     21.417191     40.920610
  C      42.782713     21.962645     42.184370
  O      43.158931     23.065584     42.606541
  O      41.828893     21.229252     42.622489
  O      42.907784     20.274419     40.373892
  C      42.067857     20.547816     39.209860
  H      41.563164     19.576882     39.038086
  C      42.897977     20.946445     38.035450
  H      43.591102     20.227453     37.589572
  C      42.964489     22.220171     37.598374
  C      42.103652     23.243637     38.192654
  H      42.290657     24.261288     37.839432
  C      41.170442     22.946061     39.116068
  H      40.544837     23.722341     39.571310
  C      40.919239     21.531665     39.551440
  H      40.804947     21.485387     40.649412
  O      39.694662     21.021053     38.931056
  H      39.052398     20.931228     39.649168
  C      43.999034     22.636349     36.506235
  O      44.810758     21.747239     36.178897
  O      43.906243     23.825946     36.132458
  N      40.832000     18.750000     42.551000
25
Coordinates from ORCA-job job E -836.384162406908
  C      44.565922     21.893991     40.449568
  H      45.033486     21.481622     39.564605
  H      44.983329     22.801602     40.868481
  C      43.459508     21.353019     40.957410
  C      42.721840     21.828845     42.202480
  O      43.100630     22.906831     42.688015
  O      41.834988     21.143378     42.640827
  O      42.879867     20.237961     40.368231
  C      42.070211     20.532622     39.202887
  H      41.553682     19.581268     39.007284
  C      42.913782     20.940839     38.046450
  H      43.614539     20.230254     37.600907
  C      42.960977     22.210334     37.592222
  C      42.089962     23.229031     38.181310
  H      42.270847     24.247222     37.826023
  C      41.159577     22.925740     39.107505
  H      40.537863     23.701336     39.570159
  C      40.922180     21.511967     39.554079
  H      40.805032     21.454540     40.647846
  O      39.693195     20.965563     38.963162
  H      39.024636     21.034595     39.650453
  C      43.986290     22.619511     36.491748
  O      44.793479     21.728910     36.156968
  O      43.894794     23.812818     36.122028
  N      40.832000     18.750000     42.551000
25
Coordinates from ORCA-job job E -836.392553753632
  C      44.552351     21.870931     40.476143
  H      45.024367     21.473760     39.577462
  H      44.963188     22.778659     40.919515
  C      43.442083     21.324380     40.984615
  C      42.715453     21.803430     42.259220
  O      43.099062     22.873773     42.738278
  O      41.764253     21.052104     42.658588
  O      42.858914     20.204937     40.379228
  C      42.058533     20.518152     39.198723
  H      41.540224     19.563425     38.990283
  C      42.913436     20.932938     38.047311
  H      43.616221     20.222436     37.602746
  C      42.961214     22.202909     37.595950
  C      42.086124     23.219751     38.180461
  H      42.264305     24.237786     37.822928
  C      41.155702     22.916453     39.105500
  H      40.529119     23.689860     39.564795
  C      40.914266     21.502226     39.546442
  H      40.800687     21.447149     40.642600
  O      39.684055     20.975248     38.945778
  H      39.000566     21.042352     39.662936
  C      43.982010     22.616170     36.486663
  O      44.785882     21.724322     36.149257
  O      43.887486     23.807443     36.119094
  N      40.832000     18.750000     42.551000
25
Coordinates from ORCA-job job E -836.389189007180
  C      44.533193     21.859710     40.509680
  H      45.001912     21.481066     39.588975
  H      44.954684     22.748565     40.994628
  C      43.417458     21.313472     41.013576
  C      42.719190     21.821952     42.300340
  O      43.159863     22.891499     42.799674
  O      41.728507     21.099789     42.703436
  O      42.823200     20.201558     40.392282
  C      42.032818     20.513300     39.195358
  H      41.519763     19.554371     38.979820
  C      42.897504     20.924469     38.046717
  H      43.588698     20.203822     37.600469
  C      42.952803     22.194301     37.598838
  C      42.086493     23.214563     38.191476
  H      42.262309     24.231170     37.829607
  C      41.158116     22.918583     39.120651
  H      40.533610     23.697668     39.571258
  C      40.896394     21.505573     39.550539
  H      40.794680     21.449766     40.648061
  O      39.655089     21.026142     38.951500
  H      39.053449     20.898852     39.614983
  C      43.972231     22.610825     36.493046
  O      44.773696     21.719947     36.139480
  O      43.877211     23.801131     36.120311
  N      40.832000     18.750000     42.551000
25
Coordinates from ORCA-job job E -836.395262372287
  C      44.517929     21.835094     40.538601
  H      44.985168     21.448230     39.622662
  H      44.952868     22.713377     41.037683
  C      43.396486     21.303185     41.045808
  C      42.720734     21.837609     42.338642
  O      43.170896     22.884470     42.797573
  O      41.727125     21.156832     42.768410
  O      42.792364     20.191479     40.430936
  C      42.023139     20.503858     39.216075
  H      41.511452     19.542866     38.994252
  C      42.902589     20.913605     38.074528
  H      43.600886     20.193133     37.637861
  C      42.952548     22.180070     37.614878
  C      42.075316     23.200081     38.190485
  H      42.247876     24.214912     37.820891
  C      41.140601     22.906583     39.112934
  H      40.510089     23.685982     39.554946
  C      40.882010     21.495683     39.550771
  H      40.775016     21.449634     40.648878
  O      39.648268     21.004082     38.945106
  H      38.996476     20.962702     39.644968
  C      43.962902     22.593863     36.495554
  O      44.756501     21.698357     36.133823
  O      43.858021     23.780053     36.112884
  N      40.832000     18.750000     42.551000
25
Coordinates from ORCA-job job E -836.396265473729
  C      44.503723     21.821897     40.561684
  H      44.968722     21.438633     39.658413
  H      44.932679     22.693381     41.049625
  C      43.381707     21.290441     41.054939
  C      42.694208     21.802581     42.336669
  O      43.182449     22.824919     42.864510
  O      41.689769     21.133604     42.733593
  O      42.779398     20.191723     40.443294
  C      42.025567     20.500089     39.227667
  H      41.517890     19.546940     39.002865
  C      42.905342     20.907494     38.089316
  H      43.596480     20.185414     37.645649
  C      42.945392     22.170613     37.616197
  C      42.067582     23.191869     38.188355
  H      42.249249     24.207588     37.827374
  C      41.126781     22.895930     39.104292
  H      40.500147     23.675732     39.551944
  C      40.878556     21.484058     39.552768
  H      40.762265     21.439285     40.649025
  O      39.658401     20.957647     38.948035
  H      38.967274     21.023187     39.657540
  C      43.952322     22.581382     36.495532
  O      44.750350     21.690851     36.139565
  O      43.850468     23.771102     36.118722
  N      40.832000     18.750000     42.551000
25
Coordinates from ORCA-job job E -836.398649279341
  C      44.476522     21.774059     40.619408
  H      44.946593     21.399972     39.709535
  H      44.894405     22.651632     41.111975
  C      43.351249     21.237273     41.106597
  C      42.661389     21.757094     42.384106
  O      43.146195     22.767520     42.891064
  O      41.644014     21.107125     42.779646
  O      42.737072     20.150960     40.474816
  C      42.002235     20.481914     39.245898
  H      41.489331     19.531249     39.004646
  C      42.901495     20.890592     38.120649
  H      43.601180     20.169152     37.688146
  C      42.936108     22.149826     37.636572
  C      42.051192     23.172169     38.196642
  H      42.223671     24.184334     37.819587
  C      41.110198     22.882541     39.114062
  H      40.473484     23.663791     39.545209
  C      40.856933     21.474380     39.566433
  H      40.741311     21.433656     40.662693
  O      39.629256     20.962859     38.963698
  H      38.948517     21.013808     39.656287
  C      43.939227     22.557258     36.509177
  O      44.730741     21.662245     36.147898
  O      43.830073     23.742532     36.122180
  N      40.832000     18.750000     42.551000
25
Coordinates from ORCA-job job E -836.399808264016
  C      44.460577     21.763393     40.638424
  H      44.933412     21.391483     39.722857
  H      44.894923     22.624326     41.165369
  C      43.329703     21.232031     41.123974
  C      42.657569     21.767284     42.414037
  O      43.197443     22.742028     42.951075
  O      41.589499     21.161843     42.787122
  O      42.711296     20.145655     40.496278
  C      41.989058     20.474585     39.259286
  H      41.482372     19.521444     39.013796
  C      42.897820     20.880473     38.139515
  H      43.604190     20.158284     37.717332
  C      42.930121     22.136014     37.647715
  C      42.040865     23.159426     38.199003
  H      42.211857     24.169423     37.815664
  C      41.098020     22.874630     39.115730
  H      40.456592     23.657648     39.536101
  C      40.843050     21.470103     39.575485
  H      40.732876     21.436952     40.672803
  O      39.609816     20.969932     38.978004
  H      38.934881     21.018229     39.656857
  C      43.930758     22.540720     36.517141
  O      44.717184     21.642314     36.149390
  O      43.819181     23.723646     36.123825
  N      40.832000     18.750000     42.551000
25
Coordinates from ORCA-job job E -836.401991455341
  C      44.428410     21.729306     40.689127
  H      44.899543     21.363012     39.773288
  H      44.863541     22.579534     41.223798
  C      43.294165     21.203286     41.168601
  C      42.631434     21.742371     42.462944
  O      43.192382     22.695854     43.016818
  O      41.557777     21.159283     42.837722
  O      42.664870     20.129387     40.537960
  C      41.968835     20.460627     39.288015
  H      41.465946     19.510096     39.031529
  C      42.889502     20.861552     38.177293
  H      43.594573     20.135435     37.760614
  C      42.916515     22.110964     37.668644
  C      42.020953     23.136557     38.205489
  H      42.193179     24.143653     37.816119
  C      41.071307     22.856345     39.116521
  H      40.427162     23.642147     39.527753
  C      40.819665     21.455194     39.590600
  H      40.705668     21.431319     40.687960
  O      39.593630     20.937650     38.994085
  H      38.898110     21.056856     39.659409
  C      43.915735     22.509523     36.535510
  O      44.701091     21.609384     36.172866
  O      43.802187     23.690541     36.136505
  N      40.832000     18.750000     42.551000
25
Coordinates from ORCA-job job E -836.403792961363
  C      44.408808     21.686000     40.739253
  H      44.880009     21.330701     39.823446
  H      44.825039     22.538250     41.261531
  C      43.272093     21.160225     41.215447
  C      42.601085     21.715506     42.495604
  O      43.198621     22.628310     43.078682
  O      41.498078     21.173915     42.852850
  O      42.620477     20.107971     40.578209
  C      41.952830     20.448664     39.317980
  H      41.456625     19.501975     39.043115
  C      42.881408     20.847139     38.216190
  H      43.582472     20.116299     37.801970
  C      42.900778     22.088901     37.689015
  C      42.000253     23.115864     38.213259
  H      42.173656     24.119687     37.818221
  C      41.045147     22.838686     39.119251
  H      40.399874     23.627119     39.523153
  C      40.801617     21.440756     39.612247
  H      40.689673     21.428605     40.710415
  O      39.585358     20.893784     39.024437
  H      38.867771     21.112831     39.660293
  C      43.898461     22.480351     36.554241
  O      44.681126     21.578368     36.192565
  O      43.788743     23.661803     36.154410
  N      40.832000     18.750000     42.551000
25
Coordinates from ORCA-job job E -836.406141037074
  C      44.364004     21.638202     40.796202
  H      44.828948     21.289697     39.878528
  H      44.814615     22.450443     41.368176
  C      43.219886     21.127244     41.265073
  C      42.580534     21.672500     42.572908
  O      43.203581     22.553747     43.178524
  O      41.481042     21.146773     42.935073
  O      42.550602     20.088368     40.631713
  C      41.908440     20.429659     39.360595
  H      41.417009     19.484704     39.077317
  C      42.852018     20.818559     38.269066
  H      43.556779     20.082142     37.870641
  C      42.875749     22.053392     37.726817
  C      41.966509     23.084983     38.228365
  H      42.145184     24.084648     37.825317
  C      40.998797     22.816292     39.124054
  H      40.350683     23.610281     39.513546
  C      40.756980     21.424576     39.638094
  H      40.644791     21.430613     40.736849
  O      39.545947     20.855848     39.060395
  H      38.825167     21.129334     39.665120
  C      43.876791     22.431390     36.591065
  O      44.654673     21.521826     36.236445
  O      43.769843     23.609276     36.178406
  N      40.832000     18.750000     42.551000
25
Coordinates from ORCA-job job E -836.408494680201
  C      44.335423     21.571702     40.874792
  H      44.794576     21.225113     39.951775
  H      44.791234     22.381169     41.447428
  C      43.182351     21.078441     41.337913
  C      42.551155     21.637438     42.641861
  O      43.215422     22.480540     43.263131
  O      41.399511     21.167917     42.965204
  O      42.489416     20.055179     40.691706
  C      41.863203     20.410610     39.407842
  H      41.364272     19.468266     39.115112
  C      42.830810     20.791704     38.328758
  H      43.543737     20.050952     37.951144
  C      42.853291     22.018775     37.767050
  C      41.935260     23.056414     38.243350
  H      42.105129     24.049625     37.815133
  C      40.965717     22.801175     39.140446
  H      40.308493     23.601112     39.506325
  C      40.717994     21.418196     39.671713
  H      40.609542     21.444702     40.770553
  O      39.501063     20.853065     39.109047
  H      38.785711     21.139754     39.683877
  C      43.857905     22.382285     36.630246
  O      44.637040     21.469313     36.286772
  O      43.754948     23.555875     36.200633
  N      40.832000     18.750000     42.551000
25
Coordinates from ORCA-job job E -836.410540941586
  C      44.313083     21.566917     40.934116
  H      44.772723     21.256470     39.981191
  H      44.750148     22.377096     41.516199
  C      43.164867     21.054255     41.405724
  C      42.524957     21.610627     42.714906
  O      43.195072     22.403265     43.352635
  O      41.349002     21.193777     43.010599
  O      42.462680     20.040884     40.742252
  C      41.839617     20.389507     39.464967
  H      41.353827     19.445558     39.170532
  C      42.806572     20.762522     38.386650
  H      43.522101     20.016624     38.024501
  C      42.817600     21.977232     37.799958
  C      41.897422     23.016130     38.262038
  H      42.063940     24.002924     37.819117
  C      40.933896     22.769593     39.166120
  H      40.276678     23.574265     39.517912
  C      40.696474     21.398478     39.728703
  H      40.607383     21.455882     40.829133
  O      39.474106     20.819723     39.202895
  H      38.735686     21.236435     39.684452
  C      43.829387     22.328355     36.671606
  O      44.614082     21.416878     36.341120
  O      43.737067     23.501559     36.235955
  N      40.832000     18.750000     42.551000
25
Coordinates from ORCA-job job E -836.411602857091
  C      44.298425     21.519536     40.984237
  H      44.757653     21.203559     40.044297
  H      44.758149     22.305491     41.583411
  C      43.140446     21.025353     41.446969
  C      42.518293     21.562482     42.774871
  O      43.255334     22.284073     43.473473
  O      41.313978     21.190545     43.029320
  O      42.428609     20.021279     40.781127
  C      41.805350     20.375709     39.511436
  H      41.312812     19.433727     39.214017
  C      42.771495     20.741890     38.434002
  H      43.494742     19.996101     38.087352
  C      42.785416     21.949157     37.835550
  C      41.854605     22.988952     38.275200
  H      42.023591     23.969818     37.823654
  C      40.886729     22.749457     39.177367
  H      40.228975     23.556630     39.519988
  C      40.665447     21.387637     39.773964
  H      40.590026     21.468536     40.875407
  O      39.441067     20.772463     39.279667
  H      38.694541     21.289768     39.711404
  C      43.807277     22.283405     36.709281
  O      44.591553     21.363441     36.399881
  O      43.719584     23.451073     36.259537
  N      40.832000     18.750000     42.551000
25
Coordinates from ORCA-job job E -836.409861451838
  C      44.293607     21.535671     40.987701
  H      44.760320     21.180529     40.102228
  H      44.767570     22.314319     41.556146
  C      43.127965     21.067675     41.444161
  C      42.494123     21.573090     42.776013
  O      43.231918     22.282988     43.495479
  O      41.348848     21.158639     43.039134
  O      42.441566     20.045657     40.794659
  C      41.786078     20.378488     39.544183
  H      41.280875     19.432060     39.273992
  C      42.732276     20.730710     38.450077
  H      43.456563     19.983841     38.115048
  C      42.769459     21.937017     37.861334
  C      41.830635     22.977077     38.282332
  H      42.018145     23.953570     37.841475
  C      40.850370     22.743316     39.175347
  H      40.203131     23.552307     39.523641
  C      40.649770     21.390456     39.805700
  H      40.588051     21.494945     40.906933
  O      39.425182     20.731972     39.344955
  H      38.729677     21.208748     39.742354
  C      43.801602     22.255341     36.733034
  O      44.586849     21.325173     36.447933
  O      43.713504     23.414983     36.269226
  N      40.832000     18.750000     42.551000
25
Coordinates from ORCA-job job E -836.414265496056
  C      44.297465     21.511961     41.015907
  H      44.748649     21.180408     40.083336
  H      44.786878     22.285299     41.617440
  C      43.139880     21.034036     41.482249
  C      42.511851     21.553867     42.807429
  O      43.221094     22.278358     43.491407
  O      41.316809     21.181937     43.046707
  O      42.441239     20.020791     40.821220
  C      41.785210     20.366148     39.561970
  H      41.277467     19.422666     39.286419
  C      42.744001     20.720882     38.471907
  H      43.466077     19.972843     38.133427
  C      42.759548     21.923912     37.865995
  C      41.821561     22.964799     38.288918
  H      41.983623     23.941245     37.821509
  C      40.853846     22.732869     39.194725
  H      40.187940     23.541677     39.524761
  C      40.648485     21.381033     39.820376
  H      40.581545     21.484932     40.918430
  O      39.424727     20.748978     39.350802
  H      38.697246     21.256645     39.736344
  C      43.794605     22.248822     36.748046
  O      44.585057     21.326273     36.457714
  O      43.706191     23.408623     36.278813
  N      40.832000     18.750000     42.551000
25
Coordinates from ORCA-job job E -836.414928063313
  C      44.299167     21.517531     41.031087
  H      44.743339     21.210599     40.071165
  H      44.766041     22.301110     41.618239
  C      43.144759     21.025548     41.501103
  C      42.520840     21.531449     42.842478
  O      43.257674     22.213981     43.569327
  O      41.311710     21.191344     43.063605
  O      42.446799     20.016429     40.827428
  C      41.784884     20.359708     39.574376
  H      41.282655     19.414848     39.301330
  C      42.737305     20.712753     38.481210
  H      43.463555     19.964930     38.148946
  C      42.749751     21.912662     37.872340
  C      41.807068     22.949148     38.291175
  H      41.963136     23.922946     37.819082
  C      40.842153     22.716721     39.199413
  H      40.176453     23.524817     39.527169
  C      40.649319     21.371590     39.843026
  H      40.602150     21.489904     40.942860
  O      39.419191     20.728377     39.405065
  H      38.689920     21.292177     39.737631
  C      43.781238     22.236735     36.753651
  O      44.578625     21.319896     36.471290
  O      43.691999     23.396274     36.287804
  N      40.832000     18.750000     42.551000
25
Coordinates from ORCA-job job E -836.415967962875
  C      44.310160     21.488535     41.087988
  H      44.759219     21.167084     40.150066
  H      44.798939     22.255081     41.690786
  C      43.143197     21.012067     41.541452
  C      42.508047     21.517792     42.870711
  O      43.251142     22.184002     43.605117
  O      41.290916     21.197729     43.076766
  O      42.448466     20.002551     40.867382
  C      41.778616     20.346223     39.615698
  H      41.269190     19.401576     39.349597
  C      42.730398     20.694743     38.519440
  H      43.464000     19.948711     38.196971
  C      42.734689     21.890135     37.898302
  C      41.781226     22.924680     38.301832
  H      41.920310     23.892422     37.808182
  C      40.824189     22.697723     39.219754
  H      40.150649     23.504817     39.536194
  C      40.645030     21.360814     39.885735
  H      40.610336     21.494322     40.984864
  O      39.410168     20.706776     39.472193
  H      38.688273     21.293742     39.770232
  C      43.765422     22.210611     36.775477
  O      44.571727     21.297098     36.509127
  O      43.662345     23.362118     36.290499
  N      40.832000     18.750000     42.551000
25
Coordinates from ORCA-job job E -836.416287893132
  C      44.310980     21.487610     41.077987
  H      44.720932     21.184383     40.119219
  H      44.832172     22.234952     41.696527
  C      43.175808     20.989625     41.570835
  C      42.569004     21.454808     42.927452
  O      43.299581     22.102373     43.662917
  O      41.355522     21.154241     43.114542
  O      42.487941     19.982592     40.886980
  C      41.785301     20.340762     39.643110
  H      41.258623     19.395371     39.384064
  C      42.729836     20.694160     38.537951
  H      43.463485     19.953445     38.212725
  C      42.723274     21.887487     37.915737
  C      41.758662     22.911230     38.314630
  H      41.879444     23.872066     37.810106
  C      40.813661     22.682317     39.244738
  H      40.130810     23.480920     39.559151
  C      40.657186     21.358617     39.927386
  H      40.639082     21.501532     41.018793
  O      39.418268     20.708515     39.547877
  H      38.705999     21.319560     39.748416
  C      43.753508     22.214216     36.791304
  O      44.559106     21.299851     36.517314
  O      43.638968     23.360412     36.301561
  N      40.832000     18.750000     42.551000
25
Coordinates from ORCA-job job E -836.417659289803
  C      44.340744     21.477549     41.129682
  H      44.753041     21.190291     40.162496
  H      44.848017     22.226773     41.745133
  C      43.199895     20.972343     41.609209
  C      42.577674     21.428522     42.961443
  O      43.324715     22.027623     43.731618
  O      41.340508     21.168838     43.116547
  O      42.514317     19.970344     40.916760
  C      41.802669     20.322288     39.682133
  H      41.287729     19.373984     39.430867
  C      42.735151     20.675087     38.570205
  H      43.478019     19.938802     38.253847
  C      42.704488     21.859743     37.927451
  C      41.718386     22.872836     38.307826
  H      41.825713     23.829338     37.793443
  C      40.780099     22.641645     39.243969
  H      40.088506     23.436629     39.551429
  C      40.668909     21.328512     39.975575
  H      40.685645     21.505518     41.068782
  O      39.426553     20.629376     39.655102
  H      38.729424     21.311320     39.781734
  C      43.731397     22.189660     36.802616
  O      44.557484     21.289141     36.550268
  O      43.595728     23.327759     36.293952
  N      40.832000     18.750000     42.551000
25
Coordinates from ORCA-job job E -836.417092929397
  C      44.359035     21.479431     41.182472
  H      44.780182     21.196795     40.204576
  H      44.837276     22.250131     41.778067
  C      43.204831     20.970894     41.640826
  C      42.586342     21.442299     42.990353
  O      43.357536     22.038366     43.770328
  O      41.336861     21.189876     43.159279
  O      42.518487     19.965597     40.957820
  C      41.809252     20.307495     39.725677
  H      41.302241     19.359612     39.490400
  C      42.730438     20.647894     38.604642
  H      43.474011     19.909115     38.289053
  C      42.695660     21.829945     37.952137
  C      41.719647     22.848954     38.338729
  H      41.807978     23.802578     37.797039
  C      40.792700     22.627570     39.289217
  H      40.096761     23.426476     39.588029
  C      40.678450     21.317466     40.025443
  H      40.706818     21.498694     41.121554
  O      39.423879     20.634629     39.714084
  H      38.739181     21.267394     39.876965
  C      43.702993     22.157088     36.806567
  O      44.535277     21.262460     36.557507
  O      43.556473     23.293067     36.294986
  N      40.832000     18.750000     42.551000
25
Coordinates from ORCA-job job E -836.418664026835
  C      44.371069     21.481192     41.197073
  H      44.792559     21.194888     40.234742
  H      44.855259     22.245411     41.794563
  C      43.224633     20.967499     41.661955
  C      42.616856     21.423880     43.020465
  O      43.377742     22.014956     43.795762
  O      41.392182     21.163671     43.201142
  O      42.541600     19.960745     40.981143
  C      41.823297     20.296072     39.751760
  H      41.315492     19.343857     39.516398
  C      42.736722     20.640286     38.625002
  H      43.481378     19.904791     38.307178
  C      42.699075     21.820945     37.977391
  C      41.720640     22.832920     38.369329
  H      41.800406     23.783711     37.826337
  C      40.796773     22.606177     39.321566
  H      40.098043     23.399527     39.623398
  C      40.689787     21.300665     40.053260
  H      40.713447     21.480053     41.143448
  O      39.444308     20.616845     39.743214
  H      38.740710     21.286493     39.835992
  C      43.691680     22.147588     36.816610
  O      44.520818     21.253520     36.555619
  O      43.537982     23.281678     36.307842
  N      40.832000     18.750000     42.551000
25
Coordinates from ORCA-job job E -836.418734259843
  C      44.376980     21.497980     41.187808
  H      44.790277     21.224806     40.216911
  H      44.885882     22.243515     41.822857
  C      43.253245     20.959350     41.674705
  C      42.632731     21.392168     43.033927
  O      43.380311     21.972087     43.813666
  O      41.392192     21.142317     43.180626
  O      42.583578     19.949680     40.980169
  C      41.842776     20.291859     39.760485
  H      41.327396     19.336832     39.524518
  C      42.748037     20.643160     38.626938
  H      43.494294     19.913421     38.304756
  C      42.688695     21.818649     37.969789
  C      41.693476     22.821513     38.352738
  H      41.793183     23.770972     37.841281
  C      40.775789     22.590236     39.309254
  H      40.087739     23.377959     39.629306
  C      40.706450     21.290622     40.071523
  H      40.752758     21.488591     41.160322
  O      39.457557     20.569989     39.803247
  H      38.774310     21.259129     39.870915
  C      43.691365     22.150014     36.822058
  O      44.524806     21.257279     36.564924
  O      43.527466     23.278234     36.301230
  N      40.832000     18.750000     42.551000
25
Coordinates from ORCA-job job E -836.419741957293
  C      44.401739     21.494066     41.203308
  H      44.810917     21.225028     40.228584
  H      44.897381     22.248947     41.819531
  C      43.278523     20.951298     41.688738
  C      42.669362     21.378661     43.056625
  O      43.429524     21.945592     43.847970
  O      41.429029     21.133187     43.208389
  O      42.606754     19.941821     40.999911
  C      41.866360     20.280790     39.781719
  H      41.357900     19.324386     39.546293
  C      42.766404     20.637059     38.646278
  H      43.519939     19.912864     38.323549
  C      42.696114     21.811623     37.988631
  C      41.698131     22.808671     38.377481
  H      41.757841     23.756735     37.828779
  C      40.790464     22.572969     39.342701
  H      40.080740     23.355510     39.648202
  C      40.726676     21.274217     40.096649
  H      40.772244     21.469349     41.183422
  O      39.480998     20.559074     39.828653
  H      38.790809     21.244162     39.871369
  C      43.680333     22.147073     36.825448
  O      44.517133     21.261289     36.561231
  O      43.505138     23.274908     36.308883
  N      40.832000     18.750000     42.551000
25
Coordinates from ORCA-job job E -836.420085964368
  C      44.413112     21.482618     41.227201
  H      44.817318     21.219259     40.247595
  H      44.894138     22.246351     41.824926
  C      43.286912     20.939853     41.704329
  C      42.691030     21.376344     43.071811
  O      43.460658     21.945067     43.853144
  O      41.458810     21.129305     43.250655
  O      42.601742     19.936572     41.019529
  C      41.872909     20.274866     39.794844
  H      41.370162     19.317962     39.557900
  C      42.770257     20.630928     38.656921
  H      43.522371     19.906827     38.329930
  C      42.695844     21.802300     37.997391
  C      41.696856     22.796537     38.389952
  H      41.763980     23.743472     37.853368
  C      40.787643     22.560767     39.353243
  H      40.083328     23.342627     39.666852
  C      40.731412     21.266021     40.110184
  H      40.781561     21.468360     41.197151
  O      39.487820     20.548709     39.851883
  H      38.794104     21.218680     39.875751
  C      43.671682     22.138840     36.828992
  O      44.516594     21.258355     36.571169
  O      43.489299     23.265493     36.314897
  N      40.832000     18.750000     42.551000
25
Coordinates from ORCA-job job E -836.420811050764
  C      44.428635     21.495192     41.231450
  H      44.826894     21.243427     40.246233
  H      44.914929     22.252623     41.840224
  C      43.314431     20.934087     41.717221
  C      42.722972     21.353211     43.092775
  O      43.497364     21.904763     43.882982
  O      41.487863     21.113608     43.266551
  O      42.634405     19.928815     41.032249
  C      41.897246     20.267462     39.813804
  H      41.396339     19.308837     39.577056
  C      42.787025     20.629408     38.671143
  H      43.545293     19.911993     38.343370
  C      42.695767     21.795618     38.005024
  C      41.688072     22.781324     38.396839
  H      41.735368     23.724385     37.845811
  C      40.789460     22.542789     39.369839
  H      40.077614     23.318886     39.682085
  C      40.753962     21.254643     40.138019
  H      40.817228     21.468349     41.222513
  O      39.510509     20.526570     39.906530
  H      38.814908     21.203616     39.877146
  C      43.658815     22.133588     36.825094
  O      44.507413     21.257648     36.562064
  O      43.461483     23.255091     36.303543
  N      40.832000     18.750000     42.551000
25
Coordinates from ORCA-job job E -836.421516453442
  C      44.431301     21.508879     41.224602
  H      44.819463     21.265438     40.236548
  H      44.933636     22.254321     41.849511
  C      43.338051     20.927567     41.729864
  C      42.756975     21.325045     43.116928
  O      43.534216     21.865271     43.906943
  O      41.516351     21.085304     43.287418
  O      42.659968     19.921224     41.046108
  C      41.916994     20.264577     39.834256
  H      41.413921     19.305797     39.592152
  C      42.803192     20.633280     38.690164
  H      43.567405     19.923212     38.361093
  C      42.691948     21.791223     38.013924
  C      41.672899     22.768418     38.400919
  H      41.699433     23.706905     37.831652
  C      40.782434     22.528927     39.381158
  H      40.060372     23.299490     39.689414
  C      40.771439     21.248958     40.163009
  H      40.846063     21.477885     41.241448
  O      39.533017     20.498323     39.966081
  H      38.833924     21.165165     39.879345
  C      43.649526     22.128440     36.831144
  O      44.496245     21.252680     36.557109
  O      43.443406     23.244548     36.305309
  N      40.832000     18.750000     42.551000
25
Coordinates from ORCA-job job E -836.422190962375
  C      44.446518     21.520847     41.233744
  H      44.829166     21.290161     40.239163
  H      44.947510     22.264967     41.861153
  C      43.362006     20.924368     41.741699
  C      42.790669     21.306456     43.137665
  O      43.575536     21.834356     43.930666
  O      41.553540     21.065380     43.315872
  O      42.684461     19.917157     41.057568
  C      41.938825     20.261238     39.850039
  H      41.438096     19.301965     39.605129
  C      42.817645     20.634655     38.701903
  H      43.589474     19.931167     38.374001
  C      42.686395     21.785598     38.014043
  C      41.657553     22.753590     38.398582
  H      41.675872     23.688953     37.827383
  C      40.777020     22.512205     39.388135
  H      40.053588     23.278821     39.699637
  C      40.790409     21.240753     40.187443
  H      40.882621     21.485530     41.263117
  O      39.550863     20.474836     40.028155
  H      38.850680     21.138936     39.889418
  C      43.633202     22.124671     36.822391
  O      44.494343     21.259281     36.560424
  O      43.405236     23.232531     36.279416
  N      40.832000     18.750000     42.551000
25
Coordinates from ORCA-job job E -836.422647159141
  C      44.468869     21.529724     41.249201
  H      44.843020     21.323236     40.241262
  H      44.961362     22.276951     41.871567
  C      43.393078     20.913158     41.750868
  C      42.839484     21.276319     43.154004
  O      43.647364     21.792881     43.940823
  O      41.608281     21.024433     43.362122
  O      42.711455     19.904948     41.067513
  C      41.965588     20.252446     39.869402
  H      41.468159     19.296469     39.613855
  C      42.826187     20.635755     38.713302
  H      43.609659     19.944803     38.385427
  C      42.677082     21.776671     38.023496
  C      41.639287     22.726576     38.414231
  H      41.670773     23.659229     37.873203
  C      40.765960     22.478460     39.408997
  H      40.054804     23.239425     39.740538
  C      40.814548     21.223788     40.226849
  H      40.934652     21.490405     41.294412
  O      39.578942     20.443490     40.136337
  H      38.865087     21.073151     39.894368
  C      43.609496     22.119197     36.823356
  O      44.469824     21.257783     36.549564
  O      43.385833     23.229064     36.300742
  N      40.832000     18.750000     42.551000
25
Coordinates from ORCA-job job E -836.423438432817
  C      44.492795     21.561321     41.262860
  H      44.855746     21.372472     40.241057
  H      44.973109     22.319882     41.871518
  C      43.437955     20.920788     41.783767
  C      42.906816     21.267747     43.202605
  O      43.710531     21.804674     43.966651
  O      41.702692     20.973378     43.454245
  O      42.755557     19.906466     41.106639
  C      42.012929     20.248870     39.911785
  H      41.523616     19.293557     39.650047
  C      42.863147     20.635932     38.749597
  H      43.665255     19.957318     38.432730
  C      42.668658     21.762227     38.024431
  C      41.603505     22.697867     38.395779
  H      41.593102     23.624666     37.817879
  C      40.756516     22.451104     39.417001
  H      40.027253     23.208594     39.729805
  C      40.850724     21.207946     40.275521
  H      41.000585     21.503909     41.341375
  O      39.611669     20.397619     40.248092
  H      38.907594     20.990365     40.008087
  C      43.574849     22.108646     36.798526
  O      44.457988     21.267422     36.540256
  O      43.310593     23.204305     36.240000
  N      40.832000     18.750000     42.551000
25
Coordinates from ORCA-job job E -836.424508871358
  C      44.511289     21.550178     41.266702
  H      44.861386     21.355275     40.254829
  H      45.007001     22.302132     41.875878
  C      43.476745     20.900397     41.816792
  C      42.964151     21.230118     43.251068
  O      43.769969     21.750562     44.017858
  O      41.740624     20.958374     43.478367
  O      42.794243     19.888464     41.139377
  C      42.038184     20.234771     39.944540
  H      41.549103     19.274345     39.682918
  C      42.882557     20.633987     38.777215
  H      43.674380     19.960519     38.441343
  C      42.666244     21.756979     38.052724
  C      41.593767     22.679709     38.434656
  H      41.539751     23.603361     37.825676
  C      40.753360     22.421878     39.457473
  H      39.998794     23.166103     39.762179
  C      40.868024     21.181840     40.304651
  H      41.002307     21.471430     41.360118
  O      39.655405     20.359754     40.261585
  H      38.939749     20.956470     39.954084
  C      43.563539     22.115217     36.825959
  O      44.461219     21.287251     36.569383
  O      43.261475     23.201021     36.251704
  N      40.832000     18.750000     42.551000
25
Coordinates from ORCA-job job E -836.425396719931
  C      44.528957     21.553042     41.273147
  H      44.879170     21.364959     40.258569
  H      45.033946     22.296815     41.901619
  C      43.493523     20.899181     41.812422
  C      42.988807     21.211754     43.252342
  O      43.807293     21.726234     44.027178
  O      41.768555     20.930781     43.481825
  O      42.815622     19.884195     41.133249
  C      42.047462     20.228863     39.947657
  H      41.558525     19.267052     39.689784
  C      42.877076     20.631609     38.771107
  H      43.681563     19.966291     38.439854
  C      42.659211     21.751677     38.057139
  C      41.588250     22.665716     38.449482
  H      41.542080     23.586888     37.858565
  C      40.752480     22.405077     39.474844
  H      40.007004     23.146134     39.792717
  C      40.880208     21.174019     40.326334
  H      41.036150     21.472363     41.381566
  O      39.659078     20.351232     40.320112
  H      38.948338     20.940453     39.999576
  C      43.551810     22.112606     36.831293
  O      44.426050     21.274157     36.535875
  O      43.283127     23.213023     36.311993
  N      40.832000     18.750000     42.551000
25
Coordinates from ORCA-job job E -836.425377006795
  C      44.534962     21.540125     41.282243
  H      44.877736     21.360612     40.256680
  H      45.034650     22.290331     41.901176
  C      43.500032     20.889972     41.819108
  C      42.993758     21.204470     43.249716
  O      43.811443     21.743790     44.008913
  O      41.781210     20.896960     43.494667
  O      42.817048     19.875756     41.141423
  C      42.055229     20.224088     39.955424
  H      41.567328     19.264317     39.691531
  C      42.884993     20.631849     38.782876
  H      43.691453     19.970564     38.450137
  C      42.663995     21.748811     38.073623
  C      41.588391     22.656036     38.466889
  H      41.549543     23.574648     37.892608
  C      40.753908     22.392866     39.490881
  H      40.010579     23.130569     39.813262
  C      40.885240     21.166701     40.332395
  H      41.032544     21.461364     41.383027
  O      39.675282     20.354211     40.320151
  H      38.957466     20.902918     40.016013
  C      43.545852     22.111145     36.836074
  O      44.434979     21.283330     36.559808
  O      43.246350     23.201552     36.283741
  N      40.832000     18.750000     42.551000
25
Coordinates from ORCA-job job E -836.426152125299
  C      44.543893     21.538532     41.287946
  H      44.880596     21.367413     40.259065
  H      45.033113     22.293602     41.894200
  C      43.515261     20.879060     41.831538
  C      43.009460     21.193942     43.259733
  O      43.818896     21.733852     44.012737
  O      41.800341     20.890181     43.512585
  O      42.827856     19.869885     41.154097
  C      42.067247     20.220205     39.967751
  H      41.584001     19.259425     39.701179
  C      42.897483     20.631185     38.795837
  H      43.701038     19.970190     38.460086
  C      42.658660     21.743546     38.073077
  C      41.574023     22.645799     38.460926
  H      41.514607     23.562636     37.868060
  C      40.746274     22.381806     39.490873
  H      39.995608     23.117776     39.807863
  C      40.896146     21.159976     40.350683
  H      41.062142     21.470801     41.402436
  O      39.684174     20.334032     40.365801
  H      38.968709     20.890106     40.026576
  C      43.537637     22.111084     36.838300
  O      44.424696     21.284257     36.549447
  O      43.242680     23.204852     36.301597
  N      40.832000     18.750000     42.551000
25
Coordinates from ORCA-job job E -836.426453929560
  C      44.545834     21.543230     41.283537
  H      44.885231     21.365402     40.266051
  H      45.045632     22.290833     41.902909
  C      43.521788     20.880442     41.833715
  C      43.030272     21.185925     43.277341
  O      43.845090     21.721659     44.034158
  O      41.820428     20.882012     43.530258
  O      42.837758     19.868501     41.156273
  C      42.072356     20.218460     39.971577
  H      41.589390     19.255352     39.706089
  C      42.900068     20.632262     38.798081
  H      43.707873     19.974159     38.463484
  C      42.655514     21.742306     38.075688
  C      41.568491     22.639935     38.465690
  H      41.499746     23.554758     37.867015
  C      40.743573     22.374526     39.497401
  H      39.988735     23.107145     39.814375
  C      40.901394     21.156340     40.358575
  H      41.072227     21.468846     41.406931
  O      39.689865     20.328069     40.382931
  H      38.975284     20.880395     40.032932
  C      43.532006     22.112532     36.840949
  O      44.422838     21.288304     36.552894
  O      43.228014     23.202694     36.301917
  N      40.832000     18.750000     42.551000
25
Coordinates from ORCA-job job E -836.426710447930
  C      44.552893     21.540791     41.291933
  H      44.883901     21.373549     40.263648
  H      45.052379     22.288897     41.910898
  C      43.531880     20.875065     41.842030
  C      43.043441     21.175498     43.284498
  O      43.860700     21.716124     44.037611
  O      41.836593     20.863949     43.541824
  O      42.845724     19.864908     41.163438
  C      42.079666     20.218022     39.979559
  H      41.596564     19.255236     39.712974
  C      42.904875     20.634208     38.805213
  H      43.716863     19.979568     38.472778
  C      42.653373     21.739781     38.080436
  C      41.558462     22.631212     38.465793
  H      41.481895     23.541306     37.863390
  C      40.738679     22.365807     39.501875
  H      39.979207     23.094940     39.816316
  C      40.908442     21.154485     40.368800
  H      41.083441     21.472922     41.412754
  O      39.701163     20.324158     40.406211
  H      38.985673     20.863101     40.040652
  C      43.523987     22.110869     36.840664
  O      44.416142     21.288875     36.550708
  O      43.214651     23.199067     36.300990
  N      40.832000     18.750000     42.551000
25
Coordinates from ORCA-job job E -836.426928763986
  C      44.561149     21.538554     41.296503
  H      44.889003     21.375518     40.268563
  H      45.057857     22.288294     41.912437
  C      43.543414     20.869366     41.848276
  C      43.058463     21.165310     43.291285
  O      43.872873     21.715016     44.038515
  O      41.854648     20.844078     43.552774
  O      42.854924     19.861835     41.168082
  C      42.086904     20.217783     39.985865
  H      41.605308     19.254859     39.718968
  C      42.909369     20.636620     38.810804
  H      43.721335     19.984356     38.477926
  C      42.647605     21.736639     38.080715
  C      41.549041     22.621345     38.465857
  H      41.463101     23.526020     37.858052
  C      40.734833     22.356399     39.506189
  H      39.972277     23.081577     39.819879
  C      40.916021     21.153246     40.378962
  H      41.099012     21.479639     41.419063
  O      39.711032     20.324127     40.431504
  H      38.995854     20.849092     40.050497
  C      43.515254     22.110299     36.840855
  O      44.410217     21.292233     36.549350
  O      43.200777     23.196454     36.302090
  N      40.832000     18.750000     42.551000
25
Coordinates from ORCA-job job E -836.427185269773
  C      44.569223     21.538952     41.301868
  H      44.890786     21.383458     40.271294
  H      45.068138     22.284819     41.921053
  C      43.556618     20.864159     41.857120
  C      43.081305     21.152720     43.306302
  O      43.897042     21.707787     44.048192
  O      41.882993     20.821522     43.577311
  O      42.864185     19.859779     41.176387
  C      42.096593     20.218323     39.995566
  H      41.617217     19.254938     39.726191
  C      42.916848     20.641267     38.820613
  H      43.736372     19.994515     38.492165
  C      42.644040     21.734342     38.085920
  C      41.535236     22.609382     38.465840
  H      41.437916     23.507669     37.851750
  C      40.724699     22.344223     39.508036
  H      39.955684     23.063848     39.819442
  C      40.924573     21.151269     40.392435
  H      41.119402     21.490623     41.427540
  O      39.721686     20.316880     40.470299
  H      39.006728     20.826031     40.058529
  C      43.503227     22.109249     36.839517
  O      44.405380     21.298605     36.550322
  O      43.173533     23.188491     36.291819
  N      40.832000     18.750000     42.551000
25
Coordinates from ORCA-job job E -836.427423408758
  C      44.587138     21.523410     41.309962
  H      44.893471     21.381125     40.270292
  H      45.096509     22.255905     41.941359
  C      43.577651     20.849442     41.870845
  C      43.120286     21.131899     43.330389
  O      43.933411     21.706051     44.060694
  O      41.934294     20.781865     43.613765
  O      42.871729     19.857522     41.187248
  C      42.105484     20.224741     40.006221
  H      41.628249     19.259867     39.732601
  C      42.926304     20.654585     38.834012
  H      43.751324     20.013494     38.509135
  C      42.634328     21.736400     38.088755
  C      41.510358     22.596948     38.459688
  H      41.382639     23.481931     37.820777
  C      40.710187     22.333066     39.509187
  H      39.925125     23.041081     39.813210
  C      40.933668     21.155559     40.405596
  H      41.140042     21.508654     41.431101
  O      39.736837     20.321466     40.504700
  H      39.025746     20.805939     40.061019
  C      43.488084     22.114911     36.842070
  O      44.399639     21.314911     36.555331
  O      43.144864     23.186268     36.294829
  N      40.832000     18.750000     42.551000
25
Coordinates from ORCA-job job E -836.427360467111
  C      44.616412     21.547395     41.317304
  H      44.928612     21.413199     40.282667
  H      45.116907     22.285483     41.947795
  C      43.614996     20.853532     41.876591
  C      43.161889     21.117331     43.341439
  O      43.977450     21.696434     44.069791
  O      41.982331     20.743323     43.634686
  O      42.913635     19.857621     41.194116
  C      42.137142     20.225290     40.024919
  H      41.662481     19.260583     39.750126
  C      42.938573     20.661786     38.840600
  H      43.774084     20.033477     38.515673
  C      42.609310     21.730405     38.073108
  C      41.476550     22.576783     38.446257
  H      41.333541     23.451753     37.802308
  C      40.709462     22.313811     39.528874
  H      39.924155     23.013126     39.839943
  C      40.961673     21.149522     40.439270
  H      41.182014     21.512353     41.457593
  O      39.765641     20.315399     40.571233
  H      39.053663     20.768424     40.100659
  C      43.434809     22.110276     36.800228
  O      44.356532     21.323103     36.508667
  O      43.065190     23.172252     36.242320
  N      40.832000     18.750000     42.551000
25
Coordinates from ORCA-job job E -836.426860371073
  C      44.620489     21.493624     41.324847
  H      44.922970     21.360311     40.296631
  H      45.129353     22.220238     41.947990
  C      43.608498     20.822902     41.874940
  C      43.166762     21.092931     43.335076
  O      43.982492     21.699909     44.042010
  O      41.993457     20.699199     43.639693
  O      42.876713     19.853202     41.183339
  C      42.110019     20.247113     40.012178
  H      41.624457     19.289455     39.723903
  C      42.926606     20.686394     38.840859
  H      43.778092     20.066188     38.539321
  C      42.615685     21.740730     38.083909
  C      41.455944     22.570201     38.422649
  H      41.317756     23.425646     37.779217
  C      40.669898     22.318398     39.484708
  H      39.865257     23.008464     39.774876
  C      40.944086     21.183986     40.426869
  H      41.191126     21.583796     41.433683
  O      39.743155     20.352560     40.616272
  H      39.041924     20.771467     40.086310
  C      43.457099     22.112869     36.827734
  O      44.413878     21.346392     36.586201
  O      43.055147     23.147766     36.224832
  N      40.832000     18.750000     42.551000
25
Coordinates from ORCA-job job E -836.426968919825
  C      44.617915     21.513498     41.310645
  H      44.914153     21.395985     40.263486
  H      45.131925     22.230317     41.956451
  C      43.611400     20.831376     41.875534
  C      43.169285     21.103449     43.343971
  O      43.972315     21.713089     44.053919
  O      42.002280     20.714228     43.645390
  O      42.882544     19.861885     41.185165
  C      42.110757     20.245770     40.014285
  H      41.630144     19.284390     39.736296
  C      42.920390     20.681450     38.836030
  H      43.752682     20.052328     38.516051
  C      42.623217     21.743086     38.093730
  C      41.489863     22.581635     38.461078
  H      41.330263     23.438637     37.793220
  C      40.694294     22.328879     39.508360
  H      39.887916     23.018313     39.802401
  C      40.946925     21.182324     40.423562
  H      41.177500     21.560565     41.433986
  O      39.751802     20.359230     40.566985
  H      39.052214     20.796912     40.059406
  C      43.443450     22.110113     36.813891
  O      44.358120     21.323747     36.511181
  O      43.066040     23.155803     36.244360
  N      40.832000     18.750000     42.551000
25
Coordinates from ORCA-job job E -836.426545607503
  C      44.615735     21.508379     41.313476
  H      44.910989     21.382461     40.260540
  H      45.139751     22.223496     41.958822
  C      43.604474     20.837582     41.874449
  C      43.172380     21.108772     43.350481
  O      43.987680     21.701150     44.066375
  O      42.006112     20.727015     43.665211
  O      42.876315     19.861004     41.194102
  C      42.116529     20.243551     40.020606
  H      41.632552     19.285921     39.733358
  C      42.941330     20.677261     38.852278
  H      43.771846     20.045428     38.528001
  C      42.593660     21.738986     38.056068
  C      41.461766     22.587074     38.423231
  H      41.310336     23.453557     37.761906
  C      40.693566     22.334271     39.504691
  H      39.895835     23.028950     39.798966
  C      40.946595     21.177295     40.425515
  H      41.164751     21.548650     41.440582
  O      39.751717     20.351120     40.555716
  H      39.046688     20.796326     40.078937
  C      43.438971     22.113570     36.808190
  O      44.371479     21.330854     36.543078
  O      43.074982     23.167592     36.249245
  N      40.832000     18.750000     42.551000
25
Coordinates from ORCA-job job E -836.427748668934
  C      44.618637     21.514193     41.314425
  H      44.923700     21.380280     40.279738
  H      45.132543     22.237443     41.944755
  C      43.608239     20.838751     41.872359
  C      43.167068     21.107437     43.339645
  O      43.981774     21.701732     44.054193
  O      41.995650     20.721449     43.645655
  O      42.883304     19.861744     41.187025
  C      42.116378     20.245505     40.017265
  H      41.630357     19.288867     39.733500
  C      42.929038     20.679624     38.840063
  H      43.768194     20.052662     38.522445
  C      42.612973     21.743498     38.076777
  C      41.467950     22.586122     38.431504
  H      41.324549     23.449808     37.780893
  C      40.692917     22.332606     39.506524
  H      39.896515     23.025553     39.803927
  C      40.947867     21.179502     40.428674
  H      41.173208     21.553206     41.442386
  O      39.749240     20.352274     40.573727
  H      39.046012     20.790262     40.078901
  C      43.440947     22.111872     36.806199
  O      44.369509     21.328614     36.528423
  O      43.059943     23.159220     36.230114
  N      40.832000     18.750000     42.551000
25
Coordinates from ORCA-job job E -836.427752946276
  C      44.618371     21.511434     41.314552
  H      44.916262     21.388177     40.270134
  H      45.139267     22.226182     41.956346
  C      43.608600     20.834349     41.874192
  C      43.171796     21.099994     43.343852
  O      43.986212     21.698569     44.054016
  O      42.003308     20.711480     43.652173
  O      42.878958     19.863216     41.184506
  C      42.113164     20.249913     40.013833
  H      41.626955     19.292971     39.729541
  C      42.923987     20.685311     38.835362
  H      43.763171     20.059543     38.518725
  C      42.607157     21.743762     38.072979
  C      41.468544     22.582230     38.434886
  H      41.310712     23.440142     37.768584
  C      40.689870     22.331636     39.503031
  H      39.890706     23.022719     39.800465
  C      40.947315     21.184704     40.426574
  H      41.178649     21.563245     41.438364
  O      39.749753     20.356124     40.583000
  H      39.049825     20.788390     40.064389
  C      43.440566     22.112284     36.810422
  O      44.379701     21.335230     36.546442
  O      43.054277     23.153883     36.228968
  N      40.832000     18.750000     42.551000
25
Coordinates from ORCA-job job E -836.427836745726
  C      44.619089     21.502077     41.312269
  H      44.912142     21.378172     40.268707
  H      45.142495     22.214748     41.949272
  C      43.609452     20.829013     41.877077
  C      43.182352     21.093761     43.352335
  O      43.996916     21.699252     44.057491
  O      42.017593     20.698553     43.667190
  O      42.869956     19.865036     41.187399
  C      42.108360     20.257881     40.015322
  H      41.622989     19.302040     39.726159
  C      42.924741     20.696222     38.841886
  H      43.773089     20.075398     38.533580
  C      42.601785     21.750850     38.074602
  C      41.448433     22.583295     38.422335
  H      41.286742     23.435916     37.754712
  C      40.672393     22.333931     39.492598
  H      39.863924     23.021245     39.781618
  C      40.940678     21.192011     40.425365
  H      41.173291     21.577030     41.434624
  O      39.745180     20.363840     40.586384
  H      39.048399     20.787081     40.067269
  C      43.432627     22.120283     36.808351
  O      44.372130     21.347212     36.540212
  O      43.043529     23.158321     36.224041
  N      40.832000     18.750000     42.551000
25
Coordinates from ORCA-job job E -836.427807608658
  C      44.621011     21.508567     41.311702
  H      44.921805     21.381109     40.274216
  H      45.144296     22.221954     41.948947
  C      43.608462     20.836088     41.870117
  C      43.175594     21.098014     43.341479
  O      43.990939     21.702589     44.048957
  O      42.012978     20.696425     43.657918
  O      42.875543     19.867268     41.185774
  C      42.112749     20.257817     40.018406
  H      41.623929     19.303797     39.727616
  C      42.929263     20.696660     38.845177
  H      43.768016     20.075142     38.527044
  C      42.597460     21.750222     38.069026
  C      41.449416     22.583351     38.423415
  H      41.298587     23.435901     37.767678
  C      40.678529     22.335053     39.500554
  H      39.872679     23.021689     39.793138
  C      40.945638     21.192952     40.431265
  H      41.177261     21.575213     41.439790
  O      39.748429     20.368503     40.592402
  H      39.052164     20.785665     40.069023
  C      43.423305     22.117128     36.796798
  O      44.366771     21.347314     36.531580
  O      43.026669     23.149926     36.205996
  N      40.832000     18.750000     42.551000
25
Coordinates from ORCA-job job E -836.427915640512
  C      44.627381     21.504079     41.313463
  H      44.925323     21.379502     40.273309
  H      45.153235     22.214685     41.952752
  C      43.612908     20.833444     41.869471
  C      43.184239     21.093321     43.342781
  O      43.999511     21.699587     44.046914
  O      42.023299     20.690915     43.662364
  O      42.874986     19.868740     41.180295
  C      42.111153     20.263470     40.013528
  H      41.621485     19.310135     39.722184
  C      42.924556     20.702981     38.838095
  H      43.770199     20.084377     38.525161
  C      42.594186     21.754228     38.064677
  C      41.441427     22.584138     38.414988
  H      41.275369     23.433161     37.743682
  C      40.676162     22.337627     39.497811
  H      39.870948     23.022552     39.790190
  C      40.945943     21.198822     40.431320
  H      41.182490     21.582853     41.439201
  O      39.747468     20.374978     40.600623
  H      39.053843     20.788695     40.068997
  C      43.421980     22.121865     36.795665
  O      44.372418     21.356311     36.539296
  O      43.021200     23.151733     36.201257
  N      40.832000     18.750000     42.551000
25
Coordinates from ORCA-job job E -836.427903734344
  C      44.618817     21.516998     41.310781
  H      44.913570     21.397669     40.265335
  H      45.143228     22.228962     41.948661
  C      43.609620     20.840193     41.875569
  C      43.183492     21.096606     43.351548
  O      43.996692     21.704787     44.054599
  O      42.023857     20.690797     43.671248
  O      42.873072     19.875275     41.186131
  C      42.110105     20.265960     40.017658
  H      41.622727     19.311532     39.728646
  C      42.922425     20.704648     38.840637
  H      43.776309     20.088549     38.533965
  C      42.592305     21.753771     38.069945
  C      41.442767     22.582511     38.424815
  H      41.275155     23.429764     37.753238
  C      40.669741     22.337125     39.496198
  H      39.861140     23.021687     39.788094
  C      40.942806     21.199070     40.430372
  H      41.177086     21.584960     41.438241
  O      39.748730     20.370935     40.598100
  H      39.056846     20.779705     40.055561
  C      43.415375     22.118990     36.797944
  O      44.361302     21.352042     36.533982
  O      43.013949     23.146181     36.205493
  N      40.832000     18.750000     42.551000
25
Coordinates from ORCA-job job E -836.427994225956
  C      44.624750     21.502956     41.309075
  H      44.915391     21.383785     40.263412
  H      45.156470     22.208808     41.947798
  C      43.612949     20.832871     41.873735
  C      43.195633     21.087544     43.352869
  O      44.012708     21.699040     44.050700
  O      42.040093     20.675874     43.681079
  O      42.866114     19.875288     41.183311
  C      42.104618     20.275816     40.017257
  H      41.611927     19.325033     39.722370
  C      42.918432     20.715420     38.841903
  H      43.765254     20.099667     38.531052
  C      42.584142     21.759662     38.064266
  C      41.429509     22.585079     38.412613
  H      41.259301     23.426557     37.737215
  C      40.664717     22.344640     39.494121
  H      39.855649     23.027516     39.783574
  C      40.940965     21.212673     40.434623
  H      41.180773     21.603152     41.440255
  O      39.744271     20.388949     40.613753
  H      39.056487     20.786883     40.059104
  C      43.409708     22.123577     36.793744
  O      44.366608     21.364727     36.543227
  O      42.999386     23.142569     36.189580
  N      40.832000     18.750000     42.551000
25
Coordinates from ORCA-job job E -836.427954294560
  C      44.628034     21.507182     41.313014
  H      44.928971     21.380588     40.275656
  H      45.161280     22.213597     41.953027
  C      43.610029     20.841073     41.867491
  C      43.185544     21.091006     43.341216
  O      44.000575     21.699665     44.043494
  O      42.031702     20.676231     43.665917
  O      42.872691     19.877316     41.179723
  C      42.109950     20.273570     40.016675
  H      41.615661     19.323559     39.721793
  C      42.924731     20.715088     38.842074
  H      43.774795     20.103015     38.529738
  C      42.584336     21.760199     38.062814
  C      41.426074     22.584291     38.412087
  H      41.248737     23.424974     37.733451
  C      40.668149     22.343755     39.501038
  H      39.854343     23.024458     39.788091
  C      40.945022     21.208238     40.437571
  H      41.182460     21.591362     41.444493
  O      39.744618     20.386135     40.612648
  H      39.065076     20.782267     40.062624
  C      43.404476     22.123703     36.787828
  O      44.368716     21.371831     36.542300
  O      42.981697     23.134752     36.176512
  N      40.832000     18.750000     42.551000
25
Coordinates from ORCA-job job E -836.428076331845
  C      44.629198     21.503907     41.310926
  H      44.923207     21.381488     40.270724
  H      45.166769     22.206457     41.949502
  C      43.612628     20.838619     41.869553
  C      43.198602     21.083012     43.348298
  O      44.015269     21.696931     44.044341
  O      42.049155     20.659971     43.681804
  O      42.865801     19.882244     41.179251
  C      42.105672     20.286029     40.016530
  H      41.608111     19.338733     39.718816
  C      42.922454     20.726248     38.843111
  H      43.780439     20.117067     38.539466
  C      42.577667     21.764421     38.056764
  C      41.414097     22.584931     38.398432
  H      41.232688     23.418186     37.714294
  C      40.661207     22.351202     39.492812
  H      39.848950     23.030364     39.779567
  C      40.943429     21.224188     40.437393
  H      41.183514     21.614967     41.440344
  O      39.746339     20.405579     40.622336
  H      39.066591     20.781460     40.040557
  C      43.397019     22.123315     36.780420
  O      44.365759     21.375747     36.540328
  O      42.969894     23.125871     36.161445
  N      40.832000     18.750000     42.551000
25
Coordinates from ORCA-job job E -836.428063890973
  C      44.630614     21.499059     41.308747
  H      44.918741     21.383310     40.258061
  H      45.166550     22.202036     41.945300
  C      43.616968     20.832157     41.876513
  C      43.208850     21.079902     43.358942
  O      44.028010     21.690819     44.053287
  O      42.057196     20.662850     43.695002
  O      42.863252     19.880181     41.181131
  C      42.103539     20.287352     40.016844
  H      41.606451     19.340099     39.717442
  C      42.914759     20.726953     38.839200
  H      43.763670     20.115071     38.528738
  C      42.576660     21.764963     38.059913
  C      41.423464     22.586731     38.412365
  H      41.244532     23.420450     37.730972
  C      40.662659     22.354601     39.495316
  H      39.854197     23.036366     39.786085
  C      40.942605     21.225430     40.439358
  H      41.186970     21.616462     41.446329
  O      39.742656     20.405602     40.627129
  H      39.070459     20.781511     40.039102
  C      43.391523     22.122021     36.780648
  O      44.361087     21.377391     36.539462
  O      42.959196     23.119335     36.157864
  N      40.832000     18.750000     42.551000
25
Coordinates from ORCA-job job E -836.428227834526
  C      44.630680     21.498628     41.306359
  H      44.920185     21.379093     40.260522
  H      45.172233     22.198476     41.943700
  C      43.615467     20.834504     41.872774
  C      43.210453     21.075410     43.355630
  O      44.030420     21.687506     44.049026
  O      42.063124     20.650625     43.694734
  O      42.862011     19.883034     41.180544
  C      42.102354     20.292527     40.019409
  H      41.601550     19.347767     39.719062
  C      42.916208     20.731870     38.843404
  H      43.770934     20.123201     38.537235
  C      42.571739     21.766346     38.057261
  C      41.412073     22.586047     38.403239
  H      41.226273     23.414495     37.715135
  C      40.660319     22.358702     39.497062
  H      39.848087     23.038567     39.783588
  C      40.943054     21.232650     40.443691
  H      41.186888     21.623496     41.448122
  O      39.742349     20.416255     40.634363
  H      39.075784     20.778790     40.033451
  C      43.385717     22.120097     36.776885
  O      44.364658     21.382830     36.546135
  O      42.942576     23.106961     36.143191
  N      40.832000     18.750000     42.551000
25
Coordinates from ORCA-job job E -836.428324630844
  C      44.634888     21.498516     41.310493
  H      44.926176     21.376841     40.267232
  H      45.178845     22.197347     41.947896
  C      43.616801     20.837228     41.872453
  C      43.213467     21.071846     43.354890
  O      44.033979     21.682734     44.048547
  O      42.068337     20.642724     43.695539
  O      42.864130     19.885827     41.179527
  C      42.104504     20.296810     40.020191
  H      41.601583     19.353394     39.718889
  C      42.918171     20.736542     38.844120
  H      43.774135     20.129799     38.537533
  C      42.568154     21.768734     38.055130
  C      41.405432     22.586837     38.400873
  H      41.213471     23.411934     37.709904
  C      40.659682     22.362653     39.500355
  H      39.846176     23.041426     39.786992
  C      40.945649     21.236739     40.446868
  H      41.189418     21.624995     41.450652
  O      39.744219     20.422353     40.639031
  H      39.086201     20.768545     40.018011
  C      43.373735     22.118262     36.767241
  O      44.357985     21.388399     36.538577
  O      42.918874     23.093058     36.125912
  N      40.832000     18.750000     42.551000
25
Coordinates from ORCA-job job E -836.428448225955
  C      44.633339     21.499601     41.308411
  H      44.925193     21.376346     40.265817
  H      45.178208     22.198353     41.945014
  C      43.615100     20.837942     41.871620
  C      43.214348     21.067088     43.354572
  O      44.036378     21.674336     44.049115
  O      42.069586     20.637433     43.696137
  O      42.863588     19.886105     41.179348
  C      42.103928     20.298241     40.021545
  H      41.600061     19.355859     39.720015
  C      42.917719     20.737747     38.845165
  H      43.778011     20.132211     38.540991
  C      42.565556     21.769167     38.055972
  C      41.401827     22.587395     38.402605
  H      41.206858     23.410248     37.711760
  C      40.662043     22.367222     39.507918
  H      39.850737     23.046591     39.796434
  C      40.946529     21.239149     40.451471
  H      41.190136     21.622398     41.456350
  O      39.741945     20.430644     40.642190
  H      39.097780     20.755412     39.996561
  C      43.368002     22.114686     36.767754
  O      44.364917     21.397193     36.550875
  O      42.896708     23.072380     36.114009
  N      40.832000     18.750000     42.551000
25
Coordinates from ORCA-job job E -836.428627711568
  C      44.633550     21.499929     41.309111
  H      44.924256     21.375941     40.265901
  H      45.177264     22.198865     41.946444
  C      43.616223     20.836879     41.873133
  C      43.215050     21.063989     43.354948
  O      44.039094     21.665033     44.052459
  O      42.067027     20.640069     43.693831
  O      42.865077     19.884972     41.179748
  C      42.103977     20.299480     40.021841
  H      41.600315     19.356559     39.721104
  C      42.917629     20.738647     38.845100
  H      43.777480     20.131154     38.540832
  C      42.565790     21.771228     38.057656
  C      41.403848     22.591150     38.406879
  H      41.204896     23.413160     37.714897
  C      40.665213     22.373483     39.512380
  H      39.853515     23.054871     39.799600
  C      40.948501     21.242079     40.454503
  H      41.194203     21.622176     41.461339
  O      39.738878     20.438607     40.647117
  H      39.112894     20.739733     39.973722
  C      43.361241     22.111997     36.763813
  O      44.364609     21.404268     36.549605
  O      42.874090     23.052505     36.098416
  N      40.832000     18.750000     42.551000
25
Coordinates from ORCA-job job E -836.428898753464
  C      44.634729     21.498734     41.310611
  H      44.920704     21.376431     40.264389
  H      45.175892     22.197377     41.949082
  C      43.618761     20.834332     41.875259
  C      43.219831     21.061592     43.358764
  O      44.047523     21.656396     44.057592
  O      42.067941     20.645303     43.696960
  O      42.864446     19.883963     41.181421
  C      42.101190     20.299913     40.023594
  H      41.599813     19.355223     39.725059
  C      42.913872     20.738944     38.846468
  H      43.770074     20.127827     38.541843
  C      42.565507     21.773855     38.062677
  C      41.406566     22.594994     38.414907
  H      41.203867     23.416157     37.722145
  C      40.666998     22.378903     39.518102
  H      39.858097     23.062380     39.806552
  C      40.948122     21.244150     40.458804
  H      41.196286     21.620225     41.466614
  O      39.733400     20.448240     40.655739
  H      39.135046     20.707583     39.937209
  C      43.355683     22.110022     36.764100
  O      44.373979     21.419479     36.561850
  O      42.845671     23.025512     36.079531
  N      40.832000     18.750000     42.551000
25
Coordinates from ORCA-job job E -836.429123855435
  C      44.636200     21.496841     41.310153
  H      44.915501     21.378571     40.259286
  H      45.171644     22.196872     41.950636
  C      43.624576     20.828165     41.876501
  C      43.223773     21.061915     43.361855
  O      44.054237     21.649039     44.064291
  O      42.064235     20.659657     43.693569
  O      42.865017     19.880155     41.181244
  C      42.095034     20.298086     40.024282
  H      41.595065     19.350127     39.729806
  C      42.904722     20.735876     38.845249
  H      43.754766     20.118691     38.540128
  C      42.564155     21.777086     38.066435
  C      41.414522     22.603511     38.424104
  H      41.215646     23.427773     37.734022
  C      40.673788     22.385717     39.526350
  H      39.872794     23.073018     39.819895
  C      40.946469     21.246138     40.462844
  H      41.197105     21.617423     41.472853
  O      39.726356     20.459880     40.660948
  H      39.159180     20.675876     39.907389
  C      43.349135     22.108538     36.760272
  O      44.373822     21.429073     36.562353
  O      42.827534     23.005818     36.063993
  N      40.832000     18.750000     42.551000
25
Coordinates from ORCA-job job E -836.429223558216
  C      44.634625     21.500599     41.309662
  H      44.912539     21.386114     40.258728
  H      45.169633     22.198969     41.954458
  C      43.626937     20.825242     41.877741
  C      43.224713     21.056210     43.362791
  O      44.057520     21.638523     44.067417
  O      42.064257     20.656355     43.692442
  O      42.867487     19.878144     41.182814
  C      42.095093     20.298295     40.028119
  H      41.593155     19.350008     39.733780
  C      42.904952     20.737517     38.849721
  H      43.752410     20.120265     38.543672
  C      42.563596     21.780138     38.072106
  C      41.412620     22.606086     38.429962
  H      41.208349     23.427477     37.737510
  C      40.675859     22.389627     39.536073
  H      39.871091     23.076280     39.828112
  C      40.948690     21.248042     40.469968
  H      41.200666     21.615325     41.480890
  O      39.725777     20.469995     40.671548
  H      39.198406     20.619329     39.856635
  C      43.340094     22.105500     36.759153
  O      44.390538     21.454201     36.583860
  O      42.783524     22.967104     36.034486
  N      40.832000     18.750000     42.551000
25
Coordinates from ORCA-job job E -836.429448559690
  C      44.634118     21.501967     41.307091
  H      44.919825     21.379978     40.262271
  H      45.169013     22.203975     41.950085
  C      43.625579     20.828113     41.871500
  C      43.213541     21.066132     43.351258
  O      44.046673     21.638823     44.062972
  O      42.048229     20.677113     43.671082
  O      42.877120     19.872127     41.183674
  C      42.100345     20.282511     40.031859
  H      41.599979     19.333019     39.742812
  C      42.904449     20.722324     38.849885
  H      43.744046     20.102572     38.529977
  C      42.568503     21.776858     38.084384
  C      41.425515     22.611498     38.456162
  H      41.233228     23.446841     37.778001
  C      40.683828     22.383805     39.556816
  H      39.881840     23.072695     39.858378
  C      40.947864     21.225944     40.472620
  H      41.185979     21.576153     41.490002
  O      39.730098     20.440985     40.643418
  H      39.202724     20.592595     39.848231
  C      43.340608     22.106148     36.770789
  O      44.390789     21.456132     36.592282
  O      42.781567     22.973485     36.054002
  N      40.832000     18.750000     42.551000
25
Coordinates from ORCA-job job E -836.429497553651
  C      44.629297     21.491055     41.302741
  H      44.908296     21.374194     40.254890
  H      45.167408     22.191259     41.941944
  C      43.623186     20.818530     41.869243
  C      43.220176     21.056899     43.354120
  O      44.057628     21.628266     44.061492
  O      42.054594     20.670239     43.678052
  O      42.868163     19.866858     41.183386
  C      42.091604     20.279239     40.034008
  H      41.588949     19.331699     39.744686
  C      42.893835     20.719211     38.851955
  H      43.736353     20.101670     38.533898
  C      42.557696     21.774010     38.086658
  C      41.414473     22.608334     38.458219
  H      41.224263     23.444519     37.781078
  C      40.674958     22.379011     39.561764
  H      39.880068     23.066408     39.870102
  C      40.939454     21.222180     40.477849
  H      41.179827     21.572388     41.494952
  O      39.721054     20.433150     40.659555
  H      39.218215     20.548640     39.839360
  C      43.338008     22.103012     36.783337
  O      44.385852     21.455216     36.604441
  O      42.791300     22.967908     36.077779
  N      40.832000     18.750000     42.551000
25
Coordinates from ORCA-job job E -836.429694603188
  C      44.630723     21.493415     41.302989
  H      44.909579     21.381705     40.253304
  H      45.166166     22.195709     41.941950
  C      43.626944     20.815264     41.869072
  C      43.220420     21.052854     43.352906
  O      44.056459     21.618637     44.064229
  O      42.049653     20.674377     43.670048
  O      42.872512     19.863602     41.178033
  C      42.094687     20.279995     40.028960
  H      41.589923     19.332779     39.738085
  C      42.898635     20.721989     38.849062
  H      43.748284     20.106341     38.532918
  C      42.560042     21.780239     38.086264
  C      41.420696     22.616914     38.463990
  H      41.232119     23.455926     37.790263
  C      40.684063     22.385505     39.569989
  H      39.892683     23.072432     39.883628
  C      40.943730     21.224687     40.478114
  H      41.184820     21.568943     41.498664
  O      39.719906     20.442761     40.658978
  H      39.237250     20.532122     39.820432
  C      43.324951     22.105567     36.768102
  O      44.377679     21.468069     36.586340
  O      42.756188     22.955180     36.045318
  N      40.832000     18.750000     42.551000
25
Coordinates from ORCA-job job E -836.429746093699
  C      44.631085     21.493345     41.302208
  H      44.910475     21.386030     40.252484
  H      45.168584     22.192874     41.945106
  C      43.627802     20.811739     41.869607
  C      43.220387     21.052139     43.352554
  O      44.056376     21.621778     44.061791
  O      42.051258     20.674036     43.672225
  O      42.871832     19.862053     41.177706
  C      42.093978     20.279414     40.028296
  H      41.589750     19.331883     39.737283
  C      42.897140     20.722600     38.848830
  H      43.741940     20.107845     38.530021
  C      42.561016     21.780584     38.088335
  C      41.418904     22.615567     38.462311
  H      41.228171     23.453936     37.785481
  C      40.678492     22.382863     39.563611
  H      39.876304     23.068200     39.868479
  C      40.941242     21.222693     40.475016
  H      41.179045     21.568567     41.495965
  O      39.720638     20.440559     40.652211
  H      39.248502     20.509061     39.807704
  C      43.329841     22.109291     36.775139
  O      44.396493     21.482033     36.607082
  O      42.754480     22.954814     36.048005
  N      40.832000     18.750000     42.551000
25
Coordinates from ORCA-job job E -836.429804314236
  C      44.633203     21.498551     41.294759
  H      44.914254     21.390697     40.247069
  H      45.172662     22.199455     41.934066
  C      43.631786     20.815592     41.863167
  C      43.224212     21.052100     43.345120
  O      44.061847     21.615017     44.058533
  O      42.053609     20.676914     43.663367
  O      42.881164     19.862674     41.172867
  C      42.100015     20.281437     40.026951
  H      41.592141     19.335655     39.738181
  C      42.896577     20.722789     38.841887
  H      43.737403     20.107028     38.514302
  C      42.558440     21.781859     38.083460
  C      41.424053     22.623252     38.467696
  H      41.236159     23.465591     37.794416
  C      40.689087     22.391747     39.573914
  H      39.890710     23.079208     39.884537
  C      40.948571     21.225374     40.478957
  H      41.182223     21.563100     41.503530
  O      39.727807     20.443748     40.646234
  H      39.264640     20.497303     39.798268
  C      43.312089     22.104780     36.758028
  O      44.368968     21.472617     36.573694
  O      42.735223     22.950457     36.037654
  N      40.832000     18.750000     42.551000
25
Coordinates from ORCA-job job E -836.429830926125
  C      44.630944     21.489732     41.299798
  H      44.906261     21.387485     40.248905
  H      45.175582     22.186108     41.937922
  C      43.626799     20.813778     41.864465
  C      43.225475     21.047750     43.349370
  O      44.063795     21.611767     44.059796
  O      42.054905     20.672390     43.668752
  O      42.871656     19.864558     41.173685
  C      42.097170     20.283746     40.025088
  H      41.590550     19.338303     39.734172
  C      42.899015     20.727309     38.844863
  H      43.748017     20.115455     38.523055
  C      42.556621     21.783529     38.083596
  C      41.419156     22.621228     38.465703
  H      41.231445     23.462496     37.793795
  C      40.682374     22.389030     39.568792
  H      39.889160     23.072151     39.884405
  C      40.943477     21.225451     40.473979
  H      41.176682     21.564246     41.497159
  O      39.722032     20.438304     40.648945
  H      39.280340     20.466562     39.787632
  C      43.314738     22.107716     36.764101
  O      44.371002     21.478170     36.579179
  O      42.737289     22.949078     36.042279
  N      40.832000     18.750000     42.551000
25
Coordinates from ORCA-job job E -836.429884913152
  C      44.631539     21.489945     41.295925
  H      44.907580     21.389489     40.245138
  H      45.174176     22.186587     41.935872
  C      43.629754     20.808992     41.863849
  C      43.227752     21.044794     43.348439
  O      44.066824     21.608630     44.058703
  O      42.056534     20.671549     43.668665
  O      42.875383     19.858743     41.173374
  C      42.100268     20.276155     40.024415
  H      41.599083     19.328137     39.731715
  C      42.899272     20.724745     38.843829
  H      43.747153     20.114677     38.518479
  C      42.554337     21.782271     38.085987
  C      41.413951     22.616302     38.469892
  H      41.222598     23.459185     37.799628
  C      40.677867     22.378592     39.572641
  H      39.878062     23.059195     39.886555
  C      40.942713     21.212469     40.474595
  H      41.174717     21.548959     41.498960
  O      39.724004     20.423561     40.644754
  H      39.286379     20.440586     39.779200
  C      43.308294     22.110807     36.763962
  O      44.369643     21.486761     36.579778
  O      42.724840     22.950627     36.042645
  N      40.832000     18.750000     42.551000
25
Coordinates from ORCA-job job E -836.429833524237
  C      44.635215     21.486883     41.292959
  H      44.909876     21.388409     40.241962
  H      45.182647     22.180600     41.933279
  C      43.633424     20.805707     41.864865
  C      43.235780     21.036808     43.349702
  O      44.075649     21.601147     44.058484
  O      42.066915     20.660949     43.672681
  O      42.873982     19.859407     41.171692
  C      42.097204     20.282514     40.024778
  H      41.592929     19.336098     39.729341
  C      42.895739     20.729351     38.843293
  H      43.744806     20.120446     38.519812
  C      42.546921     21.780615     38.078698
  C      41.407164     22.614705     38.460141
  H      41.213659     23.453512     37.784771
  C      40.676470     22.383372     39.569401
  H      39.871263     23.064036     39.876647
  C      40.941847     21.221599     40.476367
  H      41.174193     21.562517     41.501001
  O      39.722696     20.432799     40.648320
  H      39.287096     20.451452     39.791895
  C      43.300088     22.106249     36.754803
  O      44.364458     21.479086     36.574943
  O      42.718141     22.950264     36.032440
  N      40.832000     18.750000     42.551000
25
Coordinates from ORCA-job job E -836.429928088655
  C      44.634977     21.488979     41.294682
  H      44.910660     21.391019     40.243832
  H      45.179098     22.183837     41.935696
  C      43.631939     20.808151     41.862101
  C      43.231741     21.040278     43.346524
  O      44.071984     21.601776     44.057100
  O      42.060372     20.668732     43.667268
  O      42.876920     19.857904     41.170532
  C      42.101546     20.273374     40.020576
  H      41.605736     19.322776     39.726434
  C      42.899219     20.724351     38.839984
  H      43.747772     20.116197     38.514048
  C      42.549546     21.778546     38.080477
  C      41.407566     22.609796     38.464625
  H      41.213333     23.452268     37.794902
  C      40.672415     22.371445     39.567420
  H      39.868421     23.049361     39.879281
  C      40.939087     21.204639     40.468203
  H      41.165814     21.540813     41.494754
  O      39.723759     20.410214     40.631441
  H      39.300320     20.406965     39.761260
  C      43.300844     22.107701     36.757202
  O      44.364562     21.484282     36.573613
  O      42.714173     22.947293     36.035870
  N      40.832000     18.750000     42.551000
25
Coordinates from ORCA-job job E -836.429942709443
  C      44.629090     21.487655     41.286758
  H      44.902077     21.390430     40.234960
  H      45.173619     22.182176     41.927026
  C      43.628434     20.806491     41.857852
  C      43.231459     21.038500     43.343717
  O      44.073907     21.598048     44.053701
  O      42.059642     20.668791     43.665575
  O      42.873938     19.854902     41.170121
  C      42.097631     20.266903     40.020312
  H      41.605914     19.314122     39.726607
  C      42.893838     20.720093     38.839388
  H      43.742995     20.113102     38.512832
  C      42.541229     21.773050     38.079645
  C      41.397447     22.601563     38.464331
  H      41.200585     23.443814     37.794517
  C      40.663632     22.361336     39.568152
  H      39.859039     23.036963     39.881051
  C      40.932600     21.195009     40.468486
  H      41.159166     21.530685     41.494926
  O      39.717599     20.398343     40.632848
  H      39.300522     20.388667     39.759298
  C      43.291570     22.103612     36.755867
  O      44.352139     21.478057     36.568165
  O      42.705974     22.944919     36.037080
  N      40.832000     18.750000     42.551000
25
Coordinates from ORCA-job job E -836.429944568294
  C      44.636154     21.500787     41.288900
  H      44.909206     21.407810     40.236483
  H      45.176923     22.196264     41.930743
  C      43.636192     20.815236     41.856925
  C      43.237666     21.039666     43.342942
  O      44.080928     21.593059     44.056265
  O      42.065708     20.669609     43.664558
  O      42.882272     19.863708     41.165697
  C      42.108710     20.274856     40.012325
  H      41.622717     19.319085     39.715076
  C      42.906775     20.731627     38.833622
  H      43.758061     20.126691     38.508424
  C      42.547120     21.779716     38.069281
  C      41.399216     22.603932     38.451711
  H      41.199636     23.444367     37.782467
  C      40.666652     22.362935     39.556729
  H      39.859084     23.035177     39.867912
  C      40.938315     21.198335     40.457587
  H      41.160237     21.534411     41.484572
  O      39.725358     20.395630     40.622016
  H      39.326288     20.364663     39.738160
  C      43.296848     22.109851     36.745527
  O      44.353085     21.478756     36.553824
  O      42.715140     22.955231     36.031576
  N      40.832000     18.750000     42.551000
25
Coordinates from ORCA-job job E -836.429946575681
  C      44.634739     21.482596     41.300267
  H      44.905637     21.378587     40.251089
  H      45.183809     22.172795     41.943525
  C      43.628139     20.811637     41.866480
  C      43.233847     21.035867     43.350194
  O      44.082815     21.581071     44.062930
  O      42.061170     20.671401     43.673916
  O      42.869614     19.860760     41.178468
  C      42.096155     20.266555     40.022065
  H      41.619289     19.306416     39.723528
  C      42.896053     20.725032     38.845723
  H      43.751521     20.121831     38.525491
  C      42.533805     21.767812     38.077295
  C      41.383612     22.588145     38.456002
  H      41.181603     23.425973     37.785661
  C      40.648393     22.348536     39.559032
  H      39.835944     23.018114     39.864852
  C      40.916793     21.182780     40.459413
  H      41.124288     21.516568     41.490589
  O      39.710453     20.372188     40.601476
  H      39.320597     20.329228     39.716576
  C      43.287410     22.095927     36.754807
  O      44.336778     21.453432     36.562514
  O      42.714269     22.948648     36.042077
  N      40.832000     18.750000     42.551000
25
Coordinates from ORCA-job job E -836.429898459207
  C      44.628963     21.501024     41.291815
  H      44.904705     21.398209     40.241401
  H      45.167992     22.198549     41.934525
  C      43.625403     20.820072     41.857455
  C      43.225431     21.042017     43.341965
  O      44.070435     21.586187     44.060156
  O      42.049732     20.676813     43.657585
  O      42.877575     19.862941     41.170105
  C      42.103475     20.263254     40.014018
  H      41.629004     19.302588     39.719854
  C      42.900753     20.722019     38.835299
  H      43.751796     20.117302     38.510958
  C      42.539740     21.767390     38.070507
  C      41.389079     22.587361     38.451366
  H      41.185652     23.427528     37.780918
  C      40.651510     22.343972     39.550154
  H      39.842452     23.014179     39.860490
  C      40.924516     21.177511     40.452029
  H      41.136257     21.512710     41.482783
  O      39.718690     20.366451     40.594702
  H      39.307132     20.357143     39.728575
  C      43.290136     22.101802     36.746144
  O      44.339542     21.457338     36.546564
  O      42.716099     22.965790     36.039717
  N      40.832000     18.750000     42.551000
25
Coordinates from ORCA-job job E -836.429967461205
  C      44.626220     21.496181     41.292956
  H      44.901717     21.401972     40.240266
  H      45.165172     22.192392     41.935240
  C      43.625356     20.808165     41.861433
  C      43.226512     21.030975     43.348938
  O      44.071687     21.576362     44.066169
  O      42.050536     20.667945     43.664280
  O      42.874116     19.855944     41.170235
  C      42.099460     20.261180     40.016931
  H      41.618963     19.303780     39.722774
  C      42.895908     20.718737     38.838397
  H      43.748367     20.116534     38.515681
  C      42.534332     21.764221     38.071548
  C      41.381680     22.584055     38.449074
  H      41.178889     23.422553     37.775283
  C      40.647320     22.340517     39.552623
  H      39.834491     23.008659     39.859691
  C      40.922529     21.177868     40.457140
  H      41.138805     21.515461     41.485759
  O      39.712609     20.369187     40.615193
  H      39.320104     20.337356     39.730293
  C      43.285384     22.096607     36.747555
  O      44.340995     21.460889     36.554864
  O      42.708557     22.951710     36.035673
  N      40.832000     18.750000     42.551000
25
Coordinates from ORCA-job job E -836.429966198692
  C      44.626624     21.500331     41.291352
  H      44.900751     21.398064     40.241878
  H      45.167252     22.196819     41.933898
  C      43.625499     20.820117     41.857585
  C      43.226237     21.045692     43.340892
  O      44.074208     21.588172     44.056620
  O      42.051427     20.684062     43.661279
  O      42.875570     19.864209     41.169046
  C      42.101437     20.265175     40.011347
  H      41.624697     19.303552     39.715512
  C      42.898928     20.723729     38.832708
  H      43.754219     20.120091     38.510524
  C      42.536478     21.768582     38.066265
  C      41.387314     22.588371     38.448259
  H      41.187415     23.427254     37.779737
  C      40.652476     22.345248     39.551721
  H      39.838421     23.014440     39.857804
  C      40.922160     21.180875     40.450676
  H      41.134421     21.514550     41.480670
  O      39.712915     20.372447     40.600591
  H      39.317478     20.342488     39.715323
  C      43.289439     22.100821     36.744562
  O      44.334370     21.454403     36.545103
  O      42.721587     22.962509     36.041442
  N      40.832000     18.750000     42.551000
25
Coordinates from ORCA-job job E -836.430016947639
  C      44.623119     21.498227     41.294501
  H      44.896767     21.397491     40.243996
  H      45.165152     22.193621     41.937222
  C      43.622038     20.816554     41.862448
  C      43.226031     21.038691     43.348607
  O      44.073864     21.583141     44.063334
  O      42.052811     20.672692     43.669919
  O      42.870455     19.862531     41.174109
  C      42.097198     20.264189     40.017524
  H      41.619798     19.304100     39.722292
  C      42.895291     20.721119     38.839313
  H      43.751568     20.119593     38.520502
  C      42.531387     21.761567     38.067981
  C      41.376795     22.578766     38.441694
  H      41.172974     23.413602     37.765577
  C      40.641213     22.338424     39.544502
  H      39.826439     23.005454     39.847647
  C      40.916844     21.179364     40.453111
  H      41.127384     21.520208     41.481951
  O      39.711801     20.366592     40.602704
  H      39.313138     20.337212     39.723008
  C      43.286666     22.093405     36.746734
  O      44.331276     21.443976     36.548578
  O      42.721932     22.960096     36.041366
  N      40.832000     18.750000     42.551000
25
Coordinates from ORCA-job job E -836.430022215121
  C      44.620644     21.508106     41.288937
  H      44.896804     21.409473     40.237703
  H      45.157500     22.207238     41.930536
  C      43.621394     20.820047     41.856268
  C      43.220206     21.042404     43.340839
  O      44.067165     21.580741     44.061083
  O      42.041968     20.683615     43.653841
  O      42.875285     19.862799     41.167027
  C      42.101278     20.262093     40.010410
  H      41.625821     19.301208     39.717071
  C      42.898425     20.720389     38.831919
  H      43.750531     20.117586     38.507747
  C      42.535641     21.764573     38.065057
  C      41.383640     22.583593     38.444434
  H      41.182150     23.422569     37.772579
  C      40.646609     22.338973     39.544992
  H      39.832865     23.006224     39.851673
  C      40.920105     21.175371     40.447524
  H      41.130580     21.510946     41.477953
  O      39.712298     20.363016     40.596478
  H      39.320192     20.331602     39.712459
  C      43.287692     22.098368     36.742052
  O      44.334812     21.451035     36.541898
  O      42.719586     22.966212     36.038601
  N      40.832000     18.750000     42.551000
25
Coordinates from ORCA-job job E -836.430034988103
  C      44.619116     21.505589     41.295634
  H      44.894542     21.408510     40.244029
  H      45.157296     22.202682     41.938636
  C      43.619331     20.817959     41.861584
  C      43.220217     21.040002     43.347562
  O      44.067465     21.580781     44.065133
  O      42.043942     20.678746     43.663913
  O      42.870731     19.863015     41.170523
  C      42.099498     20.261725     40.012015
  H      41.625629     19.300299     39.717056
  C      42.897937     20.720904     38.835006
  H      43.755138     20.121864     38.515565
  C      42.531504     21.760845     38.063816
  C      41.373445     22.574472     38.436898
  H      41.169750     23.409123     37.761259
  C      40.636003     22.329787     39.537634
  H      39.815139     22.992897     39.837964
  C      40.914977     21.172603     40.445792
  H      41.124894     21.513766     41.473962
  O      39.709417     20.356952     40.599673
  H      39.318545     20.322103     39.714711
  C      43.288788     22.096365     36.744521
  O      44.331088     21.442722     36.543461
  O      42.730913     22.972654     36.045496
  N      40.832000     18.750000     42.551000
25
Coordinates from ORCA-job job E -836.429950179719
  C      44.614635     21.510097     41.289101
  H      44.889720     21.404107     40.241487
  H      45.155214     22.209067     41.931703
  C      43.618923     20.826586     41.857100
  C      43.219846     21.052930     43.340890
  O      44.069097     21.590720     44.058340
  O      42.044613     20.694567     43.662051
  O      42.874189     19.865569     41.171497
  C      42.101007     20.261390     40.011343
  H      41.626589     19.297983     39.715998
  C      42.896078     20.719198     38.830605
  H      43.756945     20.118868     38.510743
  C      42.531027     21.760798     38.060967
  C      41.378482     22.577919     38.437528
  H      41.179273     23.415174     37.764959
  C      40.642546     22.333733     39.540062
  H      39.828064     22.999205     39.844580
  C      40.917266     21.172927     40.445822
  H      41.122003     21.510893     41.476591
  O      39.717066     20.355627     40.584636
  H      39.315776     20.326076     39.705062
  C      43.289518     22.097659     36.744300
  O      44.318093     21.431606     36.532287
  O      42.743273     22.985711     36.055454
  N      40.832000     18.750000     42.551000
25
Coordinates from ORCA-job job E -836.430055054739
  C      44.610916     21.513869     41.294279
  H      44.887274     21.414287     40.244150
  H      45.147805     22.213113     41.936828
  C      43.613764     20.824700     41.860608
  C      43.212993     21.046889     43.345258
  O      44.061075     21.584160     44.064775
  O      42.035668     20.688332     43.660537
  O      42.869513     19.865679     41.171528
  C      42.098193     20.259753     40.010986
  H      41.626348     19.296339     39.717556
  C      42.896434     20.717242     38.833033
  H      43.754500     20.118029     38.514583
  C      42.529804     21.755404     38.059835
  C      41.371709     22.568993     38.430823
  H      41.169072     23.402912     37.753748
  C      40.632814     22.325135     39.530568
  H      39.812482     22.987584     39.829708
  C      40.911438     21.169316     40.441069
  H      41.117000     21.512457     41.470120
  O      39.709226     20.350244     40.589142
  H      39.318267     20.312998     39.704482
  C      43.289891     22.091569     36.742526
  O      44.324085     21.427557     36.536199
  O      42.742339     22.979329     36.049977
  N      40.832000     18.750000     42.551000
25
Coordinates from ORCA-job job E -836.430055433806
  C      44.609514     21.521396     41.287465
  H      44.887138     21.422746     40.236540
  H      45.141626     22.224243     41.929324
  C      43.614294     20.827828     41.853873
  C      43.209654     21.053198     43.337566
  O      44.056412     21.588313     44.059502
  O      42.029260     20.699715     43.648541
  O      42.874004     19.865232     41.164949
  C      42.103061     20.255984     40.002984
  H      41.634701     19.291068     39.710368
  C      42.900539     20.716000     38.825325
  H      43.756475     20.115949     38.503098
  C      42.535502     21.758983     38.057670
  C      41.378473     22.573268     38.433052
  H      41.178539     23.412192     37.761958
  C      40.637423     22.323294     39.529924
  H      39.817277     22.986119     39.832278
  C      40.914626     21.162463     40.433681
  H      41.120123     21.500686     41.463472
  O      39.711978     20.342413     40.580037
  H      39.318210     20.312059     39.697282
  C      43.294526     22.099406     36.740734
  O      44.327955     21.435713     36.530543
  O      42.746828     22.990052     36.052314
  N      40.832000     18.750000     42.551000
25
Coordinates from ORCA-job job E -836.429994121327
  C      44.607350     21.518740     41.285898
  H      44.883758     21.417497     40.234059
  H      45.143885     22.221158     41.924268
  C      43.615379     20.824356     41.853981
  C      43.212184     21.050014     43.339044
  O      44.059499     21.576671     44.065736
  O      42.026868     20.705394     43.640453
  O      42.876226     19.862113     41.166476
  C      42.102177     20.254796     40.008739
  H      41.630626     19.292272     39.718829
  C      42.896158     20.711840     38.827517
  H      43.755339     20.116402     38.503804
  C      42.527811     21.750243     38.055370
  C      41.369448     22.562110     38.429124
  H      41.170766     23.395429     37.750183
  C      40.630827     22.314864     39.529666
  H      39.802976     22.971993     39.825488
  C      40.913873     21.162212     40.442522
  H      41.120017     21.503462     41.470263
  O      39.707295     20.345704     40.595535
  H      39.315027     20.320835     39.711992
  C      43.295592     22.095970     36.743690
  O      44.315057     21.408920     36.523137
  O      42.777320     23.024622     36.074559
  N      40.832000     18.750000     42.551000
25
Coordinates from ORCA-job job E -836.430058672211
  C      44.604442     21.518085     41.288811
  H      44.883382     21.417244     40.240022
  H      45.141035     22.219313     41.929890
  C      43.610474     20.825520     41.855335
  C      43.204912     21.051912     43.337800
  O      44.052367     21.583542     44.062724
  O      42.023004     20.702833     43.644560
  O      42.870707     19.863450     41.167553
  C      42.100344     20.256711     40.006184
  H      41.628890     19.293351     39.712644
  C      42.898579     20.714683     38.828255
  H      43.756569     20.117839     38.506368
  C      42.531930     21.753865     38.056107
  C      41.373770     22.567238     38.427176
  H      41.173848     23.402491     37.749116
  C      40.632424     22.320679     39.524327
  H      39.811793     22.979915     39.824199
  C      40.911797     21.164766     40.435347
  H      41.114130     21.507618     41.465676
  O      39.710486     20.344535     40.579687
  H      39.323725     20.302123     39.691179
  C      43.296447     22.097038     36.742584
  O      44.322518     21.421233     36.528091
  O      42.765806     23.007950     36.064080
  N      40.832000     18.750000     42.551000
25
Coordinates from ORCA-job job E -836.429911720165
  C      44.609574     21.521317     41.288939
  H      44.885378     21.423335     40.236809
  H      45.137222     22.226574     41.930755
  C      43.614973     20.825497     41.857489
  C      43.209278     21.053082     43.340075
  O      44.057393     21.591802     44.058073
  O      42.029655     20.698571     43.657259
  O      42.870887     19.862799     41.167731
  C      42.099229     20.251896     40.004262
  H      41.633775     19.284214     39.710191
  C      42.898244     20.712467     38.828068
  H      43.753328     20.110530     38.508521
  C      42.533073     21.753555     38.059209
  C      41.369948     22.563853     38.428067
  H      41.167477     23.400490     37.757061
  C      40.628491     22.313669     39.524281
  H      39.803825     22.975622     39.821590
  C      40.910036     21.157890     40.431623
  H      41.118168     21.502773     41.458761
  O      39.710888     20.333531     40.583219
  H      39.302254     20.319530     39.711557
  C      43.301285     22.097347     36.750205
  O      44.318870     21.418183     36.532192
  O      42.770444     22.999639     36.072070
  N      40.832000     18.750000     42.551000
25
Coordinates from ORCA-job job E -836.430076476609
  C      44.603468     21.523364     41.289360
  H      44.882836     21.422536     40.239561
  H      45.135801     22.227427     41.930083
  C      43.608755     20.829633     41.854418
  C      43.200817     21.056469     43.336426
  O      44.047860     21.586041     44.062305
  O      42.016789     20.710769     43.642061
  O      42.871164     19.864744     41.165911
  C      42.100155     20.253541     40.003319
  H      41.632077     19.288363     39.712409
  C      42.897634     20.710605     38.824765
  H      43.754280     20.111097     38.503268
  C      42.532928     21.751400     38.054236
  C      41.376063     22.566110     38.426739
  H      41.178352     23.403468     37.752965
  C      40.634008     22.318393     39.523449
  H      39.812113     22.979627     39.822360
  C      40.910807     21.160106     40.431042
  H      41.112663     21.500645     41.461429
  O      39.709139     20.338394     40.574711
  H      39.319344     20.303886     39.689610
  C      43.298503     22.094704     36.741515
  O      44.319832     21.413996     36.523687
  O      42.771068     23.007816     36.065608
  N      40.832000     18.750000     42.551000
25
Coordinates from ORCA-job job E -836.430065615643
  C      44.602654     21.518616     41.288927
  H      44.881874     21.418650     40.239716
  H      45.136588     22.221070     41.930304
  C      43.609684     20.824053     41.856829
  C      43.204389     21.053044     43.340062
  O      44.051177     21.590291     44.061496
  O      42.024316     20.701014     43.649992
  O      42.870313     19.860694     41.170260
  C      42.100148     20.249688     40.007539
  H      41.631922     19.284252     39.713905
  C      42.899296     20.708994     38.830826
  H      43.758857     20.113286     38.511196
  C      42.532214     21.747838     38.058751
  C      41.368329     22.556637     38.425450
  H      41.166218     23.390741     37.746809
  C      40.624200     22.307451     39.519686
  H      39.799836     22.964002     39.816853
  C      40.908682     21.155354     40.433798
  H      41.113420     21.503160     41.461538
  O      39.708971     20.333216     40.583555
  H      39.311127     20.300892     39.701494
  C      43.303836     22.096076     36.751047
  O      44.325913     21.415379     36.536028
  O      42.782063     23.015196     36.077524
  N      40.832000     18.750000     42.551000
25
Coordinates from ORCA-job job E -836.429311564859
  C      44.611338     21.519226     41.306778
  H      44.876643     21.420782     40.246475
  H      45.141707     22.224133     41.942811
  C      43.612771     20.827198     41.858212
  C      43.217489     21.044659     43.346266
  O      44.063581     21.573191     44.063727
  O      42.032789     20.690345     43.666335
  O      42.862891     19.864930     41.164855
  C      42.095290     20.250237     40.004242
  H      41.637877     19.287398     39.717997
  C      42.891522     20.712303     38.829251
  H      43.759531     20.117556     38.519690
  C      42.528750     21.749709     38.060804
  C      41.363257     22.550472     38.421862
  H      41.165879     23.375749     37.749103
  C      40.623945     22.297619     39.520804
  H      39.774742     22.954456     39.797547
  C      40.906954     21.151439     40.432261
  H      41.114042     21.501519     41.461119
  O      39.709957     20.316817     40.586616
  H      39.293700     20.311821     39.720814
  C      43.303601     22.094957     36.760194
  O      44.336059     21.425785     36.553944
  O      42.765897     22.992376     36.070441
  N      40.832000     18.750000     42.551000
25
Coordinates from ORCA-job job E -836.430053140229
  C      44.605250     21.518400     41.294133
  H      44.882038     21.418917     40.243238
  H      45.139183     22.220426     41.935785
  C      43.610491     20.824830     41.859154
  C      43.208738     21.048890     43.344094
  O      44.056505     21.585328     44.064292
  O      42.029295     20.694162     43.657008
  O      42.868851     19.862210     41.170448
  C      42.098323     20.250183     40.007778
  H      41.632481     19.284780     39.715453
  C      42.897219     20.709961     38.831548
  H      43.759173     20.114854     38.515576
  C      42.530329     21.747938     38.058841
  C      41.365350     22.554141     38.423432
  H      41.162588     23.385813     37.745158
  C      40.621709     22.305077     39.518600
  H      39.792045     22.961058     39.810333
  C      40.906739     21.154630     40.433532
  H      41.111520     21.502982     41.460584
  O      39.707466     20.330105     40.585717
  H      39.305991     20.303517     39.706115
  C      43.303219     22.095184     36.752599
  O      44.330290     21.420423     36.542893
  O      42.775287     23.004881     36.072779
  N      40.832000     18.750000     42.551000
25
Coordinates from ORCA-job job E -836.430065833493
  C      44.603358     21.520488     41.297559
  H      44.882110     21.424385     40.247158
  H      45.137836     22.220003     41.941869
  C      43.607656     20.826586     41.861694
  C      43.202649     21.050042     43.346318
  O      44.048712     21.587312     44.068307
  O      42.023510     20.695146     43.656786
  O      42.867125     19.865654     41.171013
  C      42.102675     20.254196     40.004155
  H      41.638939     19.287892     39.708022
  C      42.905527     20.716143     38.830909
  H      43.769202     20.123865     38.516468
  C      42.536165     21.751764     38.055479
  C      41.366468     22.555443     38.415577
  H      41.161892     23.387037     37.735293
  C      40.620520     22.305471     39.508767
  H      39.789230     22.958435     39.799222
  C      40.906968     21.155742     40.425236
  H      41.107222     21.505812     41.452694
  O      39.710977     20.327726     40.574032
  H      39.320636     20.285024     39.688737
  C      43.310770     22.101504     36.750038
  O      44.336079     21.424809     36.538914
  O      42.786458     23.016310     36.072402
  N      40.832000     18.750000     42.551000
25
Coordinates from ORCA-job job E -836.430057065831
  C      44.604285     21.519876     41.292752
  H      44.884774     21.419095     40.244768
  H      45.138209     22.222729     41.933480
  C      43.609595     20.828183     41.861118
  C      43.205290     21.052837     43.343630
  O      44.053612     21.586029     44.066616
  O      42.024659     20.702171     43.652972
  O      42.872290     19.863233     41.175736
  C      42.099526     20.248784     40.013401
  H      41.632086     19.281713     39.722848
  C      42.897976     20.703861     38.834704
  H      43.756418     20.105333     38.516507
  C      42.532380     21.741551     38.060065
  C      41.373556     22.554904     38.429154
  H      41.172724     23.390109     37.751468
  C      40.631281     22.311215     39.526565
  H      39.810927     22.970609     39.823772
  C      40.908260     21.155930     40.438785
  H      41.109263     21.499941     41.469310
  O      39.705908     20.337157     40.583168
  H      39.320458     20.293192     39.694849
  C      43.300396     22.084298     36.748005
  O      44.326374     21.407706     36.537111
  O      42.771480     22.993316     36.068134
  N      40.832000     18.750000     42.551000
25
Coordinates from ORCA-job job E -836.430065431663
  C      44.604680     21.523539     41.290328
  H      44.886360     21.423576     40.242749
  H      45.136207     22.225845     41.933100
  C      43.608572     20.831575     41.854615
  C      43.201737     21.058848     43.336465
  O      44.048694     21.594545     44.059071
  O      42.021038     20.705753     43.645617
  O      42.869706     19.868682     41.166538
  C      42.103128     20.255453     40.000654
  H      41.639180     19.288656     39.706698
  C      42.904342     20.715403     38.825379
  H      43.767702     20.120621     38.511193
  C      42.538299     21.752934     38.050380
  C      41.374877     22.560015     38.414982
  H      41.174483     23.394107     37.737448
  C      40.628032     22.311082     39.508045
  H      39.802407     22.967318     39.801785
  C      40.909685     21.159263     40.423775
  H      41.111825     21.507491     41.451884
  O      39.710397     20.335281     40.574037
  H      39.317369     20.302076     39.690848
  C      43.313705     22.102709     36.744438
  O      44.339541     21.425697     36.534641
  O      42.791850     23.018056     36.069676
  N      40.832000     18.750000     42.551000
25
Coordinates from ORCA-job job E -836.429949821458
  C      44.605073     21.519036     41.300506
  H      44.880519     21.423911     40.244826
  H      45.140097     22.219457     41.945765
  C      43.609470     20.822725     41.862494
  C      43.201531     21.046740     43.348572
  O      44.043648     21.582536     44.073726
  O      42.018924     20.694865     43.653410
  O      42.868678     19.860085     41.168437
  C      42.101514     20.251011     40.004502
  H      41.632452     19.288102     39.713631
  C      42.902254     20.709423     38.829433
  H      43.760680     20.113355     38.511806
  C      42.539174     21.749646     38.059486
  C      41.372126     22.558882     38.420669
  H      41.173429     23.391822     37.743255
  C      40.627766     22.308294     39.515335
  H      39.790777     22.965915     39.803600
  C      40.911406     21.156052     40.427135
  H      41.112553     21.501324     41.453019
  O      39.714768     20.327236     40.574224
  H      39.311737     20.303132     39.696937
  C      43.313262     22.095327     36.754275
  O      44.334547     21.416910     36.539922
  O      42.785798     23.006463     36.071208
  N      40.832000     18.750000     42.551000
25
Coordinates from ORCA-job job E -836.430079213391
  C      44.604193     21.525080     41.295360
  H      44.886250     21.426725     40.246445
  H      45.135171     22.227823     41.938572
  C      43.608139     20.831447     41.858767
  C      43.198424     21.058540     43.340674
  O      44.043566     21.593009     44.065664
  O      42.016178     20.708264     43.646567
  O      42.871494     19.866803     41.169933
  C      42.105785     20.252597     40.003014
  H      41.642790     19.285285     39.708725
  C      42.908372     20.713367     38.829013
  H      43.770457     20.118868     38.513218
  C      42.542779     21.751742     38.055701
  C      41.377259     22.558956     38.419047
  H      41.177667     23.394377     37.742639
  C      40.629534     22.308229     39.511060
  H      39.801314     22.963763     39.803746
  C      40.910528     21.154842     40.424342
  H      41.109505     21.501448     41.453436
  O      39.712650     20.328705     40.569678
  H      39.324137     20.287738     39.683965
  C      43.319449     22.102608     36.751515
  O      44.343014     21.423468     36.539545
  O      42.798545     23.020679     36.076719
  N      40.832000     18.750000     42.551000
25
Coordinates from ORCA-job job E -836.430075708806
  C      44.603245     21.522996     41.306469
  H      44.887715     21.422280     40.258914
  H      45.132972     22.227025     41.949898
  C      43.606295     20.829458     41.868179
  C      43.192745     21.056711     43.347847
  O      44.037536     21.587553     44.076089
  O      42.007894     20.710752     43.649672
  O      42.872643     19.863117     41.177207
  C      42.105248     20.247853     40.010390
  H      41.640762     19.280595     39.719160
  C      42.907020     20.704946     38.834871
  H      43.767295     20.107377     38.518813
  C      42.543462     21.744165     38.061287
  C      41.382626     22.555825     38.427204
  H      41.185700     23.392254     37.751700
  C      40.635169     22.307731     39.519811
  H      39.810597     22.966142     39.814283
  C      40.911666     21.152158     40.431270
  H      41.109192     21.495742     41.461302
  O      39.711616     20.328292     40.573216
  H      39.324700     20.290535     39.687425
  C      43.317662     22.090927     36.754047
  O      44.339863     21.409525     36.541405
  O      42.797257     23.008183     36.078850
  N      40.832000     18.750000     42.551000
25
Coordinates from ORCA-job job E -836.430064520219
  C      44.602883     21.517294     41.291731
  H      44.889714     21.412668     40.245030
  H      45.133229     22.222059     41.934933
  C      43.604223     20.829263     41.855624
  C      43.185411     21.066435     43.332585
  O      44.026234     21.600361     44.062839
  O      41.998487     20.724416     43.627842
  O      42.870018     19.863025     41.166864
  C      42.101884     20.250733     40.001527
  H      41.634323     19.285876     39.711143
  C      42.905065     20.706166     38.826852
  H      43.764065     20.107168     38.511314
  C      42.548625     21.749217     38.055052
  C      41.391559     22.564832     38.420722
  H      41.200280     23.404463     37.745671
  C      40.641987     22.316672     39.512569
  H      39.819812     22.977691     39.806876
  C      40.912491     21.159351     40.423648
  H      41.110578     21.501140     41.453930
  O      39.709840     20.341337     40.564204
  H      39.323714     20.306936     39.677102
  C      43.329834     22.100421     36.751407
  O      44.348144     21.414771     36.536909
  O      42.820876     23.027217     36.082850
  N      40.832000     18.750000     42.551000
25
Coordinates from ORCA-job job E -836.430026892176
  C      44.608519     21.526390     41.290764
  H      44.891911     21.426320     40.239863
  H      45.136948     22.232595     41.930247
  C      43.611173     20.836032     41.855231
  C      43.196612     21.067335     43.338748
  O      44.036796     21.602256     44.067857
  O      42.013590     20.718765     43.638963
  O      42.877813     19.868269     41.170839
  C      42.110092     20.253420     40.006444
  H      41.645114     19.286750     39.715024
  C      42.912413     20.710253     38.831131
  H      43.770292     20.113134     38.513510
  C      42.551358     21.750367     38.058546
  C      41.387258     22.563672     38.420302
  H      41.190958     23.401385     37.743028
  C      40.641064     22.315612     39.515127
  H      39.813174     22.974766     39.806808
  C      40.916139     21.159305     40.426571
  H      41.112763     21.503853     41.457943
  O      39.715207     20.338366     40.564494
  H      39.336412     20.284781     39.671489
  C      43.330613     22.100251     36.755662
  O      44.344576     21.411424     36.536481
  O      42.817595     23.027065     36.084772
  N      40.832000     18.750000     42.551000
25
Coordinates from ORCA-job job E -836.430037407786
  C      44.605537     21.520897     41.299462
  H      44.892261     21.415661     40.252953
  H      45.132065     22.228213     41.938883
  C      43.605198     20.829688     41.859010
  C      43.189040     21.065504     43.336459
  O      44.036195     21.596550     44.062574
  O      42.002994     20.723809     43.642992
  O      42.870173     19.861474     41.170675
  C      42.106387     20.247675     40.001999
  H      41.640543     19.280261     39.705396
  C      42.912265     20.707110     38.829154
  H      43.770133     20.107995     38.510314
  C      42.552272     21.749543     38.059343
  C      41.388718     22.561156     38.424248
  H      41.195912     23.400236     37.753438
  C      40.636710     22.309980     39.512736
  H      39.810750     22.969641     39.806047
  C      40.912801     21.152696     40.423225
  H      41.112066     21.496952     41.453547
  O      39.711574     20.326965     40.567342
  H      39.317545     20.297115     39.685563
  C      43.334688     22.100454     36.760691
  O      44.353375     21.413460     36.549154
  O      42.819022     23.024776     36.086467
  N      40.832000     18.750000     42.551000
25
Coordinates from ORCA-job job E -836.429998836213
  C      44.608834     21.525608     41.295558
  H      44.895179     21.421906     40.250512
  H      45.140391     22.229967     41.941346
  C      43.612699     20.833638     41.861236
  C      43.194425     21.064196     43.335822
  O      44.035505     21.597912     44.066065
  O      42.007700     20.717540     43.630053
  O      42.878669     19.867638     41.169025
  C      42.110149     20.253481     40.002513
  H      41.647103     19.287109     39.712747
  C      42.911049     20.711513     38.827170
  H      43.775634     20.115166     38.514561
  C      42.547713     21.750907     38.052420
  C      41.390841     22.562116     38.420472
  H      41.196282     23.400212     37.746331
  C      40.641909     22.312542     39.511411
  H      39.821133     22.970351     39.808676
  C      40.917520     21.156790     40.423229
  H      41.112712     21.498647     41.452016
  O      39.719650     20.330061     40.564508
  H      39.337546     20.290498     39.678386
  C      43.324517     22.102175     36.745040
  O      44.344287     21.416309     36.528717
  O      42.816232     23.029943     36.080931
  N      40.832000     18.750000     42.551000
25
Coordinates from ORCA-job job E -836.430075906758
  C      44.605030     21.514493     41.294956
  H      44.891305     21.409858     40.246902
  H      45.134078     22.220614     41.936271
  C      43.605456     20.827002     41.857918
  C      43.187315     21.065162     43.337251
  O      44.027345     21.601646     44.065788
  O      42.001587     20.721922     43.634885
  O      42.872021     19.859605     41.170590
  C      42.104770     20.245255     40.004564
  H      41.639259     19.279315     39.713361
  C      42.908404     20.702814     38.830673
  H      43.766641     20.104399     38.513379
  C      42.550987     21.746940     38.061379
  C      41.390657     22.560820     38.426512
  H      41.197114     23.400902     37.752195
  C      40.640659     22.309980     39.517260
  H      39.815967     22.969869     39.811505
  C      40.912975     21.151915     40.426123
  H      41.111424     21.494158     41.457183
  O      39.710841     20.333482     40.565107
  H      39.324589     20.294231     39.676912
  C      43.332875     22.099946     36.759966
  O      44.350108     21.413504     36.543868
  O      42.823770     23.028510     36.092148
  N      40.832000     18.750000     42.551000
25
Coordinates from ORCA-job job E -836.430071478187
  C      44.613683     21.522713     41.299474
  H      44.901200     21.418949     40.252677
  H      45.141124     22.228814     41.940845
  C      43.612654     20.832434     41.858757
  C      43.195202     21.064839     43.336877
  O      44.039146     21.597147     44.065481
  O      42.010253     20.719290     43.639742
  O      42.878537     19.865177     41.169387
  C      42.114226     20.251899     40.001522
  H      41.650134     19.284539     39.705821
  C      42.917568     20.711817     38.827233
  H      43.776723     20.114622     38.508861
  C      42.553702     21.751685     38.054851
  C      41.390158     22.562505     38.419984
  H      41.194852     23.400832     37.747379
  C      40.641733     22.312057     39.511673
  H      39.815531     22.970460     39.805784
  C      40.919324     21.155055     40.422338
  H      41.115975     21.498494     41.452895
  O      39.719797     20.328130     40.563529
  H      39.336061     20.285990     39.676513
  C      43.330914     22.102593     36.751421
  O      44.346017     21.413458     36.532325
  O      42.815859     23.029899     36.081941
  N      40.832000     18.750000     42.551000
25
Coordinates from ORCA-job job E -836.430087672982
  C      44.609790     21.511725     41.296386
  H      44.897353     21.403713     40.250329
  H      45.138969     22.218185     41.936994
  C      43.608677     20.825236     41.859142
  C      43.188778     21.064856     43.334985
  O      44.031686     21.597675     44.063904
  O      42.001075     20.725141     43.633299
  O      42.874102     19.857833     41.170867
  C      42.106987     20.244510     40.004234
  H      41.641527     19.278065     39.711571
  C      42.910754     20.702419     38.830362
  H      43.769042     20.102870     38.512559
  C      42.553058     21.746497     38.060919
  C      41.394394     22.561059     38.427969
  H      41.203278     23.402102     37.756817
  C      40.643254     22.310242     39.517532
  H      39.820545     22.970789     39.813248
  C      40.914763     21.150477     40.425579
  H      41.111256     21.490652     41.456788
  O      39.712694     20.328254     40.563685
  H      39.328131     20.290877     39.676624
  C      43.335163     22.098667     36.760053
  O      44.351470     21.409499     36.544405
  O      42.826473     23.028289     36.092474
  N      40.832000     18.750000     42.551000
25
Coordinates from ORCA-job job E -836.430066647501
  C      44.615439     21.514367     41.297244
  H      44.902394     21.411969     40.249202
  H      45.145600     22.218343     41.941229
  C      43.614355     20.827125     41.858205
  C      43.197467     21.061334     43.338754
  O      44.035956     21.600654     44.066729
  O      42.013887     20.712294     43.637240
  O      42.879721     19.862243     41.168487
  C      42.115663     20.249063     40.001162
  H      41.652091     19.283342     39.708050
  C      42.919655     20.709054     38.828113
  H      43.780416     20.113405     38.512103
  C      42.557291     21.749959     38.056261
  C      41.394504     22.560472     38.420401
  H      41.196801     23.398477     37.743961
  C      40.646562     22.309332     39.512386
  H      39.819910     22.966912     39.806109
  C      40.922351     21.153285     40.422145
  H      41.120262     21.497288     41.452910
  O      39.722693     20.332455     40.561778
  H      39.340802     20.286314     39.671972
  C      43.334126     22.102851     36.750864
  O      44.351344     21.417531     36.530959
  O      42.822731     23.030560     36.084794
  N      40.832000     18.750000     42.551000
25
Coordinates from ORCA-job job E -836.430091841238
  C      44.616977     21.504587     41.297015
  H      44.905275     21.395944     40.250750
  H      45.146958     22.210289     41.937843
  C      43.613619     20.820681     41.858612
  C      43.193538     21.061886     43.335304
  O      44.035395     21.596382     44.063910
  O      42.006405     20.721794     43.633721
  O      42.878131     19.854359     41.170454
  C      42.112139     20.242203     40.003835
  H      41.645597     19.276627     39.710814
  C      42.916817     20.699798     38.830471
  H      43.774306     20.099938     38.512448
  C      42.560089     21.744453     38.061368
  C      41.401332     22.559994     38.427778
  H      41.210204     23.401221     37.755969
  C      40.650581     22.309650     39.517878
  H      39.827746     22.970874     39.813291
  C      40.920873     21.149395     40.425324
  H      41.117860     21.489513     41.457043
  O      39.717918     20.329482     40.562520
  H      39.334017     20.291438     39.674579
  C      43.341652     22.096196     36.759990
  O      44.357442     21.407173     36.543374
  O      42.832658     23.025496     36.092031
  N      40.832000     18.750000     42.551000
25
Coordinates from ORCA-job job E -836.430089224753
  C      44.624702     21.501113     41.297154
  H      44.912402     21.393745     40.251117
  H      45.155830     22.204931     41.938962
  C      43.621181     20.817088     41.858734
  C      43.201965     21.057028     43.334770
  O      44.044928     21.591249     44.062844
  O      42.014956     20.715943     43.634144
  O      42.883557     19.853027     41.169201
  C      42.121375     20.242485     40.000428
  H      41.655569     19.277154     39.705095
  C      42.928271     20.701028     38.828726
  H      43.788114     20.102592     38.513151
  C      42.569683     21.743050     38.056796
  C      41.409176     22.556556     38.420684
  H      41.217316     23.395827     37.747399
  C      40.657615     22.307020     39.510135
  H      39.833321     22.966906     39.803535
  C      40.929185     21.148914     40.419897
  H      41.124890     21.490979     41.450826
  O      39.727533     20.326487     40.558330
  H      39.346413     20.285121     39.669748
  C      43.351959     22.094208     36.755758
  O      44.368482     21.405229     36.540627
  O      42.843021     23.022946     36.086846
  N      40.832000     18.750000     42.551000
25
Coordinates from ORCA-job job E -836.430081496050
  C      44.628074     21.485994     41.302005
  H      44.923183     21.365532     40.258980
  H      45.158530     22.194286     41.939626
  C      43.614678     20.813881     41.861920
  C      43.187773     21.064117     43.333334
  O      44.029058     21.598798     44.062127
  O      41.997724     20.728595     43.629446
  O      42.875521     19.849056     41.172911
  C      42.110659     20.238569     40.005037
  H      41.641983     19.273444     39.712542
  C      42.916879     20.691757     38.831076
  H      43.771442     20.086621     38.513915
  C      42.565168     21.737015     38.060010
  C      41.412160     22.558310     38.427234
  H      41.227090     23.400947     37.756865
  C      40.657562     22.312063     39.515429
  H      39.840147     22.977419     39.811416
  C      40.920326     21.149206     40.423018
  H      41.113012     21.485683     41.455149
  O      39.713862     20.330888     40.553415
  H      39.335499     20.292760     39.664178
  C      43.351547     22.085531     36.759551
  O      44.356809     21.380273     36.539188
  O      42.858037     23.028980     36.099048
  N      40.832000     18.750000     42.551000
25
Coordinates from ORCA-job job E -836.429593201317
  C      44.633337     21.483706     41.302535
  H      44.934695     21.366239     40.250064
  H      45.157011     22.199472     41.940168
  C      43.608892     20.817755     41.850876
  C      43.188787     21.063442     43.344124
  O      44.016315     21.615564     44.068109
  O      42.010015     20.711337     43.645383
  O      42.875414     19.848052     41.170938
  C      42.112470     20.230841     40.006222
  H      41.645626     19.267264     39.714805
  C      42.917690     20.685264     38.831078
  H      43.765063     20.080619     38.511117
  C      42.572071     21.737003     38.066292
  C      41.410727     22.559415     38.426124
  H      41.220953     23.405838     37.752042
  C      40.656486     22.308774     39.517373
  H      39.837389     22.977536     39.811529
  C      40.919824     21.142817     40.425131
  H      41.118670     21.481216     41.461276
  O      39.707818     20.341196     40.548116
  H      39.325674     20.292797     39.654219
  C      43.355643     22.086972     36.763629
  O      44.358924     21.386666     36.537855
  O      42.858707     23.026471     36.102287
  N      40.832000     18.750000     42.551000
25
Coordinates from ORCA-job job E -836.430098246547
  C      44.629964     21.483563     41.299583
  H      44.924084     21.364157     40.256050
  H      45.161111     22.191042     41.937783
  C      43.617531     20.811488     41.860167
  C      43.192628     21.062317     43.334046
  O      44.032597     21.601688     44.060792
  O      42.005420     20.722893     43.632720
  O      42.878957     19.846380     41.173011
  C      42.113943     20.234888     40.005704
  H      41.644444     19.270294     39.713893
  C      42.920565     20.688466     38.832133
  H      43.774235     20.083285     38.514202
  C      42.570431     21.735652     38.063495
  C      41.416199     22.556910     38.429947
  H      41.230050     23.399938     37.759190
  C      40.662112     22.309386     39.518368
  H      39.843229     22.974998     39.813897
  C      40.924986     21.146630     40.424793
  H      41.120975     21.484288     41.457030
  O      39.717985     20.331535     40.557452
  H      39.334773     20.296720     39.669270
  C      43.355817     22.084944     36.763222
  O      44.364690     21.386088     36.544257
  O      42.856531     23.022350     36.099476
  N      40.832000     18.750000     42.551000
25
Coordinates from ORCA-job job E -836.430102302852
  C      44.640289     21.470885     41.299309
  H      44.934893     21.349123     40.256072
  H      45.173207     22.177161     41.937196
  C      43.625019     20.803118     41.859489
  C      43.198703     21.057996     43.332034
  O      44.038944     21.596882     44.059148
  O      42.009952     20.721852     43.629479
  O      42.884484     19.839439     41.172225
  C      42.120514     20.230230     40.004758
  H      41.650570     19.266231     39.711535
  C      42.928143     20.684853     38.832227
  H      43.781499     20.079299     38.513237
  C      42.579388     21.733968     38.065357
  C      41.426287     22.556439     38.433115
  H      41.242110     23.401348     37.764335
  C      40.671389     22.307732     39.520686
  H      39.853250     22.973824     39.817275
  C      40.932105     21.142402     40.424757
  H      41.127320     21.477355     41.458045
  O      39.723899     20.328493     40.554863
  H      39.343653     20.292765     39.665470
  C      43.365554     22.084274     36.766067
  O      44.374566     21.385649     36.546995
  O      42.866722     23.022457     36.102853
  N      40.832000     18.750000     42.551000
25
Coordinates from ORCA-job job E -836.430096172139
  C      44.646292     21.476351     41.302745
  H      44.939847     21.356253     40.258849
  H      45.181071     22.181154     41.940880
  C      43.632257     20.807217     41.863376
  C      43.207867     21.058247     43.336135
  O      44.046913     21.603611     44.061185
  O      42.022692     20.710886     43.636578
  O      42.891476     19.845055     41.174590
  C      42.129486     20.236959     40.007173
  H      41.654330     19.275254     39.716739
  C      42.938270     20.684651     38.832984
  H      43.792595     20.077998     38.518270
  C      42.588667     21.728354     38.058809
  C      41.435363     22.553244     38.420785
  H      41.251560     23.392840     37.745428
  C      40.682629     22.312224     39.511789
  H      39.864065     22.979704     39.803140
  C      40.945400     21.154513     40.425687
  H      41.143865     21.498177     41.456304
  O      39.737001     20.342243     40.567277
  H      39.354901     20.306544     39.678221
  C      43.373256     22.070140     36.756845
  O      44.378638     21.366350     36.537594
  O      42.877555     23.008260     36.090457
  N      40.832000     18.750000     42.551000
25
Coordinates from ORCA-job job E -836.430107548276
  C      44.665810     21.439936     41.296926
  H      44.963075     21.308588     40.255727
  H      45.204975     22.142842     41.933394
  C      43.640383     20.787497     41.855782
  C      43.211624     21.053171     43.325304
  O      44.050678     21.598169     44.050069
  O      42.023256     20.716469     43.623926
  O      42.893493     19.828669     41.168847
  C      42.132928     20.225505     40.001253
  H      41.660441     19.263810     39.704901
  C      42.943064     20.681073     38.830587
  H      43.794436     20.074100     38.509193
  C      42.596883     21.732830     38.066147
  C      41.446246     22.558490     38.435758
  H      41.265893     23.406189     37.769386
  C      40.690635     22.308519     39.522659
  H      39.872840     22.975788     39.819833
  C      40.947223     21.140085     40.423075
  H      41.142262     21.471643     41.457991
  O      39.736767     20.329124     40.550764
  H      39.363810     20.291066     39.658382
  C      43.382422     22.083215     36.766677
  O      44.385702     21.378817     36.541687
  O      42.889141     23.028197     36.108597
  N      40.832000     18.750000     42.551000
25
Coordinates from ORCA-job job E -836.430093406549
  C      44.657644     21.442666     41.303348
  H      44.955620     21.311551     40.262039
  H      45.192396     22.149731     41.938690
  C      43.634309     20.785283     41.862922
  C      43.205500     21.049231     43.334633
  O      44.044793     21.590322     44.059651
  O      42.015911     20.718268     43.632751
  O      42.889599     19.823856     41.176925
  C      42.126364     20.218806     40.009773
  H      41.649005     19.257736     39.717724
  C      42.937675     20.666146     38.837339
  H      43.784971     20.052728     38.518843
  C      42.598859     21.718788     38.071023
  C      41.453309     22.551575     38.439534
  H      41.275304     23.398455     37.770641
  C      40.695704     22.309708     39.526600
  H      39.884269     22.983936     39.823909
  C      40.944235     21.140246     40.428249
  H      41.139807     21.471795     41.462407
  O      39.729139     20.336220     40.551754
  H      39.346422     20.308599     39.663305
  C      43.387352     22.061105     36.770833
  O      44.393157     21.356931     36.554677
  O      42.892192     22.997494     36.103625
  N      40.832000     18.750000     42.551000
25
Coordinates from ORCA-job job E -836.430111074294
  C      44.671458     21.429008     41.301034
  H      44.970602     21.294120     40.260625
  H      45.209970     22.133517     41.936274
  C      43.644354     20.778467     41.860166
  C      43.213371     21.048424     43.328601
  O      44.052734     21.592319     44.053651
  O      42.023170     20.716710     43.625797
  O      42.898134     19.818594     41.174097
  C      42.137640     20.213829     40.005892
  H      41.659690     19.253530     39.714599
  C      42.950531     20.659601     38.834111
  H      43.798350     20.046097     38.516298
  C      42.612544     21.711784     38.066683
  C      41.467130     22.546084     38.433060
  H      41.292501     23.393122     37.764083
  C      40.709084     22.304534     39.520069
  H      39.896203     22.978373     39.814883
  C      40.956653     21.136282     40.423469
  H      41.151412     21.469369     41.458246
  O      39.741436     20.332246     40.549743
  H      39.366275     20.300011     39.657777
  C      43.401990     22.053513     36.767341
  O      44.402760     21.343446     36.547381
  O      42.913732     22.997330     36.103856
  N      40.832000     18.750000     42.551000
25
Coordinates from ORCA-job job E -836.430111870140
  C      44.682163     21.419313     41.297453
  H      44.982680     21.281007     40.257768
  H      45.222234     22.122862     41.932287
  C      43.650212     20.775186     41.855062
  C      43.218947     21.048536     43.323002
  O      44.056821     21.597495     44.045122
  O      42.030095     20.713753     43.622566
  O      42.900076     19.818134     41.168662
  C      42.141635     20.216170     39.999890
  H      41.666415     19.255866     39.704422
  C      42.953847     20.667048     38.828978
  H      43.802673     20.055548     38.509155
  C      42.613136     21.719701     38.063218
  C      41.466371     22.550646     38.431435
  H      41.291054     23.399188     37.764916
  C      40.707276     22.304402     39.516594
  H      39.893882     22.975791     39.813357
  C      40.958128     21.134919     40.418608
  H      41.152350     21.466559     41.453296
  O      39.744859     20.327625     40.542876
  H      39.371754     20.291993     39.650540
  C      43.401727     22.065828     36.764320
  O      44.399489     21.353354     36.538593
  O      42.916343     23.015586     36.107822
  N      40.832000     18.750000     42.551000
25
Coordinates from ORCA-job job E -836.430113903520
  C      44.685754     21.415210     41.304980
  H      44.985457     21.276521     40.265247
  H      45.226844     22.118762     41.938977
  C      43.654418     20.771209     41.863413
  C      43.224123     21.042162     43.331700
  O      44.062055     21.591589     44.053698
  O      42.036588     20.704652     43.631952
  O      42.903810     19.814849     41.176704
  C      42.146209     20.214342     40.007810
  H      41.664226     19.255915     39.715102
  C      42.960274     20.657275     38.835065
  H      43.806226     20.041027     38.517078
  C      42.622722     21.707730     38.064811
  C      41.480042     22.545301     38.431318
  H      41.306710     23.390973     37.760624
  C      40.722454     22.308282     39.519740
  H      39.912259     22.984814     39.814652
  C      40.967864     21.140937     40.425151
  H      41.163728     21.474186     41.458692
  O      39.750111     20.340836     40.551751
  H      39.374049     20.309579     39.660562
  C      43.409500     22.043320     36.762105
  O      44.406305     21.328593     36.539795
  O      42.922648     22.987339     36.098897
  N      40.832000     18.750000     42.551000
25
Coordinates from ORCA-job job E -836.430106319700
  C      44.680057     21.410530     41.300201
  H      44.982025     21.268423     40.262088
  H      45.220471     22.115077     41.933960
  C      43.648771     20.767715     41.860127
  C      43.214842     21.046725     43.326213
  O      44.053709     21.594519     44.049855
  O      42.024726     20.716559     43.623659
  O      42.900137     19.808892     41.175723
  C      42.142238     20.205055     40.006187
  H      41.661612     19.245846     39.714665
  C      42.958817     20.648219     38.835908
  H      43.802918     20.030742     38.516803
  C      42.626277     21.702868     38.069689
  C      41.483956     22.542025     38.435778
  H      41.313752     23.390933     37.767353
  C      40.723280     22.301586     39.521244
  H      39.911036     22.978453     39.814690
  C      40.963741     21.131765     40.422005
  H      41.158570     21.463458     41.457550
  O      39.744927     20.332992     40.546351
  H      39.369897     20.303867     39.653899
  C      43.418270     22.042481     36.771299
  O      44.413519     21.325451     36.549258
  O      42.937271     22.992749     36.110829
  N      40.832000     18.750000     42.551000
25
Coordinates from ORCA-job job E -836.430116827245
  C      44.688848     21.407845     41.304788
  H      44.991726     21.265780     40.266425
  H      45.228213     22.112880     41.938607
  C      43.655269     20.766228     41.862265
  C      43.220554     21.043792     43.328448
  O      44.057690     21.592891     44.051532
  O      42.030479     20.712083     43.625714
  O      42.906566     19.807831     41.176630
  C      42.150608     20.203727     40.005386
  H      41.670098     19.244453     39.714503
  C      42.967289     20.644443     38.833971
  H      43.812167     20.025967     38.517720
  C      42.634785     21.696754     38.064261
  C      41.493137     22.536814     38.428306
  H      41.324173     23.384401     37.758669
  C      40.731015     22.299524     39.513349
  H      39.921420     22.977595     39.806454
  C      40.971479     21.130841     40.418289
  H      41.164551     21.464022     41.452779
  O      39.753010     20.331428     40.540923
  H      39.379649     20.299556     39.648275
  C      43.427193     22.032916     36.765084
  O      44.420706     21.313065     36.543325
  O      42.948123     22.982797     36.103962
  N      40.832000     18.750000     42.551000
25
Coordinates from ORCA-job job E -836.430113652802
  C      44.696684     21.404262     41.305119
  H      44.997902     21.263661     40.266158
  H      45.238637     22.106298     41.940762
  C      43.663618     20.762216     41.863328
  C      43.232695     21.037487     43.331524
  O      44.070312     21.589694     44.052504
  O      42.044834     20.699948     43.632548
  O      42.910839     19.807176     41.176771
  C      42.156023     20.206413     40.006956
  H      41.673217     19.249048     39.715956
  C      42.971417     20.644547     38.833802
  H      43.815159     20.024497     38.516870
  C      42.638189     21.695277     38.062456
  C      41.498589     22.538011     38.426958
  H      41.329259     23.384071     37.755265
  C      40.739279     22.304106     39.514526
  H      39.931135     22.984066     39.807780
  C      40.980033     21.136773     40.421458
  H      41.176694     21.471484     41.455576
  O      39.759420     20.340827     40.549105
  H      39.385106     20.307989     39.656836
  C      43.424307     22.025409     36.758126
  O      44.418289     21.306872     36.536145
  O      42.940325     22.970610     36.093071
  N      40.832000     18.750000     42.551000
25
Coordinates from ORCA-job job E -836.430111522976
  C      44.699839     21.393300     41.301080
  H      45.003691     21.246785     40.264023
  H      45.241433     22.097300     41.933891
  C      43.662939     20.758764     41.858524
  C      43.226751     21.043044     43.321759
  O      44.062959     21.597519     44.043346
  O      42.037861     20.708202     43.619722
  O      42.910617     19.801925     41.174170
  C      42.160089     20.198312     39.999781
  H      41.682366     19.238541     39.705541
  C      42.978984     20.641851     38.830300
  H      43.823555     20.023496     38.511884
  C      42.646641     21.695343     38.061899
  C      41.504862     22.535205     38.425923
  H      41.339250     23.385149     37.759173
  C      40.739997     22.293816     39.508328
  H      39.928608     22.970770     39.800738
  C      40.978659     21.123596     40.410797
  H      41.169253     21.454424     41.446469
  O      39.759966     20.323948     40.531324
  H      39.393304     20.286480     39.636593
  C      43.438655     22.033006     36.763197
  O      44.428473     21.310823     36.536964
  O      42.963729     22.988391     36.108156
  N      40.832000     18.750000     42.551000
25
Coordinates from ORCA-job job E -836.430103069298
  C      44.696904     21.391412     41.303582
  H      45.000693     21.243361     40.265947
  H      45.236953     22.098820     41.932879
  C      43.659305     20.756907     41.861761
  C      43.222561     21.039774     43.325743
  O      44.059450     21.588183     44.048074
  O      42.031512     20.713312     43.621694
  O      42.909779     19.798075     41.178540
  C      42.153257     20.195178     40.006599
  H      41.668542     19.236367     39.715342
  C      42.972774     20.633830     38.835789
  H      43.815238     20.012480     38.519594
  C      42.644413     21.687723     38.065832
  C      41.505630     22.531399     38.430380
  H      41.339975     23.380001     37.761372
  C      40.741448     22.296855     39.515017
  H      39.934560     22.977633     39.808559
  C      40.975769     21.125786     40.418204
  H      41.166068     21.455448     41.452772
  O      39.754833     20.329383     40.534016
  H      39.381398     20.302751     39.641723
  C      43.442251     22.022595     36.769412
  O      44.433109     21.297794     36.548912
  O      42.968747     22.975049     36.109153
  N      40.832000     18.750000     42.551000
25
Coordinates from ORCA-job job E -836.430105113683
  C      44.703524     21.394584     41.301269
  H      45.009371     21.249576     40.264049
  H      45.243486     22.098273     41.936838
  C      43.665879     20.756297     41.857293
  C      43.229785     21.040005     43.323812
  O      44.066055     21.591532     44.045202
  O      42.038447     20.711659     43.621884
  O      42.914812     19.799452     41.171801
  C      42.161395     20.195807     39.999440
  H      41.683411     19.236796     39.707074
  C      42.979833     20.637562     38.830058
  H      43.824804     20.018985     38.514618
  C      42.649775     21.691194     38.061536
  C      41.507567     22.531332     38.423768
  H      41.340337     23.380419     37.754552
  C      40.741969     22.291831     39.505409
  H      39.931925     22.969501     39.797381
  C      40.981143     21.121953     40.409910
  H      41.172864     21.455701     41.445473
  O      39.763035     20.321544     40.529582
  H      39.392694     20.286549     39.635276
  C      43.445233     22.029515     36.764660
  O      44.436266     21.305854     36.541387
  O      42.971479     22.985261     36.105675
  N      40.832000     18.750000     42.551000
25
Coordinates from ORCA-job job E -836.430093630367
  C      44.697000     21.392208     41.305165
  H      44.999951     21.245809     40.268260
  H      45.239717     22.095280     41.939162
  C      43.662229     20.756289     41.863535
  C      43.226737     21.040875     43.326665
  O      44.064227     21.594995     44.049114
  O      42.037438     20.705194     43.624636
  O      42.908948     19.799615     41.178939
  C      42.158625     20.195256     40.005354
  H      41.677919     19.236952     39.715658
  C      42.976878     20.631921     38.833599
  H      43.819001     20.009188     38.515895
  C      42.649332     21.686042     38.064585
  C      41.511969     22.532428     38.427903
  H      41.350103     23.382035     37.760040
  C      40.747879     22.296111     39.511864
  H      39.939752     22.977714     39.803711
  C      40.981608     21.126204     40.416054
  H      41.174817     21.457735     41.452233
  O      39.758394     20.333381     40.540702
  H      39.390695     20.298476     39.646017
  C      43.438767     22.015885     36.762846
  O      44.429213     21.294945     36.540186
  O      42.961386     22.965758     36.101899
  N      40.832000     18.750000     42.551000
25
Coordinates from ORCA-job job E -836.430116835137
  C      44.701218     21.391613     41.303338
  H      45.005769     21.244903     40.266247
  H      45.241164     22.097365     41.935145
  C      43.664259     20.756146     41.860489
  C      43.227078     21.040235     43.323974
  O      44.063109     21.592438     44.046055
  O      42.036962     20.709383     43.620492
  O      42.913804     19.797911     41.176654
  C      42.163083     20.192936     40.001255
  H      41.683519     19.233106     39.708495
  C      42.984271     20.633396     38.832282
  H      43.828731     20.013706     38.517158
  C      42.654924     21.686186     38.061610
  C      41.513322     22.527501     38.422565
  H      41.348624     23.376056     37.753517
  C      40.746455     22.289740     39.504376
  H      39.936072     22.968194     39.794829
  C      40.982240     21.120443     40.409082
  H      41.170994     21.452562     41.444145
  O      39.762927     20.321731     40.526678
  H      39.394536     20.287430     39.632474
  C      43.452541     22.022101     36.765684
  O      44.442471     21.297602     36.543905
  O      42.980932     22.977221     36.107567
  N      40.832000     18.750000     42.551000
25
Coordinates from ORCA-job job E -836.430117156557
  C      44.702813     21.391618     41.306788
  H      45.007455     21.245739     40.269380
  H      45.243483     22.096064     41.940718
  C      43.666150     20.753960     41.864094
  C      43.230327     21.036473     43.329803
  O      44.066955     21.587709     44.051652
  O      42.039638     20.706497     43.627611
  O      42.915153     19.796734     41.179089
  C      42.161666     20.193152     40.006791
  H      41.677952     19.235334     39.717851
  C      42.980617     20.627448     38.834808
  H      43.822449     20.003955     38.520118
  C      42.653998     21.680145     38.063229
  C      41.516875     22.527252     38.425409
  H      41.352858     23.375001     37.754230
  C      40.752669     22.295451     39.509982
  H      39.946632     22.978348     39.801587
  C      40.985999     21.126095     40.416398
  H      41.178742     21.459357     41.451435
  O      39.763288     20.332521     40.537112
  H      39.391831     20.301245     39.643423
  C      43.447171     22.009070     36.762606
  O      44.437544     21.284230     36.542297
  O      42.971566     22.959251     36.098305
  N      40.832000     18.750000     42.551000
25
Coordinates from ORCA-job job E -836.430120228131
  C      44.707389     21.386061     41.310161
  H      45.011343     21.238962     40.272834
  H      45.248671     22.090924     41.942297
  C      43.670466     20.750577     41.868001
  C      43.234584     21.032920     43.332598
  O      44.070869     21.585505     44.054268
  O      42.045070     20.700248     43.630213
  O      42.918690     19.793778     41.183451
  C      42.167118     20.190768     40.009801
  H      41.679916     19.233646     39.721660
  C      42.987864     20.620817     38.836965
  H      43.827930     19.994462     38.523028
  C      42.662805     21.671942     38.062263
  C      41.528219     22.522841     38.423290
  H      41.366498     23.369191     37.750355
  C      40.764181     22.295946     39.509352
  H      39.959850     22.981647     39.799708
  C      40.993596     21.127789     40.417460
  H      41.185899     21.461248     41.451758
  O      39.768500     20.338094     40.538246
  H      39.397209     20.307934     39.644917
  C      43.455667     21.994815     36.760039
  O      44.443707     21.266832     36.540709
  O      42.981821     22.944031     36.094208
  N      40.832000     18.750000     42.551000
25
Coordinates from ORCA-job job E -836.430120564429
  C      44.709421     21.380910     41.306299
  H      45.014967     21.231895     40.269880
  H      45.250458     22.085873     41.938754
  C      43.670955     20.747659     41.863448
  C      43.232705     21.035492     43.326255
  O      44.068645     21.588990     44.048131
  O      42.041877     20.705559     43.622664
  O      42.918826     19.790245     41.179761
  C      42.170012     20.185372     40.003829
  H      41.687413     19.227056     39.713869
  C      42.992572     20.619374     38.833842
  H      43.834146     19.994928     38.519889
  C      42.668728     21.672812     38.061961
  C      41.531692     22.521034     38.421554
  H      41.371871     23.369880     37.751551
  C      40.763706     22.288343     39.503516
  H      39.957009     22.971628     39.793032
  C      40.992963     21.118525     40.409496
  H      41.182427     21.450800     41.445120
  O      39.769405     20.325931     40.527347
  H      39.402439     20.292333     39.632266
  C      43.465867     22.001586     36.764162
  O      44.453812     21.274344     36.544349
  O      42.995860     22.955167     36.102341
  N      40.832000     18.750000     42.551000
25
Coordinates from ORCA-job job E -836.430122333671
  C      44.714533     21.375214     41.308531
  H      45.020505     21.225169     40.272266
  H      45.255836     22.080179     41.940849
  C      43.675165     20.742903     41.865673
  C      43.236879     21.031361     43.328704
  O      44.072831     21.584811     44.050236
  O      42.045794     20.702398     43.625315
  O      42.922748     19.785750     41.182109
  C      42.174192     20.180919     40.006063
  H      41.688618     19.223452     39.718130
  C      42.997570     20.610071     38.834963
  H      43.837334     19.982545     38.522457
  C      42.676383     21.662690     38.060839
  C      41.542099     22.515090     38.419409
  H      41.384069     23.362931     37.747428
  C      40.774076     22.287386     39.502339
  H      39.969824     22.973862     39.790971
  C      40.999749     21.118099     40.410145
  H      41.189593     21.451254     41.445465
  O      39.773887     20.329013     40.527677
  H      39.406334     20.296956     39.632685
  C      43.473345     21.986145     36.761371
  O      44.459709     21.255836     36.542933
  O      43.004511     22.938679     36.096672
  N      40.832000     18.750000     42.551000
25
Coordinates from ORCA-job job E -836.430122152525
  C      44.722838     21.362974     41.307847
  H      45.030072     21.209200     40.272379
  H      45.265037     22.068419     41.938282
  C      43.680192     20.735748     41.864741
  C      43.240348     21.028362     43.326186
  O      44.076292     21.581936     44.047429
  O      42.048601     20.702166     43.622050
  O      42.926533     19.779148     41.182029
  C      42.179290     20.175116     40.004865
  H      41.692522     19.217903     39.716205
  C      43.004835     20.603816     38.834892
  H      43.844094     19.975429     38.522902
  C      42.685738     21.657156     38.060562
  C      41.552045     22.510685     38.418364
  H      41.395882     23.359042     37.746566
  C      40.782228     22.283577     39.500336
  H      39.978174     22.970723     39.788146
  C      41.005020     21.113405     40.407503
  H      41.192973     21.445416     41.443101
  O      39.778308     20.325218     40.521598
  H      39.412244     20.294225     39.626145
  C      43.485956     21.980861     36.763014
  O      44.470646     21.247747     36.544791
  O      43.021048     22.936137     36.099614
  N      40.832000     18.750000     42.551000
25
Coordinates from ORCA-job job E -836.430123852453
  C      44.730202     21.354318     41.311019
  H      45.038154     21.199236     40.276048
  H      45.272865     22.059257     41.942039
  C      43.686638     20.728464     41.867729
  C      43.245845     21.023664     43.328587
  O      44.081425     21.578465     44.049606
  O      42.053693     20.697893     43.624224
  O      42.931956     19.772342     41.185193
  C      42.187348     20.167835     40.006568
  H      41.698125     19.211685     39.720126
  C      43.014962     20.590670     38.836061
  H      43.851968     19.958210     38.525937
  C      42.700514     21.643757     38.059639
  C      41.570285     22.502952     38.415107
  H      41.418366     23.350932     37.741866
  C      40.798926     22.280848     39.496939
  H      39.997858     22.972107     39.783178
  C      41.015905     21.110979     40.406068
  H      41.203826     21.443805     41.441771
  O      39.785854     20.327811     40.520142
  H      39.421169     20.296797     39.623954
  C      43.501128     21.960831     36.760870
  O      44.483959     21.224970     36.544997
  O      43.038221     22.914630     36.093968
  N      40.832000     18.750000     42.551000
25
Coordinates from ORCA-job job E -836.430122748881
  C      44.723389     21.365590     41.313627
  H      45.030123     21.214855     40.278039
  H      45.263566     22.071555     41.945838
  C      43.684469     20.733321     41.870524
  C      43.244926     21.023287     43.332645
  O      44.080318     21.577162     44.054299
  O      42.053412     20.695462     43.628095
  O      42.933032     19.774721     41.188192
  C      42.189580     20.165426     40.007470
  H      41.701539     19.207859     39.723813
  C      43.017215     20.584419     38.835519
  H      43.854753     19.951350     38.528448
  C      42.702094     21.633753     38.054789
  C      41.571484     22.493239     38.406822
  H      41.418952     23.338128     37.730085
  C      40.799916     22.275154     39.489130
  H      39.998451     22.966844     39.772553
  C      41.017098     21.108945     40.402608
  H      41.203858     21.445192     41.437219
  O      39.787612     20.325622     40.517571
  H      39.423466     20.291673     39.621293
  C      43.502357     21.946459     36.754598
  O      44.485041     21.209853     36.540978
  O      43.039074     22.897976     36.084504
  N      40.832000     18.750000     42.551000
25
Coordinates from ORCA-job job E -836.430122305156
  C      44.739948     21.343139     41.310710
  H      45.045985     21.187500     40.275339
  H      45.285245     22.046879     41.941206
  C      43.695992     20.719113     41.868380
  C      43.258128     21.013902     43.330355
  O      44.094752     21.568349     44.049618
  O      42.066372     20.688625     43.628002
  O      42.937249     19.765390     41.186671
  C      42.192716     20.163825     40.009230
  H      41.699557     19.209571     39.722889
  C      43.019848     20.583442     38.837336
  H      43.855000     19.948879     38.527101
  C      42.707551     21.636213     38.060162
  C      41.581097     22.499227     38.416496
  H      41.430428     23.346140     37.741857
  C      40.811209     22.281701     39.500011
  H      40.013634     22.975787     39.787337
  C      41.024964     21.111347     40.409508
  H      41.213938     21.442363     41.445287
  O      39.791655     20.332920     40.521870
  H      39.427264     20.303806     39.625842
  C      43.506398     21.948398     36.759279
  O      44.490572     21.214022     36.546144
  O      43.040240     22.897218     36.087572
  N      40.832000     18.750000     42.551000
25
Coordinates from ORCA-job job E -836.430113817430
  C      44.739177     21.338998     41.305603
  H      45.048947     21.178539     40.270724
  H      45.282766     22.045388     41.933047
  C      43.691326     20.718757     41.863742
  C      43.248130     21.021538     43.322628
  O      44.085019     21.574760     44.044203
  O      42.053670     20.701964     43.617018
  O      42.934543     19.762969     41.182932
  C      42.190804     20.159941     40.004266
  H      41.698685     19.205103     39.717576
  C      43.021401     20.581366     38.835498
  H      43.857403     19.947092     38.525667
  C      42.711103     21.637686     38.060038
  C      41.582509     22.500582     38.415169
  H      41.434628     23.351121     37.743576
  C      40.809144     22.278557     39.496021
  H      40.009248     22.972167     39.781707
  C      41.020962     21.105653     40.402936
  H      41.207360     21.436278     41.440090
  O      39.788537     20.324001     40.513844
  H      39.425993     20.295974     39.616622
  C      43.516034     21.955037     36.763970
  O      44.497516     21.216383     36.549354
  O      43.058310     22.912009     36.098305
  N      40.832000     18.750000     42.551000
25
Coordinates from ORCA-job job E -836.430124384137
  C      44.735599     21.348714     41.314131
  H      45.043416     21.193419     40.279224
  H      45.278364     22.053910     41.944847
  C      43.692454     20.722773     41.871088
  C      43.251504     21.017916     43.331818
  O      44.087206     21.572212     44.053075
  O      42.059099     20.692864     43.626934
  O      42.937520     19.766606     41.188957
  C      42.195259     20.161213     40.008654
  H      41.703633     19.205710     39.723953
  C      43.024805     20.578925     38.837575
  H      43.860433     19.943693     38.529598
  C      42.713370     21.630641     38.058174
  C      41.585656     22.494007     38.411150
  H      41.436394     23.340535     37.735529
  C      40.813449     22.277139     39.493386
  H      40.014268     22.971382     39.777653
  C      41.025803     21.108366     40.404672
  H      41.212644     21.441832     41.440286
  O      39.793246     20.328911     40.517178
  H      39.430653     20.297571     39.620173
  C      43.514954     21.941986     36.758549
  O      44.496466     21.203530     36.545268
  O      43.053979     22.894743     36.088487
  N      40.832000     18.750000     42.551000
25
Coordinates from ORCA-job job E -836.430122295234
  C      44.742011     21.337344     41.308231
  H      45.050962     21.178535     40.274278
  H      45.286105     22.042407     41.938340
  C      43.695449     20.716424     41.864517
  C      43.253528     21.017528     43.324059
  O      44.089364     21.571938     44.044169
  O      42.059708     20.697225     43.619194
  O      42.938020     19.761023     41.183803
  C      42.195916     20.156543     40.003498
  H      41.706824     19.200693     39.716113
  C      43.025846     20.579103     38.834773
  H      43.862539     19.946046     38.525867
  C      42.715918     21.633976     38.059602
  C      41.586805     22.494452     38.413343
  H      41.438342     23.343476     37.740900
  C      40.811773     22.272227     39.492165
  H      40.011753     22.964197     39.777605
  C      41.024475     21.100667     40.400397
  H      41.209573     21.431221     41.437128
  O      39.792907     20.319150     40.508151
  H      39.431828     20.288526     39.610785
  C      43.521909     21.952443     36.764655
  O      44.504970     21.216549     36.551566
  O      43.062369     22.907480     36.097354
  N      40.832000     18.750000     42.551000
25
Coordinates from ORCA-job job E -836.430124763740
  C      44.740779     21.340631     41.312359
  H      45.049056     21.183519     40.277834
  H      45.283920     22.046068     41.942447
  C      43.696200     20.716976     41.869280
  C      43.255005     21.014943     43.329451
  O      44.091144     21.568980     44.050192
  O      42.061848     20.692447     43.624616
  O      42.940293     19.760840     41.188140
  C      42.198994     20.154745     40.007029
  H      41.707152     19.199258     39.722767
  C      43.029587     20.571112     38.836348
  H      43.864684     19.934780     38.529288
  C      42.720535     21.623458     38.056898
  C      41.593780     22.488275     38.408931
  H      41.446361     23.335152     37.733413
  C      40.819938     22.272306     39.490075
  H      40.021650     22.967612     39.773715
  C      41.029777     21.102880     40.401372
  H      41.215434     21.435806     41.437360
  O      39.796265     20.324522     40.511382
  H      39.434883     20.293774     39.613974
  C      43.524119     21.934148     36.758346
  O      44.505336     21.195081     36.546472
  O      43.064649     22.886891     36.087572
  N      40.832000     18.750000     42.551000
25
Coordinates from ORCA-job job E -836.430122943575
  C      44.748931     21.330817     41.316237
  H      45.059762     21.169726     40.283150
  H      45.293897     22.035143     41.946173
  C      43.700059     20.713030     41.871678
  C      43.255067     21.015824     43.329593
  O      44.089472     21.572113     44.050839
  O      42.061490     20.693615     43.622833
  O      42.942352     19.759043     41.189362
  C      42.203521     20.156639     40.007383
  H      41.711702     19.202060     39.719779
  C      43.036646     20.576450     38.839377
  H      43.872116     19.941232     38.531004
  C      42.728341     21.630567     38.061976
  C      41.600472     22.494311     38.413929
  H      41.454491     23.342941     37.740102
  C      40.824904     22.274961     39.493404
  H      40.025007     22.968855     39.776989
  C      41.033912     21.104175     40.402456
  H      41.218641     21.435506     41.439127
  O      39.800422     20.325646     40.511171
  H      39.441646     20.293522     39.612498
  C      43.534733     21.945051     36.766160
  O      44.513785     21.203273     36.551733
  O      43.080356     22.904251     36.100050
  N      40.832000     18.750000     42.551000
25
Coordinates from ORCA-job job E -836.430123625136
  C      44.740149     21.349527     41.325756
  H      45.050328     21.195310     40.291359
  H      45.280359     22.056062     41.957603
  C      43.697531     20.720734     41.880817
  C      43.251908     21.015588     43.340422
  O      44.085198     21.569200     44.064394
  O      42.058165     20.691551     43.631365
  O      42.944989     19.763479     41.197528
  C      42.207841     20.156687     40.013611
  H      41.714072     19.202021     39.730317
  C      43.041990     20.568690     38.843712
  H      43.876853     19.930573     38.540016
  C      42.736282     21.619589     38.060894
  C      41.610690     22.487701     38.408362
  H      41.466757     23.333312     37.730366
  C      40.834442     22.275957     39.488727
  H      40.037516     22.973724     39.769519
  C      41.039945     21.108355     40.403353
  H      41.223988     21.443108     41.438797
  O      39.804769     20.332606     40.513010
  H      39.445477     20.300340     39.614545
  C      43.543241     21.925799     36.763428
  O      44.523201     21.184232     36.554914
  O      43.087488     22.878658     36.089733
  N      40.832000     18.750000     42.551000
25
Coordinates from ORCA-job job E -836.430116213732
  C      44.747749     21.334778     41.321165
  H      45.057886     21.176760     40.287335
  H      45.288842     22.040973     41.951394
  C      43.700135     20.713056     41.874022
  C      43.256740     21.011157     43.333652
  O      44.092701     21.562851     44.056071
  O      42.061907     20.692312     43.626433
  O      42.945323     19.756886     41.191383
  C      42.205355     20.151085     40.009346
  H      41.713675     19.195639     39.724488
  C      43.038017     20.566925     38.840415
  H      43.872630     19.929040     38.535112
  C      42.732745     21.621041     38.062023
  C      41.607407     22.487316     38.413741
  H      41.461701     23.335245     37.739463
  C      40.830416     22.271954     39.492177
  H      40.034129     22.969124     39.775945
  C      41.036356     21.099977     40.401954
  H      41.220147     21.430980     41.438871
  O      39.801772     20.323174     40.506260
  H      39.439339     20.295707     39.609962
  C      43.538559     21.931151     36.764640
  O      44.522605     21.195268     36.556896
  O      43.076438     22.878396     36.090201
  N      40.832000     18.750000     42.551000
25
Coordinates from ORCA-job job E -836.430124428691
  C      44.748597     21.326512     41.308054
  H      45.056571     21.166408     40.273850
  H      45.294442     22.030862     41.937358
  C      43.701945     20.707260     41.866300
  C      43.261919     21.009237     43.326086
  O      44.099236     21.563624     44.045100
  O      42.068436     20.689031     43.622824
  O      42.942654     19.752779     41.186530
  C      42.201518     20.147862     40.005918
  H      41.707481     19.193428     39.722229
  C      43.032216     20.561984     38.834597
  H      43.865589     19.923661     38.527080
  C      42.725584     21.615192     38.055326
  C      41.601353     22.483099     38.407870
  H      41.456052     23.330371     37.732414
  C      40.827753     22.269183     39.489662
  H      40.031537     22.966487     39.773837
  C      41.034471     21.098723     40.400433
  H      41.220449     21.430265     41.436843
  O      39.798664     20.323333     40.509262
  H      39.438813     20.293756     39.611032
  C      43.529065     21.923680     36.756220
  O      44.509311     21.183325     36.544741
  O      43.070446     22.876413     36.084522
  N      40.832000     18.750000     42.551000
25
Coordinates from ORCA-job job E -836.430124396697
  C      44.742062     21.342050     41.316759
  H      45.050584     21.186109     40.282152
  H      45.283972     22.047968     41.947255
  C      43.698903     20.716105     41.873607
  C      43.256912     21.012751     43.333660
  O      44.092536     21.566694     44.055428
  O      42.063751     20.689228     43.627547
  O      42.944545     19.759080     41.192213
  C      42.206105     20.151068     40.008773
  H      41.713482     19.195499     39.725820
  C      43.039234     20.563658     38.838370
  H      43.874075     19.925669     38.533943
  C      42.732153     21.614300     38.055848
  C      41.605910     22.481363     38.404261
  H      41.460523     23.326726     37.726449
  C      40.830515     22.268922     39.485038
  H      40.032207     22.965916     39.765560
  C      41.037328     21.101539     40.399062
  H      41.221648     21.436743     41.434776
  O      39.802756     20.324995     40.508793
  H      39.442806     20.293512     39.610866
  C      43.537646     21.921035     36.757514
  O      44.517228     21.179026     36.547617
  O      43.081540     22.874481     36.085239
  N      40.832000     18.750000     42.551000
25
Coordinates from ORCA-job job E -836.430123569549
  C      44.754442     21.327313     41.323294
  H      45.066661     21.165666     40.290745
  H      45.298136     22.032608     41.952862
  C      43.704156     20.710331     41.876678
  C      43.256820     21.013417     43.333962
  O      44.090302     21.569103     44.056314
  O      42.062470     20.692581     43.625453
  O      42.946896     19.756449     41.193534
  C      42.209935     20.154937     40.010418
  H      41.715897     19.201437     39.723208
  C      43.045213     20.572187     38.843042
  H      43.879568     19.934866     38.536145
  C      42.740708     21.627192     38.065273
  C      41.615284     22.494130     38.416334
  H      41.471933     23.343164     37.742255
  C      40.837674     22.277311     39.494664
  H      40.040411     22.973916     39.778033
  C      41.042221     21.105451     40.403727
  H      41.226103     21.435785     41.440520
  O      39.806918     20.329777     40.509561
  H      39.447495     20.300110     39.611380
  C      43.549288     21.939203     36.770201
  O      44.528713     21.197494     36.558637
  O      43.095233     22.896019     36.101209
  N      40.832000     18.750000     42.551000
25
Coordinates from ORCA-job job E -836.430085137282
  C      44.747335     21.332998     41.326373
  H      45.060248     21.176603     40.292748
  H      45.290542     22.036290     41.962313
  C      43.699800     20.708151     41.879515
  C      43.251557     21.009018     43.338356
  O      44.085251     21.557781     44.062734
  O      42.053746     20.696376     43.627783
  O      42.943404     19.753766     41.195570
  C      42.205058     20.149367     40.014436
  H      41.712906     19.195580     39.729062
  C      43.036925     20.563675     38.845487
  H      43.871222     19.926024     38.540966
  C      42.735733     21.619157     38.067396
  C      41.611572     22.487934     38.416339
  H      41.471174     23.337080     37.742842
  C      40.833372     22.273279     39.494505
  H      40.041051     22.970899     39.779966
  C      41.036722     21.099374     40.405805
  H      41.218209     21.426609     41.443070
  O      39.799048     20.323532     40.508002
  H      39.449263     20.287992     39.604173
  C      43.545666     21.929473     36.773105
  O      44.530509     21.195110     36.569066
  O      43.085161     22.876839     36.095005
  N      40.832000     18.750000     42.551000
25
Coordinates from ORCA-job job E -836.430124007445
  C      44.754081     21.326319     41.319611
  H      45.064450     21.166122     40.286051
  H      45.299246     22.029560     41.950963
  C      43.704995     20.708010     41.874267
  C      43.261636     21.009014     43.333280
  O      44.096995     21.564021     44.054432
  O      42.067789     20.687139     43.626992
  O      42.946273     19.755247     41.191203
  C      42.208262     20.153526     40.009864
  H      41.714151     19.200047     39.722996
  C      43.041891     20.569253     38.841328
  H      43.875727     19.931124     38.534531
  C      42.737000     21.623390     38.062815
  C      41.612039     22.490987     38.413884
  H      41.468267     23.338885     37.739339
  C      40.836302     22.275956     39.493755
  H      40.039579     22.973280     39.777025
  C      41.041617     21.104939     40.404134
  H      41.227291     21.436352     41.441065
  O      39.805120     20.330677     40.512095
  H      39.445526     20.302160     39.613949
  C      43.542746     21.933090     36.765444
  O      44.522865     21.192359     36.554512
  O      43.086194     22.887240     36.094746
  N      40.832000     18.750000     42.551000
25
Coordinates from ORCA-job job E -836.430120710605
  C      44.744177     21.337258     41.322439
  H      45.054600     21.179185     40.289009
  H      45.285068     22.044808     41.950891
  C      43.698793     20.714121     41.877686
  C      43.252927     21.013281     43.335879
  O      44.087762     21.565359     44.059320
  O      42.058306     20.694190     43.627271
  O      42.945433     19.756551     41.196019
  C      42.207118     20.149179     40.011405
  H      41.713849     19.193842     39.728476
  C      43.041447     20.562659     38.841783
  H      43.876014     19.924598     38.536975
  C      42.735948     21.615113     38.060744
  C      41.610640     22.482739     38.410395
  H      41.465952     23.329794     37.733469
  C      40.833565     22.269159     39.489896
  H      40.035998     22.966280     39.771561
  C      41.037752     21.099223     40.400996
  H      41.219400     21.431121     41.437103
  O      39.803564     20.322060     40.505518
  H      39.444924     20.290491     39.606979
  C      43.544199     21.923698     36.764510
  O      44.524000     21.181758     36.555065
  O      43.088937     22.877699     36.092296
  N      40.832000     18.750000     42.551000
25
Coordinates from ORCA-job job E -836.430122119080
  C      44.731765     21.361707     41.326005
  H      45.041875     21.211232     40.291007
  H      45.268140     22.069966     41.959226
  C      43.693455     20.725892     41.881214
  C      43.247668     21.017720     43.341205
  O      44.080977     21.569433     44.067051
  O      42.053340     20.693802     43.630310
  O      42.946158     19.764211     41.198703
  C      42.211292     20.149324     40.011024
  H      41.722518     19.191299     39.730102
  C      43.047246     20.559436     38.841870
  H      43.884386     19.922067     38.542563
  C      42.740950     21.607167     38.055197
  C      41.611776     22.473158     38.396786
  H      41.467890     23.316601     37.716527
  C      40.832447     22.262123     39.474966
  H      40.032044     22.958448     39.750625
  C      41.038670     21.098049     40.393706
  H      41.218773     21.437341     41.428970
  O      39.805667     20.318881     40.502279
  H      39.449289     20.282289     39.602923
  C      43.551027     21.912310     36.759356
  O      44.530877     21.169655     36.553604
  O      43.098171     22.865719     36.084847
  N      40.832000     18.750000     42.551000
25
Coordinates from ORCA-job job E -836.430124268098
  C      44.741527     21.345445     41.320931
  H      45.051268     21.190734     40.286435
  H      45.281714     22.051792     41.952705
  C      43.698792     20.717321     41.876418
  C      43.255094     21.013224     43.336320
  O      44.089749     21.566440     44.059374
  O      42.061274     20.690249     43.628507
  O      42.946093     19.759416     41.194398
  C      42.209534     20.149718     40.009624
  H      41.718466     19.193553     39.726519
  C      43.044010     20.561855     38.840317
  H      43.879825     19.924197     38.538099
  C      42.738200     21.612035     38.056739
  C      41.610861     22.478595     38.402329
  H      41.466593     23.323558     37.723952
  C      40.833170     22.266299     39.481370
  H      40.034451     22.962994     39.760158
  C      41.039335     21.099491     40.397010
  H      41.221650     21.435450     41.432726
  O      39.804920     20.322099     40.505009
  H      39.446961     20.289323     39.606287
  C      43.546366     21.918919     36.760085
  O      44.526866     21.177778     36.552691
  O      43.091054     22.871498     36.086389
  N      40.832000     18.750000     42.551000
25
Coordinates from ORCA-job job E -836.430124709947
  C      44.748268     21.337553     41.328066
  H      45.060041     21.179964     40.294738
  H      45.289529     22.043292     41.959214
  C      43.701614     20.714315     41.881469
  C      43.254683     21.012537     43.339793
  O      44.088185     21.566136     44.063743
  O      42.060339     20.690771     43.630290
  O      42.947555     19.758629     41.197652
  C      42.211506     20.153585     40.013339
  H      41.718587     19.198996     39.727749
  C      43.047219     20.568093     38.845473
  H      43.882545     19.930616     38.541592
  C      42.742525     21.620533     38.064333
  C      41.616053     22.487438     38.412004
  H      41.472324     23.334179     37.735190
  C      40.838049     22.273402     39.490602
  H      40.039942     22.970114     39.771182
  C      41.042509     21.103978     40.402941
  H      41.224628     21.436654     41.439271
  O      39.807435     20.327576     40.508412
  H      39.449940     20.296191     39.609364
  C      43.551661     21.929610     36.768856
  O      44.532377     21.188808     36.560650
  O      43.096473     22.883155     36.096190
  N      40.832000     18.750000     42.551000
25
Coordinates from ORCA-job job E -836.430123865594
  C      44.756759     21.321382     41.321536
  H      45.068398     21.159296     40.288657
  H      45.302726     22.024263     41.953003
  C      43.705863     20.705530     41.875744
  C      43.260632     21.008646     43.333591
  O      44.095697     21.563512     44.055288
  O      42.066097     20.688467     43.626280
  O      42.946877     19.753184     41.192292
  C      42.208922     20.152333     40.010765
  H      41.714390     19.199133     39.723451
  C      43.043223     20.568669     38.842667
  H      43.876622     19.930250     38.535107
  C      42.739115     21.623911     38.065234
  C      41.614608     22.492074     38.417037
  H      41.471742     23.341072     37.743519
  C      40.838600     22.276218     39.496716
  H      40.041987     22.973663     39.780534
  C      41.042436     21.103909     40.405418
  H      41.227451     21.433838     41.443041
  O      39.805542     20.330128     40.511534
  H      39.447455     20.301797     39.612622
  C      43.545550     21.934563     36.768561
  O      44.524764     21.192645     36.556620
  O      43.090490     22.890757     36.099198
  N      40.832000     18.750000     42.551000
25
Coordinates from ORCA-job job E -836.430125025904
  C      44.748342     21.331859     41.317732
  H      45.058387     21.172956     40.284001
  H      45.291491     22.037065     41.948103
  C      43.701708     20.710522     41.873393
  C      43.258340     21.010651     43.332406
  O      44.094012     21.564383     44.054002
  O      42.064269     20.689982     43.625971
  O      42.945575     19.754909     41.191741
  C      42.207179     20.148792     40.008814
  H      41.714477     19.193791     39.724409
  C      43.040732     20.562992     38.839434
  H      43.875252     19.924985     38.534221
  C      42.735325     21.615795     38.059131
  C      41.609616     22.482989     38.408730
  H      41.465292     23.330025     37.732715
  C      40.833176     22.268819     39.488372
  H      40.035565     22.965745     39.770120
  C      41.038490     21.098972     40.400023
  H      41.221899     21.431417     41.436631
  O      39.803256     20.322762     40.506257
  H      39.444646     20.292861     39.607747
  C      43.542209     21.924825     36.762205
  O      44.522444     21.183838     36.552447
  O      43.086034     22.878488     36.090432
  N      40.832000     18.750000     42.551000
25
Coordinates from ORCA-job job E -836.430124914501
  C      44.747637     21.339753     41.328822
  H      45.059185     21.183272     40.295176
  H      45.288755     22.044929     41.960962
  C      43.701576     20.715285     41.882028
  C      43.255177     21.012271     43.340910
  O      44.088655     21.565756     44.065081
  O      42.060930     20.689527     43.631306
  O      42.947566     19.759883     41.197723
  C      42.211902     20.154905     40.013615
  H      41.719402     19.200341     39.727667
  C      43.047571     20.569504     38.845938
  H      43.882991     19.932099     38.542197
  C      42.742847     21.621833     38.064792
  C      41.616158     22.488586     38.412082
  H      41.472647     23.335211     37.735459
  C      40.838134     22.274430     39.490549
  H      40.039989     22.971123     39.770996
  C      41.042900     21.105255     40.403273
  H      41.225376     21.438383     41.439673
  O      39.807685     20.328993     40.509486
  H      39.450135     20.297726     39.610467
  C      43.551641     21.930808     36.769093
  O      44.532423     21.190195     36.560967
  O      43.096411     22.884349     36.096489
  N      40.832000     18.750000     42.551000
25
Coordinates from ORCA-job job E -836.430125139692
  C      44.754743     21.327648     41.326963
  H      45.066866     21.168081     40.293963
  H      45.297253     22.032563     41.958274
  C      43.706293     20.707373     41.880399
  C      43.259656     21.008219     43.338333
  O      44.093764     21.562020     44.061578
  O      42.064847     20.687997     43.629204
  O      42.950631     19.752547     41.197100
  C      42.215542     20.147621     40.012444
  H      41.721619     19.193450     39.727276
  C      43.052226     20.559983     38.844617
  H      43.886250     19.920494     38.541200
  C      42.750026     21.612887     38.063197
  C      41.625253     22.482296     38.410282
  H      41.483817     23.329292     37.733627
  C      40.846374     22.270052     39.488566
  H      40.049638     22.968594     39.768684
  C      41.047795     21.100105     40.401036
  H      41.229713     21.432518     41.437833
  O      39.810943     20.326205     40.505255
  H      39.454225     20.296099     39.605940
  C      43.559754     21.919838     36.767542
  O      44.539005     21.176933     36.559748
  O      43.106531     22.874113     36.094573
  N      40.832000     18.750000     42.551000
25
Coordinates from ORCA-job job E -836.430125125403
  C      44.750032     21.330725     41.319934
  H      45.060400     21.171840     40.286304
  H      45.293507     22.035429     41.950652
  C      43.702899     20.709809     41.875245
  C      43.259024     21.009879     43.334116
  O      44.094368     21.563790     44.055966
  O      42.064983     20.688819     43.627340
  O      42.946335     19.754950     41.193002
  C      42.208548     20.150012     40.010081
  H      41.715200     19.195539     39.725028
  C      43.042611     20.564369     38.841073
  H      43.876897     19.926214     38.535636
  C      42.737678     21.617527     38.061067
  C      41.612323     22.485164     38.410760
  H      41.468533     23.332482     37.734959
  C      40.835793     22.270957     39.490360
  H      40.038448     22.968125     39.772291
  C      41.040389     21.100739     40.401564
  H      41.223840     21.432662     41.438316
  O      39.804726     20.325118     40.507591
  H      39.446617     20.295398     39.608766
  C      43.544735     21.926528     36.764302
  O      44.524784     21.185338     36.554449
  O      43.088934     22.880571     36.092672
  N      40.832000     18.750000     42.551000
25
Coordinates from ORCA-job job E -836.430124777059
  C      44.749194     21.335762     41.330868
  H      45.061664     21.178437     40.297581
  H      45.290838     22.039954     41.963719
  C      43.701216     20.713342     41.882853
  C      43.254167     21.011259     43.341235
  O      44.088195     21.563421     44.066066
  O      42.059068     20.690606     43.630956
  O      42.946706     19.758983     41.197494
  C      42.210838     20.155353     40.013930
  H      41.719122     19.200971     39.726272
  C      43.046803     20.572479     38.847518
  H      43.882510     19.935793     38.542885
  C      42.742320     21.626589     38.068692
  C      41.615087     22.492180     38.417278
  H      41.471418     23.340253     37.742580
  C      40.836686     22.275356     39.494819
  H      40.038017     22.971183     39.776220
  C      41.041359     21.104337     40.404941
  H      41.223403     21.435635     41.442334
  O      39.806511     20.327389     40.508993
  H      39.449054     20.297889     39.610061
  C      43.551625     21.938650     36.774142
  O      44.533321     21.199450     36.565519
  O      43.095810     22.892656     36.102878
  N      40.832000     18.750000     42.551000
25
Coordinates from ORCA-job job E -836.430123325910
  C      44.742019     21.350623     41.329036
  H      45.052905     21.196834     40.294709
  H      45.280693     22.057448     41.961538
  C      43.698807     20.721554     41.882011
  C      43.252900     21.014744     43.341956
  O      44.085983     21.567502     44.066780
  O      42.059048     20.690498     43.632029
  O      42.947835     19.763557     41.198130
  C      42.211596     20.155283     40.013387
  H      41.720510     19.199342     39.729296
  C      43.046471     20.568448     38.844726
  H      43.882477     19.931013     38.542455
  C      42.741036     21.619192     38.061758
  C      41.613828     22.485541     38.407863
  H      41.469931     23.331096     37.730236
  C      40.835170     22.272656     39.486064
  H      40.036952     22.969444     39.765509
  C      41.041130     21.104845     40.401190
  H      41.222870     21.439711     41.436995
  O      39.806575     20.327503     40.507317
  H      39.447731     20.296184     39.609154
  C      43.549975     21.926979     36.765485
  O      44.530477     21.185536     36.557911
  O      43.095124     22.880101     36.092405
  N      40.832000     18.750000     42.551000
25
Coordinates from ORCA-job job E -836.430123577411
  C      44.751571     21.334086     41.326540
  H      45.062820     21.176012     40.293152
  H      45.294779     22.038455     41.957788
  C      43.704090     20.712755     41.880676
  C      43.258203     21.011055     43.339364
  O      44.091651     21.566012     44.062132
  O      42.064822     20.687414     43.631249
  O      42.947826     19.758942     41.196822
  C      42.211215     20.156676     40.013683
  H      41.716834     19.202968     39.726990
  C      43.046152     20.572150     38.845282
  H      43.880680     19.934620     38.539533
  C      42.740891     21.625123     38.065066
  C      41.615236     22.492435     38.414564
  H      41.471566     23.339726     37.738415
  C      40.838465     22.277995     39.494245
  H      40.040903     22.974784     39.776298
  C      41.043261     21.107827     40.405661
  H      41.226584     21.439274     41.441954
  O      39.807442     20.332261     40.511980
  H      39.450278     20.301486     39.612407
  C      43.548755     21.934595     36.768824
  O      44.528162     21.192468     36.558276
  O      43.094112     22.890179     36.097909
  N      40.832000     18.750000     42.551000
25
Coordinates from ORCA-job job E -836.430111356075
  C      44.741001     21.339099     41.325411
  H      45.051253     21.186240     40.290859
  H      45.282672     22.041767     41.959845
  C      43.697599     20.711024     41.880969
  C      43.254566     21.007577     43.340403
  O      44.091471     21.557632     44.064902
  O      42.059150     20.687750     43.632069
  O      42.943136     19.756127     41.196482
  C      42.208275     20.148372     40.011853
  H      41.717899     19.193344     39.725657
  C      43.044853     20.563918     38.845505
  H      43.881026     19.927277     38.542135
  C      42.740020     21.617275     38.065858
  C      41.611710     22.482799     38.412350
  H      41.467765     23.330121     37.736586
  C      40.834324     22.265938     39.490439
  H      40.033793     22.961279     39.769652
  C      41.038183     21.096611     40.400428
  H      41.219598     21.429795     41.438623
  O      39.804264     20.318564     40.505959
  H      39.449190     20.288215     39.605675
  C      43.548469     21.928325     36.771468
  O      44.531720     21.191759     36.564823
  O      43.090883     22.880082     36.098071
  N      40.832000     18.750000     42.551000
25
Coordinates from ORCA-job job E -836.430124712946
  C      44.750537     21.333882     41.330312
  H      45.062888     21.175880     40.297066
  H      45.292693     22.037887     41.963023
  C      43.701801     20.712691     41.882081
  C      43.255250     21.010583     43.340611
  O      44.089540     21.562852     44.064969
  O      42.060338     20.689924     43.630981
  O      42.946765     19.758689     41.196727
  C      42.209864     20.155918     40.013973
  H      41.717578     19.201734     39.726223
  C      43.045147     20.573225     38.847083
  H      43.880406     19.936175     38.541744
  C      42.740666     21.627799     38.068863
  C      41.614092     22.493713     38.418792
  H      41.470190     23.342140     37.744580
  C      40.836176     22.276949     39.496720
  H      40.038164     22.973157     39.779046
  C      41.040881     21.105181     40.406250
  H      41.223503     21.435713     41.443761
  O      39.805673     20.328785     40.509750
  H      39.446919     20.301117     39.611501
  C      43.549257     21.939890     36.773734
  O      44.530809     21.200547     36.564461
  O      43.092780     22.893682     36.102667
  N      40.832000     18.750000     42.551000
25
Coordinates from ORCA-job job E -836.430124439313
  C      44.747376     21.339297     41.323690
  H      45.057534     21.183625     40.289577
  H      45.289066     22.044545     41.955188
  C      43.702814     20.714059     41.878885
  C      43.258479     21.010780     43.338459
  O      44.092544     21.564848     44.061228
  O      42.065046     20.687068     43.630763
  O      42.948153     19.758218     41.196251
  C      42.212109     20.151844     40.011871
  H      41.719378     19.196912     39.727247
  C      43.047088     20.565271     38.843031
  H      43.882022     19.927409     38.539114
  C      42.742077     21.616998     38.061132
  C      41.615979     22.484494     38.408494
  H      41.472825     23.330857     37.731313
  C      40.838287     22.271213     39.487572
  H      40.040367     22.968184     39.767889
  C      41.042851     21.102469     40.400866
  H      41.224954     21.435696     41.437024
  O      39.807450     20.326139     40.507040
  H      39.450980     20.294382     39.607276
  C      43.550474     21.924976     36.764839
  O      44.529912     21.182665     36.555762
  O      43.096498     22.879902     36.092876
  N      40.832000     18.750000     42.551000
25
Coordinates from ORCA-job job E -836.430125232353
  C      44.751934     21.336597     41.337642
  H      45.065183     21.180387     40.304432
  H      45.293485     22.039791     41.971691
  C      43.703370     20.713913     41.888222
  C      43.255174     21.009978     43.346709
  O      44.088122     21.562224     44.072515
  O      42.060342     20.687627     43.635341
  O      42.948738     19.760988     41.201089
  C      42.214258     20.159768     40.017482
  H      41.721693     19.206261     39.728165
  C      43.051295     20.577608     38.851944
  H      43.886913     19.940934     38.547200
  C      42.747534     21.632189     38.073459
  C      41.620522     22.498087     38.421940
  H      41.477729     23.346558     37.747493
  C      40.841521     22.281014     39.499112
  H      40.043087     22.977000     39.780629
  C      41.045236     21.109394     40.408796
  H      41.226955     21.439723     41.446321
  O      39.809714     20.333158     40.511934
  H      39.453056     20.304461     39.612485
  C      43.557589     21.944582     36.779388
  O      44.538894     21.204843     36.570574
  O      43.102701     22.899581     36.108586
  N      40.832000     18.750000     42.551000
25
Coordinates from ORCA-job job E -836.430125123550
  C      44.748917     21.335019     41.328216
  H      45.060704     21.177772     40.294767
  H      45.290849     22.039379     41.960673
  C      43.701422     20.712594     41.881039
  C      43.255478     21.010253     43.339689
  O      44.090059     21.562477     44.063725
  O      42.060771     20.689574     43.630604
  O      42.946869     19.757747     41.196524
  C      42.209941     20.153384     40.013116
  H      41.717811     19.198683     39.726450
  C      43.045201     20.569721     38.845680
  H      43.880377     19.932393     38.540719
  C      42.740579     21.623689     38.066639
  C      41.614042     22.489948     38.416042
  H      41.470260     23.338031     37.741192
  C      40.836108     22.273868     39.494224
  H      40.037884     22.970185     39.775953
  C      41.040523     21.102652     40.404299
  H      41.222563     21.433687     41.441682
  O      39.805486     20.325957     40.507693
  H      39.447532     20.297485     39.608980
  C      43.549302     21.935021     36.771442
  O      44.530272     21.194849     36.562094
  O      43.093494     22.889237     36.100306
  N      40.832000     18.750000     42.551000
25
Coordinates from ORCA-job job E -836.430125437983
  C      44.753809     21.333581     41.337421
  H      45.067153     21.176987     40.304320
  H      45.295220     22.037029     41.971299
  C      43.705116     20.711246     41.888100
  C      43.256911     21.007975     43.346402
  O      44.090164     21.559873     44.072112
  O      42.061810     20.686681     43.635052
  O      42.950648     19.757853     41.201498
  C      42.216641     20.155501     40.017151
  H      41.723774     19.201786     39.728812
  C      43.054309     20.571566     38.851395
  H      43.889416     19.933734     38.547507
  C      42.751858     21.625928     38.072073
  C      41.625646     22.493201     38.419749
  H      41.483959     23.341492     37.744803
  C      40.845852     22.277620     39.496667
  H      40.047995     22.974626     39.777407
  C      41.047785     21.106061     40.406921
  H      41.228673     21.436569     41.444558
  O      39.811606     20.330742     40.508691
  H      39.455440     20.302431     39.609118
  C      43.562720     21.936746     36.778079
  O      44.543268     21.195711     36.569980
  O      43.108987     22.891754     36.106573
  N      40.832000     18.750000     42.551000
25
Coordinates from ORCA-job job E -836.430125521709
  C      44.751054     21.340027     41.343596
  H      45.065202     21.185352     40.310463
  H      45.291687     22.042730     41.978958
  C      43.702402     20.716116     41.892595
  C      43.252786     21.010121     43.351002
  O      44.085168     21.561077     44.078415
  O      42.057620     20.687790     43.638031
  O      42.949011     19.763459     41.203782
  C      42.215237     20.162942     40.019814
  H      41.723596     19.209301     39.729057
  C      43.053117     20.582668     38.855454
  H      43.889478     19.946895     38.550811
  C      42.749226     21.637800     38.077739
  C      41.621140     22.502392     38.426096
  H      41.478229     23.351469     37.752365
  C      40.841242     22.283581     39.502333
  H      40.041876     22.978590     39.783766
  C      41.045095     21.111246     40.411045
  H      41.225626     21.440736     41.448996
  O      39.810185     20.333881     40.512299
  H      39.454346     20.305495     39.612491
  C      43.560509     21.952326     36.784933
  O      44.542249     21.213089     36.575997
  O      43.105963     22.908141     36.115028
  N      40.832000     18.750000     42.551000
25
Coordinates from ORCA-job job E -836.430124279025
  C      44.759025     21.327580     41.337761
  H      45.071195     21.172991     40.304106
  H      45.302125     22.029146     41.972162
  C      43.710886     20.705339     41.889708
  C      43.264436     21.000687     43.348663
  O      44.098836     21.551495     44.074211
  O      42.069973     20.678997     43.638774
  O      42.954014     19.753777     41.203317
  C      42.221165     20.152537     40.018707
  H      41.726726     19.199754     39.730305
  C      43.059575     20.567707     38.852871
  H      43.893120     19.928469     38.548068
  C      42.759430     21.623572     38.074681
  C      41.635463     22.493492     38.423363
  H      41.496564     23.343317     37.749402
  C      40.855191     22.278019     39.500182
  H      40.058613     22.976215     39.781478
  C      41.053185     21.104462     40.408143
  H      41.232380     21.431797     41.446837
  O      39.815247     20.330915     40.505963
  H      39.462706     20.305053     39.604417
  C      43.571011     21.933939     36.781119
  O      44.549145     21.190284     36.571443
  O      43.120390     22.892227     36.111230
  N      40.832000     18.750000     42.551000
25
Coordinates from ORCA-job job E -836.430125917175
  C      44.757146     21.336548     41.353843
  H      45.072506     21.183691     40.320814
  H      45.297446     22.037635     41.991263
  C      43.707449     20.712419     41.900573
  C      43.256362     21.004172     43.358949
  O      44.088415     21.553103     44.088396
  O      42.060627     20.682314     43.644082
  O      42.954032     19.761464     41.209448
  C      42.222921     20.162778     40.024579
  H      41.730470     19.210060     39.732269
  C      43.063336     20.582154     38.861896
  H      43.899040     19.945145     38.558021
  C      42.762743     21.638774     38.084917
  C      41.635868     22.505235     38.432550
  H      41.495942     23.355554     37.759700
  C      40.853664     22.286546     39.507160
  H      40.055179     22.982763     39.788041
  C      41.053238     21.112317     40.414385
  H      41.231524     21.439501     41.453470
  O      39.816662     20.336799     40.510708
  H      39.463108     20.311360     39.609919
  C      43.576586     21.953239     36.793697
  O      44.557385     21.212587     36.585518
  O      43.124644     22.910523     36.123995
  N      40.832000     18.750000     42.551000
25
Coordinates from ORCA-job job E -836.430126129385
  C      44.753395     21.344329     41.358566
  H      45.068569     21.194696     40.324992
  H      45.292937     22.044479     41.997681
  C      43.704776     20.717355     41.904113
  C      43.253982     21.004808     43.363443
  O      44.085867     21.552313     44.094107
  O      42.058495     20.681424     43.648016
  O      42.952357     19.767034     41.211045
  C      42.220704     20.169798     40.027107
  H      41.729420     19.217067     39.732860
  C      43.060511     20.592539     38.865211
  H      43.897142     19.957247     38.560233
  C      42.758437     21.650175     38.090193
  C      41.630276     22.514332     38.439404
  H      41.489062     23.365631     37.768080
  C      40.848429     22.292547     39.513628
  H      40.048931     22.987117     39.795740
  C      41.049889     21.117114     40.418909
  H      41.228097     21.442854     41.458506
  O      39.814352     20.339785     40.514205
  H      39.460233     20.316066     39.613639
  C      43.571808     21.968155     36.799524
  O      44.553845     21.229498     36.590168
  O      43.118340     22.925800     36.131446
  N      40.832000     18.750000     42.551000
25
Coordinates from ORCA-job job E -836.430125243286
  C      44.762305     21.334907     41.365294
  H      45.076940     21.187168     40.331374
  H      45.302498     22.033404     42.005628
  C      43.712832     20.708357     41.909695
  C      43.263614     20.993975     43.369883
  O      44.096020     21.540541     44.099831
  O      42.067836     20.671047     43.655126
  O      42.959449     19.759759     41.215490
  C      42.229604     20.164357     40.030972
  H      41.735987     19.212739     39.736345
  C      43.071389     20.585340     38.869894
  H      43.905532     19.946716     38.564547
  C      42.774131     21.645866     38.096799
  C      41.649897     22.514470     38.447670
  H      41.512930     23.368041     37.778418
  C      40.866097     22.293960     39.520597
  H      40.069779     22.991803     39.803909
  C      41.060815     21.114715     40.422422
  H      41.237674     21.436620     41.463673
  O      39.822149     20.341595     40.511066
  H      39.468432     20.324591     39.610390
  C      43.588508     21.962679     36.806345
  O      44.568814     21.221534     36.596655
  O      43.137536     22.921554     36.139219
  N      40.832000     18.750000     42.551000
25
Coordinates from ORCA-job job E -836.430126805111
  C      44.758653     21.348878     41.384738
  H      45.076496     21.205515     40.351115
  H      45.296351     22.045398     42.029383
  C      43.708627     20.718703     41.923929
  C      43.254182     20.997799     43.383802
  O      44.084205     21.541115     44.119597
  O      42.057816     20.673014     43.663462
  O      42.958078     19.772167     41.223651
  C      42.230464     20.181104     40.039282
  H      41.739455     19.230061     39.738889
  C      43.074171     20.609033     38.882051
  H      43.911128     19.974423     38.576414
  C      42.775477     21.671012     38.111595
  C      41.647240     22.534582     38.462029
  H      41.509042     23.389644     37.794770
  C      40.861739     22.307928     39.532613
  H      40.062149     23.001929     39.815973
  C      41.058906     21.127238     40.432054
  H      41.233593     21.447005     41.474165
  O      39.822359     20.350372     40.518152
  H      39.470881     20.332949     39.616393
  C      43.592898     21.994813     36.824881
  O      44.575172     21.256570     36.614866
  O      43.141911     22.955873     36.160117
  N      40.832000     18.750000     42.551000
25
Coordinates from ORCA-job job E -836.430126886451
  C      44.751330     21.360938     41.387889
  H      45.068039     21.221750     40.353384
  H      45.288260     22.056684     42.033949
  C      43.703582     20.726593     41.926568
  C      43.250342     21.000067     43.387824
  O      44.080246     21.542382     44.124461
  O      42.054879     20.672333     43.667744
  O      42.954319     19.780447     41.224490
  C      42.224715     20.191066     40.041974
  H      41.735178     19.239907     39.739700
  C      43.066391     20.623509     38.885007
  H      43.904257     19.991279     38.576912
  C      42.764884     21.686843     38.117560
  C      41.635296     22.547367     38.471274
  H      41.494737     23.403805     37.806285
  C      40.851340     22.316502     39.542087
  H      40.050672     23.008232     39.828019
  C      41.051838     21.134044     40.438434
  H      41.227156     21.451653     41.481048
  O      39.816944     20.354618     40.524196
  H      39.464183     20.339001     39.622912
  C      43.580552     22.015310     36.830979
  O      44.564037     21.279457     36.618311
  O      43.127098     22.977124     36.168942
  N      40.832000     18.750000     42.551000
25
Coordinates from ORCA-job job E -836.430126893977
  C      44.760792     21.356887     41.409936
  H      45.080860     21.219046     40.376357
  H      45.296698     22.050401     42.059201
  C      43.710135     20.723128     41.943462
  C      43.251523     20.994098     43.403297
  O      44.078916     21.534742     44.144143
  O      42.055178     20.665998     43.678196
  O      42.961801     19.780136     41.236221
  C      42.236877     20.195661     40.052577
  H      41.746025     19.246620     39.746466
  C      43.083066     20.628842     38.899436
  H      43.920034     19.995313     38.591835
  C      42.786654     21.695012     38.134075
  C      41.658643     22.557961     38.486860
  H      41.522718     23.416639     37.824046
  C      40.871170     22.326500     39.554832
  H      40.071910     23.019723     39.840664
  C      41.065156     21.140519     40.447773
  H      41.237406     21.453911     41.492063
  O      39.827835     20.364277     40.526811
  H      39.479060     20.351440     39.623926
  C      43.606601     22.024460     36.850605
  O      44.588389     21.286251     36.638564
  O      43.157700     22.989427     36.189986
  N      40.832000     18.750000     42.551000
25
Coordinates from ORCA-job job E -836.430127373360
  C      44.762713     21.360745     41.424517
  H      45.084433     21.226646     40.390859
  H      45.297337     22.052229     42.077131
  C      43.711236     20.724916     41.954212
  C      43.250635     20.990924     43.414553
  O      44.077024     21.529010     44.158324
  O      42.053621     20.662227     43.686605
  O      42.964154     19.783998     41.242666
  C      42.241311     20.203002     40.058836
  H      41.751147     19.254651     39.748775
  C      43.089566     20.640094     38.908478
  H      43.927254     20.007596     38.600504
  C      42.794412     21.708744     38.145900
  C      41.665659     22.570337     38.499512
  H      41.530765     23.431200     37.839132
  C      40.876101     22.335235     39.565272
  H      40.076171     23.027482     39.851782
  C      41.068612     21.146344     40.454880
  H      41.238910     21.456548     41.500607
  O      39.831263     20.369496     40.528819
  H      39.483745     20.360014     39.625356
  C      43.616700     22.042562     36.864872
  O      44.599074     21.305203     36.652255
  O      43.168859     23.009519     36.206509
  N      40.832000     18.750000     42.551000
25
Coordinates from ORCA-job job E -836.430127361813
  C      44.758838     21.361208     41.413468
  H      45.078352     21.226223     40.379286
  H      45.294300     22.053810     42.064047
  C      43.709000     20.725243     41.946090
  C      43.251611     20.992533     43.407200
  O      44.079166     21.532342     44.148238
  O      42.055517     20.663088     43.682498
  O      42.961049     19.783143     41.237193
  C      42.235230     20.200566     40.054627
  H      41.744879     19.251646     39.746642
  C      43.080618     20.636974     38.901972
  H      43.917697     20.004356     38.592496
  C      42.783749     21.705280     38.139613
  C      41.655881     22.567028     38.495478
  H      41.519514     23.427685     37.835131
  C      40.868571     22.332336     39.562943
  H      40.069197     23.024703     39.850835
  C      41.062917     21.143670     40.452409
  H      41.234977     21.454221     41.497702
  O      39.826024     20.366565     40.528622
  H      39.476912     20.356565     39.625846
  C      43.603380     22.038601     36.856813
  O      44.584956     21.300734     36.642130
  O      43.154588     23.005703     36.199375
  N      40.832000     18.750000     42.551000
25
Coordinates from ORCA-job job E -836.430127262044
  C      44.759652     21.364039     41.422308
  H      45.079686     21.230979     40.388071
  H      45.294454     22.055703     42.074363
  C      43.710016     20.726414     41.953218
  C      43.251388     20.990637     43.414382
  O      44.077986     21.529871     44.156992
  O      42.055596     20.659469     43.688365
  O      42.962921     19.785515     41.241994
  C      42.237733     20.205305     40.059943
  H      41.747029     19.257248     39.750281
  C      43.083763     20.643065     38.908401
  H      43.920308     20.010368     38.597805
  C      42.788183     21.713199     38.148209
  C      41.661176     22.575502     38.505566
  H      41.526081     23.437766     37.847209
  C      40.873359     22.339467     39.572301
  H      40.074731     23.032086     39.861522
  C      41.065740     21.148343     40.458770
  H      41.236846     21.455933     41.504972
  O      39.828175     20.372096     40.531879
  H      39.480516     20.363888     39.628549
  C      43.608612     22.048273     36.866487
  O      44.588981     21.309307     36.650232
  O      43.161547     23.017721     36.211320
  N      40.832000     18.750000     42.551000
25
Coordinates from ORCA-job job E -836.430127468774
  C      44.760504     21.365432     41.428025
  H      45.081332     21.233660     40.393830
  H      45.294828     22.056287     42.081408
  C      43.710407     20.727180     41.957379
  C      43.250812     20.989678     43.418638
  O      44.076977     21.527870     44.162477
  O      42.054689     20.658409     43.691344
  O      42.963761     19.787088     41.244482
  C      42.239563     20.208167     40.062252
  H      41.749170     19.260374     39.751023
  C      43.086549     20.647394     38.911870
  H      43.923535     20.015202     38.601383
  C      42.791348     21.718241     38.152456
  C      41.663779     22.579847     38.509714
  H      41.528978     23.442727     37.852026
  C      40.875094     22.342513     39.575575
  H      40.076026     23.034644     39.864786
  C      41.067132     21.150637     40.461202
  H      41.237515     21.457383     41.507847
  O      39.829624     20.374040     40.532701
  H      39.482391     20.366894     39.629168
  C      43.612778     22.054869     36.871697
  O      44.593675     21.316543     36.655626
  O      43.165884     23.024722     36.217010
  N      40.832000     18.750000     42.551000
25
Coordinates from ORCA-job job E -836.430127477282
  C      44.758818     21.364389     41.418904
  H      45.078818     21.230595     40.384638
  H      45.293635     22.056519     42.070671
  C      43.709406     20.726767     41.950492
  C      43.251127     20.991932     43.411700
  O      44.078173     21.531151     44.153964
  O      42.055172     20.661441     43.686068
  O      42.962302     19.785063     41.240149
  C      42.236929     20.203435     40.057710
  H      41.746372     19.254882     39.748905
  C      43.082844     20.640315     38.905530
  H      43.919741     20.007691     38.595753
  C      42.786592     21.709302     38.143912
  C      41.658927     22.571262     38.500212
  H      41.523190     23.432618     37.840738
  C      40.871283     22.336108     39.567364
  H      40.072251     23.028623     39.855688
  C      41.064618     21.146456     40.455660
  H      41.235979     21.455763     41.501380
  O      39.827338     20.369591     40.530301
  H      39.479507     20.360009     39.627015
  C      43.606822     22.043418     36.861658
  O      44.587611     21.304817     36.646163
  O      43.159275     23.011885     36.205447
  N      40.832000     18.750000     42.551000
25
Coordinates from ORCA-job job E -836.430127391560
  C      44.759233     21.358912     41.408859
  H      45.078203     21.222390     40.374700
  H      45.295232     22.052158     42.058344
  C      43.709620     20.723718     41.942828
  C      43.252899     20.992833     43.403813
  O      44.080822     21.533664     44.143785
  O      42.057093     20.663489     43.680197
  O      42.961075     19.781036     41.235343
  C      42.234500     20.197571     40.052956
  H      41.743370     19.248632     39.746405
  C      43.079252     20.632230     38.899178
  H      43.915559     19.998744     38.589527
  C      42.782641     21.700132     38.136174
  C      41.655773     22.563154     38.492217
  H      41.519702     23.423470     37.831430
  C      40.869131     22.329999     39.560514
  H      40.070619     23.023284     39.848518
  C      41.062981     21.141727     40.450592
  H      41.235645     21.452751     41.495617
  O      39.825552     20.365527     40.527879
  H      39.476501     20.354689     39.625085
  C      43.601615     22.031757     36.852533
  O      44.582087     21.292598     36.637434
  O      43.153481     22.999087     36.194948
  N      40.832000     18.750000     42.551000
25
Coordinates from ORCA-job job E -836.430127470376
  C      44.760034     21.362090     41.418222
  H      45.079696     21.227815     40.383979
  H      45.295162     22.054325     42.069435
  C      43.710559     20.725004     41.950172
  C      43.252679     20.990739     43.411373
  O      44.079713     21.530652     44.153004
  O      42.056933     20.659953     43.686296
  O      42.962991     19.783507     41.240141
  C      42.237311     20.202320     40.058030
  H      41.746019     19.254108     39.749555
  C      43.082923     20.638631     38.905521
  H      43.919090     20.005301     38.595153
  C      42.787431     21.708240     38.144466
  C      41.661007     22.571348     38.501691
  H      41.525960     23.433177     37.842659
  C      40.873568     22.336615     39.569035
  H      40.075403     23.029897     39.857999
  C      41.065803     21.146152     40.456500
  H      41.237388     21.454614     41.502437
  O      39.827927     20.370383     40.530493
  H      39.480031     20.361584     39.627248
  C      43.607494     22.042044     36.862087
  O      44.587295     21.302338     36.645811
  O      43.160838     23.011443     36.206569
  N      40.832000     18.750000     42.551000
25
Coordinates from ORCA-job job E -836.430127534893
  C      44.761185     21.364865     41.428310
  H      45.082106     21.232683     40.394175
  H      45.295444     22.055856     42.081605
  C      43.711163     20.726540     41.957720
  C      43.251449     20.989244     43.418897
  O      44.077523     21.527702     44.162685
  O      42.055386     20.657801     43.691650
  O      42.964588     19.786338     41.244884
  C      42.240390     20.207358     40.062640
  H      41.749550     19.259686     39.751721
  C      43.087451     20.645934     38.912022
  H      43.924076     20.013277     38.601535
  C      42.792799     21.716919     38.152566
  C      41.665794     22.579224     38.509960
  H      41.531483     23.442260     37.852362
  C      40.877061     22.342437     39.575917
  H      40.078471     23.035096     39.865184
  C      41.068309     21.150352     40.461430
  H      41.238561     21.456878     41.508164
  O      39.830377     20.374314     40.532462
  H      39.483628     20.367184     39.628739
  C      43.614491     22.053241     36.871859
  O      44.594628     21.314044     36.655439
  O      43.168590     23.023839     36.217593
  N      40.832000     18.750000     42.551000
25
Coordinates from ORCA-job job E -836.430127381805
  C      44.758582     21.365918     41.419512
  H      45.078460     21.232194     40.385104
  H      45.293072     22.058250     42.071432
  C      43.709906     20.727111     41.951297
  C      43.251753     20.991651     43.412708
  O      44.078720     21.531156     44.154983
  O      42.056064     20.660348     43.687293
  O      42.963258     19.784999     41.240932
  C      42.237872     20.203001     40.058389
  H      41.746786     19.254481     39.750119
  C      43.083866     20.638922     38.905758
  H      43.920401     20.005778     38.596155
  C      42.788051     21.707785     38.143807
  C      41.660896     22.570501     38.500151
  H      41.525527     23.431851     37.840631
  C      40.873343     22.336270     39.567617
  H      40.074913     23.029443     39.855982
  C      41.065882     21.146609     40.456012
  H      41.237065     21.455884     41.501745
  O      39.828130     20.370245     40.530308
  H      39.481034     20.360408     39.626724
  C      43.608534     22.041358     36.861476
  O      44.588440     21.301788     36.645626
  O      43.162114     23.010511     36.205651
  N      40.832000     18.750000     42.551000
25
Coordinates from ORCA-job job E -836.430127429273
  C      44.760632     21.358814     41.412349
  H      45.079875     21.222549     40.378219
  H      45.296325     22.051913     42.062225
  C      43.711131     20.722997     41.945755
  C      43.253863     20.991372     43.406651
  O      44.081370     21.532252     44.147100
  O      42.058122     20.661434     43.682583
  O      42.962934     19.780625     41.237531
  C      42.236697     20.197904     40.055208
  H      41.744796     19.249429     39.748483
  C      43.081856     20.632084     38.901516
  H      43.917500     19.997894     38.591541
  C      42.786515     21.700797     38.139117
  C      41.660720     22.564999     38.495773
  H      41.525810     23.426035     37.835661
  C      40.873730     22.332168     39.563889
  H      40.076104     23.026271     39.852319
  C      41.065787     21.142816     40.452892
  H      41.237962     21.452632     41.498339
  O      39.827547     20.367689     40.528508
  H      39.479424     20.357645     39.625348
  C      43.606121     22.032499     36.855865
  O      44.585174     21.291756     36.639842
  O      43.159901     23.001572     36.199495
  N      40.832000     18.750000     42.551000
25
Coordinates from ORCA-job job E -836.430127425204
  C      44.759974     21.363233     41.421214
  H      45.080115     21.229921     40.387012
  H      45.294911     22.054821     42.073308
  C      43.710007     20.726055     41.952176
  C      43.251562     20.990718     43.413479
  O      44.078402     21.529763     44.155916
  O      42.055565     20.660086     43.687539
  O      42.962625     19.785085     41.241158
  C      42.237744     20.204550     40.058765
  H      41.747280     19.256283     39.749041
  C      43.084046     20.642386     38.907344
  H      43.921001     20.009899     38.597371
  C      42.788170     21.712048     38.146556
  C      41.660565     22.573856     38.503137
  H      41.525104     23.435692     37.844244
  C      40.872549     22.337902     39.569794
  H      40.073457     23.030277     39.858446
  C      41.065489     21.147485     40.457198
  H      41.236675     21.455939     41.503231
  O      39.828141     20.370835     40.530850
  H      39.480157     20.362388     39.627605
  C      43.608832     22.046993     36.864872
  O      44.590099     21.308952     36.649626
  O      43.161007     23.015384     36.208743
  N      40.832000     18.750000     42.551000
25
Coordinates from ORCA-job job E -836.430127502978
  C      44.760671     21.366529     41.430656
  H      45.081836     21.235055     40.396510
  H      45.294655     22.057236     42.084468
  C      43.710669     20.727682     41.959447
  C      43.250577     20.989387     43.420675
  O      44.076400     21.527503     44.164988
  O      42.054509     20.657571     43.692956
  O      42.964442     19.787766     41.245873
  C      42.240355     20.209385     40.063774
  H      41.749863     19.261789     39.752118
  C      43.087509     20.649003     38.913634
  H      43.924398     20.016816     38.602883
  C      42.792688     21.720417     38.154845
  C      41.665343     22.582133     38.512575
  H      41.530905     23.445580     37.855526
  C      40.876451     22.344356     39.578197
  H      40.077567     23.036558     39.867757
  C      41.067926     21.151761     40.462982
  H      41.237927     21.457679     41.509936
  O      39.830241     20.375299     40.533347
  H      39.483605     20.368597     39.629593
  C      43.614603     22.057887     36.874577
  O      44.594966     21.319067     36.657846
  O      43.168665     23.028926     36.220941
  N      40.832000     18.750000     42.551000
25
Coordinates from ORCA-job job E -836.430127524436
  C      44.759451     21.364761     41.421406
  H      45.079575     21.231199     40.387150
  H      45.294005     22.056836     42.073370
  C      43.710255     20.726545     41.952630
  C      43.251670     20.991047     43.413824
  O      44.078329     21.530539     44.156302
  O      42.055896     20.659769     43.687998
  O      42.963458     19.785045     41.241753
  C      42.238148     20.204064     40.059511
  H      41.747071     19.255868     39.750526
  C      43.084179     20.640854     38.907395
  H      43.920622     20.007834     38.597198
  C      42.788739     21.710598     38.146494
  C      41.661891     22.573314     38.503535
  H      41.526901     23.435349     37.844759
  C      40.874107     22.338145     39.570563
  H      40.075722     23.031174     39.859433
  C      41.066267     21.147513     40.457781
  H      41.237330     21.455723     41.503857
  O      39.828471     20.371367     40.531095
  H      39.481190     20.362572     39.627600
  C      43.609458     22.045161     36.864660
  O      44.589247     21.305521     36.648327
  O      43.163296     23.015110     36.209599
  N      40.832000     18.750000     42.551000
25
Coordinates from ORCA-job job E -836.430127146797
  C      44.756714     21.374760     41.434950
  H      45.077873     21.246672     40.400267
  H      45.289714     22.064679     42.090589
  C      43.707861     20.732822     41.962727
  C      43.248047     20.990341     43.424911
  O      44.073732     21.526936     44.170493
  O      42.052170     20.657234     43.696508
  O      42.962927     19.793013     41.247639
  C      42.239519     20.214659     40.065234
  H      41.750568     19.266575     39.752118
  C      43.087144     20.656452     38.916170
  H      43.925803     20.026087     38.606457
  C      42.790380     21.726917     38.156900
  C      41.660454     22.585847     38.513399
  H      41.524170     23.448496     37.855833
  C      40.871473     22.346655     39.578593
  H      40.070793     23.037076     39.867428
  C      41.065476     21.155170     40.464163
  H      41.235085     21.462031     41.510828
  O      39.829117     20.376430     40.535170
  H      39.481945     20.369836     39.631540
  C      43.612355     22.065726     36.877039
  O      44.596079     21.330831     36.662544
  O      43.162865     23.033430     36.221404
  N      40.832000     18.750000     42.551000
25
Coordinates from ORCA-job job E -836.430127394839
  C      44.760202     21.364442     41.425500
  H      45.080824     21.232058     40.391375
  H      45.294824     22.055465     42.078391
  C      43.709925     20.726915     41.955328
  C      43.250784     20.990235     43.416618
  O      44.077144     21.528819     44.159853
  O      42.054721     20.659123     43.689847
  O      42.962888     19.786664     41.243020
  C      42.238316     20.207436     40.060887
  H      41.748175     19.259453     39.749886
  C      43.084900     20.646823     38.910315
  H      43.922017     20.014802     38.599790
  C      42.789212     21.717459     38.150812
  C      41.661447     22.578733     38.508090
  H      41.526189     23.441424     37.850251
  C      40.873064     22.341294     39.574142
  H      40.073773     23.033219     39.863375
  C      41.065790     21.149705     40.460078
  H      41.236542     21.456824     41.506602
  O      39.828545     20.372852     40.532236
  H      39.480859     20.365446     39.628881
  C      43.610265     22.054125     36.869838
  O      44.591636     21.316341     36.653976
  O      43.162654     23.023419     36.214844
  N      40.832000     18.750000     42.551000
25
Coordinates from ORCA-job job E -836.430126974631
  C      44.758992     21.371652     41.434495
  H      45.080490     21.240600     40.400267
  H      45.291812     22.062950     42.088727
  C      43.710489     20.730105     41.962874
  C      43.249380     20.990284     43.423896
  O      44.074421     21.528813     44.169099
  O      42.053668     20.656814     43.695559
  O      42.965879     19.789580     41.248490
  C      42.241124     20.211324     40.066907
  H      41.749832     19.264052     39.755628
  C      43.087916     20.650359     38.916112
  H      43.924055     20.017725     38.604406
  C      42.793941     21.722734     38.158224
  C      41.667771     22.585537     38.517445
  H      41.534275     23.450097     37.861529
  C      40.879007     22.347819     39.583254
  H      40.081184     23.040724     39.873746
  C      41.069048     21.153914     40.466492
  H      41.238467     21.458362     41.513892
  O      39.830776     20.377995     40.535154
  H      39.485685     20.371213     39.630864
  C      43.616471     22.061163     36.878442
  O      44.593819     21.319267     36.658822
  O      43.174273     23.036420     36.228122
  N      40.832000     18.750000     42.551000
25
Coordinates from ORCA-job job E -836.430127532335
  C      44.760532     21.365083     41.426515
  H      45.081400     21.232460     40.392410
  H      45.294741     22.056447     42.079476
  C      43.710687     20.726795     41.956351
  C      43.251085     20.990109     43.417466
  O      44.077244     21.528854     44.160971
  O      42.055051     20.658782     43.690444
  O      42.964196     19.786091     41.244080
  C      42.239908     20.206288     40.061609
  H      41.749215     19.258354     39.751230
  C      43.086900     20.644358     38.910728
  H      43.923728     20.011750     38.600717
  C      42.791919     21.714709     38.150529
  C      41.664597     22.576875     38.507281
  H      41.529958     23.439378     37.849065
  C      40.875970     22.340620     39.573433
  H      40.077177     23.033239     39.862224
  C      41.067669     21.149303     40.459866
  H      41.238028     21.456694     41.506319
  O      39.829921     20.373020     40.531728
  H      39.483063     20.365092     39.628052
  C      43.613592     22.050401     36.869646
  O      44.594115     21.311562     36.653913
  O      43.167259     23.020216     36.214558
  N      40.832000     18.750000     42.551000
25
Coordinates from ORCA-job job E -836.430127512474
  C      44.760617     21.362329     41.420411
  H      45.080909     21.228075     40.386329
  H      45.295415     22.054451     42.072094
  C      43.710805     20.725206     41.951727
  C      43.252084     20.990825     43.412726
  O      44.078816     21.530444     44.154962
  O      42.056111     20.660225     43.686885
  O      42.963620     19.783697     41.241223
  C      42.238732     20.202431     40.058586
  H      41.747713     19.254155     39.749767
  C      43.085143     20.638824     38.906637
  H      43.921659     20.005627     38.596978
  C      42.789936     21.708241     38.145215
  C      41.662980     22.571090     38.501478
  H      41.528134     23.432769     37.842224
  C      40.874889     22.336360     39.568370
  H      40.076379     23.029508     39.856701
  C      41.066877     21.146175     40.456273
  H      41.237905     21.454935     41.502225
  O      39.829030     20.370211     40.529865
  H      39.481661     20.361168     39.626402
  C      43.610907     22.042123     36.863393
  O      44.591139     21.302771     36.648004
  O      43.164424     23.011249     36.207368
  N      40.832000     18.750000     42.551000
25
Coordinates from ORCA-job job E -836.430127504235
  C      44.760686     21.363483     41.423550
  H      45.081279     21.230089     40.389465
  H      45.295238     22.055154     42.075898
  C      43.710747     20.725916     41.954066
  C      43.251589     20.990384     43.415137
  O      44.078033     21.529549     44.157998
  O      42.055572     20.659440     43.688703
  O      42.963831     19.784911     41.242623
  C      42.239259     20.204524     40.060107
  H      41.748464     19.256439     39.750375
  C      43.085949     20.641963     38.908784
  H      43.922637     20.009115     38.598858
  C      42.790853     21.711970     38.148146
  C      41.663707     22.574407     38.504761
  H      41.528971     23.436599     37.846152
  C      40.875315     22.338701     39.571212
  H      40.076621     23.031514     39.859858
  C      41.067183     21.147819     40.458214
  H      41.237876     21.455758     41.504469
  O      39.829420     20.371668     40.530825
  H      39.482232     20.363384     39.627289
  C      43.612174     22.046956     36.866848
  O      44.592593     21.307908     36.651214
  O      43.165742     23.016526     36.211415
  N      40.832000     18.750000     42.551000
