24
Coordinates from ORCA-job neb_MEP.QMRegion E -1075.660971567052
  C      42.476000     21.271000     42.812000
  H      42.998000     20.647000     42.086000
  H      42.789000     22.304000     42.969000
  C      41.422000     20.811000     43.500000
  C      40.655000     21.689000     44.480000
  O      41.068000     22.860000     44.629000
  O      39.657000     21.184000     45.061000
  O      40.970000     19.519000     43.386000
  C      40.150000     19.135000     42.232000
  H      39.897000     18.085000     42.440000
  C      40.997000     19.276000     41.013000
  H      41.812000     18.564000     40.862000
  C      40.908000     20.376000     40.241000
  C      39.853000     21.371000     40.474000
  H      39.877000     22.268000     39.851000
  C      38.914000     21.199000     41.419000
  H      38.131000     21.946000     41.584000
  C      38.816000     19.910000     42.196000
  H      38.556000     20.124000     43.247000
  O      37.830000     19.124000     41.565000
  H      37.419000     18.469000     42.267000
  C      41.936000     20.664000     39.171000
  O      43.130000     20.298000     39.398000
  O      41.563000     21.289000     38.158000
24
Coordinates from ORCA-job neb_MEP.QMRegion E -1075.665002842358
  C      42.476583     21.253803     42.779184
  H      42.993903     20.629316     42.050857
  H      42.786858     22.288026     42.930378
  C      41.425377     20.797052     43.473487
  C      40.661991     21.681111     44.451660
  O      41.084337     22.848753     44.605743
  O      39.658090     21.182685     45.029112
  O      40.971101     19.505446     43.367029
  C      40.142994     19.113368     42.219409
  H      39.900059     18.062370     42.430008
  C      40.982413     19.260969     40.994742
  H      41.791962     18.546220     40.828993
  C      40.899486     20.373832     40.241848
  C      39.849278     21.369826     40.492753
  H      39.880205     22.280220     39.888665
  C      38.909788     21.186009     41.435977
  H      38.130105     21.934071     41.613396
  C      38.808938     19.886079     42.192441
  H      38.550250     20.086893     43.246102
  O      37.820370     19.110465     41.552871
  H      37.417307     18.439916     42.247007
  C      41.930619     20.673934     39.177623
  O      43.121952     20.301065     39.401539
  O      41.561834     21.314909     38.173179
24
Coordinates from ORCA-job neb_MEP.QMRegion E -1075.670973616282
  C      42.477339     21.230239     42.740684
  H      42.987827     20.603224     42.009698
  H      42.785370     22.266808     42.880534
  C      41.430447     20.777798     43.444601
  C      40.672179     21.669580     44.419652
  O      41.104549     22.833495     44.575237
  O      39.663290     21.180288     44.996516
  O      40.973969     19.485954     43.347057
  C      40.133268     19.087139     42.207359
  H      39.898121     18.035326     42.422113
  C      40.961082     19.240611     40.975777
  H      41.760802     18.519595     40.790893
  C      40.889207     20.371507     40.248618
  C      39.847862     21.370946     40.525234
  H      39.887813     22.297064     39.945924
  C      38.906401     21.172894     41.463951
  H      38.133115     21.923242     41.659438
  C      38.798983     19.858874     42.195048
  H      38.544113     20.042762     43.252667
  O      37.806765     19.096406     41.545181
  H      37.414300     18.408585     42.229889
  C      41.923959     20.687261     39.191723
  O      43.113081     20.303919     39.409952
  O      41.559644     21.348895     38.199267
24
Coordinates from ORCA-job neb_MEP.QMRegion E -1075.664636268941
  C      42.441157     21.209920     42.569941
  H      43.005307     20.555086     41.907224
  H      42.634593     22.284390     42.524606
  C      41.454455     20.740889     43.358371
  C      40.701879     21.653539     44.323813
  O      41.157910     22.808331     44.488962
  O      39.687325     21.183507     44.910716
  O      41.030707     19.434236     43.308864
  C      40.110048     19.003132     42.152015
  H      39.904661     17.942620     42.363960
  C      40.925402     19.211404     40.942802
  H      41.685675     18.474569     40.677316
  C      40.937436     20.434939     40.376915
  C      39.898687     21.425429     40.699359
  H      39.968813     22.400064     40.207987
  C      38.891720     21.136218     41.540337
  H      38.064763     21.835497     41.704552
  C      38.779330     19.791225     42.207788
  H      38.601383     19.942293     43.284729
  O      37.717090     19.103504     41.590027
  H      37.343517     18.373608     42.257611
  C      41.950949     20.757325     39.311169
  O      43.130678     20.316802     39.451394
  O      41.550630     21.440018     38.348617
24
Coordinates from ORCA-job neb_MEP.QMRegion E -1075.650588701244
  C      42.423527     21.226242     42.515011
  H      43.032916     20.557371     41.909538
  H      42.585362     22.302509     42.420000
  C      41.482819     20.739543     43.367666
  C      40.711804     21.662196     44.317829
  O      41.162513     22.819064     44.483901
  O      39.692170     21.191712     44.898075
  O      41.121404     19.446666     43.361418
  C      40.053021     18.955155     42.062231
  H      39.888300     17.902845     42.328674
  C      40.916072     19.207374     40.941939
  H      41.680109     18.476895     40.673776
  C      40.975242     20.471915     40.447337
  C      39.913281     21.444898     40.737927
  H      39.982592     22.418318     40.245196
  C      38.883031     21.130950     41.538464
  H      38.043048     21.816853     41.685964
  C      38.767845     19.782335     42.193151
  H      38.628781     19.923430     43.276458
  O      37.671943     19.122740     41.603845
  H      37.315538     18.376967     42.268560
  C      41.969529     20.775399     39.356693
  O      43.143401     20.316667     39.458774
  O      41.540576     21.440870     38.394410
24
Coordinates from ORCA-job neb_MEP.QMRegion E -1075.643102043196
  C      42.403988     21.233270     42.470653
  H      43.049576     20.555622     41.916310
  H      42.569504     22.308298     42.381492
  C      41.501650     20.737188     43.383825
  C      40.715029     21.669588     44.320574
  O      41.162244     22.828035     44.485431
  O      39.693937     21.197086     44.894678
  O      41.205892     19.469614     43.426560
  C      39.996870     18.915732     41.978691
  H      39.873091     17.879778     42.308424
  C      40.907424     19.201918     40.949314
  H      41.677257     18.478141     40.679120
  C      41.000832     20.498487     40.493056
  C      39.916231     21.453170     40.749032
  H      39.984018     22.423764     40.251367
  C      38.876964     21.128165     41.532433
  H      38.036574     21.813227     41.680174
  C      38.760358     19.776923     42.179780
  H      38.640872     19.913075     43.267001
  O      37.645521     19.132322     41.607009
  H      37.304643     18.377540     42.269939
  C      41.978193     20.783503     39.375835
  O      43.147468     20.314134     39.459141
  O      41.533643     21.435205     38.410750
24
Coordinates from ORCA-job neb_MEP.QMRegion E -1075.641108714988
  C      42.375934     21.234458     42.413300
  H      43.067711     20.553699     41.923578
  H      42.551321     22.309368     42.341092
  C      41.512836     20.736221     43.392533
  C      40.716386     21.674549     44.321413
  O      41.166287     22.831719     44.484662
  O      39.697200     21.199738     44.894012
  O      41.280379     19.490402     43.484793
  C      39.951517     18.884386     41.909266
  H      39.856953     17.862439     42.283305
  C      40.902725     19.198621     40.961765
  H      41.676266     18.480216     40.685724
  C      41.034302     20.530109     40.547449
  C      39.920290     21.461763     40.761009
  H      39.984764     22.429495     40.257735
  C      38.873077     21.125687     41.527802
  H      38.030167     21.808107     41.672939
  C      38.754541     19.771447     42.168573
  H      38.650698     19.904193     43.259388
  O      37.622674     19.141559     41.611020
  H      37.295206     18.379301     42.271466
  C      41.986814     20.791663     39.395778
  O      43.152343     20.312504     39.460014
  O      41.526607     21.429743     38.428657
24
Coordinates from ORCA-job neb_MEP.QMRegion E -1075.645021374452
  C      42.304660     21.215361     42.299180
  H      43.086760     20.550267     41.939172
  H      42.519253     22.290647     42.285840
  C      41.508650     20.732009     43.388746
  C      40.717274     21.678441     44.320948
  O      41.175416     22.831600     44.480441
  O      39.703438     21.201694     44.897120
  O      41.344395     19.509517     43.538527
  C      39.921222     18.862164     41.853747
  H      39.839831     17.847508     42.250277
  C      40.904847     19.201453     40.982242
  H      41.677781     18.485584     40.694630
  C      41.101771     20.586005     40.644770
  C      39.929594     21.475949     40.781829
  H      39.983972     22.436736     40.264282
  C      38.872622     21.124133     41.524000
  H      38.022244     21.799974     41.659200
  C      38.752100     19.766567     42.160810
  H      38.657845     19.896346     43.253913
  O      37.604750     19.152865     41.617344
  H      37.290027     18.382851     42.272120
  C      41.999239     20.804291     39.423781
  O      43.160550     20.312523     39.459700
  O      41.515485     21.420509     38.454247
24
Coordinates from ORCA-job neb_MEP.QMRegion E -1075.660372140238
  C      42.214696     21.179539     42.159564
  H      43.091624     20.553477     41.959957
  H      42.469940     22.256507     42.210761
  C      41.496185     20.728627     43.377091
  C      40.720516     21.682809     44.320660
  O      41.188721     22.831230     44.475109
  O      39.712047     21.204846     44.900247
  O      41.410805     19.528753     43.594513
  C      39.900105     18.846315     41.805291
  H      39.816507     17.830249     42.201205
  C      40.915933     19.210168     41.007234
  H      41.684181     18.493319     40.706028
  C      41.188312     20.654424     40.761896
  C      39.947242     21.493571     40.810779
  H      39.985878     22.446222     40.275716
  C      38.876847     21.122698     41.521498
  H      38.014028     21.787990     41.637297
  C      38.752324     19.761775     42.155206
  H      38.666684     19.888202     43.251393
  O      37.588519     19.167650     41.626311
  H      37.284060     18.390019     42.273622
  C      42.012257     20.820307     39.456518
  O      43.169002     20.314381     39.460380
  O      41.500903     21.410412     38.485640
24
Coordinates from ORCA-job neb_MEP.QMRegion E -1075.687909643534
  C      42.131000     21.181000     42.026000
  H      43.089000     20.667000     41.880000
  H      42.270000     22.273000     42.006000
  C      41.584000     20.717000     43.353000
  C      40.771000     21.651000     44.286000
  O      41.231000     22.805000     44.422000
  O      39.771000     21.167000     44.871000
  O      41.802000     19.575000     43.708000
  C      39.721000     18.815000     41.469000
  H      39.496000     17.746000     41.538000
  C      40.859000     19.255000     40.929000
  H      41.613000     18.561000     40.548000
  C      41.194000     20.731000     40.842000
  C      39.940000     21.570000     40.904000
  H      40.003000     22.571000     40.467000
  C      38.828000     21.137000     41.503000
  H      37.943000     21.774000     41.604000
  C      38.705000     19.749000     42.081000
  H      38.931000     19.820000     43.166000
  O      37.385000     19.310000     41.906000
  H      37.233000     18.440000     42.476000
  C      41.955000     20.911000     39.497000
  O      43.135000     20.454000     39.447000
  O      41.366000     21.458000     38.552000
