24
Coordinates from ORCA-job neb_initial_path.QMRegion E   0.000000000000
  C      42.476000     21.271000     42.812000
  H      42.998000     20.647000     42.086000
  H      42.789000     22.304000     42.969000
  C      41.422000     20.811000     43.500000
  C      40.655000     21.689000     44.480000
  O      41.068000     22.860000     44.629000
  O      39.657000     21.184000     45.061000
  O      40.970000     19.519000     43.386000
  C      40.150000     19.135000     42.232000
  H      39.897000     18.085000     42.440000
  C      40.997000     19.276000     41.013000
  H      41.812000     18.564000     40.862000
  C      40.908000     20.376000     40.241000
  C      39.853000     21.371000     40.474000
  H      39.877000     22.268000     39.851000
  C      38.914000     21.199000     41.419000
  H      38.131000     21.946000     41.584000
  C      38.816000     19.910000     42.196000
  H      38.556000     20.124000     43.247000
  O      37.830000     19.124000     41.565000
  H      37.419000     18.469000     42.267000
  C      41.936000     20.664000     39.171000
  O      43.130000     20.298000     39.398000
  O      41.563000     21.289000     38.158000
24
Coordinates from ORCA-job neb_initial_path.QMRegion E   0.000000000000
  C      42.448000     21.259667     42.733333
  H      43.007167     20.627500     42.058500
  H      42.738500     22.299667     42.850167
  C      41.430000     20.797333     43.477500
  C      40.663000     21.686333     44.451333
  O      41.085167     22.853833     44.602333
  O      39.663167     21.187167     45.034667
  O      41.010500     19.513500     43.396333
  C      40.121000     19.097333     42.185333
  H      39.892333     18.051167     42.418167
  C      40.981333     19.265333     41.006833
  H      41.788667     18.551833     40.833833
  C      40.935667     20.407000     40.303167
  C      39.865667     21.388833     40.525000
  H      39.895000     22.296333     39.919333
  C      38.907333     21.188333     41.437500
  H      38.111833     21.922333     41.594333
  C      38.806000     19.888833     42.193167
  H      38.566333     20.089000     43.250000
  O      37.800333     19.125667     41.569000
  H      37.401333     18.454000     42.263667
  C      41.946333     20.686500     39.213833
  O      43.135167     20.299833     39.410167
  O      41.556000     21.311167     38.208333
24
Coordinates from ORCA-job neb_initial_path.QMRegion E   0.000000000000
  C      42.420000     21.248333     42.654667
  H      43.016333     20.608000     42.031000
  H      42.688000     22.295333     42.731333
  C      41.438000     20.783667     43.455000
  C      40.671000     21.683667     44.422667
  O      41.102333     22.847667     44.575667
  O      39.669333     21.190333     45.008333
  O      41.051000     19.508000     43.406667
  C      40.092000     19.059667     42.138667
  H      39.887667     18.017333     42.396333
  C      40.965667     19.254667     41.000667
  H      41.765333     18.539667     40.805667
  C      40.963333     20.438000     40.365333
  C      39.878333     21.406667     40.576000
  H      39.913000     22.324667     39.987667
  C      38.900667     21.177667     41.456000
  H      38.092667     21.898667     41.604667
  C      38.796000     19.867667     42.190333
  H      38.576667     20.054000     43.253000
  O      37.770667     19.127333     41.573000
  H      37.383667     18.439000     42.260333
  C      41.956667     20.709000     39.256667
  O      43.140333     20.301667     39.422333
  O      41.549000     21.333333     38.258667
24
Coordinates from ORCA-job neb_initial_path.QMRegion E   0.000000000000
  C      42.392000     21.237000     42.576000
  H      43.025500     20.588500     42.003500
  H      42.637500     22.291000     42.612500
  C      41.446000     20.770000     43.432500
  C      40.679000     21.681000     44.394000
  O      41.119500     22.841500     44.549000
  O      39.675500     21.193500     44.982000
  O      41.091500     19.502500     43.417000
  C      40.063000     19.022000     42.092000
  H      39.883000     17.983500     42.374500
  C      40.950000     19.244000     40.994500
  H      41.742000     18.527500     40.777500
  C      40.991000     20.469000     40.427500
  C      39.891000     21.424500     40.627000
  H      39.931000     22.353000     40.056000
  C      38.894000     21.167000     41.474500
  H      38.073500     21.875000     41.615000
  C      38.786000     19.846500     42.187500
  H      38.587000     20.019000     43.256000
  O      37.741000     19.129000     41.577000
  H      37.366000     18.424000     42.257000
  C      41.967000     20.731500     39.299500
  O      43.145500     20.303500     39.434500
  O      41.542000     21.355500     38.309000
24
Coordinates from ORCA-job neb_initial_path.QMRegion E   0.000000000000
  C      42.364000     21.225667     42.497333
  H      43.034667     20.569000     41.976000
  H      42.587000     22.286667     42.493667
  C      41.454000     20.756333     43.410000
  C      40.687000     21.678333     44.365333
  O      41.136667     22.835333     44.522333
  O      39.681667     21.196667     44.955667
  O      41.132000     19.497000     43.427333
  C      40.034000     18.984333     42.045333
  H      39.878333     17.949667     42.352667
  C      40.934333     19.233333     40.988333
  H      41.718667     18.515333     40.749333
  C      41.018667     20.500000     40.489667
  C      39.903667     21.442333     40.678000
  H      39.949000     22.381333     40.124333
  C      38.887333     21.156333     41.493000
  H      38.054333     21.851333     41.625333
  C      38.776000     19.825333     42.184667
  H      38.597333     19.984000     43.259000
  O      37.711333     19.130667     41.581000
  H      37.348333     18.409000     42.253667
  C      41.977333     20.754000     39.342333
  O      43.150667     20.305333     39.446667
  O      41.535000     21.377667     38.359333
24
Coordinates from ORCA-job neb_initial_path.QMRegion E   0.000000000000
  C      42.336000     21.214333     42.418667
  H      43.043833     20.549500     41.948500
  H      42.536500     22.282333     42.374833
  C      41.462000     20.742667     43.387500
  C      40.695000     21.675667     44.336667
  O      41.153833     22.829167     44.495667
  O      39.687833     21.199833     44.929333
  O      41.172500     19.491500     43.437667
  C      40.005000     18.946667     41.998667
  H      39.873667     17.915833     42.330833
  C      40.918667     19.222667     40.982167
  H      41.695333     18.503167     40.721167
  C      41.046333     20.531000     40.551833
  C      39.916333     21.460167     40.729000
  H      39.967000     22.409667     40.192667
  C      38.880667     21.145667     41.511500
  H      38.035167     21.827667     41.635667
  C      38.766000     19.804167     42.181833
  H      38.607667     19.949000     43.262000
  O      37.681667     19.132333     41.585000
  H      37.330667     18.394000     42.250333
  C      41.987667     20.776500     39.385167
  O      43.155833     20.307167     39.458833
  O      41.528000     21.399833     38.409667
24
Coordinates from ORCA-job neb_initial_path.QMRegion E   0.000000000000
  C      42.308000     21.203000     42.340000
  H      43.053000     20.530000     41.921000
  H      42.486000     22.278000     42.256000
  C      41.470000     20.729000     43.365000
  C      40.703000     21.673000     44.308000
  O      41.171000     22.823000     44.469000
  O      39.694000     21.203000     44.903000
  O      41.213000     19.486000     43.448000
  C      39.976000     18.909000     41.952000
  H      39.869000     17.882000     42.309000
  C      40.903000     19.212000     40.976000
  H      41.672000     18.491000     40.693000
  C      41.074000     20.562000     40.614000
  C      39.929000     21.478000     40.780000
  H      39.985000     22.438000     40.261000
  C      38.874000     21.135000     41.530000
  H      38.016000     21.804000     41.646000
  C      38.756000     19.783000     42.179000
  H      38.618000     19.914000     43.265000
  O      37.652000     19.134000     41.589000
  H      37.313000     18.379000     42.247000
  C      41.998000     20.799000     39.428000
  O      43.161000     20.309000     39.471000
  O      41.521000     21.422000     38.460000
24
Coordinates from ORCA-job neb_initial_path.QMRegion E   0.000000000000
  C      42.249000     21.195667     42.235333
  H      43.065000     20.575667     41.907333
  H      42.414000     22.276333     42.172667
  C      41.508000     20.725000     43.361000
  C      40.725667     21.665667     44.300667
  O      41.191000     22.817000     44.453333
  O      39.719667     21.191000     44.892333
  O      41.409333     19.515667     43.534667
  C      39.891000     18.877667     41.791000
  H      39.744667     17.836667     42.052000
  C      40.888333     19.226333     40.960333
  H      41.652333     18.514333     40.644667
  C      41.114000     20.618333     40.690000
  C      39.932667     21.508667     40.821333
  H      39.991000     22.482333     40.329667
  C      38.858667     21.135667     41.521000
  H      37.991667     21.794000     41.632000
  C      38.739000     19.771667     42.146333
  H      38.722333     19.882667     43.232000
  O      37.563000     19.192667     41.694667
  H      37.286333     18.399333     42.323333
  C      41.983667     20.836333     39.451000
  O      43.152333     20.357333     39.463000
  O      41.469333     21.434000     38.490667
24
Coordinates from ORCA-job neb_initial_path.QMRegion E   0.000000000000
  C      42.190000     21.188333     42.130667
  H      43.077000     20.621333     41.893667
  H      42.342000     22.274667     42.089333
  C      41.546000     20.721000     43.357000
  C      40.748333     21.658333     44.293333
  O      41.211000     22.811000     44.437667
  O      39.745333     21.179000     44.881667
  O      41.605667     19.545333     43.621333
  C      39.806000     18.846333     41.630000
  H      39.620333     17.791333     41.795000
  C      40.873667     19.240667     40.944667
  H      41.632667     18.537667     40.596333
  C      41.154000     20.674667     40.766000
  C      39.936333     21.539333     40.862667
  H      39.997000     22.526667     40.398333
  C      38.843333     21.136333     41.512000
  H      37.967333     21.784000     41.618000
  C      38.722000     19.760333     42.113667
  H      38.826667     19.851333     43.199000
  O      37.474000     19.251333     41.800333
  H      37.259667     18.419667     42.399667
  C      41.969333     20.873667     39.474000
  O      43.143667     20.405667     39.455000
  O      41.417667     21.446000     38.521333
24
Coordinates from ORCA-job neb_initial_path.QMRegion E   0.000000000000
  C      42.131000     21.181000     42.026000
  H      43.089000     20.667000     41.880000
  H      42.270000     22.273000     42.006000
  C      41.584000     20.717000     43.353000
  C      40.771000     21.651000     44.286000
  O      41.231000     22.805000     44.422000
  O      39.771000     21.167000     44.871000
  O      41.802000     19.575000     43.708000
  C      39.721000     18.815000     41.469000
  H      39.496000     17.746000     41.538000
  C      40.859000     19.255000     40.929000
  H      41.613000     18.561000     40.548000
  C      41.194000     20.731000     40.842000
  C      39.940000     21.570000     40.904000
  H      40.003000     22.571000     40.467000
  C      38.828000     21.137000     41.503000
  H      37.943000     21.774000     41.604000
  C      38.705000     19.749000     42.081000
  H      38.931000     19.820000     43.166000
  O      37.385000     19.310000     41.906000
  H      37.233000     18.440000     42.476000
  C      41.955000     20.911000     39.497000
  O      43.135000     20.454000     39.447000
  O      41.366000     21.458000     38.552000
