24
Coordinates from ORCA-job neb_initial_path.QMRegion E   0.000000000000
  C      44.966000     29.666000     67.097000
  H      45.675000     28.840000     67.030000
  H      45.278000     30.603000     67.557000
  C      43.707000     29.563000     66.656000
  C      42.715000     30.711000     66.782000
  O      43.170000     31.841000     67.095000
  O      41.505000     30.459000     66.565000
  O      43.224000     28.397000     66.087000
  C      43.438000     28.193000     64.644000
  H      42.994000     27.207000     64.450000
  C      44.915000     28.184000     64.403000
  H      45.497000     27.316000     64.718000
  C      45.549000     29.312000     64.029000
  C      44.774000     30.504000     63.666000
  H      45.354000     31.407000     63.479000
  C      43.434000     30.489000     63.596000
  H      42.881000     31.394000     63.330000
  C      42.641000     29.227000     63.816000
  H      41.750000     29.470000     64.412000
  O      42.283000     28.682000     62.559000
  H      41.280000     28.569000     62.497000
  C      47.060000     29.450000     64.118000
  O      47.762000     28.489000     64.497000
  O      47.505000     30.596000     63.830000
24
Coordinates from ORCA-job neb_initial_path.QMRegion E   0.000000000000
  C      44.997000     29.661600     67.023400
  H      45.702600     28.833600     66.963800
  H      45.320800     30.605200     67.458000
  C      43.722400     29.548400     66.639000
  C      42.735000     30.700000     66.775400
  O      43.193400     31.826800     67.094600
  O      41.523200     30.453400     66.560000
  O      43.231200     28.385800     66.091800
  C      43.446200     28.174000     64.600200
  H      42.999600     27.187400     64.425800
  C      44.915600     28.178400     64.380600
  H      45.503400     27.307400     64.669800
  C      45.540600     29.326000     64.073600
  C      44.762200     30.516000     63.710800
  H      45.335200     31.426400     63.547800
  C      43.427400     30.487000     63.604800
  H      42.872000     31.387400     63.329800
  C      42.641800     29.218200     63.799600
  H      41.752000     29.445000     64.402600
  O      42.282600     28.698200     62.534000
  H      41.280800     28.569400     62.476800
  C      47.052000     29.465000     64.146200
  O      47.755800     28.504600     64.523000
  O      47.496400     30.604000     63.836000
24
Coordinates from ORCA-job neb_initial_path.QMRegion E   0.000000000000
  C      45.028000     29.657200     66.949800
  H      45.730200     28.827200     66.897600
  H      45.363600     30.607400     67.359000
  C      43.737800     29.533800     66.622000
  C      42.755000     30.689000     66.768800
  O      43.216800     31.812600     67.094200
  O      41.541400     30.447800     66.555000
  O      43.238400     28.374600     66.096600
  C      43.454400     28.155000     64.556400
  H      43.005200     27.167800     64.401600
  C      44.916200     28.172800     64.358200
  H      45.509800     27.298800     64.621600
  C      45.532200     29.340000     64.118200
  C      44.750400     30.528000     63.755600
  H      45.316400     31.445800     63.616600
  C      43.420800     30.485000     63.613600
  H      42.863000     31.380800     63.329600
  C      42.642600     29.209400     63.783200
  H      41.754000     29.420000     64.393200
  O      42.282200     28.714400     62.509000
  H      41.281600     28.569800     62.456600
  C      47.044000     29.480000     64.174400
  O      47.749600     28.520200     64.549000
  O      47.487800     30.612000     63.842000
24
Coordinates from ORCA-job neb_initial_path.QMRegion E   0.000000000000
  C      45.059000     29.652800     66.876200
  H      45.757800     28.820800     66.831400
  H      45.406400     30.609600     67.260000
  C      43.753200     29.519200     66.605000
  C      42.775000     30.678000     66.762200
  O      43.240200     31.798400     67.093800
  O      41.559600     30.442200     66.550000
  O      43.245600     28.363400     66.101400
  C      43.462600     28.136000     64.512600
  H      43.010800     27.148200     64.377400
  C      44.916800     28.167200     64.335800
  H      45.516200     27.290200     64.573400
  C      45.523800     29.354000     64.162800
  C      44.738600     30.540000     63.800400
  H      45.297600     31.465200     63.685400
  C      43.414200     30.483000     63.622400
  H      42.854000     31.374200     63.329400
  C      42.643400     29.200600     63.766800
  H      41.756000     29.395000     64.383800
  O      42.281800     28.730600     62.484000
  H      41.282400     28.570200     62.436400
  C      47.036000     29.495000     64.202600
  O      47.743400     28.535800     64.575000
  O      47.479200     30.620000     63.848000
24
Coordinates from ORCA-job neb_initial_path.QMRegion E   0.000000000000
  C      45.090000     29.648400     66.802600
  H      45.785400     28.814400     66.765200
  H      45.449200     30.611800     67.161000
  C      43.768600     29.504600     66.588000
  C      42.795000     30.667000     66.755600
  O      43.263600     31.784200     67.093400
  O      41.577800     30.436600     66.545000
  O      43.252800     28.352200     66.106200
  C      43.470800     28.117000     64.468800
  H      43.016400     27.128600     64.353200
  C      44.917400     28.161600     64.313400
  H      45.522600     27.281600     64.525200
  C      45.515400     29.368000     64.207400
  C      44.726800     30.552000     63.845200
  H      45.278800     31.484600     63.754200
  C      43.407600     30.481000     63.631200
  H      42.845000     31.367600     63.329200
  C      42.644200     29.191800     63.750400
  H      41.758000     29.370000     64.374400
  O      42.281400     28.746800     62.459000
  H      41.283200     28.570600     62.416200
  C      47.028000     29.510000     64.230800
  O      47.737200     28.551400     64.601000
  O      47.470600     30.628000     63.854000
24
Coordinates from ORCA-job neb_initial_path.QMRegion E   0.000000000000
  C      45.121000     29.644000     66.729000
  H      45.813000     28.808000     66.699000
  H      45.492000     30.614000     67.062000
  C      43.784000     29.490000     66.571000
  C      42.815000     30.656000     66.749000
  O      43.287000     31.770000     67.093000
  O      41.596000     30.431000     66.540000
  O      43.260000     28.341000     66.111000
  C      43.479000     28.098000     64.425000
  H      43.022000     27.109000     64.329000
  C      44.918000     28.156000     64.291000
  H      45.529000     27.273000     64.477000
  C      45.507000     29.382000     64.252000
  C      44.715000     30.564000     63.890000
  H      45.260000     31.504000     63.823000
  C      43.401000     30.479000     63.640000
  H      42.836000     31.361000     63.329000
  C      42.645000     29.183000     63.734000
  H      41.760000     29.345000     64.365000
  O      42.281000     28.763000     62.434000
  H      41.284000     28.571000     62.396000
  C      47.020000     29.525000     64.259000
  O      47.731000     28.567000     64.627000
  O      47.462000     30.636000     63.860000
24
Coordinates from ORCA-job neb_initial_path.QMRegion E   0.000000000000
  C      45.185000     29.618500     66.618500
  H      45.853750     28.783500     66.695000
  H      45.557000     30.585750     66.963500
  C      43.822750     29.458750     66.601500
  C      42.872750     30.646250     66.785750
  O      43.368500     31.739750     67.147250
  O      41.654000     30.441000     66.561500
  O      43.309500     28.319250     66.283250
  C      43.533250     28.104750     64.231500
  H      43.094750     27.121000     64.076000
  C      44.919250     28.174750     64.261500
  H      45.539000     27.294250     64.429500
  C      45.500250     29.418000     64.366750
  C      44.714500     30.599250     63.957750
  H      45.245250     31.547250     63.922750
  C      43.422750     30.507250     63.640750
  H      42.867750     31.388000     63.309500
  C      42.670250     29.209750     63.678250
  H      41.821750     29.318750     64.357750
  O      42.233000     28.892750     62.391500
  H      41.253500     28.646250     62.377000
  C      47.015500     29.550500     64.289000
  O      47.735500     28.597750     64.653000
  O      47.444000     30.644750     63.844250
24
Coordinates from ORCA-job neb_initial_path.QMRegion E   0.000000000000
  C      45.249000     29.593000     66.508000
  H      45.894500     28.759000     66.691000
  H      45.622000     30.557500     66.865000
  C      43.861500     29.427500     66.632000
  C      42.930500     30.636500     66.822500
  O      43.450000     31.709500     67.201500
  O      41.712000     30.451000     66.583000
  O      43.359000     28.297500     66.455500
  C      43.587500     28.111500     64.038000
  H      43.167500     27.133000     63.823000
  C      44.920500     28.193500     64.232000
  H      45.549000     27.315500     64.382000
  C      45.493500     29.454000     64.481500
  C      44.714000     30.634500     64.025500
  H      45.230500     31.590500     64.022500
  C      43.444500     30.535500     63.641500
  H      42.899500     31.415000     63.290000
  C      42.695500     29.236500     63.622500
  H      41.883500     29.292500     64.350500
  O      42.185000     29.022500     62.349000
  H      41.223000     28.721500     62.358000
  C      47.011000     29.576000     64.319000
  O      47.740000     28.628500     64.679000
  O      47.426000     30.653500     63.828500
24
Coordinates from ORCA-job neb_initial_path.QMRegion E   0.000000000000
  C      45.313000     29.567500     66.397500
  H      45.935250     28.734500     66.687000
  H      45.687000     30.529250     66.766500
  C      43.900250     29.396250     66.662500
  C      42.988250     30.626750     66.859250
  O      43.531500     31.679250     67.255750
  O      41.770000     30.461000     66.604500
  O      43.408500     28.275750     66.627750
  C      43.641750     28.118250     63.844500
  H      43.240250     27.145000     63.570000
  C      44.921750     28.212250     64.202500
  H      45.559000     27.336750     64.334500
  C      45.486750     29.490000     64.596250
  C      44.713500     30.669750     64.093250
  H      45.215750     31.633750     64.122250
  C      43.466250     30.563750     63.642250
  H      42.931250     31.442000     63.270500
  C      42.720750     29.263250     63.566750
  H      41.945250     29.266250     64.343250
  O      42.137000     29.152250     62.306500
  H      41.192500     28.796750     62.339000
  C      47.006500     29.601500     64.349000
  O      47.744500     28.659250     64.705000
  O      47.408000     30.662250     63.812750
24
Coordinates from ORCA-job neb_initial_path.QMRegion E   0.000000000000
  C      45.377000     29.542000     66.287000
  H      45.976000     28.710000     66.683000
  H      45.752000     30.501000     66.668000
  C      43.939000     29.365000     66.693000
  C      43.046000     30.617000     66.896000
  O      43.613000     31.649000     67.310000
  O      41.828000     30.471000     66.626000
  O      43.458000     28.254000     66.800000
  C      43.696000     28.125000     63.651000
  H      43.313000     27.157000     63.317000
  C      44.923000     28.231000     64.173000
  H      45.569000     27.358000     64.287000
  C      45.480000     29.526000     64.711000
  C      44.713000     30.705000     64.161000
  H      45.201000     31.677000     64.222000
  C      43.488000     30.592000     63.643000
  H      42.963000     31.469000     63.251000
  C      42.746000     29.290000     63.511000
  H      42.007000     29.240000     64.336000
  O      42.089000     29.282000     62.264000
  H      41.162000     28.872000     62.320000
  C      47.002000     29.627000     64.379000
  O      47.749000     28.690000     64.731000
  O      47.390000     30.671000     63.797000
