24
Coordinates from ORCA-job neb_MEP.QMRegion E -1076.449828205319
  C      44.966000     29.666000     67.097000
  H      45.675000     28.840000     67.030000
  H      45.278000     30.603000     67.557000
  C      43.707000     29.563000     66.656000
  C      42.715000     30.711000     66.782000
  O      43.170000     31.841000     67.095000
  O      41.505000     30.459000     66.565000
  O      43.224000     28.397000     66.087000
  C      43.438000     28.193000     64.644000
  H      42.994000     27.207000     64.450000
  C      44.915000     28.184000     64.403000
  H      45.497000     27.316000     64.718000
  C      45.549000     29.312000     64.029000
  C      44.774000     30.504000     63.666000
  H      45.354000     31.407000     63.479000
  C      43.434000     30.489000     63.596000
  H      42.881000     31.394000     63.330000
  C      42.641000     29.227000     63.816000
  H      41.750000     29.470000     64.412000
  O      42.283000     28.682000     62.559000
  H      41.280000     28.569000     62.497000
  C      47.060000     29.450000     64.118000
  O      47.762000     28.489000     64.497000
  O      47.505000     30.596000     63.830000
24
Coordinates from ORCA-job neb_MEP.QMRegion E -1076.452375952951
  C      44.989049     29.655120     67.051830
  H      45.700621     28.833530     66.966764
  H      45.311113     30.598210     67.494090
  C      43.722092     29.549459     66.634878
  C      42.733397     30.698366     66.773785
  O      43.189850     31.824912     67.094976
  O      41.521173     30.450728     66.557906
  O      43.234287     28.386326     66.068730
  C      43.442152     28.180846     64.622380
  H      42.996414     27.195162     64.429632
  C      44.917804     28.178307     64.376794
  H      45.504199     27.305665     64.669253
  C      45.546538     29.319693     64.034711
  C      44.765615     30.514295     63.693401
  H      45.337957     31.427026     63.534616
  C      43.426353     30.487817     63.605303
  H      42.869389     31.392279     63.343880
  C      42.641015     29.217579     63.803688
  H      41.747223     29.447543     64.402337
  O      42.288368     28.688347     62.539829
  H      41.286295     28.564923     62.480481
  C      47.056207     29.461220     64.126775
  O      47.755602     28.501972     64.514990
  O      47.501804     30.604839     63.832129
24
Coordinates from ORCA-job neb_MEP.QMRegion E -1076.454190843212
  C      45.013599     29.646048     67.004447
  H      45.727625     28.828832     66.902364
  H      45.344474     30.595370     67.426679
  C      43.738491     29.535862     66.613537
  C      42.752138     30.685420     66.766437
  O      43.211379     31.808784     67.094795
  O      41.538487     30.441923     66.552715
  O      43.244239     28.374849     66.050477
  C      43.445939     28.168895     64.600265
  H      43.000957     27.182526     64.410241
  C      44.919868     28.172869     64.349621
  H      45.510640     27.296030     64.619887
  C      45.543259     29.326709     64.040316
  C      44.756486     30.523922     63.721475
  H      45.321208     31.446257     63.594824
  C      43.418947     30.487138     63.614319
  H      42.856885     31.390034     63.358801
  C      42.640995     29.209194     63.790177
  H      41.745499     29.427557     64.390487
  O      42.292696     28.695818     62.519112
  H      41.291437     28.561491     62.461826
  C      47.051693     29.473048     64.136738
  O      47.751771     28.517875     64.534069
  O      47.496769     30.614699     63.835264
24
Coordinates from ORCA-job neb_MEP.QMRegion E -1076.456060631552
  C      45.062702     29.625628     66.921582
  H      45.778763     28.812854     66.805003
  H      45.411736     30.589774     67.292853
  C      43.773185     29.507567     66.578510
  C      42.794761     30.661911     66.757690
  O      43.261783     31.777148     67.101543
  O      41.577595     30.430308     66.547440
  O      43.266066     28.351136     66.015688
  C      43.457472     28.150454     64.551989
  H      43.016705     27.162574     64.358538
  C      44.926932     28.170126     64.300514
  H      45.526482     27.287817     64.529542
  C      45.538423     29.347727     64.065972
  C      44.742267     30.547904     63.782832
  H      45.292032     31.484945     63.711732
  C      43.410274     30.492623     63.629705
  H      42.842115     31.390536     63.371009
  C      42.644438     29.203392     63.763390
  H      41.751887     29.397468     64.375510
  O      42.291415     28.733370     62.478003
  H      41.291907     28.573708     62.429327
  C      47.043574     29.499389     64.164860
  O      47.744983     28.551029     64.576435
  O      47.488311     30.634122     63.840959
24
Coordinates from ORCA-job neb_MEP.QMRegion E -1076.449102154994
  C      45.137809     29.599987     66.810881
  H      45.847597     28.779179     66.722449
  H      45.519994     30.585564     67.082634
  C      43.822676     29.465113     66.552550
  C      42.861794     30.636145     66.755823
  O      43.343613     31.737735     67.120803
  O      41.638835     30.426907     66.546444
  O      43.299238     28.318987     66.003557
  C      43.484215     28.122882     64.444771
  H      43.047665     27.130410     64.261332
  C      44.937994     28.176192     64.238370
  H      45.549771     27.291284     64.415621
  C      45.526415     29.389415     64.154134
  C      44.722884     30.589304     63.890233
  H      45.253581     31.540339     63.879706
  C      43.406655     30.507917     63.646970
  H      42.836499     31.392969     63.351766
  C      42.653889     29.208857     63.719353
  H      41.780173     29.359180     64.367594
  O      42.264319     28.832163     62.414662
  H      41.268990     28.625960     62.386796
  C      47.028804     29.541806     64.233250
  O      47.734933     28.598938     64.648205
  O      47.471953     30.658358     63.853125
24
Coordinates from ORCA-job neb_MEP.QMRegion E -1076.436675960218
  C      45.165445     29.615269     66.761102
  H      45.856228     28.774232     66.735631
  H      45.552085     30.601476     67.019537
  C      43.820194     29.454481     66.587537
  C      42.865657     30.643058     66.764389
  O      43.350024     31.746001     67.121293
  O      41.644031     30.435660     66.547265
  O      43.302705     28.320870     66.133161
  C      43.507825     28.089662     64.310947
  H      43.051177     27.097972     64.221613
  C      44.927205     28.169008     64.228703
  H      45.544681     27.290983     64.415498
  C      45.509547     29.407469     64.236573
  C      44.714394     30.597484     63.918472
  H      45.246760     31.546937     63.897634
  C      43.406459     30.505855     63.641980
  H      42.836835     31.386279     63.335396
  C      42.659263     29.204461     63.696786
  H      41.797749     29.334982     64.366894
  O      42.245067     28.861506     62.387286
  H      41.251214     28.635745     62.375231
  C      47.019251     29.549722     64.270499
  O      47.729318     28.599349     64.656928
  O      47.460021     30.655096     63.855032
24
Coordinates from ORCA-job neb_MEP.QMRegion E -1076.434170513821
  C      45.190277     29.624575     66.703668
  H      45.861332     28.769776     66.748874
  H      45.568520     30.607079     66.985607
  C      43.815279     29.447451     66.607689
  C      42.864511     30.648620     66.769808
  O      43.354005     31.750137     67.121541
  O      41.645018     30.439608     66.550016
  O      43.303555     28.327884     66.248068
  C      43.528325     28.066510     64.205454
  H      43.054620     27.082011     64.192384
  C      44.914264     28.162720     64.230210
  H      45.539266     27.290806     64.420725
  C      45.498638     29.424100     64.306969
  C      44.711603     30.602312     63.931754
  H      45.244859     31.550917     63.902060
  C      43.408188     30.503644     63.637719
  H      42.837924     31.382751     63.327797
  C      42.663465     29.199298     63.681480
  H      41.808664     29.321845     64.364441
  O      42.233379     28.877817     62.373246
  H      41.244264     28.639793     62.369585
  C      47.014120     29.554730     64.291362
  O      47.726464     28.598459     64.658057
  O      47.454169     30.652082     63.854731
24
Coordinates from ORCA-job neb_MEP.QMRegion E -1076.440881458147
  C      45.232053     29.627723     66.538776
  H      45.859837     28.765656     66.762940
  H      45.585970     30.596029     66.913269
  C      43.809094     29.440784     66.608989
  C      42.862586     30.653423     66.776540
  O      43.362959     31.749289     67.124702
  O      41.645785     30.441416     66.558127
  O      43.301104     28.332889     66.370293
  C      43.552371     28.044863     64.113825
  H      43.066371     27.066663     64.144080
  C      44.898731     28.158335     64.250449
  H      45.532797     27.290179     64.432989
  C      45.481761     29.455913     64.467233
  C      44.706785     30.610538     63.962034
  H      45.241448     31.557527     63.909774
  C      43.414816     30.498882     63.634711
  H      42.845621     31.374393     63.309973
  C      42.670148     29.192004     63.669392
  H      41.819532     29.307038     64.361731
  O      42.222230     28.897733     62.360108
  H      41.238004     28.644546     62.364872
  C      47.008273     29.562714     64.324682
  O      47.724280     28.597830     64.659605
  O      47.443863     30.646912     63.852135
24
Coordinates from ORCA-job neb_MEP.QMRegion E -1076.466423326271
  C      45.273908     29.613641     66.337456
  H      45.850417     28.775454     66.752462
  H      45.615703     30.570522     66.770921
  C      43.815122     29.437552     66.600632
  C      42.875995     30.657465     66.794414
  O      43.392798     31.741152     67.147696
  O      41.659980     30.446319     66.578366
  O      43.308576     28.327363     66.528539
  C      43.586136     28.034216     64.013733
  H      43.107354     27.050133     64.007601
  C      44.892674     28.165090     64.282051
  H      45.530456     27.295375     64.453652
  C      45.470502     29.493050     64.654581
  C      44.704908     30.627371     64.028038
  H      45.234311     31.576602     63.956072
  C      43.433254     30.499372     63.639852
  H      42.874058     31.367258     63.275277
  C      42.686461     29.191740     63.647429
  H      41.848652     29.285978     64.362068
  O      42.201953     28.956180     62.339404
  H      41.226697     28.671886     62.358026
  C      47.000857     29.577238     64.366728
  O      47.722931     28.607204     64.672678
  O      47.424817     30.644350     63.847977
24
Coordinates from ORCA-job neb_MEP.QMRegion E -1076.482541999788
  C      45.377000     29.542000     66.287000
  H      45.976000     28.710000     66.683000
  H      45.752000     30.501000     66.668000
  C      43.939000     29.365000     66.693000
  C      43.046000     30.617000     66.896000
  O      43.613000     31.649000     67.310000
  O      41.828000     30.471000     66.626000
  O      43.458000     28.254000     66.800000
  C      43.696000     28.125000     63.651000
  H      43.313000     27.157000     63.317000
  C      44.923000     28.231000     64.173000
  H      45.569000     27.358000     64.287000
  C      45.480000     29.526000     64.711000
  C      44.713000     30.705000     64.161000
  H      45.201000     31.677000     64.222000
  C      43.488000     30.592000     63.643000
  H      42.963000     31.469000     63.251000
  C      42.746000     29.290000     63.511000
  H      42.007000     29.240000     64.336000
  O      42.089000     29.282000     62.264000
  H      41.162000     28.872000     62.320000
  C      47.002000     29.627000     64.379000
  O      47.749000     28.690000     64.731000
  O      47.390000     30.671000     63.797000
