24
frame 33320 P, aligned onto 20000 on 8 atoms
C      48.23992914    28.31155457    55.94656243
H      49.11857452    27.65892919    56.06084453
H      48.35595598    29.21729794    56.55647122
C      47.01179923    27.55031206    56.40216727
C      45.85397055    28.31247541    57.10040417
O      46.19142387    29.15735128    57.94946660
O      44.68072551    27.97680542    56.78791939
O      46.91776433    26.34815270    56.22190824
C      46.66316123    27.06225868    53.23087583
H      46.51820622    26.11325942    52.71192356
C      47.87958038    27.45356421    53.61632418
H      48.75799432    26.82945200    53.43977137
C      48.11214818    28.71016904    54.41764466
C      46.94849455    29.65917152    54.29149196
H      47.12263808    30.68917130    54.60579832
C      45.73423924    29.26654887    53.89474835
H      44.91028180    29.98202842    53.88383250
C      45.40656270    27.85354926    53.48059837
H      44.84771171    27.39010457    54.31591783
O      44.60584494    27.84246421    52.30709498
H      43.71903823    27.40159175    52.45474770
C      49.47936753    29.35892352    53.98524686
O      50.46820340    28.59398848    53.95427884
O      49.51229216    30.58682513    53.71096671
