24
frame 33320 R, aligned onto 20000 on 8 atoms
C      48.09028218    27.73964453    56.92356227
H      48.91753600    27.20146223    56.45778344
H      48.29423893    28.47157252    57.70754446
C      46.82195398    27.54040837    56.54640908
C      45.66343381    28.29938737    57.19530652
O      45.95677750    29.18846559    58.01801571
O      44.49131516    27.97115140    56.85083007
O      46.50158386    26.60237807    55.58027651
C      46.55485496    26.98287213    54.15836250
H      46.37450948    26.03180541    53.63712110
C      47.91804130    27.51498055    53.83600301
H      48.75740986    26.81850534    53.76841834
C      48.15213306    28.84242381    53.78661227
C      47.03292575    29.78024985    53.92480898
H      47.28253991    30.83825367    54.00896765
C      45.75463626    29.36422860    53.95773748
H      44.94848354    30.08985326    54.07565124
C      45.37387083    27.91545861    53.80779017
H      44.58322447    27.68885568    54.53638158
O      44.91592559    27.66770314    52.47939287
H      43.99894367    27.27163739    52.49873420
C      49.57022387    29.40130757    53.69165239
O      50.53076741    28.59740346    53.72133876
O      49.67277936    30.65979183    53.61766763
