24
frame 33320 TS, aligned onto 20000 on 8 atoms
C      48.20891158    28.17860466    56.36632272
H      49.05876951    27.58799089    56.02920230
H      48.39701997    29.09950631    56.91736123
C      46.93244935    27.61395930    56.41108873
C      45.77535148    28.35515104    57.11801964
O      46.07945311    29.21998455    57.96297421
O      44.59693114    28.00713879    56.81519903
O      46.66121094    26.54207646    55.77236457
C      46.58388758    26.94934757    53.70523346
H      46.41628839    25.90098452    53.45601023
C      47.85934831    27.47959549    53.62901681
H      48.72865972    26.83822602    53.47793562
C      48.08074816    28.80021229    54.04008961
C      46.93281161    29.70857553    54.13146455
H      47.14092776    30.75795277    54.34631992
C      45.67779042    29.26382777    53.95637192
H      44.83707042    29.95464283    54.02663950
C      45.34959669    27.82490776    53.66833205
H      44.64592809    27.48504222    54.44240441
O      44.76713975    27.70126700    52.37224294
H      43.85948052    27.27102763    52.42353589
C      49.48832843    29.38707298    53.88818723
O      50.45760505    28.59722529    53.93112765
O      49.57314917    30.62963205    53.68862233
