24
Coordinates from ORCA-job neb.QMRegion E -1077.062724245295
  C      44.273112     15.113210     46.162282
  H      44.723678     14.243019     45.702053
  H      44.853846     16.032082     46.230750
  C      43.138296     14.957545     46.947894
  C      42.635078     16.068713     47.887661
  O      43.231196     17.178404     47.919669
  O      41.658970     15.770200     48.611443
  O      42.413619     13.905428     46.858836
  C      41.242078     14.047035     45.101842
  H      40.682955     13.134517     45.316407
  C      42.366489     13.993300     44.295639
  H      42.820067     13.041758     44.027365
  C      43.084547     15.153390     44.022375
  C      42.459022     16.456993     44.284073
  H      43.008276     17.347677     43.974631
  C      41.272448     16.547789     44.903560
  H      40.827405     17.523465     45.113145
  C      40.479409     15.338510     45.317294
  H      40.233488     15.421973     46.389513
  O      39.288984     15.286284     44.535467
  H      38.489989     15.160310     45.141972
  C      44.223940     15.053604     42.998904
  O      44.892204     13.991533     42.909750
  O      44.352460     16.064590     42.265197
24
Coordinates from ORCA-job neb.QMRegion E -1077.063020349252
  C      44.283469     15.113249     46.177195
  H      44.740409     14.244644     45.720513
  H      44.857850     16.035965     46.244856
  C      43.146749     14.953756     46.959931
  C      42.638210     16.066274     47.895047
  O      43.232006     17.177221     47.923480
  O      41.662200     15.767809     48.619001
  O      42.419895     13.904624     46.861459
  C      41.239263     14.045705     45.100108
  H      40.680560     13.133562     45.317646
  C      42.362751     13.990521     44.293258
  H      42.816010     13.038528     44.025910
  C      43.080827     15.150769     44.017377
  C      42.453996     16.454382     44.275102
  H      43.002143     17.344380     43.961922
  C      41.269177     16.546155     44.897619
  H      40.824909     17.522168     45.107108
  C      40.477068     15.337631     45.315066
  H      40.232981     15.423153     46.387506
  O      39.285222     15.285114     44.535303
  H      38.486903     15.159579     45.142781
  C      44.222177     15.050915     42.995634
  O      44.892809     13.990138     42.909169
  O      44.350795     16.061575     42.261390
24
Coordinates from ORCA-job neb.QMRegion E -1077.063137465732
  C      44.283431     15.116968     46.176363
  H      44.745932     14.248395     45.726847
  H      44.858155     16.038834     46.251769
  C      43.146216     14.953887     46.961243
  C      42.638588     16.065689     47.898058
  O      43.232407     17.176515     47.924750
  O      41.662464     15.767504     48.621822
  O      42.433060     13.897307     46.877315
  C      41.241255     14.046248     45.105429
  H      40.685346     13.134320     45.331268
  C      42.365650     13.988484     44.303108
  H      42.819046     13.035845     44.037613
  C      43.082874     15.149986     44.019695
  C      42.454210     16.453334     44.273042
  H      42.999163     17.342411     43.952056
  C      41.271994     16.546071     44.900269
  H      40.828040     17.522533     45.108408
  C      40.480602     15.338447     45.321635
  H      40.238252     15.426467     46.394442
  O      39.287336     15.285306     44.543186
  H      38.488705     15.159194     45.150460
  C      44.221922     15.048679     42.994471
  O      44.893439     13.988493     42.909011
  O      44.348969     16.058540     42.258727
24
Coordinates from ORCA-job neb.QMRegion E -1077.063344449841
  C      44.290245     15.127009     46.180735
  H      44.753478     14.261557     45.724656
  H      44.865128     16.048217     46.263180
  C      43.151455     14.958103     46.961231
  C      42.641680     16.067490     47.899258
  O      43.235022     17.178219     47.925682
  O      41.665562     15.768788     48.622867
  O      42.435293     13.903953     46.866971
  C      41.233674     14.035213     45.088827
  H      40.675922     13.123573     45.310616
  C      42.366504     13.978716     44.297902
  H      42.821043     13.026559     44.033248
  C      43.082291     15.140866     44.014652
  C      42.453491     16.443424     44.267655
  H      42.996367     17.331944     43.941686
  C      41.270815     16.536424     44.894238
  H      40.826321     17.513061     45.100911
  C      40.477634     15.328762     45.311865
  H      40.237418     15.412445     46.385462
  O      39.282383     15.281951     44.536417
  H      38.484980     15.157079     45.145490
  C      44.222139     15.042896     42.990587
  O      44.895975     13.984469     42.907087
  O      44.348042     16.052708     42.254095
24
Coordinates from ORCA-job neb.QMRegion E -1077.063532287538
  C      44.300407     15.129252     46.187953
  H      44.773035     14.265018     45.738529
  H      44.869858     16.054360     46.273319
  C      43.163949     14.952943     46.973925
  C      42.647936     16.065118     47.907427
  O      43.237752     17.178038     47.929927
  O      41.672613     15.765949     48.631766
  O      42.458632     13.893510     46.889413
  C      41.238715     14.042244     45.097044
  H      40.683568     13.131275     45.328331
  C      42.371194     13.980967     44.309142
  H      42.826381     13.026966     44.051239
  C      43.087132     15.142719     44.017481
  C      42.455865     16.445491     44.261483
  H      42.999518     17.332257     43.932215
  C      41.272476     16.541140     44.886614
  H      40.828372     17.518550     45.089875
  C      40.482114     15.335551     45.315021
  H      40.244827     15.425962     46.388783
  O      39.284212     15.284599     44.543038
  H      38.487176     15.159023     45.152872
  C      44.223998     15.040900     42.989881
  O      44.897035     13.981732     42.906523
  O      44.348375     16.049445     42.251398
24
Coordinates from ORCA-job neb.QMRegion E -1077.063664939426
  C      44.307553     15.138275     46.191177
  H      44.783527     14.277512     45.738723
  H      44.875059     16.063929     46.282577
  C      43.169082     14.956190     46.972946
  C      42.651288     16.065841     47.908476
  O      43.239899     17.179226     47.931081
  O      41.675086     15.766130     48.631294
  O      42.469616     13.892810     46.890889
  C      41.237927     14.036250     45.091110
  H      40.681696     13.125450     45.320506
  C      42.374118     13.975208     44.308942
  H      42.828423     13.021083     44.050208
  C      43.088702     15.137254     44.014877
  C      42.459053     16.439698     44.261476
  H      43.002555     17.326099     43.931178
  C      41.275820     16.535753     44.887053
  H      40.832563     17.513414     45.091087
  C      40.484209     15.330310     45.313514
  H      40.249631     15.417792     46.388313
  O      39.284167     15.283041     44.544241
  H      38.487551     15.158170     45.154626
  C      44.225661     15.036725     42.987579
  O      44.899237     13.978003     42.904743
  O      44.349119     16.044800     42.248052
