24
Coordinates from ORCA-job neb.QMRegion
  C          44.30755274633304     15.13827494229273     46.19117716439505
  H          44.78352658889278     14.27751188970056     45.73872279999217
  H          44.87505856176771     16.06392925706630     46.28257696926556
  C          43.16908155713147     14.95618954533629     46.97294589876622
  C          42.65128756316487     16.06584148053262     47.90847620095855
  O          43.23989921116820     17.17922588981853     47.93108132169799
  O          41.67508573322882     15.76613026659432     48.63129361240929
  O          42.46961573496512     13.89281026198281     46.89088855507114
  C          41.23792727619839     14.03624997777201     45.09110990253810
  H          40.68169561755315     13.12544972313729     45.32050574624843
  C          42.37411784474482     13.97520826948407     44.30894162635580
  H          42.82842299043268     13.02108263320121     44.05020752996759
  C          43.08870213967921     15.13725354941329     44.01487699913963
  C          42.45905342630310     16.43969751552131     44.26147600508399
  H          43.00255467745450     17.32609859704139     43.93117805012282
  C          41.27582030884820     16.53575305116510     44.88705283931741
  H          40.83256270943114     17.51341417133039     45.09108673089693
  C          40.48420868169975     15.33031027684860     45.31351446383611
  H          40.24963107856514     15.41779155406920     46.38831325953560
  O          39.28416727505607     15.28304145869687     44.54424053739160
  H          38.48755090407351     15.15816955044023     45.15462598890743
  C          44.22566068614092     15.03672532305100     42.98757901496707
  O          44.89923693310549     13.97800297322284     42.90474320594893
  O          44.34911891747724     16.04479992337656     42.24805211956971
