24
Coordinates from ORCA-job neb_initial_path.QMRegion E   0.000000000000
  C      44.420000     15.226000     46.593000
  H      44.842000     14.467000     45.937000
  H      45.047000     16.060000     46.908000
  C      43.158000     15.172000     47.033000
  C      42.601000     16.190000     48.017000
  O      43.186000     17.302000     48.116000
  O      41.604000     15.842000     48.686000
  O      42.295000     14.143000     46.705000
  C      41.627000     14.195000     45.398000
  H      40.932000     13.343000     45.426000
  C      42.662000     13.997000     44.334000
  H      43.123000     13.012000     44.238000
  C      43.125000     15.023000     43.595000
  C      42.549000     16.363000     43.775000
  H      43.042000     17.178000     43.242000
  C      41.498000     16.592000     44.582000
  H      41.113000     17.606000     44.720000
  C      40.750000     15.466000     45.250000
  H      40.460000     15.758000     46.274000
  O      39.596000     15.194000     44.466000
  H      38.790000     15.078000     45.052000
  C      44.289000     14.848000     42.618000
  O      44.978000     13.792000     42.678000
  O      44.481000     15.811000     41.833000
24
Coordinates from ORCA-job neb_initial_path.QMRegion E   0.000000000000
  C      44.388167     15.207000     46.508500
  H      44.821333     14.427167     45.897000
  H      45.010667     16.052833     46.788333
  C      43.150833     15.136333     47.013500
  C      42.606500     16.168833     47.993500
  O      43.195167     17.279333     48.082500
  O      41.614500     15.828833     48.673667
  O      42.308333     14.105333     46.723167
  C      41.566167     14.170333     45.353167
  H      40.892333     13.308167     45.408167
  C      42.614000     13.997500     44.328667
  H      43.073000     13.017833     44.202500
  C      43.125000     15.045833     43.677500
  C      42.535000     16.379667     43.864500
  H      43.035833     17.207667     43.367500
  C      41.460167     16.584667     44.637333
  H      41.063500     17.592167     44.785500
  C      40.705167     15.444500     45.263167
  H      40.421167     15.702000     46.294667
  O      39.546000     15.207667     44.478167
  H      38.740333     15.091833     45.066667
  C      44.279667     14.883667     42.685333
  O      44.964500     13.826500     42.717000
  O      44.457667     15.854167     41.907667
24
Coordinates from ORCA-job neb_initial_path.QMRegion E   0.000000000000
  C      44.356333     15.188000     46.424000
  H      44.800667     14.387333     45.857000
  H      44.974333     16.045667     46.668667
  C      43.143667     15.100667     46.994000
  C      42.612000     16.147667     47.970000
  O      43.204333     17.256667     48.049000
  O      41.625000     15.815667     48.661333
  O      42.321667     14.067667     46.741333
  C      41.505333     14.145667     45.308333
  H      40.852667     13.273333     45.390333
  C      42.566000     13.998000     44.323333
  H      43.023000     13.023667     44.167000
  C      43.125000     15.068667     43.760000
  C      42.521000     16.396333     43.954000
  H      43.029667     17.237333     43.493000
  C      41.422333     16.577333     44.692667
  H      41.014000     17.578333     44.851000
  C      40.660333     15.423000     45.276333
  H      40.382333     15.646000     46.315333
  O      39.496000     15.221333     44.490333
  H      38.690667     15.105667     45.081333
  C      44.270333     14.919333     42.752667
  O      44.951000     13.861000     42.756000
  O      44.434333     15.897333     41.982333
24
Coordinates from ORCA-job neb_initial_path.QMRegion E   0.000000000000
  C      44.324500     15.169000     46.339500
  H      44.780000     14.347500     45.817000
  H      44.938000     16.038500     46.549000
  C      43.136500     15.065000     46.974500
  C      42.617500     16.126500     47.946500
  O      43.213500     17.234000     48.015500
  O      41.635500     15.802500     48.649000
  O      42.335000     14.030000     46.759500
  C      41.444500     14.121000     45.263500
  H      40.813000     13.238500     45.372500
  C      42.518000     13.998500     44.318000
  H      42.973000     13.029500     44.131500
  C      43.125000     15.091500     43.842500
  C      42.507000     16.413000     44.043500
  H      43.023500     17.267000     43.618500
  C      41.384500     16.570000     44.748000
  H      40.964500     17.564500     44.916500
  C      40.615500     15.401500     45.289500
  H      40.343500     15.590000     46.336000
  O      39.446000     15.235000     44.502500
  H      38.641000     15.119500     45.096000
  C      44.261000     14.955000     42.820000
  O      44.937500     13.895500     42.795000
  O      44.411000     15.940500     42.057000
24
Coordinates from ORCA-job neb_initial_path.QMRegion E   0.000000000000
  C      44.292667     15.150000     46.255000
  H      44.759333     14.307667     45.777000
  H      44.901667     16.031333     46.429333
  C      43.129333     15.029333     46.955000
  C      42.623000     16.105333     47.923000
  O      43.222667     17.211333     47.982000
  O      41.646000     15.789333     48.636667
  O      42.348333     13.992333     46.777667
  C      41.383667     14.096333     45.218667
  H      40.773333     13.203667     45.354667
  C      42.470000     13.999000     44.312667
  H      42.923000     13.035333     44.096000
  C      43.125000     15.114333     43.925000
  C      42.493000     16.429667     44.133000
  H      43.017333     17.296667     43.744000
  C      41.346667     16.562667     44.803333
  H      40.915000     17.550667     44.982000
  C      40.570667     15.380000     45.302667
  H      40.304667     15.534000     46.356667
  O      39.396000     15.248667     44.514667
  H      38.591333     15.133333     45.110667
  C      44.251667     14.990667     42.887333
  O      44.924000     13.930000     42.834000
  O      44.387667     15.983667     42.131667
24
Coordinates from ORCA-job neb_initial_path.QMRegion E   0.000000000000
  C      44.260833     15.131000     46.170500
  H      44.738667     14.267833     45.737000
  H      44.865333     16.024167     46.309667
  C      43.122167     14.993667     46.935500
  C      42.628500     16.084167     47.899500
  O      43.231833     17.188667     47.948500
  O      41.656500     15.776167     48.624333
  O      42.361667     13.954667     46.795833
  C      41.322833     14.071667     45.173833
  H      40.733667     13.168833     45.336833
  C      42.422000     13.999500     44.307333
  H      42.873000     13.041167     44.060500
  C      43.125000     15.137167     44.007500
  C      42.479000     16.446333     44.222500
  H      43.011167     17.326333     43.869500
  C      41.308833     16.555333     44.858667
  H      40.865500     17.536833     45.047500
  C      40.525833     15.358500     45.315833
  H      40.265833     15.478000     46.377333
  O      39.346000     15.262333     44.526833
  H      38.541667     15.147167     45.125333
  C      44.242333     15.026333     42.954667
  O      44.910500     13.964500     42.873000
  O      44.364333     16.026833     42.206333
24
Coordinates from ORCA-job neb_initial_path.QMRegion E   0.000000000000
  C      44.229000     15.112000     46.086000
  H      44.718000     14.228000     45.697000
  H      44.829000     16.017000     46.190000
  C      43.115000     14.958000     46.916000
  C      42.634000     16.063000     47.876000
  O      43.241000     17.166000     47.915000
  O      41.667000     15.763000     48.612000
  O      42.375000     13.917000     46.814000
  C      41.262000     14.047000     45.129000
  H      40.694000     13.134000     45.319000
  C      42.374000     14.000000     44.302000
  H      42.823000     13.047000     44.025000
  C      43.125000     15.160000     44.090000
  C      42.465000     16.463000     44.312000
  H      43.005000     17.356000     43.995000
  C      41.271000     16.548000     44.914000
  H      40.816000     17.523000     45.113000
  C      40.481000     15.337000     45.329000
  H      40.227000     15.422000     46.398000
  O      39.296000     15.276000     44.539000
  H      38.492000     15.161000     45.140000
  C      44.233000     15.062000     43.022000
  O      44.897000     13.999000     42.912000
  O      44.341000     16.070000     42.281000
24
Coordinates from ORCA-job neb_initial_path.QMRegion E   0.000000000000
  C      44.183667     15.130667     45.985333
  H      44.763333     14.279000     45.708333
  H      44.745000     16.058667     46.106000
  C      43.148333     14.928333     46.936333
  C      42.660000     16.041000     47.897667
  O      43.247333     17.152667     47.907667
  O      41.711667     15.730667     48.649333
  O      42.535000     13.854000     46.938333
  C      41.190667     14.037000     44.991333
  H      40.604667     13.129000     45.109333
  C      42.364000     13.986667     44.334667
  H      42.823000     13.037000     44.063333
  C      43.167333     15.160667     44.204333
  C      42.462000     16.456667     44.354000
  H      43.006000     17.355333     44.063000
  C      41.238667     16.531667     44.876667
  H      40.766667     17.503667     45.035667
  C      40.436333     15.319333     45.261667
  H      40.216333     15.368000     46.340667
  O      39.227333     15.309333     44.518333
  H      38.442667     15.191667     45.142333
  C      44.224000     15.066000     43.071333
  O      44.891667     14.008667     42.940000
  O      44.293667     16.067667     42.320667
24
Coordinates from ORCA-job neb_initial_path.QMRegion E   0.000000000000
  C      44.138333     15.149333     45.884667
  H      44.808667     14.330000     45.719667
  H      44.661000     16.100333     46.022000
  C      43.181667     14.898667     46.956667
  C      42.686000     16.019000     47.919333
  O      43.253667     17.139333     47.900333
  O      41.756333     15.698333     48.686667
  O      42.695000     13.791000     47.062667
  C      41.119333     14.027000     44.853667
  H      40.515333     13.124000     44.899667
  C      42.354000     13.973333     44.367333
  H      42.823000     13.027000     44.101667
  C      43.209667     15.161333     44.318667
  C      42.459000     16.450333     44.396000
  H      43.007000     17.354667     44.131000
  C      41.206333     16.515333     44.839333
  H      40.717333     17.484333     44.958333
  C      40.391667     15.301667     45.194333
  H      40.205667     15.314000     46.283333
  O      39.158667     15.342667     44.497667
  H      38.393333     15.222333     45.144667
  C      44.215000     15.070000     43.120667
  O      44.886333     14.018333     42.968000
  O      44.246333     16.065333     42.360333
24
Coordinates from ORCA-job neb_initial_path.QMRegion E   0.000000000000
  C      44.093000     15.168000     45.784000
  H      44.854000     14.381000     45.731000
  H      44.577000     16.142000     45.938000
  C      43.215000     14.869000     46.977000
  C      42.712000     15.997000     47.941000
  O      43.260000     17.126000     47.893000
  O      41.801000     15.666000     48.724000
  O      42.855000     13.728000     47.187000
  C      41.048000     14.017000     44.716000
  H      40.426000     13.119000     44.690000
  C      42.344000     13.960000     44.400000
  H      42.823000     13.017000     44.140000
  C      43.252000     15.162000     44.433000
  C      42.456000     16.444000     44.438000
  H      43.008000     17.354000     44.199000
  C      41.174000     16.499000     44.802000
  H      40.668000     17.465000     44.881000
  C      40.347000     15.284000     45.127000
  H      40.195000     15.260000     46.226000
  O      39.090000     15.376000     44.477000
  H      38.344000     15.253000     45.147000
  C      44.206000     15.074000     43.170000
  O      44.881000     14.028000     42.996000
  O      44.199000     16.063000     42.400000
