24
Coordinates from ORCA-job neb_initial_path.QMRegion E   0.000000000000
  C      43.411000     16.733000     46.785000
  H      43.875000     15.910000     46.243000
  H      43.915000     17.698000     46.822000
  C      42.240000     16.600000     47.420000
  C      41.627000     17.713000     48.264000
  O      42.062000     18.889000     48.105000
  O      40.740000     17.386000     49.080000
  O      41.545000     15.411000     47.424000
  C      40.685000     15.087000     46.271000
  H      40.165000     14.173000     46.588000
  C      41.587000     14.834000     45.106000
  H      42.130000     13.890000     45.074000
  C      41.885000     15.821000     44.238000
  C      41.132000     17.081000     44.289000
  H      41.466000     17.862000     43.599000
  C      40.106000     17.273000     45.138000
  H      39.564000     18.223000     45.154000
  C      39.608000     16.166000     46.042000
  H      39.371000     16.583000     47.040000
  O      38.469000     15.602000     45.433000
  H      37.971000     14.973000     46.095000
  C      43.089000     15.708000     43.310000
  O      43.830000     14.702000     43.434000
  O      43.301000     16.663000     42.521000
24
Coordinates from ORCA-job neb_initial_path.QMRegion E   0.000000000000
  C      43.393667     16.710333     46.728833
  H      43.880833     15.880500     46.232833
  H      43.884333     17.678833     46.725667
  C      42.250667     16.577833     47.417167
  C      41.639167     17.701833     48.252500
  O      42.079833     18.875667     48.094667
  O      40.749167     17.381333     49.068167
  O      41.578833     15.395833     47.451667
  C      40.658667     15.053167     46.244333
  H      40.158667     14.139500     46.583333
  C      41.578500     14.826500     45.113500
  H      42.119667     13.883167     45.062500
  C      41.914000     15.845000     44.302167
  C      41.142000     17.093167     44.340000
  H      41.477167     17.880000     43.657333
  C      40.096667     17.263000     45.164500
  H      39.540333     18.203500     45.171667
  C      39.598500     16.146667     46.054833
  H      39.378833     16.548667     47.061000
  O      38.446167     15.605667     45.452667
  H      37.952167     14.966500     46.109333
  C      43.108167     15.736833     43.360833
  O      43.840167     14.723667     43.460000
  O      43.312500     16.697500     42.578167
24
Coordinates from ORCA-job neb_initial_path.QMRegion E   0.000000000000
  C      43.376333     16.687667     46.672667
  H      43.886667     15.851000     46.222667
  H      43.853667     17.659667     46.629333
  C      42.261333     16.555667     47.414333
  C      41.651333     17.690667     48.241000
  O      42.097667     18.862333     48.084333
  O      40.758333     17.376667     49.056333
  O      41.612667     15.380667     47.479333
  C      40.632333     15.019333     46.217667
  H      40.152333     14.106000     46.578667
  C      41.570000     14.819000     45.121000
  H      42.109333     13.876333     45.051000
  C      41.943000     15.869000     44.366333
  C      41.152000     17.105333     44.391000
  H      41.488333     17.898000     43.715667
  C      40.087333     17.253000     45.191000
  H      39.516667     18.184000     45.189333
  C      39.589000     16.127333     46.067667
  H      39.386667     16.514333     47.082000
  O      38.423333     15.609333     45.472333
  H      37.933333     14.960000     46.123667
  C      43.127333     15.765667     43.411667
  O      43.850333     14.745333     43.486000
  O      43.324000     16.732000     42.635333
24
Coordinates from ORCA-job neb_initial_path.QMRegion E   0.000000000000
  C      43.359000     16.665000     46.616500
  H      43.892500     15.821500     46.212500
  H      43.823000     17.640500     46.533000
  C      42.272000     16.533500     47.411500
  C      41.663500     17.679500     48.229500
  O      42.115500     18.849000     48.074000
  O      40.767500     17.372000     49.044500
  O      41.646500     15.365500     47.507000
  C      40.606000     14.985500     46.191000
  H      40.146000     14.072500     46.574000
  C      41.561500     14.811500     45.128500
  H      42.099000     13.869500     45.039500
  C      41.972000     15.893000     44.430500
  C      41.162000     17.117500     44.442000
  H      41.499500     17.916000     43.774000
  C      40.078000     17.243000     45.217500
  H      39.493000     18.164500     45.207000
  C      39.579500     16.108000     46.080500
  H      39.394500     16.480000     47.103000
  O      38.400500     15.613000     45.492000
  H      37.914500     14.953500     46.138000
  C      43.146500     15.794500     43.462500
  O      43.860500     14.767000     43.512000
  O      43.335500     16.766500     42.692500
24
Coordinates from ORCA-job neb_initial_path.QMRegion E   0.000000000000
  C      43.341667     16.642333     46.560333
  H      43.898333     15.792000     46.202333
  H      43.792333     17.621333     46.436667
  C      42.282667     16.511333     47.408667
  C      41.675667     17.668333     48.218000
  O      42.133333     18.835667     48.063667
  O      40.776667     17.367333     49.032667
  O      41.680333     15.350333     47.534667
  C      40.579667     14.951667     46.164333
  H      40.139667     14.039000     46.569333
  C      41.553000     14.804000     45.136000
  H      42.088667     13.862667     45.028000
  C      42.001000     15.917000     44.494667
  C      41.172000     17.129667     44.493000
  H      41.510667     17.934000     43.832333
  C      40.068667     17.233000     45.244000
  H      39.469333     18.145000     45.224667
  C      39.570000     16.088667     46.093333
  H      39.402333     16.445667     47.124000
  O      38.377667     15.616667     45.511667
  H      37.895667     14.947000     46.152333
  C      43.165667     15.823333     43.513333
  O      43.870667     14.788667     43.538000
  O      43.347000     16.801000     42.749667
24
Coordinates from ORCA-job neb_initial_path.QMRegion E   0.000000000000
  C      43.324333     16.619667     46.504167
  H      43.904167     15.762500     46.192167
  H      43.761667     17.602167     46.340333
  C      42.293333     16.489167     47.405833
  C      41.687833     17.657167     48.206500
  O      42.151167     18.822333     48.053333
  O      40.785833     17.362667     49.020833
  O      41.714167     15.335167     47.562333
  C      40.553333     14.917833     46.137667
  H      40.133333     14.005500     46.564667
  C      41.544500     14.796500     45.143500
  H      42.078333     13.855833     45.016500
  C      42.030000     15.941000     44.558833
  C      41.182000     17.141833     44.544000
  H      41.521833     17.952000     43.890667
  C      40.059333     17.223000     45.270500
  H      39.445667     18.125500     45.242333
  C      39.560500     16.069333     46.106167
  H      39.410167     16.411333     47.145000
  O      38.354833     15.620333     45.531333
  H      37.876833     14.940500     46.166667
  C      43.184833     15.852167     43.564167
  O      43.880833     14.810333     43.564000
  O      43.358500     16.835500     42.806833
24
Coordinates from ORCA-job neb_initial_path.QMRegion E   0.000000000000
  C      43.307000     16.597000     46.448000
  H      43.910000     15.733000     46.182000
  H      43.731000     17.583000     46.244000
  C      42.304000     16.467000     47.403000
  C      41.700000     17.646000     48.195000
  O      42.169000     18.809000     48.043000
  O      40.795000     17.358000     49.009000
  O      41.748000     15.320000     47.590000
  C      40.527000     14.884000     46.111000
  H      40.127000     13.972000     46.560000
  C      41.536000     14.789000     45.151000
  H      42.068000     13.849000     45.005000
  C      42.059000     15.965000     44.623000
  C      41.192000     17.154000     44.595000
  H      41.533000     17.970000     43.949000
  C      40.050000     17.213000     45.297000
  H      39.422000     18.106000     45.260000
  C      39.551000     16.050000     46.119000
  H      39.418000     16.377000     47.166000
  O      38.332000     15.624000     45.551000
  H      37.858000     14.934000     46.181000
  C      43.204000     15.881000     43.615000
  O      43.891000     14.832000     43.590000
  O      43.370000     16.870000     42.864000
24
Coordinates from ORCA-job neb_initial_path.QMRegion E   0.000000000000
  C      43.244333     16.558000     46.365667
  H      43.930000     15.751333     46.217667
  H      43.654000     17.553333     46.171000
  C      42.318000     16.438000     47.432333
  C      41.726000     17.634333     48.221667
  O      42.190667     18.791667     48.039000
  O      40.836667     17.351333     49.051000
  O      41.873667     15.305667     47.708333
  C      40.445333     14.804333     45.962667
  H      40.015667     13.876000     46.324000
  C      41.535000     14.761667     45.166333
  H      42.074000     13.831333     44.995667
  C      42.119000     15.983667     44.734000
  C      41.201333     17.139333     44.636333
  H      41.541333     17.960667     43.996667
  C      40.029333     17.162667     45.276000
  H      39.382000     18.037333     45.203000
  C      39.528333     15.992333     46.087000
  H      39.499667     16.282333     47.143667
  O      38.256667     15.659000     45.631667
  H      37.815667     14.936000     46.239000
  C      43.226000     15.896000     43.670667
  O      43.878667     14.833000     43.591667
  O      43.406333     16.905667     42.954667
24
Coordinates from ORCA-job neb_initial_path.QMRegion E   0.000000000000
  C      43.181667     16.519000     46.283333
  H      43.950000     15.769667     46.253333
  H      43.577000     17.523667     46.098000
  C      42.332000     16.409000     47.461667
  C      41.752000     17.622667     48.248333
  O      42.212333     18.774333     48.035000
  O      40.878333     17.344667     49.093000
  O      41.999333     15.291333     47.826667
  C      40.363667     14.724667     45.814333
  H      39.904333     13.780000     46.088000
  C      41.534000     14.734333     45.181667
  H      42.080000     13.813667     44.986333
  C      42.179000     16.002333     44.845000
  C      41.210667     17.124667     44.677667
  H      41.549667     17.951333     44.044333
  C      40.008667     17.112333     45.255000
  H      39.342000     17.968667     45.146000
  C      39.505667     15.934667     46.055000
  H      39.581333     16.187667     47.121333
  O      38.181333     15.694000     45.712333
  H      37.773333     14.938000     46.297000
  C      43.248000     15.911000     43.726333
  O      43.866333     14.834000     43.593333
  O      43.442667     16.941333     43.045333
24
Coordinates from ORCA-job neb_initial_path.QMRegion E   0.000000000000
  C      43.119000     16.480000     46.201000
  H      43.970000     15.788000     46.289000
  H      43.500000     17.494000     46.025000
  C      42.346000     16.380000     47.491000
  C      41.778000     17.611000     48.275000
  O      42.234000     18.757000     48.031000
  O      40.920000     17.338000     49.135000
  O      42.125000     15.277000     47.945000
  C      40.282000     14.645000     45.666000
  H      39.793000     13.684000     45.852000
  C      41.533000     14.707000     45.197000
  H      42.086000     13.796000     44.977000
  C      42.239000     16.021000     44.956000
  C      41.220000     17.110000     44.719000
  H      41.558000     17.942000     44.092000
  C      39.988000     17.062000     45.234000
  H      39.302000     17.900000     45.089000
  C      39.483000     15.877000     46.023000
  H      39.663000     16.093000     47.099000
  O      38.106000     15.729000     45.793000
  H      37.731000     14.940000     46.355000
  C      43.270000     15.926000     43.782000
  O      43.854000     14.835000     43.595000
  O      43.479000     16.977000     43.136000
