24
Coordinates from ORCA-job neb_MEP.QMRegion E -1076.277618251429
  C      43.411000     16.733000     46.785000
  H      43.875000     15.910000     46.243000
  H      43.915000     17.698000     46.822000
  C      42.240000     16.600000     47.420000
  C      41.627000     17.713000     48.264000
  O      42.062000     18.889000     48.105000
  O      40.740000     17.386000     49.080000
  O      41.545000     15.411000     47.424000
  C      40.685000     15.087000     46.271000
  H      40.165000     14.173000     46.588000
  C      41.587000     14.834000     45.106000
  H      42.130000     13.890000     45.074000
  C      41.885000     15.821000     44.238000
  C      41.132000     17.081000     44.289000
  H      41.466000     17.862000     43.599000
  C      40.106000     17.273000     45.138000
  H      39.564000     18.223000     45.154000
  C      39.608000     16.166000     46.042000
  H      39.371000     16.583000     47.040000
  O      38.469000     15.602000     45.433000
  H      37.971000     14.973000     46.095000
  C      43.089000     15.708000     43.310000
  O      43.830000     14.702000     43.434000
  O      43.301000     16.663000     42.521000
24
Coordinates from ORCA-job neb_MEP.QMRegion E -1076.281153202609
  C      43.410413     16.714371     46.769552
  H      43.869919     15.888234     46.228523
  H      43.914255     17.679279     46.795293
  C      42.244274     16.583508     47.414257
  C      41.635765     17.700172     48.257405
  O      42.073242     18.875459     48.097802
  O      40.749588     17.376820     49.075607
  O      41.549043     15.394635     47.426430
  C      40.681762     15.070555     46.277879
  H      40.167604     14.153944     46.597248
  C      41.579155     14.825024     45.108459
  H      42.122646     13.881611     45.064682
  C      41.880988     15.822628     44.253233
  C      41.128826     17.082334     44.316956
  H      41.462021     17.871039     43.635736
  C      40.101196     17.265217     45.167089
  H      39.558938     18.215618     45.191141
  C      39.603897     16.149363     46.059994
  H      39.367648     16.555010     47.062080
  O      38.464337     15.592350     45.446452
  H      37.964390     14.959586     46.104955
  C      43.094878     15.724702     43.336268
  O      43.831068     14.713531     43.447702
  O      43.317357     16.695738     42.570591
24
Coordinates from ORCA-job neb_MEP.QMRegion E -1076.283517991458
  C      43.411056     16.689535     46.751068
  H      43.864725     15.860490     46.209584
  H      43.913614     17.655551     46.761540
  C      42.250813     16.561646     47.407353
  C      41.647411     17.682365     48.248715
  O      42.088613     18.856069     48.088647
  O      40.760395     17.363799     49.068063
  O      41.554917     15.372783     47.427828
  C      40.676617     15.048352     46.284742
  H      40.169605     14.128431     46.605952
  C      41.568102     14.813800     45.108961
  H      42.110763     13.870421     45.051692
  C      41.875234     15.826187     44.272871
  C      41.122585     17.084722     44.354252
  H      41.459591     17.884141     43.687492
  C      40.091860     17.254248     45.203214
  H      39.549053     18.203702     45.239913
  C      39.595692     16.127189     46.081902
  H      39.363753     16.520679     47.089668
  O      38.453510     15.578728     45.465504
  H      37.954991     14.940842     46.121082
  C      43.099895     15.747236     43.368380
  O      43.832138     14.731162     43.461678
  O      43.334580     16.738534     42.633310
24
Coordinates from ORCA-job neb_MEP.QMRegion E -1076.285692483628
  C      43.406534     16.649224     46.708335
  H      43.861077     15.811099     46.183532
  H      43.892221     17.620952     46.668556
  C      42.261779     16.527778     47.393452
  C      41.665279     17.655984     48.227606
  O      42.117785     18.825461     48.071280
  O      40.775068     17.346356     49.047671
  O      41.569363     15.337818     47.434960
  C      40.664816     15.008145     46.284991
  H      40.173059     14.081658     46.612465
  C      41.553306     14.795935     45.108103
  H      42.092062     13.852507     45.025582
  C      41.878961     15.838394     44.316865
  C      41.121395     17.091501     44.422464
  H      41.467295     17.908934     43.783359
  C      40.076117     17.234311     45.257203
  H      39.517692     18.173003     45.297892
  C      39.582874     16.092507     46.114260
  H      39.370883     16.465706     47.133905
  O      38.427281     15.568023     45.503476
  H      37.931558     14.919531     46.153999
  C      43.116989     15.788907     43.431038
  O      43.846626     14.768588     43.495178
  O      43.364439     16.808169     42.741406
24
Coordinates from ORCA-job neb_MEP.QMRegion E -1076.276734400822
  C      43.394405     16.616584     46.608895
  H      43.900976     15.757398     46.172750
  H      43.810756     17.604681     46.397211
  C      42.297507     16.475522     47.384336
  C      41.701404     17.633949     48.200909
  O      42.162743     18.801356     48.048641
  O      40.790837     17.346324     49.009120
  O      41.623327     15.280199     47.449658
  C      40.629628     14.929546     46.253269
  H      40.148152     13.988916     46.571468
  C      41.544049     14.775299     45.117030
  H      42.067803     13.829637     44.987413
  C      41.944899     15.885433     44.455096
  C      41.156794     17.120314     44.548200
  H      41.508238     17.951800     43.928321
  C      40.046509     17.202620     45.300990
  H      39.439530     18.113423     45.305423
  C      39.558649     16.040330     46.133055
  H      39.424811     16.377454     47.173648
  O      38.341640     15.607714     45.570925
  H      37.854008     14.925308     46.202910
  C      43.167453     15.857016     43.555144
  O      43.886664     14.828279     43.566856
  O      43.391355     16.885374     42.872882
24
Coordinates from ORCA-job neb_MEP.QMRegion E -1076.262770016042
  C      43.383395     16.620477     46.552910
  H      43.925003     15.750863     46.185681
  H      43.787594     17.608038     46.328954
  C      42.327255     16.467409     47.416580
  C      41.707794     17.642524     48.202180
  O      42.166985     18.809435     48.047309
  O      40.794033     17.354149     49.006805
  O      41.748611     15.302094     47.571793
  C      40.529972     14.873963     46.117834
  H      40.118478     13.953063     46.544893
  C      41.528773     14.769285     45.123878
  H      42.065418     13.831764     44.993657
  C      41.985683     15.916298     44.521170
  C      41.166411     17.130534     44.568834
  H      41.516124     17.958074     43.943614
  C      40.039243     17.198612     45.295790
  H      39.426578     18.103393     45.292707
  C      39.544912     16.035242     46.116326
  H      39.443862     16.356695     47.168216
  O      38.305970     15.630042     45.576987
  H      37.838872     14.931881     46.208509
  C      43.187400     15.872224     43.587769
  O      43.886836     14.830991     43.576073
  O      43.385417     16.886342     42.878702
24
Coordinates from ORCA-job neb_MEP.QMRegion E -1076.259554245843
  C      43.365019     16.617735     46.498907
  H      43.943704     15.747375     46.198364
  H      43.774389     17.606375     46.289056
  C      42.344265     16.461701     47.437850
  C      41.711932     17.647710     48.209085
  O      42.169467     18.813711     48.046250
  O      40.795716     17.358453     49.007459
  O      41.832298     15.315613     47.650087
  C      40.471372     14.838438     46.037962
  H      40.095835     13.933112     46.520147
  C      41.518565     14.764738     45.137800
  H      42.063262     13.832487     44.999839
  C      42.020621     15.942401     44.578378
  C      41.171458     17.136869     44.579656
  H      41.519294     17.961632     43.949995
  C      40.034198     17.194359     45.290630
  H      39.420363     18.098270     45.286504
  C      39.537657     16.026907     46.103834
  H      39.454670     16.341221     47.161034
  O      38.281921     15.645897     45.583262
  H      37.828110     14.934807     46.209439
  C      43.195556     15.879195     43.605757
  O      43.885080     14.832435     43.581643
  O      43.382228     16.885326     42.882090
24
Coordinates from ORCA-job neb_MEP.QMRegion E -1076.263554298799
  C      43.293501     16.589266     46.371513
  H      43.960927     15.742079     46.219460
  H      43.736105     17.581419     46.223141
  C      42.342718     16.451922     47.440500
  C      41.715893     17.650725     48.212748
  O      42.178984     18.811733     48.043989
  O      40.803293     17.360100     49.011854
  O      41.900378     15.326754     47.720700
  C      40.433161     14.812228     45.976549
  H      40.069918     13.913475     46.479866
  C      41.522634     14.769747     45.167141
  H      42.066446     13.838927     45.009994
  C      42.104945     15.996432     44.695629
  C      41.186751     17.150870     44.603380
  H      41.523045     17.968264     43.957351
  C      40.034437     17.190132     45.286678
  H      39.410446     18.087596     45.268764
  C      39.534456     16.019603     46.096897
  H      39.463470     16.330264     47.157913
  O      38.264904     15.664015     45.591675
  H      37.823045     14.940982     46.209692
  C      43.213562     15.893304     43.634354
  O      43.884166     14.835684     43.587068
  O      43.375668     16.883941     42.884231
24
Coordinates from ORCA-job neb_MEP.QMRegion E -1076.279225451567
  C      43.207158     16.546760     46.243133
  H      43.958845     15.748669     46.237536
  H      43.682110     17.539685     46.148639
  C      42.330443     16.444257     47.435065
  C      41.722280     17.653151     48.215902
  O      42.191976     18.809527     48.043127
  O      40.814419     17.359939     49.015850
  O      41.957800     15.334219     47.781413
  C      40.415636     14.796421     45.937872
  H      40.041113     13.892877     46.424836
  C      41.536683     14.778378     45.198336
  H      42.074272     13.847093     45.022319
  C      42.196792     16.050685     44.816452
  C      41.210694     17.164576     44.635373
  H      41.528534     17.973482     43.968856
  C      40.041045     17.184267     45.286290
  H      39.401986     18.070708     45.245124
  C      39.533818     16.011899     46.092083
  H      39.473773     16.317149     47.155599
  O      38.250871     15.683662     45.602983
  H      37.818229     14.948240     46.210292
  C      43.229910     15.906291     43.661082
  O      43.883641     14.839876     43.593453
  O      43.366934     16.883050     42.887970
24
Coordinates from ORCA-job neb_MEP.QMRegion E -1076.305984247171
  C      43.119000     16.480000     46.201000
  H      43.970000     15.788000     46.289000
  H      43.500000     17.494000     46.025000
  C      42.346000     16.380000     47.491000
  C      41.778000     17.611000     48.275000
  O      42.234000     18.757000     48.031000
  O      40.920000     17.338000     49.135000
  O      42.125000     15.277000     47.945000
  C      40.282000     14.645000     45.666000
  H      39.793000     13.684000     45.852000
  C      41.533000     14.707000     45.197000
  H      42.086000     13.796000     44.977000
  C      42.239000     16.021000     44.956000
  C      41.220000     17.110000     44.719000
  H      41.558000     17.942000     44.092000
  C      39.988000     17.062000     45.234000
  H      39.302000     17.900000     45.089000
  C      39.483000     15.877000     46.023000
  H      39.663000     16.093000     47.099000
  O      38.106000     15.729000     45.793000
  H      37.731000     14.940000     46.355000
  C      43.270000     15.926000     43.782000
  O      43.854000     14.835000     43.595000
  O      43.479000     16.977000     43.136000
