82
Image 0. Energy: -22816.956163563485 
C  53.478699497226614 35.917956055052315 64.30028978792404
H  53.43756244903577 35.85588671648024 63.20971834295509
H  53.506566179080224 36.89612445312561 64.78166562708788
C  53.487606041536296 34.802846473466396 65.04001142070734
C  53.58731709514933 34.77846760902929 66.54912182017604
O  53.70290654278215 35.866921743126596 67.15104055871369
O  53.69581576854571 33.62914585056774 67.11337545046747
O  53.39663493368109 33.55275241338566 64.46383718639976
C  54.54690550900464 32.8895487837356 63.90807786690441
H  54.113731305685576 31.929318990911863 63.55265089737334
C  55.63382376590722 32.60372554812361 64.91034412390972
H  55.48857925726386 32.920870131471524 65.94515157486633
C  56.78515380373649 32.027803238933245 64.50263246827821
C  56.982061724462476 31.79004078879618 63.06819065981006
H  57.78970480469085 31.13824740730465 62.72743494740299
C  56.23322355420793 32.489723021276625 62.18783379078553
H  56.42243206103955 32.42066885113391 61.11070217543317
C  55.160924810529785 33.47934921559986 62.64369182465204
H  55.67729357277042 34.43729637523857 62.88239066015424
O  54.12130754586927 33.66651815030759 61.72708595135716
H  54.47900881378599 33.968567795149134 60.87562901311853
C  57.83126210849237 31.699693118304733 65.55421341465313
O  57.99395358129951 32.5771202879447 66.45076060043479
O  58.42046260421047 30.59216338154644 65.5011098064053
C  52.0934 30.784 65.7126
N  52.243977 31.16922 64.448546
H  51.93346 31.831722 65.1448
H  52.440146 30.214182 64.712213
N  51.684501 31.656404 66.629449
H  51.88067 30.701366 66.893116
H  51.798849 31.94894 65.669528
N  52.351721 29.526376 66.059805
H  52.46607 29.818911 65.099884
H  52.041204 30.188878 66.756059
C  61.0891 29.6212 43.2444
O  62.272925 29.682976 42.847863
O  60.377816 28.593817 43.276959
H  60.631121 30.55705 43.597161
C  63.2767 25.0522 45.8853
O  64.460525 25.113976 45.488763
O  62.565416 24.024817 45.917859
H  62.818721 25.98805 46.238061
C  59.8194 27.9662 66.4397
N  59.969977 28.35142 65.175646
H  59.65946 29.013922 65.8719
H  60.166146 27.396382 65.439313
N  59.410501 28.838604 67.356549
H  59.60667 27.883566 67.620216
H  59.524849 29.13114 66.396628
N  60.077721 26.708576 66.786905
H  60.19207 27.001111 65.826984
H  59.767204 27.371078 67.483159
C  62.8791 21.8749 51.9082
O  64.062925 21.936676 51.511663
O  62.167816 20.847517 51.940759
H  62.421121 22.81075 52.260961
C  59.4954 23.0782 48.5723
O  60.679225 23.139976 48.175763
O  58.784116 22.050817 48.604859
H  59.037421 24.01405 48.925061
C  71.4184 30.8503 50.2861
O  72.602225 30.912076 49.889563
O  70.707116 29.822917 50.318659
H  70.960421 31.78615 50.638861
C  67.7005 24.6171 49.5441
O  68.884325 24.678876 49.147563
O  66.989216 23.589717 49.576659
H  67.242521 25.55295 49.896861
C  56.1909 34.4721 68.0478
N  56.341477 34.85732 66.783746
H  56.03096 35.519822 67.48
H  56.537646 33.902282 67.047413
N  55.782001 35.344504 68.964649
H  55.97817 34.389466 69.228316
H  55.896349 35.63704 68.004728
N  56.449221 33.214476 68.395005
H  56.56357 33.507011 67.435084
H  56.138704 33.876978 69.091259
C  68.8094 31.7063 45.898
O  69.993225 31.768076 45.501463
O  68.098116 30.678917 45.930559
H  68.351421 32.64215 46.250761
82
Image 1. Energy: -22816.44317839714 
C  53.570244058755904 35.7409891719699 64.37031654151134
H  53.56707720210004 35.762448401925084 63.27929180250959
H  53.50473059927974 36.67918323325004 64.91995278821706
C  53.620284201800445 34.574055446226744 65.02698467746448
C  53.60771328082752 34.49383719435706 66.5486176129731
O  53.53597996567543 35.561199315994116 67.19413605621271
O  53.80925072081282 33.34810907575814 67.08559174481205
O  53.56154462972539 33.37413500024805 64.37055636396958
C  54.61432259759982 32.59281725943043 63.687599683329104
H  53.99030897667023 31.769400385163117 63.295753474011285
C  55.59168386861015 32.07115716588888 64.68855256890846
H  55.16142130188724 31.666487119268936 65.61360354958991
C  56.924711033600346 32.058866110910294 64.48103249354804
C  57.50812836607317 32.54214820779568 63.23016693153853
H  58.5915509945406 32.4887518133616 63.10010870800846
C  56.72023283761117 33.0530474559288 62.26959213059408
H  57.15838964406319 33.42190160188738 61.335591737797216
C  55.221270321888994 33.19782663723742 62.39923079156477
H  55.01387918505121 34.28580519537468 62.38956983251679
O  54.55015031034694 32.53953487958479 61.34228990328389
H  54.940108290013626 32.78338429282021 60.48432384232467
C  57.86484551110803 31.691977635375846 65.603286310535
O  57.99920076741976 32.610647815692644 66.45661105087184
O  58.43521711453909 30.577005814551946 65.60675174392146
C  52.0934 30.784 65.7126
N  52.243977 31.16922 64.448546
H  51.93346 31.831722 65.1448
H  52.440146 30.214182 64.712213
N  51.684501 31.656404 66.629449
H  51.88067 30.701366 66.893116
H  51.798849 31.94894 65.669528
N  52.351721 29.526376 66.059805
H  52.46607 29.818911 65.099884
H  52.041204 30.188878 66.756059
C  61.0891 29.6212 43.2444
O  62.272925 29.682976 42.847863
O  60.377816 28.593817 43.276959
H  60.631121 30.55705 43.597161
C  63.2767 25.0522 45.8853
O  64.460525 25.113976 45.488763
O  62.565416 24.024817 45.917859
H  62.818721 25.98805 46.238061
C  59.8194 27.9662 66.4397
N  59.969977 28.35142 65.175646
H  59.65946 29.013922 65.8719
H  60.166146 27.396382 65.439313
N  59.410501 28.838604 67.356549
H  59.60667 27.883566 67.620216
H  59.524849 29.13114 66.396628
N  60.077721 26.708576 66.786905
H  60.19207 27.001111 65.826984
H  59.767204 27.371078 67.483159
C  62.8791 21.8749 51.9082
O  64.062925 21.936676 51.511663
O  62.167816 20.847517 51.940759
H  62.421121 22.81075 52.260961
C  59.4954 23.0782 48.5723
O  60.679225 23.139976 48.175763
O  58.784116 22.050817 48.604859
H  59.037421 24.01405 48.925061
C  71.4184 30.8503 50.2861
O  72.602225 30.912076 49.889563
O  70.707116 29.822917 50.318659
H  70.960421 31.78615 50.638861
C  67.7005 24.6171 49.5441
O  68.884325 24.678876 49.147563
O  66.989216 23.589717 49.576659
H  67.242521 25.55295 49.896861
C  56.1909 34.4721 68.0478
N  56.341477 34.85732 66.783746
H  56.03096 35.519822 67.48
H  56.537646 33.902282 67.047413
N  55.782001 35.344504 68.964649
H  55.97817 34.389466 69.228316
H  55.896349 35.63704 68.004728
N  56.449221 33.214476 68.395005
H  56.56357 33.507011 67.435084
H  56.138704 33.876978 69.091259
C  68.8094 31.7063 45.898
O  69.993225 31.768076 45.501463
O  68.098116 30.678917 45.930559
H  68.351421 32.64215 46.250761
82
Image 2. Energy: -22815.630901894183 
C  53.618158987160704 35.52996670573038 64.41513736026036
H  53.72427274633533 35.467719106126786 63.33120481848622
H  53.48505835437212 36.50754435503007 64.87673398747215
C  53.65986096048867 34.414694856801596 65.17311907509229
C  53.571123307238906 34.50353138438221 66.71454699095351
O  53.45654886582902 35.62740289935239 67.2446958802095
O  53.765536149981045 33.4153673114472 67.36354290539288
O  53.831307317936336 33.16488238304164 64.7292966660137
C  54.856280287410414 32.257723050188076 63.43181765387283
H  53.94038734198203 31.72638928302257 63.166197067837246
C  55.767148188598036 31.697557937683957 64.38293787372076
H  55.3519466428168 31.16949216356814 65.2498189306969
C  57.106312830536595 31.959014318762076 64.31752329465908
C  57.72512147158161 32.575008416686686 63.160606614105546
H  58.81264306629168 32.680425450540014 63.12935147667782
C  56.950174925913174 32.97026753713102 62.13111541406726
H  57.393343727151276 33.393297136023406 61.222326853284784
C  55.44245639481112 32.936085374037695 62.19822130445717
H  55.16228466661223 34.01079287891577 62.26222130896424
O  54.84438347247787 32.294576378637196 61.099030199926304
H  55.25845572232634 32.58398530495109 60.26536826742332
C  57.94437833323507 31.693954742421198 65.53430936778926
O  57.90868796215901 32.63606057228973 66.36983948706386
O  58.575682506749075 30.622936483217917 65.63310190159716
C  52.0934 30.784 65.7126
N  52.243977 31.16922 64.448546
H  51.93346 31.831722 65.1448
H  52.440146 30.214182 64.712213
N  51.684501 31.656404 66.629449
H  51.88067 30.701366 66.893116
H  51.798849 31.94894 65.669528
N  52.351721 29.526376 66.059805
H  52.46607 29.818911 65.099884
H  52.041204 30.188878 66.756059
C  61.0891 29.6212 43.2444
O  62.272925 29.682976 42.847863
O  60.377816 28.593817 43.276959
H  60.631121 30.55705 43.597161
C  63.2767 25.0522 45.8853
O  64.460525 25.113976 45.488763
O  62.565416 24.024817 45.917859
H  62.818721 25.98805 46.238061
C  59.8194 27.9662 66.4397
N  59.969977 28.35142 65.175646
H  59.65946 29.013922 65.8719
H  60.166146 27.396382 65.439313
N  59.410501 28.838604 67.356549
H  59.60667 27.883566 67.620216
H  59.524849 29.13114 66.396628
N  60.077721 26.708576 66.786905
H  60.19207 27.001111 65.826984
H  59.767204 27.371078 67.483159
C  62.8791 21.8749 51.9082
O  64.062925 21.936676 51.511663
O  62.167816 20.847517 51.940759
H  62.421121 22.81075 52.260961
C  59.4954 23.0782 48.5723
O  60.679225 23.139976 48.175763
O  58.784116 22.050817 48.604859
H  59.037421 24.01405 48.925061
C  71.4184 30.8503 50.2861
O  72.602225 30.912076 49.889563
O  70.707116 29.822917 50.318659
H  70.960421 31.78615 50.638861
C  67.7005 24.6171 49.5441
O  68.884325 24.678876 49.147563
O  66.989216 23.589717 49.576659
H  67.242521 25.55295 49.896861
C  56.1909 34.4721 68.0478
N  56.341477 34.85732 66.783746
H  56.03096 35.519822 67.48
H  56.537646 33.902282 67.047413
N  55.782001 35.344504 68.964649
H  55.97817 34.389466 69.228316
H  55.896349 35.63704 68.004728
N  56.449221 33.214476 68.395005
H  56.56357 33.507011 67.435084
H  56.138704 33.876978 69.091259
C  68.8094 31.7063 45.898
O  69.993225 31.768076 45.501463
O  68.098116 30.678917 45.930559
H  68.351421 32.64215 46.250761
82
Image 3. Energy: -22815.686380179945 
C  53.70565281480308 35.376362665064576 64.45254766301292
H  53.84054358693599 35.25292609097698 63.37279779780195
H  53.60229039587066 36.38606304041857 64.84617104145583
C  53.679337655030515 34.29448695590456 65.27992476708253
C  53.59606519836663 34.47998843601065 66.80496188722068
O  53.533822060876034 35.632885274250945 67.28783769280656
O  53.76374646742577 33.41640731035546 67.50321796454926
O  53.85264227514665 33.053425565718605 64.93450170475701
C  55.10984137695146 31.90679924760515 63.16624817129548
H  54.06464514478579 31.61896524442472 63.08183987545739
C  55.91160774749793 31.553010050564062 64.22494405432516
H  55.47856551689585 31.096829782858215 65.11958751920645
C  57.27446059209261 31.87026494835898 64.20383266929633
C  57.90455696893674 32.441982590748566 63.06742273705989
H  58.98314238052684 32.61149544620123 63.070182539272466
C  57.152288524126575 32.74353757772767 61.96484988786684
H  57.60667892702095 33.18107749647675 61.06993271782748
C  55.67194104375184 32.60441902841371 61.99291212208189
H  55.43545571687848 33.69253205560487 62.26982285463324
O  55.0024561247534 32.205467111101626 60.855382637447605
H  55.450590881418364 32.512329624674194 60.0491084247552
C  58.035008281669924 31.664005608013078 65.48001968865583
O  57.892715201396875 32.5831645612355 66.32292801743948
O  58.69280781684526 30.614210127292175 65.6036426247032
C  52.0934 30.784 65.7126
N  52.243977 31.16922 64.448546
H  51.93346 31.831722 65.1448
H  52.440146 30.214182 64.712213
N  51.684501 31.656404 66.629449
H  51.88067 30.701366 66.893116
H  51.798849 31.94894 65.669528
N  52.351721 29.526376 66.059805
H  52.46607 29.818911 65.099884
H  52.041204 30.188878 66.756059
C  61.0891 29.6212 43.2444
O  62.272925 29.682976 42.847863
O  60.377816 28.593817 43.276959
H  60.631121 30.55705 43.597161
C  63.2767 25.0522 45.8853
O  64.460525 25.113976 45.488763
O  62.565416 24.024817 45.917859
H  62.818721 25.98805 46.238061
C  59.8194 27.9662 66.4397
N  59.969977 28.35142 65.175646
H  59.65946 29.013922 65.8719
H  60.166146 27.396382 65.439313
N  59.410501 28.838604 67.356549
H  59.60667 27.883566 67.620216
H  59.524849 29.13114 66.396628
N  60.077721 26.708576 66.786905
H  60.19207 27.001111 65.826984
H  59.767204 27.371078 67.483159
C  62.8791 21.8749 51.9082
O  64.062925 21.936676 51.511663
O  62.167816 20.847517 51.940759
H  62.421121 22.81075 52.260961
C  59.4954 23.0782 48.5723
O  60.679225 23.139976 48.175763
O  58.784116 22.050817 48.604859
H  59.037421 24.01405 48.925061
C  71.4184 30.8503 50.2861
O  72.602225 30.912076 49.889563
O  70.707116 29.822917 50.318659
H  70.960421 31.78615 50.638861
C  67.7005 24.6171 49.5441
O  68.884325 24.678876 49.147563
O  66.989216 23.589717 49.576659
H  67.242521 25.55295 49.896861
C  56.1909 34.4721 68.0478
N  56.341477 34.85732 66.783746
H  56.03096 35.519822 67.48
H  56.537646 33.902282 67.047413
N  55.782001 35.344504 68.964649
H  55.97817 34.389466 69.228316
H  55.896349 35.63704 68.004728
N  56.449221 33.214476 68.395005
H  56.56357 33.507011 67.435084
H  56.138704 33.876978 69.091259
C  68.8094 31.7063 45.898
O  69.993225 31.768076 45.501463
O  68.098116 30.678917 45.930559
H  68.351421 32.64215 46.250761
82
Image 4. Energy: -22815.88109748666 
C  53.816469946060934 35.134994229888505 64.47917856890406
H  54.01080408049042 34.95835457748835 63.414519298875675
H  53.6783802787739 36.16775935344337 64.79931721855965
C  53.77289219172684 34.10731007070892 65.37716719698432
C  53.61042349453363 34.4186824317129 66.87957218560851
O  53.560490023441794 35.609552070679705 67.26785544300645
O  53.728732407667316 33.41335107093255 67.66412474303242
O  54.010213451180945 32.84851973885049 65.14751753753131
C  55.29902273023162 31.680109481175187 62.954848437990655
H  54.237176785576864 31.437861369999617 62.88796898819647
C  56.04641884861486 31.436986973950805 64.07383268647547
H  55.583618086551226 31.014458494453955 64.9661801201252
C  57.40028100890943 31.808118859465218 64.10619854998333
C  58.05373648817248 32.3667845031876 63.001205576450296
H  59.11494963116036 32.611193910928314 63.04110978349284
C  57.33995242144083 32.5830218862026 61.832180175865375
H  57.81209100852795 33.03931271291831 60.95271128340001
C  55.890507272312256 32.346054177449766 61.7931635882604
H  55.74577670135866 33.44161697374553 62.18955182405558
O  55.20152193039305 32.11905159009009 60.64889387128204
H  55.69450097850956 32.38571842847439 59.85333614776866
C  58.09673958406625 31.641355310449363 65.44520418125715
O  57.87571910452713 32.55458582843113 66.27554525048306
O  58.74975271576936 30.621841655365646 65.59598677240005
C  52.0934 30.784 65.7126
N  52.243977 31.16922 64.448546
H  51.93346 31.831722 65.1448
H  52.440146 30.214182 64.712213
N  51.684501 31.656404 66.629449
H  51.88067 30.701366 66.893116
H  51.798849 31.94894 65.669528
N  52.351721 29.526376 66.059805
H  52.46607 29.818911 65.099884
H  52.041204 30.188878 66.756059
C  61.0891 29.6212 43.2444
O  62.272925 29.682976 42.847863
O  60.377816 28.593817 43.276959
H  60.631121 30.55705 43.597161
C  63.2767 25.0522 45.8853
O  64.460525 25.113976 45.488763
O  62.565416 24.024817 45.917859
H  62.818721 25.98805 46.238061
C  59.8194 27.9662 66.4397
N  59.969977 28.35142 65.175646
H  59.65946 29.013922 65.8719
H  60.166146 27.396382 65.439313
N  59.410501 28.838604 67.356549
H  59.60667 27.883566 67.620216
H  59.524849 29.13114 66.396628
N  60.077721 26.708576 66.786905
H  60.19207 27.001111 65.826984
H  59.767204 27.371078 67.483159
C  62.8791 21.8749 51.9082
O  64.062925 21.936676 51.511663
O  62.167816 20.847517 51.940759
H  62.421121 22.81075 52.260961
C  59.4954 23.0782 48.5723
O  60.679225 23.139976 48.175763
O  58.784116 22.050817 48.604859
H  59.037421 24.01405 48.925061
C  71.4184 30.8503 50.2861
O  72.602225 30.912076 49.889563
O  70.707116 29.822917 50.318659
H  70.960421 31.78615 50.638861
C  67.7005 24.6171 49.5441
O  68.884325 24.678876 49.147563
O  66.989216 23.589717 49.576659
H  67.242521 25.55295 49.896861
C  56.1909 34.4721 68.0478
N  56.341477 34.85732 66.783746
H  56.03096 35.519822 67.48
H  56.537646 33.902282 67.047413
N  55.782001 35.344504 68.964649
H  55.97817 34.389466 69.228316
H  55.896349 35.63704 68.004728
N  56.449221 33.214476 68.395005
H  56.56357 33.507011 67.435084
H  56.138704 33.876978 69.091259
C  68.8094 31.7063 45.898
O  69.993225 31.768076 45.501463
O  68.098116 30.678917 45.930559
H  68.351421 32.64215 46.250761
82
Image 5. Energy: -22815.428911500145 
C  53.94864890755636 34.904954484511556 64.46410500318822
H  54.19488497901529 34.69865645136872 63.415769417388006
H  53.77863532000105 35.9482071315355 64.73917178848619
C  53.89955378254118 33.90940317742313 65.40611875134219
C  53.65650711581267 34.309816383790604 66.88555298854453
O  53.59831416690613 35.524248700169046 67.20642827708795
O  53.740702180325265 33.35065075378056 67.72590372477322
O  54.188089655021834 32.65575939379463 65.26195274878845
C  55.39986506986314 31.445762023981562 62.776418701823445
H  54.39828803385452 31.17767213106392 62.72512924661875
C  56.14826087530498 31.323713144883204 63.9374988338068
H  55.69663596453121 30.891100208198132 64.8306895010518
C  57.53137616514838 31.74871737935641 64.11361281919746
C  58.106889497736276 32.33851432470014 62.94942079589117
H  59.2018345834174 32.622051701231236 63.00924990051246
C  57.358595789090344 32.645696873150904 61.766190573094065
H  57.902751462519696 32.921550206301674 60.890994178527386
C  56.05946836185531 31.960533126547794 61.6424481612702
H  56.500964047401105 33.4320113533584 62.05806713933945
O  55.371904402536444 31.964569981128594 60.502108661259605
H  55.90323498227675 32.23444730704246 59.72348880101577
C  58.167899800674576 31.60098535490283 65.46215092619678
O  57.922961167133245 32.47229796162195 66.20600033243947
O  58.743213279490206 30.61923591615274 65.57125052836476
C  52.0934 30.784 65.7126
N  52.243977 31.16922 64.448546
H  51.93346 31.831722 65.1448
H  52.440146 30.214182 64.712213
N  51.684501 31.656404 66.629449
H  51.88067 30.701366 66.893116
H  51.798849 31.94894 65.669528
N  52.351721 29.526376 66.059805
H  52.46607 29.818911 65.099884
H  52.041204 30.188878 66.756059
C  61.0891 29.6212 43.2444
O  62.272925 29.682976 42.847863
O  60.377816 28.593817 43.276959
H  60.631121 30.55705 43.597161
C  63.2767 25.0522 45.8853
O  64.460525 25.113976 45.488763
O  62.565416 24.024817 45.917859
H  62.818721 25.98805 46.238061
C  59.8194 27.9662 66.4397
N  59.969977 28.35142 65.175646
H  59.65946 29.013922 65.8719
H  60.166146 27.396382 65.439313
N  59.410501 28.838604 67.356549
H  59.60667 27.883566 67.620216
H  59.524849 29.13114 66.396628
N  60.077721 26.708576 66.786905
H  60.19207 27.001111 65.826984
H  59.767204 27.371078 67.483159
C  62.8791 21.8749 51.9082
O  64.062925 21.936676 51.511663
O  62.167816 20.847517 51.940759
H  62.421121 22.81075 52.260961
C  59.4954 23.0782 48.5723
O  60.679225 23.139976 48.175763
O  58.784116 22.050817 48.604859
H  59.037421 24.01405 48.925061
C  71.4184 30.8503 50.2861
O  72.602225 30.912076 49.889563
O  70.707116 29.822917 50.318659
H  70.960421 31.78615 50.638861
C  67.7005 24.6171 49.5441
O  68.884325 24.678876 49.147563
O  66.989216 23.589717 49.576659
H  67.242521 25.55295 49.896861
C  56.1909 34.4721 68.0478
N  56.341477 34.85732 66.783746
H  56.03096 35.519822 67.48
H  56.537646 33.902282 67.047413
N  55.782001 35.344504 68.964649
H  55.97817 34.389466 69.228316
H  55.896349 35.63704 68.004728
N  56.449221 33.214476 68.395005
H  56.56357 33.507011 67.435084
H  56.138704 33.876978 69.091259
C  68.8094 31.7063 45.898
O  69.993225 31.768076 45.501463
O  68.098116 30.678917 45.930559
H  68.351421 32.64215 46.250761
82
Image 6. Energy: -22814.9229059755 
C  54.07505602390205 34.641516031277945 64.4438007379475
H  54.40472010997814 34.37581267911257 63.43416994004362
H  53.864406732625625 35.69423707553736 64.63833490769652
C  53.98459322173945 33.71851281808684 65.45378391542378
C  53.6463840183212 34.23974265961898 66.89032641086003
O  53.55066374607291 35.46964790705399 67.09491375678941
O  53.694042372859684 33.360551012337154 67.80583302215973
O  54.30621911865303 32.45464451401538 65.42471015285567
C  55.62308637312691 31.256809008365632 62.6240792617994
H  54.58029941802522 30.846116772593177 62.468785088518565
C  56.28878359033145 31.19520274889115 63.81763532670827
H  55.80030665348955 30.75138689099745 64.65692320004382
C  57.59569270825338 31.684847725052055 63.962777274592725
C  58.24670006947673 32.303681372060026 63.003427944053975
H  59.24467098375512 32.68306349586824 63.038331806521455
C  57.4846496237118 32.60235062161524 61.7309924146558
H  58.12108489639084 32.76433793981188 60.79837000466741
C  56.233201335058844 31.840397608062464 61.46178995055639
H  56.99339512000519 33.600629448323104 61.89793965011817
O  55.63839230403511 31.795522783348087 60.348400948240524
H  56.15744708752745 32.132995414275115 59.58430596194835
C  58.21623658961569 31.467038228168192 65.45431332024721
O  59.32544029654389 31.530729233381674 65.61111702765466
O  57.433315646496794 31.244741272149476 66.24721214589653
C  52.0934 30.784 65.7126
N  52.243977 31.16922 64.448546
H  51.93346 31.831722 65.1448
H  52.440146 30.214182 64.712213
N  51.684501 31.656404 66.629449
H  51.88067 30.701366 66.893116
H  51.798849 31.94894 65.669528
N  52.351721 29.526376 66.059805
H  52.46607 29.818911 65.099884
H  52.041204 30.188878 66.756059
C  61.0891 29.6212 43.2444
O  62.272925 29.682976 42.847863
O  60.377816 28.593817 43.276959
H  60.631121 30.55705 43.597161
C  63.2767 25.0522 45.8853
O  64.460525 25.113976 45.488763
O  62.565416 24.024817 45.917859
H  62.818721 25.98805 46.238061
C  59.8194 27.9662 66.4397
N  59.969977 28.35142 65.175646
H  59.65946 29.013922 65.8719
H  60.166146 27.396382 65.439313
N  59.410501 28.838604 67.356549
H  59.60667 27.883566 67.620216
H  59.524849 29.13114 66.396628
N  60.077721 26.708576 66.786905
H  60.19207 27.001111 65.826984
H  59.767204 27.371078 67.483159
C  62.8791 21.8749 51.9082
O  64.062925 21.936676 51.511663
O  62.167816 20.847517 51.940759
H  62.421121 22.81075 52.260961
C  59.4954 23.0782 48.5723
O  60.679225 23.139976 48.175763
O  58.784116 22.050817 48.604859
H  59.037421 24.01405 48.925061
C  71.4184 30.8503 50.2861
O  72.602225 30.912076 49.889563
O  70.707116 29.822917 50.318659
H  70.960421 31.78615 50.638861
C  67.7005 24.6171 49.5441
O  68.884325 24.678876 49.147563
O  66.989216 23.589717 49.576659
H  67.242521 25.55295 49.896861
C  56.1909 34.4721 68.0478
N  56.341477 34.85732 66.783746
H  56.03096 35.519822 67.48
H  56.537646 33.902282 67.047413
N  55.782001 35.344504 68.964649
H  55.97817 34.389466 69.228316
H  55.896349 35.63704 68.004728
N  56.449221 33.214476 68.395005
H  56.56357 33.507011 67.435084
H  56.138704 33.876978 69.091259
C  68.8094 31.7063 45.898
O  69.993225 31.768076 45.501463
O  68.098116 30.678917 45.930559
H  68.351421 32.64215 46.250761
82
Image 7. Energy: -22816.297916160576 
C  54.326215709878774 34.26512906947992 64.39654602386753
H  54.7979825177764 33.93022498461374 63.46791283702223
H  54.067387469185874 35.32705917864167 64.45362669881798
C  54.106897440184255 33.449794103417325 65.46995415005078
C  53.60155127047504 34.12685680544575 66.77989386442609
O  53.25046590598002 35.34487802211462 66.75765664427232
O  53.708226915842765 33.42794780047054 67.84025716536767
O  54.41127860892259 32.17186890882472 65.60786743901055
C  55.83487859156143 31.379549752105437 62.45112230467219
H  54.90015353945125 30.862264623284595 62.23225142047298
C  56.48233896082221 31.12574564516034 63.716164670994914
H  55.9047345512059 30.664273367300193 64.52942043745296
C  57.73859960618216 31.633038453042268 63.9949798292369
C  58.40037359917254 32.29129374045578 62.869125096463286
H  59.377158011281054 32.76838496173228 63.07493777415165
C  57.905265099826856 32.351548293245294 61.59485645639858
H  58.45512661326921 32.83749908766361 60.7802421436439
C  56.666992077099074 31.716628905517833 61.298248774752736
H  55.81645517868366 32.55806737087348 62.41006261032044
O  56.089715894477685 31.608142329607695 60.13924972841391
H  56.54923125820998 32.02586547832821 59.39875288795597
C  58.25962844109991 31.589900742564538 65.31313289616156
O  59.315834081019126 30.83610831069263 65.64957359951974
O  57.631605178380475 32.31640515540502 66.2889910565536
C  52.0934 30.784 65.7126
N  52.243977 31.16922 64.448546
H  51.93346 31.831722 65.1448
H  52.440146 30.214182 64.712213
N  51.684501 31.656404 66.629449
H  51.88067 30.701366 66.893116
H  51.798849 31.94894 65.669528
N  52.351721 29.526376 66.059805
H  52.46607 29.818911 65.099884
H  52.041204 30.188878 66.756059
C  61.0891 29.6212 43.2444
O  62.272925 29.682976 42.847863
O  60.377816 28.593817 43.276959
H  60.631121 30.55705 43.597161
C  63.2767 25.0522 45.8853
O  64.460525 25.113976 45.488763
O  62.565416 24.024817 45.917859
H  62.818721 25.98805 46.238061
C  59.8194 27.9662 66.4397
N  59.969977 28.35142 65.175646
H  59.65946 29.013922 65.8719
H  60.166146 27.396382 65.439313
N  59.410501 28.838604 67.356549
H  59.60667 27.883566 67.620216
H  59.524849 29.13114 66.396628
N  60.077721 26.708576 66.786905
H  60.19207 27.001111 65.826984
H  59.767204 27.371078 67.483159
C  62.8791 21.8749 51.9082
O  64.062925 21.936676 51.511663
O  62.167816 20.847517 51.940759
H  62.421121 22.81075 52.260961
C  59.4954 23.0782 48.5723
O  60.679225 23.139976 48.175763
O  58.784116 22.050817 48.604859
H  59.037421 24.01405 48.925061
C  71.4184 30.8503 50.2861
O  72.602225 30.912076 49.889563
O  70.707116 29.822917 50.318659
H  70.960421 31.78615 50.638861
C  67.7005 24.6171 49.5441
O  68.884325 24.678876 49.147563
O  66.989216 23.589717 49.576659
H  67.242521 25.55295 49.896861
C  56.1909 34.4721 68.0478
N  56.341477 34.85732 66.783746
H  56.03096 35.519822 67.48
H  56.537646 33.902282 67.047413
N  55.782001 35.344504 68.964649
H  55.97817 34.389466 69.228316
H  55.896349 35.63704 68.004728
N  56.449221 33.214476 68.395005
H  56.56357 33.507011 67.435084
H  56.138704 33.876978 69.091259
C  68.8094 31.7063 45.898
O  69.993225 31.768076 45.501463
O  68.098116 30.678917 45.930559
H  68.351421 32.64215 46.250761
82
Image 8. Energy: -22817.672472502287 
C  54.865006019519775 33.86385376858987 63.61042245911168
H  54.645392994912264 34.99661573272886 63.840532876494066
H  54.46718590559998 33.28958565510314 62.66775959650041
C  54.45321539423982 33.15930528713604 64.87182272444032
C  53.74466839038006 33.949056808514534 66.09276995384431
O  53.256651224711966 35.064478645124375 65.91272154399684
O  53.818033000528075 33.30506278385578 67.19857581549213
O  54.59031887916553 31.967630400810275 65.12200301928836
C  56.13452416278344 30.831823858123954 62.51866228348424
H  55.232542284656134 30.28468801265304 62.21832571451267
C  56.60827016509794 30.80772651558344 63.824157081571045
H  56.05192705236239 30.256333542457707 64.58472380310351
C  57.761550020954715 31.509438906899444 64.18010980468947
C  58.493609805576675 32.17427401608667 63.18872752361282
H  59.45333511578663 32.6374199902724 63.44070428084137
C  58.004056851348416 32.25117995901616 61.8902382010387
H  58.572064518557376 32.79156821675268 61.12402783599654
C  56.78821236167199 31.620217314790697 61.55228103649871
H  55.90390819183175 33.673390906988324 63.37802960544671
O  56.22353459775211 31.708600423414353 60.34378719087526
H  56.85306233782777 32.01987336242753 59.666859819556535
C  58.160874156407424 31.719661052753974 65.59667318689877
O  59.172102917610616 31.13780093880816 66.0735145968654
O  57.43335860071126 32.542848821110645 66.23994894583771
C  52.0934 30.784 65.7126
N  52.243977 31.16922 64.448546
H  51.93346 31.831722 65.1448
H  52.440146 30.214182 64.712213
N  51.684501 31.656404 66.629449
H  51.88067 30.701366 66.893116
H  51.798849 31.94894 65.669528
N  52.351721 29.526376 66.059805
H  52.46607 29.818911 65.099884
H  52.041204 30.188878 66.756059
C  61.0891 29.6212 43.2444
O  62.272925 29.682976 42.847863
O  60.377816 28.593817 43.276959
H  60.631121 30.55705 43.597161
C  63.2767 25.0522 45.8853
O  64.460525 25.113976 45.488763
O  62.565416 24.024817 45.917859
H  62.818721 25.98805 46.238061
C  59.8194 27.9662 66.4397
N  59.969977 28.35142 65.175646
H  59.65946 29.013922 65.8719
H  60.166146 27.396382 65.439313
N  59.410501 28.838604 67.356549
H  59.60667 27.883566 67.620216
H  59.524849 29.13114 66.396628
N  60.077721 26.708576 66.786905
H  60.19207 27.001111 65.826984
H  59.767204 27.371078 67.483159
C  62.8791 21.8749 51.9082
O  64.062925 21.936676 51.511663
O  62.167816 20.847517 51.940759
H  62.421121 22.81075 52.260961
C  59.4954 23.0782 48.5723
O  60.679225 23.139976 48.175763
O  58.784116 22.050817 48.604859
H  59.037421 24.01405 48.925061
C  71.4184 30.8503 50.2861
O  72.602225 30.912076 49.889563
O  70.707116 29.822917 50.318659
H  70.960421 31.78615 50.638861
C  67.7005 24.6171 49.5441
O  68.884325 24.678876 49.147563
O  66.989216 23.589717 49.576659
H  67.242521 25.55295 49.896861
C  56.1909 34.4721 68.0478
N  56.341477 34.85732 66.783746
H  56.03096 35.519822 67.48
H  56.537646 33.902282 67.047413
N  55.782001 35.344504 68.964649
H  55.97817 34.389466 69.228316
H  55.896349 35.63704 68.004728
N  56.449221 33.214476 68.395005
H  56.56357 33.507011 67.435084
H  56.138704 33.876978 69.091259
C  68.8094 31.7063 45.898
O  69.993225 31.768076 45.501463
O  68.098116 30.678917 45.930559
H  68.351421 32.64215 46.250761
82
Image 9. Energy: -22815.989795284102 
C  54.98982119277143 33.71283477481349 63.77924728384237
H  54.79619746430066 34.807486385863214 63.87478076299771
H  54.581830783346696 33.37089765096318 62.84847264573898
C  54.522118706917595 33.01986500379026 64.99247754196155
C  53.83587832690464 33.81834393388677 66.2448095891461
O  53.390568087286496 34.96300707096399 66.11768094987023
O  53.888378733607624 33.150622883517464 67.32937090072456
O  54.6306062660538 31.811257418777654 65.23473827050194
C  56.23190045629208 30.81297113217164 62.424619861357485
H  55.30709705678002 30.300612259435784 62.145404511747564
C  56.73665891628146 30.76728502969866 63.720359878043524
H  56.17528444839064 30.23740670373406 64.49128331023906
C  57.91318596382126 31.445924700727414 64.05582180883549
C  58.648862788827806 32.074174845747365 63.03619715495459
H  59.61932317751071 32.525663022654626 63.264057259027545
C  58.154183391236124 32.146003313302494 61.734587977831566
H  58.723520178515365 32.66163153700762 60.9552215037713
C  56.91221233048398 31.53903463019037 61.41412791753685
H  56.02420061127201 33.03938304297385 62.810170035025145
O  56.36722920478589 31.522478153288855 60.199899896778284
H  56.96392442723432 31.8447109273157 59.49933382245862
C  58.34056685671202 31.602270529459904 65.49048847427557
O  59.35382772646429 30.955855402168922 65.86907411317463
O  57.66933630421732 32.38667436755305 66.22770577015338
C  52.0934 30.784 65.7126
N  52.243977 31.16922 64.448546
H  51.93346 31.831722 65.1448
H  52.440146 30.214182 64.712213
N  51.684501 31.656404 66.629449
H  51.88067 30.701366 66.893116
H  51.798849 31.94894 65.669528
N  52.351721 29.526376 66.059805
H  52.46607 29.818911 65.099884
H  52.041204 30.188878 66.756059
C  61.0891 29.6212 43.2444
O  62.272925 29.682976 42.847863
O  60.377816 28.593817 43.276959
H  60.631121 30.55705 43.597161
C  63.2767 25.0522 45.8853
O  64.460525 25.113976 45.488763
O  62.565416 24.024817 45.917859
H  62.818721 25.98805 46.238061
C  59.8194 27.9662 66.4397
N  59.969977 28.35142 65.175646
H  59.65946 29.013922 65.8719
H  60.166146 27.396382 65.439313
N  59.410501 28.838604 67.356549
H  59.60667 27.883566 67.620216
H  59.524849 29.13114 66.396628
N  60.077721 26.708576 66.786905
H  60.19207 27.001111 65.826984
H  59.767204 27.371078 67.483159
C  62.8791 21.8749 51.9082
O  64.062925 21.936676 51.511663
O  62.167816 20.847517 51.940759
H  62.421121 22.81075 52.260961
C  59.4954 23.0782 48.5723
O  60.679225 23.139976 48.175763
O  58.784116 22.050817 48.604859
H  59.037421 24.01405 48.925061
C  71.4184 30.8503 50.2861
O  72.602225 30.912076 49.889563
O  70.707116 29.822917 50.318659
H  70.960421 31.78615 50.638861
C  67.7005 24.6171 49.5441
O  68.884325 24.678876 49.147563
O  66.989216 23.589717 49.576659
H  67.242521 25.55295 49.896861
C  56.1909 34.4721 68.0478
N  56.341477 34.85732 66.783746
H  56.03096 35.519822 67.48
H  56.537646 33.902282 67.047413
N  55.782001 35.344504 68.964649
H  55.97817 34.389466 69.228316
H  55.896349 35.63704 68.004728
N  56.449221 33.214476 68.395005
H  56.56357 33.507011 67.435084
H  56.138704 33.876978 69.091259
C  68.8094 31.7063 45.898
O  69.993225 31.768076 45.501463
O  68.098116 30.678917 45.930559
H  68.351421 32.64215 46.250761
82
Image 10. Energy: -22816.037554804057 
C  54.811939542395926 33.71279347948862 63.91104617030397
H  54.66807362119712 34.79526600659345 63.94006345367863
H  55.13432624785232 33.30145984680669 62.95603950425394
C  54.518771638115346 32.93667771235402 65.00821151128427
C  53.916789461460965 33.67848673028571 66.25008088516985
O  53.489910358010626 34.84780799579756 66.16936767079788
O  53.96829566661724 33.01501254968004 67.34802142263608
O  54.70445893133015 31.662303572092746 65.19555251066711
C  56.36690106091245 30.658823264597405 62.38241484905722
H  55.43330125937063 30.17080189124295 62.09177184751991
C  56.85924450231535 30.63315797980709 63.667271584323125
H  56.29885053016995 30.1183333137596 64.44339786289191
C  58.03656068630102 31.341135434120755 63.991455254223865
C  58.79996517777697 31.953341175616472 62.9826699366166
H  59.77161286348729 32.394833129340675 63.21311984760632
C  58.32039175306344 32.02073181724829 61.680729838095665
H  58.86818969913178 32.5525629496427 60.89533303364079
C  57.00204468985606 31.486412900889285 61.36390662348997
H  56.557723020819104 32.453574581711734 61.943101783035395
O  56.50253945057768 31.371334975349598 60.123633776688266
H  57.09790930977293 31.70331398566937 59.42704613836437
C  58.46101281939266 31.510997693636106 65.44091553549151
O  59.4877917065343 30.87412882393347 65.78478295266098
O  57.78941786354318 32.27706276033703 66.1725496275212
C  52.0934 30.784 65.7126
N  52.243977 31.16922 64.448546
H  51.93346 31.831722 65.1448
H  52.440146 30.214182 64.712213
N  51.684501 31.656404 66.629449
H  51.88067 30.701366 66.893116
H  51.798849 31.94894 65.669528
N  52.351721 29.526376 66.059805
H  52.46607 29.818911 65.099884
H  52.041204 30.188878 66.756059
C  61.0891 29.6212 43.2444
O  62.272925 29.682976 42.847863
O  60.377816 28.593817 43.276959
H  60.631121 30.55705 43.597161
C  63.2767 25.0522 45.8853
O  64.460525 25.113976 45.488763
O  62.565416 24.024817 45.917859
H  62.818721 25.98805 46.238061
C  59.8194 27.9662 66.4397
N  59.969977 28.35142 65.175646
H  59.65946 29.013922 65.8719
H  60.166146 27.396382 65.439313
N  59.410501 28.838604 67.356549
H  59.60667 27.883566 67.620216
H  59.524849 29.13114 66.396628
N  60.077721 26.708576 66.786905
H  60.19207 27.001111 65.826984
H  59.767204 27.371078 67.483159
C  62.8791 21.8749 51.9082
O  64.062925 21.936676 51.511663
O  62.167816 20.847517 51.940759
H  62.421121 22.81075 52.260961
C  59.4954 23.0782 48.5723
O  60.679225 23.139976 48.175763
O  58.784116 22.050817 48.604859
H  59.037421 24.01405 48.925061
C  71.4184 30.8503 50.2861
O  72.602225 30.912076 49.889563
O  70.707116 29.822917 50.318659
H  70.960421 31.78615 50.638861
C  67.7005 24.6171 49.5441
O  68.884325 24.678876 49.147563
O  66.989216 23.589717 49.576659
H  67.242521 25.55295 49.896861
C  56.1909 34.4721 68.0478
N  56.341477 34.85732 66.783746
H  56.03096 35.519822 67.48
H  56.537646 33.902282 67.047413
N  55.782001 35.344504 68.964649
H  55.97817 34.389466 69.228316
H  55.896349 35.63704 68.004728
N  56.449221 33.214476 68.395005
H  56.56357 33.507011 67.435084
H  56.138704 33.876978 69.091259
C  68.8094 31.7063 45.898
O  69.993225 31.768076 45.501463
O  68.098116 30.678917 45.930559
H  68.351421 32.64215 46.250761
82
Image 11. Energy: -22816.545583535848 
C  54.956920079753 33.4488005634186 64.01539898110238
H  54.764257981079645 34.52233179611921 63.981749309558175
H  55.451973043607815 33.01137976732518 63.14408394122368
C  54.59537190444102 32.71443671921259 65.11589117491775
C  53.94145345945813 33.53157697686355 66.27983235541312
O  53.483748592491175 34.67684092135388 66.0893544662873
O  53.97145016839681 32.96194572105726 67.42935709500638
O  54.749769929600056 31.440372342725162 65.36382455562136
C  56.5739860533267 30.477387496179254 62.242497923262945
H  55.71663878609013 29.87354898566225 61.9414180517544
C  56.96884170481814 30.61112707991066 63.55002777106533
H  56.37973154865192 30.137519772614205 64.33361763739994
C  58.087385551188554 31.412725917307952 63.91216285567874
C  58.84389346481617 32.01542873066564 62.91876891632902
H  59.75881272947498 32.565527286900796 63.1517046935824
C  58.43738386950647 31.94417356334465 61.562514980593335
H  59.00436249723052 32.464260593288635 60.780782020958135
C  57.26885745367811 31.175961229085466 61.18216423105695
H  56.98928141861247 32.3503245092896 61.56639808781001
O  56.87143483232296 30.940746523618834 59.944966998322705
H  57.46518236301748 31.28805727894222 59.24953936263824
C  58.45212789815832 31.589049479133674 65.38198524543253
O  59.400560885499274 30.861681427519123 65.77601478167354
O  57.82190411479709 32.4091096884515 66.0909805532957
C  52.0934 30.784 65.7126
N  52.243977 31.16922 64.448546
H  51.93346 31.831722 65.1448
H  52.440146 30.214182 64.712213
N  51.684501 31.656404 66.629449
H  51.88067 30.701366 66.893116
H  51.798849 31.94894 65.669528
N  52.351721 29.526376 66.059805
H  52.46607 29.818911 65.099884
H  52.041204 30.188878 66.756059
C  61.0891 29.6212 43.2444
O  62.272925 29.682976 42.847863
O  60.377816 28.593817 43.276959
H  60.631121 30.55705 43.597161
C  63.2767 25.0522 45.8853
O  64.460525 25.113976 45.488763
O  62.565416 24.024817 45.917859
H  62.818721 25.98805 46.238061
C  59.8194 27.9662 66.4397
N  59.969977 28.35142 65.175646
H  59.65946 29.013922 65.8719
H  60.166146 27.396382 65.439313
N  59.410501 28.838604 67.356549
H  59.60667 27.883566 67.620216
H  59.524849 29.13114 66.396628
N  60.077721 26.708576 66.786905
H  60.19207 27.001111 65.826984
H  59.767204 27.371078 67.483159
C  62.8791 21.8749 51.9082
O  64.062925 21.936676 51.511663
O  62.167816 20.847517 51.940759
H  62.421121 22.81075 52.260961
C  59.4954 23.0782 48.5723
O  60.679225 23.139976 48.175763
O  58.784116 22.050817 48.604859
H  59.037421 24.01405 48.925061
C  71.4184 30.8503 50.2861
O  72.602225 30.912076 49.889563
O  70.707116 29.822917 50.318659
H  70.960421 31.78615 50.638861
C  67.7005 24.6171 49.5441
O  68.884325 24.678876 49.147563
O  66.989216 23.589717 49.576659
H  67.242521 25.55295 49.896861
C  56.1909 34.4721 68.0478
N  56.341477 34.85732 66.783746
H  56.03096 35.519822 67.48
H  56.537646 33.902282 67.047413
N  55.782001 35.344504 68.964649
H  55.97817 34.389466 69.228316
H  55.896349 35.63704 68.004728
N  56.449221 33.214476 68.395005
H  56.56357 33.507011 67.435084
H  56.138704 33.876978 69.091259
C  68.8094 31.7063 45.898
O  69.993225 31.768076 45.501463
O  68.098116 30.678917 45.930559
H  68.351421 32.64215 46.250761
82
Image 12. Energy: -22816.679240148493 
C  56.10547310761101 32.84181803529657 64.03504107623198
H  56.160999078377195 33.94400127164888 64.14789017169373
H  55.65077250841197 32.73369650656006 63.03208904452348
C  55.10259899819204 32.33758450985759 65.03565885702501
C  54.21752988247201 33.28588937176853 65.94258175500309
O  53.65975624087953 34.28304074581996 65.47315661955653
O  54.119101827590036 32.86871535933975 67.1445062263494
O  54.880513945780606 31.1449079717533 65.2558117188337
C  56.71269282721488 30.34363143624815 62.194474665520445
H  56.15180487782259 29.497183798489264 61.793973558930716
C  56.941419280111155 30.525248952901528 63.49730432762866
H  56.599165755539055 29.819299958882375 64.25202201603845
C  57.49614858173867 31.856674840802317 63.972259568803054
C  58.60014299375516 32.258962734182504 62.97083376843544
H  59.54124105808537 32.69038831300685 63.33162186991098
C  58.46474430389716 31.989752744106287 61.660973873996824
H  59.21658089645395 32.27627945458042 60.914406054000814
C  57.17658213487667 31.367891014790008 61.1872807415676
H  56.487605568563794 32.243688386248046 61.30324902464874
O  57.07853058820984 30.851327589749097 59.90559908773407
H  57.82146348336169 31.089216266068608 59.33262196569205
C  58.12841997175781 31.73417445088076 65.38348933344696
O  58.9691628076655 30.822460081342587 65.60210926393925
O  57.76218806163559 32.57244039568191 66.25863377050787
C  52.0934 30.784 65.7126
N  52.243977 31.16922 64.448546
H  51.93346 31.831722 65.1448
H  52.440146 30.214182 64.712213
N  51.684501 31.656404 66.629449
H  51.88067 30.701366 66.893116
H  51.798849 31.94894 65.669528
N  52.351721 29.526376 66.059805
H  52.46607 29.818911 65.099884
H  52.041204 30.188878 66.756059
C  61.0891 29.6212 43.2444
O  62.272925 29.682976 42.847863
O  60.377816 28.593817 43.276959
H  60.631121 30.55705 43.597161
C  63.2767 25.0522 45.8853
O  64.460525 25.113976 45.488763
O  62.565416 24.024817 45.917859
H  62.818721 25.98805 46.238061
C  59.8194 27.9662 66.4397
N  59.969977 28.35142 65.175646
H  59.65946 29.013922 65.8719
H  60.166146 27.396382 65.439313
N  59.410501 28.838604 67.356549
H  59.60667 27.883566 67.620216
H  59.524849 29.13114 66.396628
N  60.077721 26.708576 66.786905
H  60.19207 27.001111 65.826984
H  59.767204 27.371078 67.483159
C  62.8791 21.8749 51.9082
O  64.062925 21.936676 51.511663
O  62.167816 20.847517 51.940759
H  62.421121 22.81075 52.260961
C  59.4954 23.0782 48.5723
O  60.679225 23.139976 48.175763
O  58.784116 22.050817 48.604859
H  59.037421 24.01405 48.925061
C  71.4184 30.8503 50.2861
O  72.602225 30.912076 49.889563
O  70.707116 29.822917 50.318659
H  70.960421 31.78615 50.638861
C  67.7005 24.6171 49.5441
O  68.884325 24.678876 49.147563
O  66.989216 23.589717 49.576659
H  67.242521 25.55295 49.896861
C  56.1909 34.4721 68.0478
N  56.341477 34.85732 66.783746
H  56.03096 35.519822 67.48
H  56.537646 33.902282 67.047413
N  55.782001 35.344504 68.964649
H  55.97817 34.389466 69.228316
H  55.896349 35.63704 68.004728
N  56.449221 33.214476 68.395005
H  56.56357 33.507011 67.435084
H  56.138704 33.876978 69.091259
C  68.8094 31.7063 45.898
O  69.993225 31.768076 45.501463
O  68.098116 30.678917 45.930559
H  68.351421 32.64215 46.250761
82
Image 13. Energy: -22817.802749385057 
C  55.99426865481253 32.59805211716505 63.954222479640876
H  56.21873652132434 33.67009364525575 64.06215993650378
H  55.45966374817471 32.50194264107049 62.99066460522379
C  55.05583306517397 32.17922054941078 65.03309199893428
C  54.07193055671311 33.16705520786221 65.70681332867682
O  53.1765639774703 33.64658761017261 64.9882970202132
O  54.1198671392262 33.230878497234215 66.9708762387773
O  54.90693552518869 31.009115404383955 65.40628395908679
C  57.282421257573006 30.11735901793059 61.983030450631624
H  57.06282298733109 29.13863553338191 61.54378787655314
C  57.04342837631106 30.379876201595742 63.27367856313308
H  56.60744480183984 29.614709011819304 63.923387577972456
C  57.29876711739055 31.742597682811923 63.89114157308481
C  58.32272277850686 32.51298108687766 63.06242121498245
H  58.82623279034231 33.352562363697295 63.55381245400988
C  58.55777855672637 32.24121807031422 61.77352087973228
H  59.26726560565515 32.836204263221354 61.18932977585104
C  57.84867223414533 31.139240041594057 61.02371549614336
H  56.98267656851344 31.611605512325912 60.51328105184798
O  58.59708420680278 30.574559115756305 59.99017479730686
H  59.442696479692835 30.228274341865113 60.31410044570951
C  57.85331080592509 31.626386506771922 65.33087191395356
O  58.59512019748734 30.660836655853718 65.62810397200356
O  57.541703277665604 32.5522429216284 66.1433731000032
C  52.0934 30.784 65.7126
N  52.243977 31.16922 64.448546
H  51.93346 31.831722 65.1448
H  52.440146 30.214182 64.712213
N  51.684501 31.656404 66.629449
H  51.88067 30.701366 66.893116
H  51.798849 31.94894 65.669528
N  52.351721 29.526376 66.059805
H  52.46607 29.818911 65.099884
H  52.041204 30.188878 66.756059
C  61.0891 29.6212 43.2444
O  62.272925 29.682976 42.847863
O  60.377816 28.593817 43.276959
H  60.631121 30.55705 43.597161
C  63.2767 25.0522 45.8853
O  64.460525 25.113976 45.488763
O  62.565416 24.024817 45.917859
H  62.818721 25.98805 46.238061
C  59.8194 27.9662 66.4397
N  59.969977 28.35142 65.175646
H  59.65946 29.013922 65.8719
H  60.166146 27.396382 65.439313
N  59.410501 28.838604 67.356549
H  59.60667 27.883566 67.620216
H  59.524849 29.13114 66.396628
N  60.077721 26.708576 66.786905
H  60.19207 27.001111 65.826984
H  59.767204 27.371078 67.483159
C  62.8791 21.8749 51.9082
O  64.062925 21.936676 51.511663
O  62.167816 20.847517 51.940759
H  62.421121 22.81075 52.260961
C  59.4954 23.0782 48.5723
O  60.679225 23.139976 48.175763
O  58.784116 22.050817 48.604859
H  59.037421 24.01405 48.925061
C  71.4184 30.8503 50.2861
O  72.602225 30.912076 49.889563
O  70.707116 29.822917 50.318659
H  70.960421 31.78615 50.638861
C  67.7005 24.6171 49.5441
O  68.884325 24.678876 49.147563
O  66.989216 23.589717 49.576659
H  67.242521 25.55295 49.896861
C  56.1909 34.4721 68.0478
N  56.341477 34.85732 66.783746
H  56.03096 35.519822 67.48
H  56.537646 33.902282 67.047413
N  55.782001 35.344504 68.964649
H  55.97817 34.389466 69.228316
H  55.896349 35.63704 68.004728
N  56.449221 33.214476 68.395005
H  56.56357 33.507011 67.435084
H  56.138704 33.876978 69.091259
C  68.8094 31.7063 45.898
O  69.993225 31.768076 45.501463
O  68.098116 30.678917 45.930559
H  68.351421 32.64215 46.250761
