82
-2 1 -838.5076603600736
C       53.48557556    35.92051507    64.30236509
H       53.44429756    35.86225549    63.21145964
H       53.51996789    36.89691052    64.78675541
C       53.48876199    34.80362293    65.03974889
C       53.58780091    34.77692390    66.54863374
O       53.70306430    35.86439941    67.15244463
O       53.69738467    33.62660471    67.11080051
O       53.39526027    33.55455450    64.46222376
C       54.54618266    32.89017035    63.90846681
H       54.11244769    31.92929350    63.55478110
C       55.63467499    32.60709228    64.90952545
H       55.49061149    32.92506678    65.94375057
C       56.78526987    32.02940662    64.50150259
C       56.98019897    31.78894168    63.06766865
H       57.78974911    31.13905831    62.72676732
C       56.22796055    32.48453469    62.18672202
H       56.41557476    32.41118729    61.11025465
C       55.15865624    33.47726152    62.64256637
H       55.67974410    34.43286572    62.87970257
O       54.11700950    33.66841314    61.73059826
H       54.46855599    33.96806802    60.87611434
C       57.83121778    31.70140183    65.55324545
O       57.99274106    32.57856479    66.45026482
O       58.42022942    30.59364335    65.50059733
C       52.09340000    30.78400000    65.71260000
N       52.24397700    31.16922000    64.44854600
H       51.93346000    31.83172200    65.14480000
H       52.44014600    30.21418200    64.71221300
N       51.68450100    31.65640400    66.62944900
H       51.88067000    30.70136600    66.89311600
H       51.79884900    31.94894000    65.66952800
N       52.35172100    29.52637600    66.05980500
H       52.46607000    29.81891100    65.09988400
H       52.04120400    30.18887800    66.75605900
C       61.08910000    29.62120000    43.24440000
O       62.27292500    29.68297600    42.84786300
O       60.37781600    28.59381700    43.27695900
H       60.63112100    30.55705000    43.59716100
C       63.27670000    25.05220000    45.88530000
O       64.46052500    25.11397600    45.48876300
O       62.56541600    24.02481700    45.91785900
H       62.81872100    25.98805000    46.23806100
C       59.81940000    27.96620000    66.43970000
N       59.96997700    28.35142000    65.17564600
H       59.65946000    29.01392200    65.87190000
H       60.16614600    27.39638200    65.43931300
N       59.41050100    28.83860400    67.35654900
H       59.60667000    27.88356600    67.62021600
H       59.52484900    29.13114000    66.39662800
N       60.07772100    26.70857600    66.78690500
H       60.19207000    27.00111100    65.82698400
H       59.76720400    27.37107800    67.48315900
C       62.87910000    21.87490000    51.90820000
O       64.06292500    21.93667600    51.51166300
O       62.16781600    20.84751700    51.94075900
H       62.42112100    22.81075000    52.26096100
C       59.49540000    23.07820000    48.57230000
O       60.67922500    23.13997600    48.17576300
O       58.78411600    22.05081700    48.60485900
H       59.03742100    24.01405000    48.92506100
C       71.41840000    30.85030000    50.28610000
O       72.60222500    30.91207600    49.88956300
O       70.70711600    29.82291700    50.31865900
H       70.96042100    31.78615000    50.63886100
C       67.70050000    24.61710000    49.54410000
O       68.88432500    24.67887600    49.14756300
O       66.98921600    23.58971700    49.57665900
H       67.24252100    25.55295000    49.89686100
C       56.19090000    34.47210000    68.04780000
N       56.34147700    34.85732000    66.78374600
H       56.03096000    35.51982200    67.48000000
H       56.53764600    33.90228200    67.04741300
N       55.78200100    35.34450400    68.96464900
H       55.97817000    34.38946600    69.22831600
H       55.89634900    35.63704000    68.00472800
N       56.44922100    33.21447600    68.39500500
H       56.56357000    33.50701100    67.43508400
H       56.13870400    33.87697800    69.09125900
C       68.80940000    31.70630000    45.89800000
O       69.99322500    31.76807600    45.50146300
O       68.09811600    30.67891700    45.93055900
H       68.35142100    32.64215000    46.25076100
