82
-2 1 -838.5387647938596
C       55.99326507    32.59840028    63.95180439
H       56.21706702    33.67146838    64.05223149
H       55.45686697    32.49563775    62.98975874
C       55.05601120    32.18209194    65.03325025
C       54.07164335    33.16880224    65.70738778
O       53.17551200    33.64511294    64.98790450
O       54.11797911    33.23451975    66.97124691
O       54.90542575    31.01171623    65.40487382
C       57.27885128    30.11856550    61.98136606
H       57.05415859    29.14227151    61.53925193
C       57.03973771    30.38032638    63.27208335
H       56.59895280    29.61675635    63.91979784
C       57.29734160    31.74202684    63.89103664
C       58.32696931    32.50903272    63.06673484
H       58.83553026    33.34316126    63.56289477
C       58.56529280    32.23622285    61.77842300
H       59.28376828    32.82412071    61.19811458
C       57.85030384    31.14029039    61.02474734
H       56.98682131    31.61880551    60.51652257
O       58.59500895    30.57486147    59.98913351
H       59.44619856    30.23631555    60.30825706
C       57.85042955    31.62614250    65.33127715
O       58.59386210    30.66239873    65.63000837
O       57.53694982    32.55318622    66.14203382
C       52.09340000    30.78400000    65.71260000
N       52.24397700    31.16922000    64.44854600
H       51.93346000    31.83172200    65.14480000
H       52.44014600    30.21418200    64.71221300
N       51.68450100    31.65640400    66.62944900
H       51.88067000    30.70136600    66.89311600
H       51.79884900    31.94894000    65.66952800
N       52.35172100    29.52637600    66.05980500
H       52.46607000    29.81891100    65.09988400
H       52.04120400    30.18887800    66.75605900
C       61.08910000    29.62120000    43.24440000
O       62.27292500    29.68297600    42.84786300
O       60.37781600    28.59381700    43.27695900
H       60.63112100    30.55705000    43.59716100
C       63.27670000    25.05220000    45.88530000
O       64.46052500    25.11397600    45.48876300
O       62.56541600    24.02481700    45.91785900
H       62.81872100    25.98805000    46.23806100
C       59.81940000    27.96620000    66.43970000
N       59.96997700    28.35142000    65.17564600
H       59.65946000    29.01392200    65.87190000
H       60.16614600    27.39638200    65.43931300
N       59.41050100    28.83860400    67.35654900
H       59.60667000    27.88356600    67.62021600
H       59.52484900    29.13114000    66.39662800
N       60.07772100    26.70857600    66.78690500
H       60.19207000    27.00111100    65.82698400
H       59.76720400    27.37107800    67.48315900
C       62.87910000    21.87490000    51.90820000
O       64.06292500    21.93667600    51.51166300
O       62.16781600    20.84751700    51.94075900
H       62.42112100    22.81075000    52.26096100
C       59.49540000    23.07820000    48.57230000
O       60.67922500    23.13997600    48.17576300
O       58.78411600    22.05081700    48.60485900
H       59.03742100    24.01405000    48.92506100
C       71.41840000    30.85030000    50.28610000
O       72.60222500    30.91207600    49.88956300
O       70.70711600    29.82291700    50.31865900
H       70.96042100    31.78615000    50.63886100
C       67.70050000    24.61710000    49.54410000
O       68.88432500    24.67887600    49.14756300
O       66.98921600    23.58971700    49.57665900
H       67.24252100    25.55295000    49.89686100
C       56.19090000    34.47210000    68.04780000
N       56.34147700    34.85732000    66.78374600
H       56.03096000    35.51982200    67.48000000
H       56.53764600    33.90228200    67.04741300
N       55.78200100    35.34450400    68.96464900
H       55.97817000    34.38946600    69.22831600
H       55.89634900    35.63704000    68.00472800
N       56.44922100    33.21447600    68.39500500
H       56.56357000    33.50701100    67.43508400
H       56.13870400    33.87697800    69.09125900
C       68.80940000    31.70630000    45.89800000
O       69.99322500    31.76807600    45.50146300
O       68.09811600    30.67891700    45.93055900
H       68.35142100    32.64215000    46.25076100
