24
Coordinates from ORCA-job neb_MEP.QMRegion E -1076.135916675124
  C      42.394000     19.871000     56.917000
  H      43.081000     19.125000     56.517000
  H      42.772000     20.646000     57.583000
  C      41.093000     19.875000     56.600000
  C      40.130000     20.896000     57.181000
  O      40.619000     21.952000     57.663000
  O      38.904000     20.616000     57.157000
  O      40.534000     18.917000     55.790000
  C      40.530000     19.125000     54.332000
  H      40.032000     18.225000     53.947000
  C      41.961000     19.207000     53.905000
  H      42.559000     18.294000     53.866000
  C      42.576000     20.401000     53.813000
  C      41.786000     21.634000     53.919000
  H      42.351000     22.566000     53.920000
  C      40.448000     21.625000     54.039000
  H      39.897000     22.559000     54.169000
  C      39.656000     20.344000     53.957000
  H      38.842000     20.373000     54.696000
  O      39.126000     20.193000     52.642000
  H      38.128000     20.171000     52.669000
  C      44.090000     20.517000     53.728000
  O      44.781000     19.478000     53.903000
  O      44.542000     21.670000     53.521000
24
Coordinates from ORCA-job neb_MEP.QMRegion E -1076.138044512087
  C      42.528165     19.963404     56.691702
  H      43.217577     19.254827     56.233037
  H      42.933603     20.816126     57.237939
  C      41.201439     19.880166     56.515294
  C      40.243390     20.874203     57.152010
  O      40.729179     21.923019     57.653280
  O      39.019119     20.586998     57.159799
  O      40.618179     18.886348     55.767658
  C      40.534779     19.046078     54.294288
  H      40.050884     18.118537     53.964462
  C      41.940044     19.168200     53.812999
  H      42.555273     18.273429     53.703932
  C      42.531529     20.378843     53.809264
  C      41.711336     21.584577     53.994135
  H      42.248521     22.527054     54.097641
  C      40.369859     21.535073     54.078173
  H      39.785908     22.444206     54.241956
  C      39.614658     20.235825     53.947192
  H      38.812507     20.216111     54.698441
  O      39.071039     20.104555     52.638120
  H      38.072277     20.125422     52.676001
  C      44.045490     20.512326     53.747425
  O      44.741752     19.475850     53.923805
  O      44.493221     21.668670     53.560188
24
Coordinates from ORCA-job neb_MEP.QMRegion E -1076.127833071442
  C      42.555997     20.004459     56.618785
  H      43.243715     19.250991     56.236336
  H      42.983470     20.917478     57.041313
  C      41.214619     19.855338     56.533743
  C      40.259533     20.875412     57.151026
  O      40.748429     21.926355     57.647107
  O      39.030791     20.603463     57.151745
  O      40.640788     18.842865     55.827192
  C      40.538834     19.025095     54.198200
  H      40.065608     18.081682     53.893519
  C      41.940382     19.162149     53.814276
  H      42.560290     18.274093     53.688408
  C      42.530451     20.373368     53.944504
  C      41.700810     21.576389     54.095026
  H      42.226367     22.522721     54.220040
  C      40.358261     21.520279     54.086206
  H      39.759437     22.425876     54.202210
  C      39.611359     20.224642     53.911236
  H      38.830399     20.157278     54.678209
  O      39.032051     20.168419     52.609091
  H      38.028671     20.167052     52.664830
  C      44.038806     20.506028     53.839698
  O      44.738216     19.466787     53.973263
  O      44.476827     21.656684     53.605158
24
Coordinates from ORCA-job neb_MEP.QMRegion E -1076.117803133231
  C      42.573412     20.027796     56.575835
  H      43.253692     19.244000     56.246596
  H      42.999618     20.944134     56.988754
  C      41.217913     19.838153     56.563929
  C      40.262914     20.879499     57.161685
  O      40.751277     21.934429     57.649019
  O      39.033678     20.611952     57.153924
  O      40.664793     18.815261     55.947698
  C      40.539597     19.025280     54.077992
  H      40.063486     18.065366     53.858481
  C      41.928283     19.157169     53.811548
  H      42.556423     18.274304     53.692950
  C      42.528086     20.373257     54.008593
  C      41.697737     21.577247     54.118733
  H      42.222552     22.523821     54.240950
  C      40.356077     21.518704     54.083066
  H      39.755498     22.424213     54.190167
  C      39.612508     20.224450     53.893198
  H      38.840996     20.139894     54.669855
  O      39.017387     20.193437     52.596068
  H      38.014749     20.177760     52.662210
  C      44.037759     20.504492     53.869672
  O      44.736908     19.464089     53.982491
  O      44.470568     21.652130     53.612944
24
Coordinates from ORCA-job neb_MEP.QMRegion E -1076.115619624254
  C      42.590316     20.050769     56.522532
  H      43.262104     19.236492     56.259501
  H      43.013408     20.961852     56.948157
  C      41.218057     19.822687     56.591455
  C      40.263058     20.882558     57.171746
  O      40.755088     21.938876     57.650075
  O      39.035101     20.616858     57.158793
  O      40.686616     18.788032     56.069979
  C      40.540594     19.027299     53.964578
  H      40.061596     18.057806     53.821094
  C      41.913753     19.149988     53.818848
  H      42.550912     18.273018     53.701582
  C      42.527223     20.374282     54.083589
  C      41.696496     21.580059     54.136880
  H      42.220554     22.527880     54.250519
  C      40.356005     21.517737     54.078872
  H      39.754024     22.422833     54.182132
  C      39.615479     20.223989     53.874972
  H      38.852352     20.127099     54.661132
  O      39.003392     20.215181     52.583977
  H      38.001982     20.185764     52.659184
  C      44.035834     20.503877     53.894311
  O      44.734993     19.462162     53.986856
  O      44.463689     21.648335     53.616176
24
Coordinates from ORCA-job neb_MEP.QMRegion E -1076.117474553691
  C      42.599684     20.071572     56.446890
  H      43.266251     19.230531     56.268299
  H      43.019955     20.969350     56.905990
  C      41.217051     19.816366     56.597640
  C      40.263374     20.883993     57.176289
  O      40.759653     21.939200     57.650857
  O      39.036865     20.617495     57.162919
  O      40.698398     18.771561     56.138772
  C      40.543398     19.028775     53.911179
  H      40.062794     18.057550     53.789437
  C      41.905891     19.145707     53.832692
  H      42.547430     18.272014     53.710109
  C      42.529883     20.372832     54.162843
  C      41.695664     21.582083     54.154645
  H      42.218396     22.531659     54.258705
  C      40.357532     21.516970     54.076062
  H      39.754300     22.422375     54.171917
  C      39.617541     20.223263     53.865428
  H      38.857867     20.120213     54.655473
  O      38.996039     20.229247     52.578451
  H      37.995449     20.191533     52.657673
  C      44.035183     20.503784     53.915202
  O      44.734711     19.461230     53.990131
  O      44.457600     21.645419     53.618143
24
Coordinates from ORCA-job neb_MEP.QMRegion E -1076.122331736220
  C      42.606333     20.091297     56.353141
  H      43.266042     19.226902     56.275889
  H      43.022669     20.971065     56.858489
  C      41.215023     19.812231     56.597437
  C      40.263070     20.884981     57.180116
  O      40.763944     21.937754     57.652000
  O      39.038332     20.616990     57.166887
  O      40.707316     18.757445     56.196303
  C      40.547797     19.029842     53.872666
  H      40.065149     18.057938     53.758842
  C      41.899430     19.141476     53.848731
  H      42.544421     18.270601     53.719206
  C      42.535104     20.369487     54.254035
  C      41.695508     21.582826     54.174839
  H      42.216142     22.534912     54.265732
  C      40.360179     21.515083     54.075469
  H      39.755952     22.421319     54.159795
  C      39.619809     20.221502     53.858221
  H      38.862618     20.114142     54.650708
  O      38.990675     20.240667     52.574732
  H      37.990605     20.195485     52.657275
  C      44.034480     20.503239     53.934029
  O      44.734264     19.460093     53.993357
  O      44.451009     21.642135     53.619854
24
Coordinates from ORCA-job neb_MEP.QMRegion E -1076.132786927826
  C      42.614169     20.111760     56.233233
  H      43.262418     19.228497     56.280141
  H      43.023633     20.971282     56.796621
  C      41.214077     19.811509     56.589556
  C      40.263264     20.885376     57.182538
  O      40.771642     21.933893     57.654692
  O      39.039782     20.613025     57.172138
  O      40.719855     18.742284     56.259038
  C      40.552933     19.031492     53.831311
  H      40.068387     18.059493     53.717654
  C      41.894165     19.138552     53.866464
  H      42.541584     18.269727     53.732402
  C      42.543560     20.363326     54.372924
  C      41.695003     21.581003     54.206106
  H      42.211887     22.537401     54.274072
  C      40.363253     21.510790     54.078581
  H      39.758904     22.419191     54.142487
  C      39.621528     20.218276     53.852274
  H      38.864664     20.110658     54.646171
  O      38.986226     20.249698     52.572436
  H      37.987288     20.202558     52.657582
  C      44.034266     20.502216     53.956519
  O      44.736077     19.459374     53.995219
  O      44.442568     21.637399     53.620556
24
Coordinates from ORCA-job neb_MEP.QMRegion E -1076.155211013047
  C      42.612919     20.138015     56.106936
  H      43.263002     19.270929     56.297695
  H      43.023318     21.038047     56.590062
  C      41.226001     19.812398     56.612931
  C      40.277784     20.893191     57.199675
  O      40.793520     21.934290     57.673360
  O      39.055368     20.621656     57.191258
  O      40.784008     18.689379     56.492494
  C      40.579908     19.056225     53.708075
  H      40.113238     18.105403     53.452236
  C      41.896558     19.128284     53.924169
  H      42.538338     18.252331     53.816211
  C      42.549839     20.346691     54.513951
  C      41.705227     21.573575     54.290639
  H      42.205429     22.535055     54.406186
  C      40.389027     21.510740     54.064850
  H      39.795517     22.426681     54.072186
  C      39.641467     20.230792     53.791903
  H      38.911368     20.068572     54.606675
  O      38.957686     20.339946     52.545182
  H      37.963527     20.254182     52.655416
  C      44.025637     20.494767     54.014085
  O      44.732637     19.455592     54.026850
  O      44.411358     21.626012     53.644643
24
Coordinates from ORCA-job neb_MEP.QMRegion E -1076.159997922397
  C      42.654000     20.127000     56.113000
  H      43.340000     19.287000     56.293000
  H      43.050000     21.046000     56.568000
  C      41.303000     19.764000     56.682000
  C      40.332000     20.849000     57.228000
  O      40.829000     21.908000     57.680000
  O      39.113000     20.562000     57.217000
  O      40.921000     18.612000     56.668000
  C      40.598000     19.077000     53.588000
  H      40.155000     18.162000     53.194000
  C      41.892000     19.124000     53.921000
  H      42.542000     18.255000     53.804000
  C      42.538000     20.334000     54.544000
  C      41.692000     21.561000     54.333000
  H      42.184000     22.518000     54.504000
  C      40.389000     21.510000     54.043000
  H      39.797000     22.428000     54.036000
  C      39.648000     20.238000     53.725000
  H      38.948000     20.030000     54.556000
  O      38.917000     20.394000     52.514000
  H      37.928000     20.307000     52.657000
  C      44.007000     20.492000     54.022000
  O      44.720000     19.457000     54.031000
  O      44.380000     21.625000     53.646000
