24
Coordinates from ORCA-job neb_MEP_ALL.QMRegion E -1076.135916675124
  C      42.394000     19.871000     56.917000
  H      43.081000     19.125000     56.517000
  H      42.772000     20.646000     57.583000
  C      41.093000     19.875000     56.600000
  C      40.130000     20.896000     57.181000
  O      40.619000     21.952000     57.663000
  O      38.904000     20.616000     57.157000
  O      40.534000     18.917000     55.790000
  C      40.530000     19.125000     54.332000
  H      40.032000     18.225000     53.947000
  C      41.961000     19.207000     53.905000
  H      42.559000     18.294000     53.866000
  C      42.576000     20.401000     53.813000
  C      41.786000     21.634000     53.919000
  H      42.351000     22.566000     53.920000
  C      40.448000     21.625000     54.039000
  H      39.897000     22.559000     54.169000
  C      39.656000     20.344000     53.957000
  H      38.842000     20.373000     54.696000
  O      39.126000     20.193000     52.642000
  H      38.128000     20.171000     52.669000
  C      44.090000     20.517000     53.728000
  O      44.781000     19.478000     53.903000
  O      44.542000     21.670000     53.521000
24
Coordinates from ORCA-job neb_MEP_ALL.QMRegion E -1076.138160561792
  C      42.434960     19.905400     56.835453
  H      43.119166     19.171408     56.412397
  H      42.829709     20.709412     57.452600
  C      41.122505     19.880839     56.575002
  C      40.161807     20.893233     57.170597
  O      40.653002     21.945802     57.658024
  O      38.935639     20.613362     57.157520
  O      40.554500     18.910572     55.788174
  C      40.529301     19.102373     54.320468
  H      40.033951     18.194208     53.951437
  C      41.953644     19.194860     53.881351
  H      42.555888     18.286804     53.817272
  C      42.562853     20.394932     53.824470
  C      41.765989     21.620631     53.956910
  H      42.323088     22.555847     54.000481
  C      40.425823     21.599549     54.056865
  H      39.865519     22.526797     54.194260
  C      39.643914     20.314793     53.954347
  H      38.833124     20.328634     54.696931
  O      39.111413     20.172428     52.641659
  H      38.113209     20.159660     52.671809
  C      44.077091     20.515004     53.741849
  O      44.769961     19.478201     53.920060
  O      44.529182     21.668003     53.540084
24
Coordinates from ORCA-job neb_MEP_ALL.QMRegion E -1076.137172733596
  C      42.494745     19.961199     56.701013
  H      43.176609     19.233539     56.266537
  H      42.908505     20.824451     57.214993
  C      41.168346     19.886126     56.531012
  C      40.212575     20.886455     57.153955
  O      40.702967     21.935763     57.649181
  O      38.986182     20.606399     57.154932
  O      40.588863     18.896187     55.779760
  C      40.530269     19.065807     54.299249
  H      40.044166     18.144470     53.952676
  C      41.942135     19.179481     53.844742
  H      42.554740     18.282942     53.740266
  C      42.541810     20.386150     53.853412
  C      41.730782     21.599510     54.024399
  H      42.272701     22.538437     54.135829
  C      40.388581     21.560460     54.083240
  H      39.810857     22.477564     54.219360
  C      39.625224     20.267687     53.949780
  H      38.819949     20.254629     54.697094
  O      39.084351     20.149778     52.639677
  H      38.085331     20.153509     52.674474
  C      44.055599     20.512093     53.776618
  O      44.751087     19.475835     53.952162
  O      44.507533     21.664863     53.579613
24
Coordinates from ORCA-job neb_MEP_ALL.QMRegion E -1076.131836882834
  C      42.539998     20.006283     56.598765
  H      43.220583     19.262899     56.190515
  H      42.969710     20.917272     57.010482
  C      41.204003     19.879341     56.513965
  C      40.251504     20.881860     57.146955
  O      40.741967     21.930203     57.645236
  O      39.023782     20.605525     57.153100
  O      40.623492     18.872306     55.790773
  C      40.532752     19.037205     54.261095
  H      40.055704     18.103310     53.931987
  C      41.934331     19.170819     53.820576
  H      42.554401     18.283290     53.691086
  C      42.527796     20.379823     53.912655
  C      41.704600     21.585577     54.087892
  H      42.233116     22.527389     54.236026
  C      40.362043     21.533832     54.098101
  H      39.769425     22.443465     54.221014
  C      39.613028     20.236437     53.936095
  H      38.818865     20.191909     54.691364
  O      39.055204     20.155143     52.629298
  H      38.053618     20.158991     52.672990
  C      44.039164     20.509017     53.822860
  O      44.737321     19.471589     53.979822
  O      44.486871     21.659966     53.610630
24
Coordinates from ORCA-job neb_MEP_ALL.QMRegion E -1076.118880437526
  C      42.563074     20.035728     56.547313
  H      43.238273     19.253107     56.207760
  H      43.000161     20.960819     56.922213
  C      41.212109     19.854529     56.549616
  C      40.259903     20.885082     57.157807
  O      40.751684     21.936972     57.647880
  O      39.030448     20.615589     57.157037
  O      40.652125     18.831029     55.913184
  C      40.534598     19.033214     54.129005
  H      40.056539     18.079441     53.882119
  C      41.925326     19.166191     53.818131
  H      42.550899     18.282381     53.693079
  C      42.525559     20.377586     54.010206
  C      41.699657     21.586117     54.129104
  H      42.225531     22.531203     54.262476
  C      40.358569     21.530891     54.094453
  H      39.760569     22.438604     54.198345
  C      39.612940     20.236461     53.908637
  H      38.835660     20.161872     54.678921
  O      39.030268     20.195580     52.607867
  H      38.026947     20.175745     52.665369
  C      44.035331     20.506240     53.872690
  O      44.734229     19.466285     53.993007
  O      44.472474     21.653095     53.620488
24
Coordinates from ORCA-job neb_MEP_ALL.QMRegion E -1076.115251385145
  C      42.580857     20.059440     56.493236
  H      43.246282     19.239646     56.232741
  H      43.013089     20.976304     56.894698
  C      41.209155     19.833329     56.584666
  C      40.256665     20.890334     57.169894
  O      40.751862     21.943968     57.650313
  O      39.028704     20.623225     57.162174
  O      40.674971     18.797927     56.066959
  C      40.536936     19.038633     53.982742
  H      40.053820     18.070904     53.843198
  C      41.908812     19.158361     53.821473
  H      42.545334     18.280723     53.703665
  C      42.526270     20.379578     54.094840
  C      41.700294     21.590215     54.145538
  H      42.227085     22.535881     54.265589
  C      40.360393     21.532129     54.087243
  H      39.761884     22.440060     54.186349
  C      39.616757     20.239192     53.886517
  H      38.849724     20.149846     54.669658
  O      39.014566     20.224844     52.591796
  H      38.013024     20.185852     52.660812
  C      44.035285     20.505948     53.901513
  O      44.732915     19.463478     53.995872
  O      44.465477     21.648926     53.621144
24
Coordinates from ORCA-job neb_MEP_ALL.QMRegion E -1076.119651567481
  C      42.584305     20.089486     56.347197
  H      43.235039     19.222800     56.247628
  H      43.013329     20.975508     56.820670
  C      41.195517     19.831090     56.586024
  C      40.248592     20.897020     57.173768
  O      40.754412     21.945622     57.649551
  O      39.022719     20.630812     57.166349
  O      40.679503     18.779348     56.174742
  C      40.541575     19.041101     53.912288
  H      40.054729     18.069210     53.826450
  C      41.895441     19.152735     53.842730
  H      42.538720     18.279657     53.719171
  C      42.532064     20.377241     54.239724
  C      41.700045     21.596234     54.171337
  H      42.227282     22.545562     54.258535
  C      40.364096     21.532976     54.085291
  H      39.764636     22.442646     54.168285
  C      39.620533     20.238344     53.881722
  H      38.855166     20.145897     54.668729
  O      39.011012     20.241346     52.589473
  H      38.011137     20.185507     52.660469
  C      44.035929     20.506092     53.937876
  O      44.734270     19.462270     54.001817
  O      44.457869     21.642940     53.623274
24
Coordinates from ORCA-job neb_MEP_ALL.QMRegion E -1076.133713082616
  C      42.582206     20.115176     56.180743
  H      43.217438     19.228035     56.251717
  H      43.006153     20.965808     56.729234
  C      41.184925     19.836380     56.565069
  C      40.247309     20.900120     57.176687
  O      40.760886     21.942190     57.653291
  O      39.023291     20.632733     57.174090
  O      40.683947     18.764073     56.255535
  C      40.551331     19.042349     53.867514
  H      40.060430     18.069743     53.797288
  C      41.891831     19.147805     53.874615
  H      42.536262     18.278246     53.733030
  C      42.544787     20.371356     54.393633
  C      41.703012     21.596171     54.208897
  H      42.225133     22.551398     54.262543
  C      40.371422     21.529057     54.087930
  H      39.769486     22.440342     54.148554
  C      39.625221     20.234131     53.880504
  H      38.859077     20.138932     54.669232
  O      39.008035     20.255601     52.592524
  H      38.009617     20.187884     52.661975
  C      44.037441     20.507414     53.971426
  O      44.736150     19.462455     54.005034
  O      44.447593     21.637881     53.622518
24
Coordinates from ORCA-job neb_MEP_ALL.QMRegion E -1076.153178640939
  C      42.609602     20.129411     56.097412
  H      43.256795     19.257336     56.269432
  H      43.024126     21.002949     56.619466
  C      41.223172     19.808836     56.592798
  C      40.281272     20.881803     57.197242
  O      40.792007     21.927201     57.666416
  O      39.060194     20.606310     57.196244
  O      40.772725     18.694930     56.429197
  C      40.571120     19.053708     53.746948
  H      40.093447     18.093289     53.545811
  C      41.895362     19.137158     53.910730
  H      42.539371     18.266671     53.775919
  C      42.550589     20.355850     54.500860
  C      41.703748     21.582361     54.273901
  H      42.210380     22.543127     54.366365
  C      40.382853     21.519336     54.072349
  H      39.786119     22.435572     54.092411
  C      39.636054     20.233336     53.821934
  H      38.894989     20.093904     54.630848
  O      38.969595     20.321680     52.563461
  H      37.974724     20.237022     52.661957
  C      44.030084     20.502560     54.004082
  O      44.733449     19.460538     54.018998
  O      44.419776     21.632232     53.632843
24
Coordinates from ORCA-job neb_MEP_ALL.QMRegion E -1076.159997922397
  C      42.654000     20.127000     56.113000
  H      43.340000     19.287000     56.293000
  H      43.050000     21.046000     56.568000
  C      41.303000     19.764000     56.682000
  C      40.332000     20.849000     57.228000
  O      40.829000     21.908000     57.680000
  O      39.113000     20.562000     57.217000
  O      40.921000     18.612000     56.668000
  C      40.598000     19.077000     53.588000
  H      40.155000     18.162000     53.194000
  C      41.892000     19.124000     53.921000
  H      42.542000     18.255000     53.804000
  C      42.538000     20.334000     54.544000
  C      41.692000     21.561000     54.333000
  H      42.184000     22.518000     54.504000
  C      40.389000     21.510000     54.043000
  H      39.797000     22.428000     54.036000
  C      39.648000     20.238000     53.725000
  H      38.948000     20.030000     54.556000
  O      38.917000     20.394000     52.514000
  H      37.928000     20.307000     52.657000
  C      44.007000     20.492000     54.022000
  O      44.720000     19.457000     54.031000
  O      44.380000     21.625000     53.646000
24
Coordinates from ORCA-job neb_MEP_ALL.QMRegion E -1076.135916675124
  C      42.394000     19.871000     56.917000
  H      43.081000     19.125000     56.517000
  H      42.772000     20.646000     57.583000
  C      41.093000     19.875000     56.600000
  C      40.130000     20.896000     57.181000
  O      40.619000     21.952000     57.663000
  O      38.904000     20.616000     57.157000
  O      40.534000     18.917000     55.790000
  C      40.530000     19.125000     54.332000
  H      40.032000     18.225000     53.947000
  C      41.961000     19.207000     53.905000
  H      42.559000     18.294000     53.866000
  C      42.576000     20.401000     53.813000
  C      41.786000     21.634000     53.919000
  H      42.351000     22.566000     53.920000
  C      40.448000     21.625000     54.039000
  H      39.897000     22.559000     54.169000
  C      39.656000     20.344000     53.957000
  H      38.842000     20.373000     54.696000
  O      39.126000     20.193000     52.642000
  H      38.128000     20.171000     52.669000
  C      44.090000     20.517000     53.728000
  O      44.781000     19.478000     53.903000
  O      44.542000     21.670000     53.521000
24
Coordinates from ORCA-job neb_MEP_ALL.QMRegion E -1076.138179414899
  C      42.435588     19.906093     56.835144
  H      43.120266     19.171095     56.411079
  H      42.831451     20.710963     57.454218
  C      41.122202     19.879765     56.573725
  C      40.162485     20.893272     57.171859
  O      40.652709     21.946752     57.658487
  O      38.936534     20.613447     57.157418
  O      40.553258     18.908831     55.785277
  C      40.529000     19.102151     54.322436
  H      40.034198     18.194483     53.952115
  C      41.953378     19.194927     53.880508
  H      42.555828     18.286495     53.816685
  C      42.562975     20.394762     53.823053
  C      41.766269     21.620255     53.957086
  H      42.322846     22.555777     53.999824
  C      40.425662     21.599226     54.056715
  H      39.864879     22.527182     54.195188
  C      39.644005     20.313078     53.954508
  H      38.832847     20.328310     54.697218
  O      39.111257     20.172074     52.640670
  H      38.112758     20.159111     52.671873
  C      44.077577     20.515389     53.743934
  O      44.769480     19.477163     53.918608
  O      44.528397     21.668616     53.538551
24
Coordinates from ORCA-job neb_MEP_ALL.QMRegion E -1076.137205983533
  C      42.497152     19.963091     56.698612
  H      43.179496     19.233824     56.262307
  H      42.912727     20.829475     57.213664
  C      41.168939     19.884336     56.529027
  C      40.213828     20.887655     57.154227
  O      40.704299     21.936657     57.650122
  O      38.988040     20.605409     57.154914
  O      40.587118     18.891859     55.778172
  C      40.529845     19.064549     54.299863
  H      40.044338     18.143041     53.953112
  C      41.942843     19.180187     53.841711
  H      42.554590     18.281915     53.737848
  C      42.542488     20.386925     53.851709
  C      41.730348     21.598607     54.025515
  H      42.270919     22.537496     54.136396
  C      40.387730     21.559714     54.083765
  H      39.808838     22.475953     54.221445
  C      39.624047     20.266761     53.948787
  H      38.819347     20.252168     54.697837
  O      39.083170     20.148243     52.637389
  H      38.083948     20.152422     52.674663
  C      44.055385     20.512479     53.780436
  O      44.749751     19.474115     53.949788
  O      44.504902     21.665552     53.577404
24
Coordinates from ORCA-job neb_MEP_ALL.QMRegion E -1076.131812730816
  C      42.542461     20.007644     56.598513
  H      43.222968     19.260652     56.191833
  H      42.973843     20.922660     57.009375
  C      41.204337     19.876353     56.514462
  C      40.251969     20.883113     57.146858
  O      40.742449     21.930820     57.646580
  O      39.024582     20.605447     57.153848
  O      40.621211     18.865012     55.798765
  C      40.533159     19.037227     54.251498
  H      40.055944     18.101898     53.929055
  C      41.935827     19.171602     53.819734
  H      42.554184     18.282267     53.690865
  C      42.529006     20.380905     53.915242
  C      41.704832     21.585152     54.090936
  H      42.232274     22.527201     54.234898
  C      40.361912     21.533773     54.097819
  H      39.768340     22.442282     54.219751
  C      39.611973     20.237560     53.933439
  H      38.819133     20.189288     54.691505
  O      39.053044     20.157180     52.626022
  H      38.051434     20.159767     52.672542
  C      44.039417     20.509117     53.829406
  O      44.736541     19.469735     53.977996
  O      44.483777     21.659987     53.608443
24
Coordinates from ORCA-job neb_MEP_ALL.QMRegion E -1076.118863161736
  C      42.564085     20.035916     56.548639
  H      43.238796     19.251314     56.210727
  H      43.001092     20.961842     56.926967
  C      41.211952     19.852602     56.549801
  C      40.259578     20.885220     57.158161
  O      40.750315     21.937510     57.648623
  O      39.030202     20.616274     57.157614
  O      40.650522     18.828095     55.918329
  C      40.534955     19.033579     54.123169
  H      40.056418     18.079564     53.880801
  C      41.925946     19.166333     53.818632
  H      42.550720     18.281984     53.693743
  C      42.526379     20.378246     54.009874
  C      41.700181     21.586041     54.129589
  H      42.226015     22.531022     54.260277
  C      40.358861     21.531109     54.093509
  H      39.760873     22.438676     54.197597
  C      39.612782     20.236944     53.907663
  H      38.835521     20.161634     54.678976
  O      39.029690     20.196922     52.606438
  H      38.026436     20.176504     52.665141
  C      44.036075     20.506457     53.875428
  O      44.734231     19.465380     53.991548
  O      44.471404     21.653032     53.618889
24
Coordinates from ORCA-job neb_MEP_ALL.QMRegion E -1076.115260158404
  C      42.581369     20.059772     56.492676
  H      43.246934     19.239538     56.233919
  H      43.013323     20.976006     56.895969
  C      41.209447     19.833183     56.584815
  C      40.256871     20.889906     57.170526
  O      40.751806     21.944071     57.650245
  O      39.029001     20.623270     57.162088
  O      40.675569     18.797328     56.068720
  C      40.537104     19.038361     53.980393
  H      40.053754     18.070558     53.842167
  C      41.908882     19.158214     53.821859
  H      42.545041     18.280590     53.703558
  C      42.526351     20.379636     54.095474
  C      41.700152     21.590041     54.145878
  H      42.226905     22.535645     54.264799
  C      40.360307     21.531891     54.086734
  H      39.761647     22.439678     54.186446
  C      39.616891     20.238889     53.886141
  H      38.849596     20.149246     54.669202
  O      39.014089     20.225146     52.591420
  H      38.012462     20.186118     52.660537
  C      44.035308     20.505894     53.901901
  O      44.732978     19.463345     53.995199
  O      44.465091     21.648775     53.620641
24
Coordinates from ORCA-job neb_MEP_ALL.QMRegion E -1076.119630874349
  C      42.586732     20.089584     56.352628
  H      43.238669     19.224111     56.247955
  H      43.016095     20.978752     56.827875
  C      41.198049     19.827419     56.585668
  C      40.250082     20.896798     57.174302
  O      40.755014     21.946257     57.650870
  O      39.024338     20.628834     57.166538
  O      40.679574     18.777484     56.167872
  C      40.542233     19.040333     53.914269
  H      40.054923     18.069313     53.820683
  C      41.896760     19.152444     53.843805
  H      42.539028     18.279543     53.717902
  C      42.532315     20.376583     54.233019
  C      41.700249     21.594933     54.170495
  H      42.226346     22.543851     54.261585
  C      40.363875     21.532335     54.084919
  H      39.764104     22.441258     54.169199
  C      39.620222     20.238299     53.879973
  H      38.855083     20.144428     54.667077
  O      39.009748     20.241181     52.589171
  H      38.009643     20.187242     52.659590
  C      44.035721     20.505857     53.934312
  O      44.733732     19.461984     54.001225
  O      44.457450     21.643635     53.623163
24
Coordinates from ORCA-job neb_MEP_ALL.QMRegion E -1076.133708294856
  C      42.588683     20.115830     56.191848
  H      43.222614     19.223272     56.253827
  H      43.011676     20.975410     56.743658
  C      41.182338     19.821453     56.569494
  C      40.245480     20.902256     57.176999
  O      40.762348     21.945035     57.654730
  O      39.023721     20.630580     57.173351
  O      40.686074     18.767116     56.253189
  C      40.548758     19.041456     53.870158
  H      40.060658     18.070098     53.790487
  C      41.892672     19.147407     53.869437
  H      42.536706     18.277597     53.733326
  C      42.542829     20.371315     54.382813
  C      41.702521     21.596053     54.203228
  H      42.224868     22.549974     54.265352
  C      40.369842     21.529173     54.088107
  H      39.769387     22.439516     54.149265
  C      39.624808     20.235712     53.877264
  H      38.860501     20.137569     54.666923
  O      39.006703     20.256063     52.589510
  H      38.007591     20.189510     52.661251
  C      44.036552     20.505883     53.964524
  O      44.735381     19.461923     54.006408
  O      44.447945     21.639343     53.624223
24
Coordinates from ORCA-job neb_MEP_ALL.QMRegion E -1076.153236377805
  C      42.610229     20.129288     56.096291
  H      43.254373     19.256551     56.268999
  H      43.024580     21.006353     56.615701
  C      41.226508     19.812550     56.592633
  C      40.279148     20.884367     57.197099
  O      40.794060     21.927956     57.666908
  O      39.057045     20.605756     57.196232
  O      40.768328     18.688990     56.433527
  C      40.570749     19.053370     53.747946
  H      40.093975     18.093225     53.543504
  C      41.895194     19.136867     53.910762
  H      42.539852     18.265973     53.778042
  C      42.551364     20.356772     54.499305
  C      41.704412     21.582911     54.275241
  H      42.210311     22.542971     54.366258
  C      40.383312     21.519073     54.074595
  H      39.787075     22.434167     54.090831
  C      39.635652     20.234373     53.820752
  H      38.896134     20.093227     54.630808
  O      38.969303     20.322229     52.562976
  H      37.974517     20.237320     52.662032
  C      44.028525     20.501970     54.004270
  O      44.733849     19.461045     54.020056
  O      44.419205     21.631665     53.633938
24
Coordinates from ORCA-job neb_MEP_ALL.QMRegion E -1076.159997922397
  C      42.654000     20.127000     56.113000
  H      43.340000     19.287000     56.293000
  H      43.050000     21.046000     56.568000
  C      41.303000     19.764000     56.682000
  C      40.332000     20.849000     57.228000
  O      40.829000     21.908000     57.680000
  O      39.113000     20.562000     57.217000
  O      40.921000     18.612000     56.668000
  C      40.598000     19.077000     53.588000
  H      40.155000     18.162000     53.194000
  C      41.892000     19.124000     53.921000
  H      42.542000     18.255000     53.804000
  C      42.538000     20.334000     54.544000
  C      41.692000     21.561000     54.333000
  H      42.184000     22.518000     54.504000
  C      40.389000     21.510000     54.043000
  H      39.797000     22.428000     54.036000
  C      39.648000     20.238000     53.725000
  H      38.948000     20.030000     54.556000
  O      38.917000     20.394000     52.514000
  H      37.928000     20.307000     52.657000
  C      44.007000     20.492000     54.022000
  O      44.720000     19.457000     54.031000
  O      44.380000     21.625000     53.646000
24
Coordinates from ORCA-job neb_MEP_ALL.QMRegion E -1076.135916675124
  C      42.394000     19.871000     56.917000
  H      43.081000     19.125000     56.517000
  H      42.772000     20.646000     57.583000
  C      41.093000     19.875000     56.600000
  C      40.130000     20.896000     57.181000
  O      40.619000     21.952000     57.663000
  O      38.904000     20.616000     57.157000
  O      40.534000     18.917000     55.790000
  C      40.530000     19.125000     54.332000
  H      40.032000     18.225000     53.947000
  C      41.961000     19.207000     53.905000
  H      42.559000     18.294000     53.866000
  C      42.576000     20.401000     53.813000
  C      41.786000     21.634000     53.919000
  H      42.351000     22.566000     53.920000
  C      40.448000     21.625000     54.039000
  H      39.897000     22.559000     54.169000
  C      39.656000     20.344000     53.957000
  H      38.842000     20.373000     54.696000
  O      39.126000     20.193000     52.642000
  H      38.128000     20.171000     52.669000
  C      44.090000     20.517000     53.728000
  O      44.781000     19.478000     53.903000
  O      44.542000     21.670000     53.521000
24
Coordinates from ORCA-job neb_MEP_ALL.QMRegion E -1076.138218331293
  C      42.436471     19.907018     56.834506
  H      43.121760     19.171084     56.409185
  H      42.833800     20.712747     57.456180
  C      41.122351     19.878337     56.572131
  C      40.163536     20.893160     57.173317
  O      40.652431     21.947897     57.659182
  O      38.937768     20.613521     57.157405
  O      40.551921     18.906801     55.782201
  C      40.528658     19.101558     54.324334
  H      40.034535     18.194789     53.953037
  C      41.953090     19.194853     53.879249
  H      42.555629     18.286133     53.815730
  C      42.563141     20.394516     53.821249
  C      41.766313     21.619743     53.957209
  H      42.322473     22.555655     53.998817
  C      40.425358     21.598715     54.056592
  H      39.864053     22.527376     54.196628
  C      39.643858     20.311167     53.954583
  H      38.832466     20.327718     54.697526
  O      39.111020     20.171361     52.639573
  H      38.112181     20.158218     52.671908
  C      44.078050     20.515868     53.746183
  O      44.768823     19.475964     53.916596
  O      44.527365     21.669229     53.536552
24
Coordinates from ORCA-job neb_MEP_ALL.QMRegion E -1076.137208194574
  C      42.500834     19.966163     56.694374
  H      43.183811     19.235058     56.255842
  H      42.918924     20.836487     57.210015
  C      41.170790     19.881919     56.526392
  C      40.216261     20.888582     57.154168
  O      40.706431     21.937666     57.651401
  O      38.991027     20.604188     57.155079
  O      40.585697     18.886313     55.776694
  C      40.529468     19.062555     54.299477
  H      40.044660     18.140622     53.953463
  C      41.943443     19.180635     53.837336
  H      42.554232     18.280680     53.733828
  C      42.542979     20.387658     53.849942
  C      41.729082     21.597217     54.027279
  H      42.268130     22.536266     54.137680
  C      40.386244     21.558181     54.084544
  H      39.805594     22.473269     54.224733
  C      39.622188     20.264918     53.947314
  H      38.818490     20.248107     54.698600
  O      39.081215     20.145930     52.634481
  H      38.081691     20.150712     52.674746
  C      44.054884     20.512994     53.784956
  O      44.747743     19.472061     53.946603
  O      44.501262     21.666293     53.574671
24
Coordinates from ORCA-job neb_MEP_ALL.QMRegion E -1076.131276177469
  C      42.545927     20.009848     56.598037
  H      43.226333     19.257701     56.194540
  H      42.979543     20.929675     57.007119
  C      41.205308     19.871816     56.515988
  C      40.252977     20.884235     57.146765
  O      40.743104     21.931665     57.648392
  O      39.025726     20.605645     57.154980
  O      40.619101     18.855545     55.809536
  C      40.533703     19.037028     54.238124
  H      40.056340     18.099620     53.924077
  C      41.937573     19.172277     53.818549
  H      42.553859     18.280970     53.690585
  C      42.530461     20.382040     53.920293
  C      41.704739     21.584518     54.095252
  H      42.231178     22.527218     54.233287
  C      40.361778     21.533494     54.097246
  H      39.766668     22.440721     54.217728
  C      39.610566     20.238586     53.929526
  H      38.819843     20.185274     54.691222
  O      39.049734     20.160653     52.621489
  H      38.047920     20.161059     52.671635
  C      44.039697     20.509241     53.837806
  O      44.735520     19.467423     53.975739
  O      44.479712     21.659853     53.605752
24
Coordinates from ORCA-job neb_MEP_ALL.QMRegion E -1076.118654757508
  C      42.565447     20.036281     56.550645
  H      43.239619     19.248817     56.215542
  H      43.002163     20.962658     56.933975
  C      41.211733     19.849831     56.550754
  C      40.259123     20.885371     57.158774
  O      40.748504     21.938224     57.649595
  O      39.029708     20.617142     57.158372
  O      40.649016     18.824288     55.926661
  C      40.535485     19.034276     54.113835
  H      40.056213     18.079544     53.878464
  C      41.926521     19.166329     53.819170
  H      42.550481     18.281395     53.694810
  C      42.527421     20.379020     54.010339
  C      41.700760     21.585911     54.130010
  H      42.226820     22.530895     54.256952
  C      40.359386     21.531346     54.092128
  H      39.761334     22.438811     54.196434
  C      39.612612     20.237569     53.906042
  H      38.835560     20.161203     54.678749
  O      39.028726     20.199086     52.604449
  H      38.025553     20.177709     52.664673
  C      44.037042     20.506594     53.878596
  O      44.734286     19.464327     53.989611
  O      44.470146     21.652945     53.616794
24
Coordinates from ORCA-job neb_MEP_ALL.QMRegion E -1076.115284570118
  C      42.582673     20.061319     56.488096
  H      43.247922     19.238795     56.236608
  H      43.013964     20.975841     56.896119
  C      41.209549     19.832311     56.585916
  C      40.256952     20.889568     57.171669
  O      40.751823     21.944421     57.650240
  O      39.029273     20.623578     57.162171
  O      40.677143     18.795440     56.076784
  C      40.537488     19.038174     53.972338
  H      40.053642     18.069798     53.839378
  C      41.908276     19.157656     53.822760
  H      42.544407     18.280287     53.703905
  C      42.526623     20.379697     54.101022
  C      41.699940     21.589943     54.147086
  H      42.226697     22.535628     54.263472
  C      40.360247     21.531540     54.085822
  H      39.761352     22.439143     54.185991
  C      39.617137     20.238437     53.884880
  H      38.849861     20.147960     54.668244
  O      39.012929     20.226549     52.590421
  H      38.011268     20.186756     52.660011
  C      44.035346     20.505774     53.903622
  O      44.733060     19.463088     53.994339
  O      44.464272     21.648411     53.619924
24
Coordinates from ORCA-job neb_MEP_ALL.QMRegion E -1076.119434318737
  C      42.590471     20.089938     56.361977
  H      43.244396     19.226342     56.248458
  H      43.019608     20.982423     56.838348
  C      41.201745     19.822869     56.585268
  C      40.252720     20.895755     57.175069
  O      40.755716     21.946522     57.652489
  O      39.027078     20.626080     57.166893
  O      40.680560     18.775350     56.157903
  C      40.542847     19.039394     53.916676
  H      40.055302     18.069444     53.811902
  C      41.898520     19.151771     53.844924
  H      42.539643     18.279204     53.715998
  C      42.532672     20.375930     54.222788
  C      41.700183     21.592863     54.169219
  H      42.225051     22.541390     54.266194
  C      40.363666     21.531171     54.084249
  H      39.763242     22.439251     54.170637
  C      39.619866     20.237847     53.877688
  H      38.854984     20.142196     54.664537
  O      39.007776     20.240922     52.588292
  H      38.007348     20.189869     52.658382
  C      44.035376     20.505473     53.929396
  O      44.733077     19.461629     54.000009
  O      44.456890     21.644559     53.622745
24
Coordinates from ORCA-job neb_MEP_ALL.QMRegion E -1076.132383034185
  C      42.597318     20.117082     56.206105
  H      43.230176     19.217976     56.257176
  H      43.018670     20.986824     56.762052
  C      41.185772     19.813308     56.577921
  C      40.245100     20.904083     57.178292
  O      40.763351     21.947495     57.656018
  O      39.023938     20.628117     57.172659
  O      40.684849     18.760596     56.248571
  C      40.547208     19.040925     53.871525
  H      40.060695     18.070223     53.779173
  C      41.891933     19.146628     53.863575
  H      42.537396     18.276415     53.733760
  C      42.541140     20.371105     54.370275
  C      41.701493     21.595437     54.196309
  H      42.224374     22.548022     54.269812
  C      40.368399     21.529055     54.087745
  H      39.768891     22.438624     54.150082
  C      39.624125     20.237059     53.872634
  H      38.862373     20.135401     54.663252
  O      39.004309     20.257128     52.585326
  H      38.004623     20.192237     52.659997
  C      44.035038     20.504530     53.956184
  O      44.734409     19.461117     54.007720
  O      44.448188     21.640687     53.626230
24
Coordinates from ORCA-job neb_MEP_ALL.QMRegion E -1076.153186914404
  C      42.610965     20.129655     56.095498
  H      43.250777     19.254740     56.268237
  H      43.025107     21.010975     56.610792
  C      41.226561     19.812123     56.592109
  C      40.275956     20.887523     57.196281
  O      40.795866     21.928900     57.667495
  O      39.053589     20.606103     57.196229
  O      40.764434     18.687466     56.439479
  C      40.570084     19.052971     53.750216
  H      40.094485     18.092969     53.541955
  C      41.894959     19.136563     53.910444
  H      42.540454     18.265104     53.781055
  C      42.551800     20.357505     54.496133
  C      41.705069     21.583508     54.276386
  H      42.210544     22.543187     54.365380
  C      40.384084     21.518488     54.077775
  H      39.788206     22.432466     54.088966
  C      39.635302     20.235358     53.819866
  H      38.897544     20.092575     54.630928
  O      38.969253     20.322699     52.562436
  H      37.974392     20.237426     52.662087
  C      44.027046     20.501247     54.004020
  O      44.734220     19.461706     54.021653
  O      44.418507     21.631051     53.635511
24
Coordinates from ORCA-job neb_MEP_ALL.QMRegion E -1076.159997922397
  C      42.654000     20.127000     56.113000
  H      43.340000     19.287000     56.293000
  H      43.050000     21.046000     56.568000
  C      41.303000     19.764000     56.682000
  C      40.332000     20.849000     57.228000
  O      40.829000     21.908000     57.680000
  O      39.113000     20.562000     57.217000
  O      40.921000     18.612000     56.668000
  C      40.598000     19.077000     53.588000
  H      40.155000     18.162000     53.194000
  C      41.892000     19.124000     53.921000
  H      42.542000     18.255000     53.804000
  C      42.538000     20.334000     54.544000
  C      41.692000     21.561000     54.333000
  H      42.184000     22.518000     54.504000
  C      40.389000     21.510000     54.043000
  H      39.797000     22.428000     54.036000
  C      39.648000     20.238000     53.725000
  H      38.948000     20.030000     54.556000
  O      38.917000     20.394000     52.514000
  H      37.928000     20.307000     52.657000
  C      44.007000     20.492000     54.022000
  O      44.720000     19.457000     54.031000
  O      44.380000     21.625000     53.646000
24
Coordinates from ORCA-job neb_MEP_ALL.QMRegion E -1076.135916675124
  C      42.394000     19.871000     56.917000
  H      43.081000     19.125000     56.517000
  H      42.772000     20.646000     57.583000
  C      41.093000     19.875000     56.600000
  C      40.130000     20.896000     57.181000
  O      40.619000     21.952000     57.663000
  O      38.904000     20.616000     57.157000
  O      40.534000     18.917000     55.790000
  C      40.530000     19.125000     54.332000
  H      40.032000     18.225000     53.947000
  C      41.961000     19.207000     53.905000
  H      42.559000     18.294000     53.866000
  C      42.576000     20.401000     53.813000
  C      41.786000     21.634000     53.919000
  H      42.351000     22.566000     53.920000
  C      40.448000     21.625000     54.039000
  H      39.897000     22.559000     54.169000
  C      39.656000     20.344000     53.957000
  H      38.842000     20.373000     54.696000
  O      39.126000     20.193000     52.642000
  H      38.128000     20.171000     52.669000
  C      44.090000     20.517000     53.728000
  O      44.781000     19.478000     53.903000
  O      44.542000     21.670000     53.521000
24
Coordinates from ORCA-job neb_MEP_ALL.QMRegion E -1076.138202025731
  C      42.439989     19.909130     56.831903
  H      43.125141     19.174128     56.404192
  H      42.838502     20.713905     57.458116
  C      41.125394     19.876151     56.570004
  C      40.166778     20.892183     57.174740
  O      40.652841     21.948603     57.660835
  O      38.940860     20.613168     57.158218
  O      40.551947     18.904743     55.781539
  C      40.528691     19.099585     54.323149
  H      40.034845     18.194021     53.954669
  C      41.952738     19.193907     53.875745
  H      42.554606     18.285416     53.812382
  C      42.562846     20.393788     53.818466
  C      41.764697     21.618609     53.956505
  H      42.321091     22.554968     53.995891
  C      40.423647     21.597091     54.056957
  H      39.862507     22.525400     54.201078
  C      39.642152     20.309326     53.953897
  H      38.831469     20.325275     54.697641
  O      39.109998     20.168173     52.638835
  H      38.111229     20.155183     52.671566
  C      44.077559     20.516143     53.746334
  O      44.767451     19.474982     53.912150
  O      44.525613     21.669344     53.532987
24
Coordinates from ORCA-job neb_MEP_ALL.QMRegion E -1076.137031157808
  C      42.513848     19.976537     56.677013
  H      43.196448     19.244361     56.236414
  H      42.936118     20.853846     57.185825
  C      41.181276     19.877037     56.521240
  C      40.227155     20.886812     57.152018
  O      40.713745     21.936693     57.653141
  O      39.001725     20.602216     57.156496
  O      40.590890     18.876934     55.778186
  C      40.529880     19.055782     54.289533
  H      40.046113     18.131132     53.951612
  C      41.942115     19.178418     53.826069
  H      42.552541     18.278896     53.719234
  C      42.540166     20.386534     53.851504
  C      41.722232     21.593026     54.033674
  H      42.258744     22.533607     54.145341
  C      40.379019     21.550969     54.086882
  H      39.794700     22.463125     54.234701
  C      39.616773     20.256293     53.942975
  H      38.816347     20.233182     54.698205
  O      39.073692     20.139757     52.629688
  H      38.073665     20.145586     52.673449
  C      44.051295     20.513439     53.789805
  O      44.742309     19.469731     53.940800
  O      44.493292     21.666846     53.571404
24
Coordinates from ORCA-job neb_MEP_ALL.QMRegion E -1076.130178179917
  C      42.554232     20.015302     56.596728
  H      43.234034     19.252738     56.207134
  H      42.991508     20.941546     56.998700
  C      41.209905     19.859553     56.524540
  C      40.257113     20.883429     57.147937
  O      40.744465     21.932211     57.651223
  O      39.028968     20.607744     57.157674
  O      40.622492     18.840105     55.831524
  C      40.534768     19.034810     54.207609
  H      40.057888     18.092801     53.907208
  C      41.938940     19.171440     53.816016
  H      42.553272     18.278716     53.690077
  C      42.531723     20.381686     53.940594
  C      41.703224     21.583313     54.104962
  H      42.228998     22.528635     54.228872
  C      40.360201     21.531432     54.094768
  H      39.762165     22.437475     54.211323
  C      39.608319     20.237455     53.919486
  H      38.823480     20.173966     54.687268
  O      39.040213     20.172535     52.611963
  H      38.037116     20.165422     52.667597
  C      44.039606     20.508921     53.850863
  O      44.733865     19.464500     53.972629
  O      44.472796     21.658737     53.602135
24
Coordinates from ORCA-job neb_MEP_ALL.QMRegion E -1076.118270486596
  C      42.569027     20.037957     56.553240
  H      43.242126     19.243097     56.232234
  H      43.003323     20.960666     56.951324
  C      41.210833     19.842815     56.559037
  C      40.257323     20.885571     57.161535
  O      40.745355     21.939754     57.651283
  O      39.027994     20.618715     57.159770
  O      40.651705     18.816616     55.958555
  C      40.536710     19.036643     54.079643
  H      40.055640     18.078157     53.868534
  C      41.925159     19.164687     53.819461
  H      42.549810     18.279701     53.698554
  C      42.529103     20.379584     54.021500
  C      41.701940     21.586019     54.129796
  H      42.229344     22.531387     54.247488
  C      40.360533     21.531526     54.088346
  H      39.762778     22.439183     54.192490
  C      39.612912     20.238812     53.899932
  H      38.837740     20.159046     54.675758
  O      39.024852     20.206897     52.599414
  H      38.021945     20.181731     52.662413
  C      44.038608     20.506383     53.882169
  O      44.734968     19.463110     53.985972
  O      44.468626     21.652251     53.613044
24
Coordinates from ORCA-job neb_MEP_ALL.QMRegion E -1076.115356815896
  C      42.586544     20.066232     56.475262
  H      43.251449     19.236171     56.244964
  H      43.015927     20.975227     56.897501
  C      41.210416     19.829657     56.590323
  C      40.257833     20.890260     57.174449
  O      40.751966     21.944520     57.650238
  O      39.029485     20.623731     57.162622
  O      40.681732     18.789160     56.100290
  C      40.538195     19.037633     53.949306
  H      40.053734     18.067779     53.830373
  C      41.905897     19.155605     53.824607
  H      42.542922     18.278997     53.704976
  C      42.527317     20.379527     54.118337
  C      41.699219     21.589516     54.149714
  H      42.226181     22.535917     54.259289
  C      40.360017     21.530093     54.083578
  H      39.760334     22.437327     54.184539
  C      39.617280     20.236866     53.880035
  H      38.851035     20.143730     54.665094
  O      39.009114     20.230775     52.587280
  H      38.007742     20.188768     52.658441
  C      44.035381     20.505722     53.907441
  O      44.733362     19.462261     53.991928
  O      44.462194     21.647440     53.617999
24
Coordinates from ORCA-job neb_MEP_ALL.QMRegion E -1076.119050272639
  C      42.600813     20.091588     56.385617
  H      43.261750     19.234005     56.251344
  H      43.026408     20.986874     56.861763
  C      41.212360     19.815937     56.585529
  C      40.261461     20.888991     57.177276
  O      40.757644     21.943477     57.655011
  O      39.036076     20.619517     57.168602
  O      40.690000     18.772050     56.140701
  C      40.542916     19.037474     53.913263
  H      40.057035     18.069623     53.784308
  C      41.901382     19.148931     53.846143
  H      42.541919     18.276930     53.711722
  C      42.533266     20.374782     54.202749
  C      41.699249     21.587622     54.167526
  H      42.221732     22.535330     54.279216
  C      40.362357     21.526761     54.081536
  H      39.760851     22.433744     54.173815
  C      39.619453     20.234762     53.871601
  H      38.855208     20.135125     54.657039
  O      39.001557     20.241455     52.583202
  H      38.000152     20.197673     52.655660
  C      44.034520     20.504706     53.920689
  O      44.732252     19.460970     53.994854
  O      44.455131     21.645775     53.620145
24
Coordinates from ORCA-job neb_MEP_ALL.QMRegion E -1076.130919134140
  C      42.616404     20.118606     56.249370
  H      43.250945     19.215493     56.267449
  H      43.032388     21.001792     56.801768
  C      41.195409     19.786221     56.589891
  C      40.251528     20.897705     57.184534
  O      40.761060     21.948273     57.656539
  O      39.029234     20.625765     57.172258
  O      40.698895     18.763861     56.245321
  C      40.544004     19.040276     53.864328
  H      40.060112     18.070656     53.742144
  C      41.891495     19.144709     53.856435
  H      42.538135     18.273284     53.733927
  C      42.538689     20.369239     54.339808
  C      41.699872     21.591940     54.184460
  H      42.222024     22.542417     54.283515
  C      40.365680     21.527305     54.082162
  H      39.765722     22.437380     54.152367
  C      39.622247     20.236020     53.860240
  H      38.865754     20.128576     54.651806
  O      38.996353     20.261224     52.575185
  H      37.996092     20.201502     52.655406
  C      44.031821     20.502567     53.943583
  O      44.731299     19.460403     54.006164
  O      44.447752     21.641033     53.627784
24
Coordinates from ORCA-job neb_MEP_ALL.QMRegion E -1076.153080060694
  C      42.609640     20.131783     56.097566
  H      43.241970     19.246613     56.266008
  H      43.026088     21.021604     56.603134
  C      41.213933     19.807342     56.593240
  C      40.270053     20.892640     57.191907
  O      40.793118     21.929869     57.667553
  O      39.047839     20.613426     57.196085
  O      40.757134     18.696239     56.448829
  C      40.567610     19.051550     53.759347
  H      40.094295     18.091689     53.547476
  C      41.893837     19.135686     53.907380
  H      42.541205     18.263692     53.788506
  C      42.550138     20.356326     54.484937
  C      41.706451     21.584095     54.273829
  H      42.212754     22.545455     54.359398
  C      40.384468     21.516365     54.084263
  H      39.789662     22.429898     54.087001
  C      39.636100     20.234809     53.822184
  H      38.899328     20.092570     54.631991
  O      38.971299     20.322219     52.562293
  H      37.974986     20.236192     52.661626
  C      44.026031     20.500124     54.000273
  O      44.734811     19.461892     54.025899
  O      44.418482     21.631925     53.639029
24
Coordinates from ORCA-job neb_MEP_ALL.QMRegion E -1076.159997922397
  C      42.654000     20.127000     56.113000
  H      43.340000     19.287000     56.293000
  H      43.050000     21.046000     56.568000
  C      41.303000     19.764000     56.682000
  C      40.332000     20.849000     57.228000
  O      40.829000     21.908000     57.680000
  O      39.113000     20.562000     57.217000
  O      40.921000     18.612000     56.668000
  C      40.598000     19.077000     53.588000
  H      40.155000     18.162000     53.194000
  C      41.892000     19.124000     53.921000
  H      42.542000     18.255000     53.804000
  C      42.538000     20.334000     54.544000
  C      41.692000     21.561000     54.333000
  H      42.184000     22.518000     54.504000
  C      40.389000     21.510000     54.043000
  H      39.797000     22.428000     54.036000
  C      39.648000     20.238000     53.725000
  H      38.948000     20.030000     54.556000
  O      38.917000     20.394000     52.514000
  H      37.928000     20.307000     52.657000
  C      44.007000     20.492000     54.022000
  O      44.720000     19.457000     54.031000
  O      44.380000     21.625000     53.646000
24
Coordinates from ORCA-job neb_MEP_ALL.QMRegion E -1076.135916675124
  C      42.394000     19.871000     56.917000
  H      43.081000     19.125000     56.517000
  H      42.772000     20.646000     57.583000
  C      41.093000     19.875000     56.600000
  C      40.130000     20.896000     57.181000
  O      40.619000     21.952000     57.663000
  O      38.904000     20.616000     57.157000
  O      40.534000     18.917000     55.790000
  C      40.530000     19.125000     54.332000
  H      40.032000     18.225000     53.947000
  C      41.961000     19.207000     53.905000
  H      42.559000     18.294000     53.866000
  C      42.576000     20.401000     53.813000
  C      41.786000     21.634000     53.919000
  H      42.351000     22.566000     53.920000
  C      40.448000     21.625000     54.039000
  H      39.897000     22.559000     54.169000
  C      39.656000     20.344000     53.957000
  H      38.842000     20.373000     54.696000
  O      39.126000     20.193000     52.642000
  H      38.128000     20.171000     52.669000
  C      44.090000     20.517000     53.728000
  O      44.781000     19.478000     53.903000
  O      44.542000     21.670000     53.521000
24
Coordinates from ORCA-job neb_MEP_ALL.QMRegion E -1076.138316920624
  C      42.444345     19.911433     56.829030
  H      43.129004     19.178190     56.398651
  H      42.842756     20.713775     57.458347
  C      41.128850     19.875397     56.569214
  C      40.170083     20.891207     57.175488
  O      40.654197     21.948037     57.662193
  O      38.944262     20.612275     57.159197
  O      40.553746     18.903742     55.782052
  C      40.529042     19.098642     54.321076
  H      40.034579     18.191770     53.955695
  C      41.952107     19.192991     53.872162
  H      42.553682     18.284361     53.808402
  C      42.561666     20.393100     53.816385
  C      41.762795     21.617408     53.955329
  H      42.319241     22.553919     53.992957
  C      40.421651     21.595224     54.057520
  H      39.860845     22.522698     54.205948
  C      39.640621     20.307341     53.953236
  H      38.830294     20.322302     54.697550
  O      39.108745     20.164525     52.638534
  H      38.110152     20.151783     52.671036
  C      44.076329     20.515958     53.743957
  O      44.766313     19.474576     53.908119
  O      44.524240     21.669243     53.530100
24
Coordinates from ORCA-job neb_MEP_ALL.QMRegion E -1076.136450957400
  C      42.529046     19.988019     56.656216
  H      43.210820     19.255932     56.215779
  H      42.954491     20.872187     57.152836
  C      41.193714     19.873028     56.516955
  C      40.239553     20.884024     57.150228
  O      40.723121     21.933695     57.653598
  O      39.014285     20.600127     57.157720
  O      40.600946     18.869454     55.780294
  C      40.530515     19.047756     54.277072
  H      40.048012     18.119362     53.947483
  C      41.939572     19.175244     53.814824
  H      42.550884     18.277208     53.702419
  C      42.535445     20.384418     53.856943
  C      41.713806     21.588496     54.041833
  H      42.247739     22.530705     54.155879
  C      40.370002     21.542266     54.089438
  H      39.782278     22.451092     54.244436
  C      39.611494     20.245782     53.938142
  H      38.814337     20.215232     54.696531
  O      39.064556     20.134307     52.625648
  H      38.063906     20.140652     52.671346
  C      44.045830     20.513188     53.792372
  O      44.737222     19.468426     53.936780
  O      44.485965     21.666987     53.570350
24
Coordinates from ORCA-job neb_MEP_ALL.QMRegion E -1076.127121753598
  C      42.562061     20.019647     56.595137
  H      43.241614     19.248735     56.222577
  H      43.001635     20.950270     56.989925
  C      41.214509     19.848733     56.534869
  C      40.260961     20.881622     57.150918
  O      40.746442     21.931770     57.652678
  O      39.032192     20.609764     57.159527
  O      40.630280     18.828428     55.853388
  C      40.535876     19.031903     54.176423
  H      40.059815     18.085801     53.888878
  C      41.938531     19.169745     53.814203
  H      42.553021     18.276791     53.689782
  C      42.531811     20.380120     53.963795
  C      41.701497     21.582506     54.113879
  H      42.226945     22.530070     54.224583
  C      40.358047     21.528970     54.091935
  H      39.758008     22.434335     54.203923
  C      39.607081     20.235519     53.909567
  H      38.827702     20.162358     54.681900
  O      39.030324     20.185621     52.603709
  H      38.025981     20.170576     52.662922
  C      44.038617     20.508143     53.860486
  O      44.733236     19.462790     53.971008
  O      44.467856     21.657412     53.600149
24
Coordinates from ORCA-job neb_MEP_ALL.QMRegion E -1076.117059598061
  C      42.572492     20.039511     56.555467
  H      43.244854     19.237763     56.250152
  H      43.003813     20.957163     56.968633
  C      41.209776     19.836513     56.569461
  C      40.255442     20.886102     57.164947
  O      40.742912     21.940906     57.652451
  O      39.026176     20.619778     57.160738
  O      40.656670     18.809557     55.992835
  C      40.537604     19.038534     54.042703
  H      40.055258     18.076499     53.857609
  C      41.922774     19.162601     53.819351
  H      42.549123     18.277950     53.702449
  C      42.530335     20.379567     54.035278
  C      41.703222     21.586335     54.129000
  H      42.231809     22.531958     54.237682
  C      40.361508     21.531599     54.084647
  H      39.764240     22.439436     54.188300
  C      39.613640     20.239971     53.893346
  H      38.840604     20.156410     54.671947
  O      39.020494     20.215155     52.594315
  H      38.017899     20.185955     52.659876
  C      44.039680     20.506107     53.884333
  O      44.735956     19.462310     53.982658
  O      44.467791     21.651449     53.609730
24
Coordinates from ORCA-job neb_MEP_ALL.QMRegion E -1076.115704264144
  C      42.591119     20.071015     56.460315
  H      43.254824     19.233291     56.254610
  H      43.018050     20.974651     56.898956
  C      41.210757     19.826222     56.595355
  C      40.256674     20.889608     57.176326
  O      40.752853     21.945957     57.651003
  O      39.030616     20.624185     57.163326
  O      40.686835     18.782597     56.126773
  C      40.538656     19.037177     53.924821
  H      40.054024     18.065738     53.820249
  C      41.903433     19.153408     53.826465
  H      42.541416     18.277493     53.706475
  C      42.527988     20.378852     54.138609
  C      41.698691     21.589343     54.152266
  H      42.225688     22.536422     54.254373
  C      40.359629     21.528465     54.081321
  H      39.759352     22.435354     54.182543
  C      39.617267     20.235251     53.874531
  H      38.852652     20.139046     54.661587
  O      39.004912     20.235651     52.583556
  H      38.003899     20.190963     52.656793
  C      44.035523     20.505140     53.911518
  O      44.733487     19.461761     53.989496
  O      44.460235     21.646665     53.615996
24
Coordinates from ORCA-job neb_MEP_ALL.QMRegion E -1076.118524869795
  C      42.611400     20.092046     56.404526
  H      43.280153     19.243074     56.255431
  H      43.033052     20.990808     56.882688
  C      41.224625     19.810814     56.586558
  C      40.270681     20.881861     57.179809
  O      40.761127     21.939074     57.657098
  O      39.045092     20.611875     57.170613
  O      40.702848     18.768505     56.129663
  C      40.543328     19.035237     53.903818
  H      40.059089     18.069589     53.752856
  C      41.903798     19.146136     53.846741
  H      42.544152     18.274170     53.708172
  C      42.533387     20.372618     54.189297
  C      41.698012     21.582742     54.167345
  H      42.218148     22.529445     54.293260
  C      40.360733     21.521928     54.078630
  H      39.758479     22.427689     54.176230
  C      39.618661     20.231449     53.863394
  H      38.855653     20.126959     54.649244
  O      38.994398     20.242962     52.577333
  H      37.992455     20.206161     52.653131
  C      44.033784     20.504087     53.914073
  O      44.731755     19.460379     53.989106
  O      44.452987     21.646436     53.617091
24
Coordinates from ORCA-job neb_MEP_ALL.QMRegion E -1076.125460013257
  C      42.633816     20.118634     56.281479
  H      43.272605     19.216861     56.280065
  H      43.044613     21.011985     56.834322
  C      41.220444     19.792616     56.611227
  C      40.258162     20.888704     57.191876
  O      40.760347     21.947354     57.656471
  O      39.035862     20.622666     57.172207
  O      40.705098     18.739424     56.242383
  C      40.541857     19.038921     53.847325
  H      40.060023     18.071933     53.698830
  C      41.890369     19.141105     53.852967
  H      42.537898     18.270097     53.735263
  C      42.537203     20.368125     54.322814
  C      41.698436     21.588067     54.177378
  H      42.219138     22.536969     54.298336
  C      40.362869     21.525391     54.074918
  H      39.762934     22.435418     54.153072
  C      39.620983     20.234866     53.845946
  H      38.868583     20.120572     54.639893
  O      38.987331     20.267134     52.564515
  H      37.986613     20.211978     52.650474
  C      44.028548     20.500313     53.936560
  O      44.728766     19.459140     54.003310
  O      44.446524     21.641246     53.628015
24
Coordinates from ORCA-job neb_MEP_ALL.QMRegion E -1076.152504876798
  C      42.605936     20.131392     56.106422
  H      43.233662     19.238528     56.264280
  H      43.026940     21.029578     56.605962
  C      41.212625     19.825745     56.596426
  C      40.263686     20.896922     57.188596
  O      40.787967     21.932091     57.666403
  O      39.039752     20.622323     57.194130
  O      40.738446     18.687926     56.444984
  C      40.564687     19.048668     53.771642
  H      40.091813     18.089216     53.562963
  C      41.892053     19.134462     53.902362
  H      42.541341     18.262637     53.793317
  C      42.548416     20.355962     54.470102
  C      41.707470     21.585044     54.265350
  H      42.215245     22.546596     54.349526
  C      40.383777     21.515219     54.088731
  H      39.789356     22.428148     54.089114
  C      39.636113     20.233704     53.826480
  H      38.898345     20.094141     54.634181
  O      38.974735     20.318709     52.563826
  H      37.977178     20.233483     52.660404
  C      44.025517     20.499381     53.994191
  O      44.735308     19.461717     54.028433
  O      44.420696     21.633412     53.641380
24
Coordinates from ORCA-job neb_MEP_ALL.QMRegion E -1076.159997922397
  C      42.654000     20.127000     56.113000
  H      43.340000     19.287000     56.293000
  H      43.050000     21.046000     56.568000
  C      41.303000     19.764000     56.682000
  C      40.332000     20.849000     57.228000
  O      40.829000     21.908000     57.680000
  O      39.113000     20.562000     57.217000
  O      40.921000     18.612000     56.668000
  C      40.598000     19.077000     53.588000
  H      40.155000     18.162000     53.194000
  C      41.892000     19.124000     53.921000
  H      42.542000     18.255000     53.804000
  C      42.538000     20.334000     54.544000
  C      41.692000     21.561000     54.333000
  H      42.184000     22.518000     54.504000
  C      40.389000     21.510000     54.043000
  H      39.797000     22.428000     54.036000
  C      39.648000     20.238000     53.725000
  H      38.948000     20.030000     54.556000
  O      38.917000     20.394000     52.514000
  H      37.928000     20.307000     52.657000
  C      44.007000     20.492000     54.022000
  O      44.720000     19.457000     54.031000
  O      44.380000     21.625000     53.646000
24
Coordinates from ORCA-job neb_MEP_ALL.QMRegion E -1076.135916675124
  C      42.394000     19.871000     56.917000
  H      43.081000     19.125000     56.517000
  H      42.772000     20.646000     57.583000
  C      41.093000     19.875000     56.600000
  C      40.130000     20.896000     57.181000
  O      40.619000     21.952000     57.663000
  O      38.904000     20.616000     57.157000
  O      40.534000     18.917000     55.790000
  C      40.530000     19.125000     54.332000
  H      40.032000     18.225000     53.947000
  C      41.961000     19.207000     53.905000
  H      42.559000     18.294000     53.866000
  C      42.576000     20.401000     53.813000
  C      41.786000     21.634000     53.919000
  H      42.351000     22.566000     53.920000
  C      40.448000     21.625000     54.039000
  H      39.897000     22.559000     54.169000
  C      39.656000     20.344000     53.957000
  H      38.842000     20.373000     54.696000
  O      39.126000     20.193000     52.642000
  H      38.128000     20.171000     52.669000
  C      44.090000     20.517000     53.728000
  O      44.781000     19.478000     53.903000
  O      44.542000     21.670000     53.521000
24
Coordinates from ORCA-job neb_MEP_ALL.QMRegion E -1076.138452566443
  C      42.446243     19.912180     56.827041
  H      43.130881     19.181172     56.395897
  H      42.843557     20.712375     57.454876
  C      41.131322     19.877124     56.570752
  C      40.171219     20.890641     57.174362
  O      40.656396     21.946191     57.662195
  O      38.945484     20.611173     57.159733
  O      40.557337     18.905512     55.784597
  C      40.529269     19.098502     54.318525
  H      40.034013     18.189364     53.955207
  C      41.951674     19.192394     53.871033
  H      42.553388     18.283839     53.806113
  C      42.560343     20.392996     53.816964
  C      41.761233     21.616971     53.954594
  H      42.317919     22.553126     53.992759
  C      40.420694     21.594206     54.058072
  H      39.860055     22.520542     54.207879
  C      39.640019     20.307080     53.953013
  H      38.829801     20.320349     54.697095
  O      39.108080     20.162739     52.639290
  H      38.109572     20.150345     52.670628
  C      44.074843     20.515308     53.739502
  O      44.766202     19.475545     53.907877
  O      44.524287     21.668567     53.530658
24
Coordinates from ORCA-job neb_MEP_ALL.QMRegion E -1076.135393868230
  C      42.534693     19.992056     56.646703
  H      43.216738     19.261884     56.209786
  H      42.960166     20.877296     57.132553
  C      41.200433     19.873598     56.517429
  C      40.244922     20.880755     57.149831
  O      40.728562     21.930634     57.652132
  O      39.019271     20.599499     57.157814
  O      40.610782     18.871014     55.782148
  C      40.531155     19.044017     54.269900
  H      40.049244     18.113475     53.943022
  C      41.937116     19.172569     53.812523
  H      42.550443     18.277271     53.695387
  C      42.531497     20.382369     53.863958
  C      41.709001     21.586927     54.046154
  H      42.242965     22.529857     54.162297
  C      40.365762     21.537906     54.090235
  H      39.777131     22.445664     54.246094
  C      39.610256     20.240543     53.936426
  H      38.814188     20.206638     54.694009
  O      39.060149     20.134282     52.626021
  H      38.059058     20.139922     52.669608
  C      44.042440     20.512289     53.789147
  O      44.736366     19.470128     53.938528
  O      44.485133     21.665845     53.573568
24
Coordinates from ORCA-job neb_MEP_ALL.QMRegion E -1076.123698004546
  C      42.562877     20.019490     56.594623
  H      43.243226     19.249077     56.230679
  H      43.000762     20.946743     56.987696
  C      41.215675     19.848168     56.539986
  C      40.261648     20.879117     57.153870
  O      40.747855     21.930722     57.651245
  O      39.032413     20.610144     57.158775
  O      40.639078     18.831854     55.859359
  C      40.536117     19.030730     54.167430
  H      40.060762     18.083784     53.882320
  C      41.935773     19.167547     53.814842
  H      42.553366     18.277116     53.690161
  C      42.529991     20.378060     53.973637
  C      41.700161     21.582663     54.114435
  H      42.226867     22.530603     54.223789
  C      40.357466     21.527762     54.090695
  H      39.757564     22.434000     54.200655
  C      39.608196     20.233548     53.907518
  H      38.829685     20.159321     54.678365
  O      39.027712     20.190497     52.603827
  H      38.022918     20.173058     52.660931
  C      44.037655     20.507449     53.857170
  O      44.734427     19.464567     53.972959
  O      44.469581     21.656311     53.602368
24
Coordinates from ORCA-job neb_MEP_ALL.QMRegion E -1076.116197037566
  C      42.573803     20.040478     56.553723
  H      43.245972     19.236955     56.256796
  H      43.003072     20.954097     56.971552
  C      41.209115     19.835604     56.576051
  C      40.254452     20.886275     57.166850
  O      40.743776     21.941191     57.652126
  O      39.025733     20.619445     57.160411
  O      40.662153     18.808304     56.008172
  C      40.537553     19.038732     54.026878
  H      40.055327     18.075280     53.852380
  C      41.919959     19.160827     53.818808
  H      42.548760     18.277491     53.703822
  C      42.529953     20.378958     54.045080
  C      41.703267     21.586622     54.128239
  H      42.232355     22.532481     54.235093
  C      40.361872     21.531366     54.083800
  H      39.764532     22.439378     54.186713
  C      39.614536     20.239847     53.890370
  H      38.842756     20.154682     54.669469
  O      39.018339     20.218498     52.592789
  H      38.015899     20.187473     52.658746
  C      44.039239     20.505641     53.883028
  O      44.736478     19.463016     53.982605
  O      44.468562     21.651005     53.609845
24
Coordinates from ORCA-job neb_MEP_ALL.QMRegion E -1076.116275013983
  C      42.593305     20.073285     56.451564
  H      43.255970     19.231943     56.259133
  H      43.019016     20.974636     56.898202
  C      41.210864     19.824485     56.598166
  C      40.256879     20.890552     57.176902
  O      40.753216     21.945899     57.651312
  O      39.030271     20.624041     57.163899
  O      40.689026     18.779133     56.139469
  C      40.538808     19.037235     53.914881
  H      40.054442     18.065121     53.814580
  C      41.901923     19.152218     53.827307
  H      42.540991     18.276718     53.707659
  C      42.528392     20.378092     54.150506
  C      41.698468     21.589417     54.153188
  H      42.225531     22.536982     54.252716
  C      40.359686     21.527722     54.080686
  H      39.759090     22.434570     54.180975
  C      39.617136     20.234693     53.871600
  H      38.853952     20.136807     54.659862
  O      39.002937     20.238326     52.581624
  H      38.002121     20.192079     52.656142
  C      44.035437     20.505160     53.913045
  O      44.733514     19.461635     53.989098
  O      44.459611     21.646214     53.615678
24
Coordinates from ORCA-job neb_MEP_ALL.QMRegion E -1076.118257745006
  C      42.614664     20.091266     56.407084
  H      43.286379     19.247136     56.257775
  H      43.033261     20.988971     56.884909
  C      41.228993     19.812569     56.587974
  C      40.273438     20.878721     57.180561
  O      40.763990     21.935823     57.656714
  O      39.048004     20.608765     57.171407
  O      40.711438     18.768699     56.134583
  C      40.543269     19.034559     53.893873
  H      40.060081     18.069183     53.741019
  C      41.903761     19.145054     53.844455
  H      42.544753     18.272865     53.708101
  C      42.532817     20.371674     54.192181
  C      41.696802     21.581657     54.168898
  H      42.217138     22.528372     54.297641
  C      40.360114     21.520086     54.077607
  H      39.757754     22.425688     54.176164
  C      39.617928     20.229858     53.859262
  H      38.856158     20.123625     54.646959
  O      38.991320     20.244346     52.574319
  H      37.990082     20.208885     52.653035
  C      44.033602     20.503878     53.915232
  O      44.732267     19.460456     53.986549
  O      44.452201     21.645878     53.615460
24
Coordinates from ORCA-job neb_MEP_ALL.QMRegion E -1076.126081792549
  C      42.633442     20.116406     56.289540
  H      43.279498     19.225722     56.284554
  H      43.044142     21.003183     56.834819
  C      41.226858     19.796914     56.611477
  C      40.265078     20.883253     57.194787
  O      40.760719     21.942964     57.655184
  O      39.039758     20.620026     57.172528
  O      40.718786     18.741838     56.247443
  C      40.543573     19.038365     53.834454
  H      40.059999     18.072675     53.682798
  C      41.890566     19.140216     53.857939
  H      42.537097     18.269065     53.734872
  C      42.537057     20.367253     54.323326
  C      41.697444     21.586254     54.182240
  H      42.217499     22.535215     54.303114
  C      40.363437     21.523989     54.070444
  H      39.761881     22.433961     54.152866
  C      39.620531     20.233138     53.841209
  H      38.867755     20.117409     54.636400
  O      38.983757     20.269423     52.562060
  H      37.983551     20.215921     52.648739
  C      44.029104     20.501443     53.941728
  O      44.728813     19.458271     53.999161
  O      44.444839     21.639449     53.625327
24
Coordinates from ORCA-job neb_MEP_ALL.QMRegion E -1076.149750144808
  C      42.604172     20.131596     56.113677
  H      43.232656     19.237442     56.265120
  H      43.026868     21.026748     56.615663
  C      41.206251     19.816275     56.595967
  C      40.261523     20.896519     57.188950
  O      40.783484     21.934411     57.665377
  O      39.038795     20.626793     57.191796
  O      40.739812     18.704883     56.435871
  C      40.563271     19.046793     53.775292
  H      40.088739     18.087309     53.574393
  C      41.891960     19.133828     53.900359
  H      42.540430     18.262603     53.792121
  C      42.547080     20.355659     54.466081
  C      41.706897     21.585064     54.257600
  H      42.216124     22.545768     54.344106
  C      40.382793     21.515635     54.086283
  H      39.787154     22.429062     54.093711
  C      39.635585     20.232102     53.829538
  H      38.895202     20.095583     54.635376
  O      38.976760     20.315608     52.565652
  H      37.979007     20.231942     52.659158
  C      44.027176     20.499810     53.991597
  O      44.734875     19.461417     54.026881
  O      44.423177     21.634013     53.640386
24
Coordinates from ORCA-job neb_MEP_ALL.QMRegion E -1076.159997922397
  C      42.654000     20.127000     56.113000
  H      43.340000     19.287000     56.293000
  H      43.050000     21.046000     56.568000
  C      41.303000     19.764000     56.682000
  C      40.332000     20.849000     57.228000
  O      40.829000     21.908000     57.680000
  O      39.113000     20.562000     57.217000
  O      40.921000     18.612000     56.668000
  C      40.598000     19.077000     53.588000
  H      40.155000     18.162000     53.194000
  C      41.892000     19.124000     53.921000
  H      42.542000     18.255000     53.804000
  C      42.538000     20.334000     54.544000
  C      41.692000     21.561000     54.333000
  H      42.184000     22.518000     54.504000
  C      40.389000     21.510000     54.043000
  H      39.797000     22.428000     54.036000
  C      39.648000     20.238000     53.725000
  H      38.948000     20.030000     54.556000
  O      38.917000     20.394000     52.514000
  H      37.928000     20.307000     52.657000
  C      44.007000     20.492000     54.022000
  O      44.720000     19.457000     54.031000
  O      44.380000     21.625000     53.646000
24
Coordinates from ORCA-job neb_MEP_ALL.QMRegion E -1076.135916675124
  C      42.394000     19.871000     56.917000
  H      43.081000     19.125000     56.517000
  H      42.772000     20.646000     57.583000
  C      41.093000     19.875000     56.600000
  C      40.130000     20.896000     57.181000
  O      40.619000     21.952000     57.663000
  O      38.904000     20.616000     57.157000
  O      40.534000     18.917000     55.790000
  C      40.530000     19.125000     54.332000
  H      40.032000     18.225000     53.947000
  C      41.961000     19.207000     53.905000
  H      42.559000     18.294000     53.866000
  C      42.576000     20.401000     53.813000
  C      41.786000     21.634000     53.919000
  H      42.351000     22.566000     53.920000
  C      40.448000     21.625000     54.039000
  H      39.897000     22.559000     54.169000
  C      39.656000     20.344000     53.957000
  H      38.842000     20.373000     54.696000
  O      39.126000     20.193000     52.642000
  H      38.128000     20.171000     52.669000
  C      44.090000     20.517000     53.728000
  O      44.781000     19.478000     53.903000
  O      44.542000     21.670000     53.521000
24
Coordinates from ORCA-job neb_MEP_ALL.QMRegion E -1076.138742267049
  C      42.446951     19.911801     56.825222
  H      43.131937     19.183772     56.394319
  H      42.842480     20.710575     57.448239
  C      41.133037     19.880478     56.573384
  C      40.171193     20.890339     57.172160
  O      40.659745     21.943407     57.661237
  O      38.945311     20.609652     57.159910
  O      40.562844     18.909509     55.788109
  C      40.529137     19.097967     54.316096
  H      40.033450     18.186923     53.953813
  C      41.951292     19.191858     53.871469
  H      42.553418     18.283740     53.804479
  C      42.558912     20.393083     53.818930
  C      41.759798     21.616970     53.954184
  H      42.316651     22.552433     53.994661
  C      40.420083     21.593534     54.058677
  H      39.859517     22.518520     54.208003
  C      39.639934     20.307653     53.953198
  H      38.829722     20.318628     54.696306
  O      39.107632     20.162042     52.640713
  H      38.109182     20.150082     52.670304
  C      44.073117     20.514292     53.733571
  O      44.766610     19.477468     53.910165
  O      44.525139     21.667572     53.533563
24
Coordinates from ORCA-job neb_MEP_ALL.QMRegion E -1076.135473485778
  C      42.534816     19.991205     56.644246
  H      43.218024     19.263875     56.213874
  H      42.957760     20.874444     57.118099
  C      41.203045     19.877354     56.520667
  C      40.246234     20.877041     57.150745
  O      40.732452     21.927348     57.649144
  O      39.019218     20.599372     57.156826
  O      40.621531     18.878583     55.783446
  C      40.531788     19.042513     54.266270
  H      40.050528     18.110975     53.937385
  C      41.934867     19.170080     53.816330
  H      42.550969     18.278575     53.694445
  C      42.527936     20.380224     53.872913
  C      41.706553     21.587154     54.048847
  H      42.241693     22.530096     54.167124
  C      40.364218     21.536019     54.089976
  H      39.776209     22.444198     54.241183
  C      39.611679     20.238446     53.936598
  H      38.815357     20.203057     54.690540
  O      39.058344     20.138747     52.629134
  H      38.056837     20.142686     52.668029
  C      44.040299     20.510818     53.782982
  O      44.738399     19.473881     53.944895
  O      44.488464     21.663730     53.580332
24
Coordinates from ORCA-job neb_MEP_ALL.QMRegion E -1076.123432337710
  C      42.558760     20.017011     56.594125
  H      43.241160     19.251387     56.235109
  H      42.991617     20.934109     56.990847
  C      41.214341     19.855445     56.542856
  C      40.259823     20.876665     57.157203
  O      40.748891     21.929728     57.647897
  O      39.029882     20.609244     57.156036
  O      40.648792     18.844326     55.858470
  C      40.535512     19.031118     54.169808
  H      40.060839     18.084760     53.883054
  C      41.931639     19.165035     53.817370
  H      42.554003     18.279110     53.691588
  C      42.526882     20.375671     53.975748
  C      41.699781     21.583391     54.109228
  H      42.228345     22.530286     54.225748
  C      40.357946     21.527696     54.090351
  H      39.760190     22.435690     54.199319
  C      39.611240     20.232190     53.910416
  H      38.830453     20.162092     54.675835
  O      39.030091     20.190540     52.609339
  H      38.025481     20.174481     52.660977
  C      44.036629     20.506525     53.846250
  O      44.737203     19.468540     53.977734
  O      44.476117     21.655492     53.607669
24
Coordinates from ORCA-job neb_MEP_ALL.QMRegion E -1076.115978692029
  C      42.573587     20.041502     56.548440
  H      43.246262     19.238890     56.256205
  H      43.001721     20.951590     56.964458
  C      41.208959     19.837899     56.580622
  C      40.254372     20.886470     57.168113
  O      40.746900     21.940999     57.650715
  O      39.025964     20.618222     57.159179
  O      40.668478     18.810418     56.013085
  C      40.536694     19.037786     54.023311
  H      40.055598     18.073914     53.850153
  C      41.916868     19.159346     53.818197
  H      42.548455     18.277882     53.703564
  C      42.528292     20.377667     54.053377
  C      41.702698     21.586922     54.127734
  H      42.231538     22.533011     54.237473
  C      40.361689     21.530870     54.084766
  H      39.764034     22.439026     54.186639
  C      39.615649     20.238792     53.889375
  H      38.844820     20.153147     54.667608
  O      39.017435     20.218962     52.593314
  H      38.014960     20.187312     52.658568
  C      44.037775     20.505265     53.880036
  O      44.736696     19.464591     53.984784
  O      44.470278     21.650635     53.612303
24
Coordinates from ORCA-job neb_MEP_ALL.QMRegion E -1076.116673652268
  C      42.593987     20.074701     56.445186
  H      43.256112     19.231538     56.260386
  H      43.019391     20.974982     56.894716
  C      41.211274     19.823788     56.599663
  C      40.257076     20.891682     57.176532
  O      40.753827     21.945283     57.651493
  O      39.029998     20.623585     57.164440
  O      40.689876     18.777340     56.144136
  C      40.538706     19.037391     53.914440
  H      40.055111     18.065452     53.810407
  C      41.900956     19.151509     53.827895
  H      42.541217     18.276355     53.708725
  C      42.528569     20.377208     54.158668
  C      41.698465     21.589484     54.153352
  H      42.225337     22.537572     54.253716
  C      40.359914     21.527402     54.081033
  H      39.759169     22.434330     54.179436
  C      39.617030     20.234661     53.869959
  H      38.855296     20.135642     54.658937
  O      39.002073     20.239893     52.580641
  H      38.001354     20.192666     52.656061
  C      44.035037     20.505259     53.913181
  O      44.733381     19.461883     53.990204
  O      44.459851     21.646089     53.616629
24
Coordinates from ORCA-job neb_MEP_ALL.QMRegion E -1076.118765066826
  C      42.613020     20.090828     56.397073
  H      43.284126     19.246549     56.259459
  H      43.028298     20.982112     56.872758
  C      41.227061     19.819403     56.590592
  C      40.271488     20.878922     57.180018
  O      40.766767     21.933419     57.654418
  O      39.046379     20.608769     57.171311
  O      40.717416     18.770771     56.154332
  C      40.543166     19.035408     53.880863
  H      40.060213     18.067855     53.743378
  C      41.901204     19.145111     53.839071
  H      42.544014     18.272537     53.710812
  C      42.531988     20.371967     54.208900
  C      41.695796     21.583360     54.172240
  H      42.217992     22.531059     54.294117
  C      40.359778     21.520317     54.077774
  H      39.758075     22.426702     54.174024
  C      39.617196     20.229285     53.857789
  H      38.857113     20.123434     54.648485
  O      38.991064     20.246094     52.572857
  H      37.991250     20.207199     52.654919
  C      44.033698     20.504088     53.922684
  O      44.733687     19.460914     53.986290
  O      44.452193     21.644153     53.614834
24
Coordinates from ORCA-job neb_MEP_ALL.QMRegion E -1076.127599034586
  C      42.619393     20.112522     56.279751
  H      43.277269     19.241564     56.282740
  H      43.033585     20.979005     56.811891
  C      41.229054     19.818875     56.600735
  C      40.270561     20.878977     57.192963
  O      40.764297     21.936244     57.653922
  O      39.044040     20.615840     57.173509
  O      40.730627     18.746193     56.251358
  C      40.549693     19.039526     53.823995
  H      40.060179     18.072401     53.685651
  C      41.890727     19.140321     53.868962
  H      42.536260     18.269485     53.732424
  C      42.539004     20.367167     54.337821
  C      41.696953     21.585096     54.197294
  H      42.216471     22.536040     54.301312
  C      40.365665     21.522408     54.068201
  H      39.762067     22.431779     54.152184
  C      39.620556     20.230202     53.843313
  H      38.864140     20.117302     54.638731
  O      38.983559     20.268754     52.565332
  H      37.984804     20.215396     52.649515
  C      44.032134     20.503470     53.955442
  O      44.730967     19.458080     53.993376
  O      44.443066     21.637285     53.619855
24
Coordinates from ORCA-job neb_MEP_ALL.QMRegion E -1076.150016228771
  C      42.603625     20.131653     56.118022
  H      43.237444     19.242626     56.268511
  H      43.025494     21.013985     56.632007
  C      41.205644     19.810857     56.595604
  C      40.264453     20.893762     57.192765
  O      40.778905     21.936020     57.663715
  O      39.041177     20.627376     57.188633
  O      40.746629     18.718753     56.418633
  C      40.563977     19.045954     53.772102
  H      40.084362     18.085013     53.584022
  C      41.891969     19.133762     53.901434
  H      42.538798     18.262766     53.785889
  C      42.546687     20.355852     54.471989
  C      41.705207     21.583770     54.250338
  H      42.215854     22.543317     54.341061
  C      40.381097     21.517261     54.077874
  H      39.783120     22.431798     54.100985
  C      39.634487     20.230158     53.831834
  H      38.889713     20.097032     54.636001
  O      38.977829     20.312283     52.567494
  H      37.980666     20.231133     52.657716
  C      44.029905     20.501467     53.992487
  O      44.734191     19.460522     54.021377
  O      44.426263     21.633798     53.636281
24
Coordinates from ORCA-job neb_MEP_ALL.QMRegion E -1076.159997922397
  C      42.654000     20.127000     56.113000
  H      43.340000     19.287000     56.293000
  H      43.050000     21.046000     56.568000
  C      41.303000     19.764000     56.682000
  C      40.332000     20.849000     57.228000
  O      40.829000     21.908000     57.680000
  O      39.113000     20.562000     57.217000
  O      40.921000     18.612000     56.668000
  C      40.598000     19.077000     53.588000
  H      40.155000     18.162000     53.194000
  C      41.892000     19.124000     53.921000
  H      42.542000     18.255000     53.804000
  C      42.538000     20.334000     54.544000
  C      41.692000     21.561000     54.333000
  H      42.184000     22.518000     54.504000
  C      40.389000     21.510000     54.043000
  H      39.797000     22.428000     54.036000
  C      39.648000     20.238000     53.725000
  H      38.948000     20.030000     54.556000
  O      38.917000     20.394000     52.514000
  H      37.928000     20.307000     52.657000
  C      44.007000     20.492000     54.022000
  O      44.720000     19.457000     54.031000
  O      44.380000     21.625000     53.646000
24
Coordinates from ORCA-job neb_MEP_ALL.QMRegion E -1076.135916675124
  C      42.394000     19.871000     56.917000
  H      43.081000     19.125000     56.517000
  H      42.772000     20.646000     57.583000
  C      41.093000     19.875000     56.600000
  C      40.130000     20.896000     57.181000
  O      40.619000     21.952000     57.663000
  O      38.904000     20.616000     57.157000
  O      40.534000     18.917000     55.790000
  C      40.530000     19.125000     54.332000
  H      40.032000     18.225000     53.947000
  C      41.961000     19.207000     53.905000
  H      42.559000     18.294000     53.866000
  C      42.576000     20.401000     53.813000
  C      41.786000     21.634000     53.919000
  H      42.351000     22.566000     53.920000
  C      40.448000     21.625000     54.039000
  H      39.897000     22.559000     54.169000
  C      39.656000     20.344000     53.957000
  H      38.842000     20.373000     54.696000
  O      39.126000     20.193000     52.642000
  H      38.128000     20.171000     52.669000
  C      44.090000     20.517000     53.728000
  O      44.781000     19.478000     53.903000
  O      44.542000     21.670000     53.521000
24
Coordinates from ORCA-job neb_MEP_ALL.QMRegion E -1076.138765502580
  C      42.448436     19.912246     56.822729
  H      43.134033     19.185720     56.391009
  H      42.843847     20.711951     57.442725
  C      41.134359     19.881732     56.573024
  C      40.172041     20.890110     57.171671
  O      40.662358     21.942183     57.660771
  O      38.946271     20.608678     57.159902
  O      40.565968     18.910721     55.788224
  C      40.529096     19.096742     54.316036
  H      40.033474     18.185213     53.953442
  C      41.950723     19.191276     53.871019
  H      42.553308     18.283650     53.802222
  C      42.558009     20.392657     53.818916
  C      41.758728     21.616446     53.954639
  H      42.315161     22.551952     53.996875
  C      40.419043     21.592421     54.059210
  H      39.858066     22.516967     54.208646
  C      39.639596     20.306348     53.953300
  H      38.829365     20.316435     54.695961
  O      39.106945     20.161273     52.641024
  H      38.108385     20.149622     52.670209
  C      44.072219     20.513952     53.731912
  O      44.766286     19.477945     53.911032
  O      44.524841     21.667409     53.534773
24
Coordinates from ORCA-job neb_MEP_ALL.QMRegion E -1076.135145181707
  C      42.535772     19.990591     56.642608
  H      43.220472     19.264195     56.215114
  H      42.957810     20.875376     57.109566
  C      41.204191     19.879227     56.520411
  C      40.247058     20.875795     57.151510
  O      40.735578     21.925669     57.647776
  O      39.020156     20.598436     57.155989
  O      40.626175     18.880717     55.781562
  C      40.532046     19.041013     54.266645
  H      40.051825     18.109204     53.934551
  C      41.934488     19.169111     53.817599
  H      42.551511     18.279001     53.693046
  C      42.526764     20.379478     53.875998
  C      41.705344     21.586585     54.050940
  H      42.240008     22.529612     54.170651
  C      40.363031     21.534593     54.090237
  H      39.774611     22.442802     54.237774
  C      39.611994     20.236925     53.936521
  H      38.815446     20.199717     54.689076
  O      39.057007     20.141096     52.629879
  H      38.055200     20.144576     52.667571
  C      44.039253     20.510195     53.782510
  O      44.739171     19.474964     53.948105
  O      44.489200     21.663090     53.583544
24
Coordinates from ORCA-job neb_MEP_ALL.QMRegion E -1076.123836564954
  C      42.557486     20.017105     56.592229
  H      43.240994     19.250305     56.238877
  H      42.987844     20.929896     56.993746
  C      41.213330     19.858725     56.546167
  C      40.258049     20.877395     57.158995
  O      40.748921     21.930415     57.647057
  O      39.028401     20.608936     57.154873
  O      40.651736     18.845273     55.864838
  C      40.535016     19.031637     54.164588
  H      40.060342     18.084140     53.881919
  C      41.930669     19.164514     53.818383
  H      42.554049     18.279770     53.693178
  C      42.526451     20.374979     53.979056
  C      41.700431     21.583544     54.107764
  H      42.229272     22.529805     54.227274
  C      40.358826     21.528199     54.089906
  H      39.761929     22.436618     54.197190
  C      39.612589     20.233193     53.910393
  H      38.831421     20.162829     54.674695
  O      39.030824     20.192060     52.610032
  H      38.026524     20.176387     52.661514
  C      44.036662     20.506293     53.845760
  O      44.738487     19.469315     53.979957
  O      44.478167     21.654883     53.609803
24
Coordinates from ORCA-job neb_MEP_ALL.QMRegion E -1076.115827922945
  C      42.574014     20.043136     56.543245
  H      43.247008     19.239063     56.256341
  H      43.002131     20.951955     56.959843
  C      41.209177     19.837511     56.583310
  C      40.254605     20.886812     57.169249
  O      40.748272     21.941335     57.650177
  O      39.026312     20.618133     57.158821
  O      40.671992     18.809706     56.020965
  C      40.536303     19.037207     54.016729
  H      40.055484     18.072329     53.847354
  C      41.915348     19.158657     53.818598
  H      42.547907     18.277971     53.703519
  C      42.527589     20.376999     54.059880
  C      41.702381     21.587003     54.128593
  H      42.230900     22.533340     54.238965
  C      40.361577     21.530465     54.084896
  H      39.763603     22.438556     54.186192
  C      39.616135     20.238294     53.888085
  H      38.846337     20.151401     54.666383
  O      39.016380     20.220022     52.592609
  H      38.013838     20.187496     52.658532
  C      44.037146     20.505167     53.881067
  O      44.736614     19.464905     53.985654
  O      44.470362     21.650329     53.613237
24
Coordinates from ORCA-job neb_MEP_ALL.QMRegion E -1076.116915399237
  C      42.594245     20.075430     56.441689
  H      43.256526     19.231358     56.261597
  H      43.019414     20.974625     56.893491
  C      41.211215     19.822988     56.599573
  C      40.256859     20.891036     57.176252
  O      40.754456     21.945246     57.651782
  O      39.030515     20.623228     57.164711
  O      40.690778     18.777211     56.145029
  C      40.538800     19.037216     53.916262
  H      40.055649     18.065828     53.806987
  C      41.900929     19.151204     53.829179
  H      42.541398     18.276076     53.709455
  C      42.528717     20.376633     54.162801
  C      41.698626     21.589296     54.153547
  H      42.225037     22.537624     54.254252
  C      40.359990     21.527084     54.080922
  H      39.759226     22.434023     54.178257
  C      39.617108     20.234587     53.869383
  H      38.855881     20.134800     54.658160
  O      39.001643     20.240686     52.580149
  H      38.000774     20.193223     52.655935
  C      44.034893     20.505107     53.913392
  O      44.733342     19.462083     53.990625
  O      44.459927     21.646098     53.617003
24
Coordinates from ORCA-job neb_MEP_ALL.QMRegion E -1076.119844809825
  C      42.612181     20.091437     56.386548
  H      43.282599     19.244244     56.261492
  H      43.026284     20.979945     56.865083
  C      41.225595     19.821831     56.593212
  C      40.269933     20.880357     57.179811
  O      40.768413     21.933144     57.653508
  O      39.045195     20.608971     57.171366
  O      40.719559     18.768983     56.169801
  C      40.543160     19.036007     53.870759
  H      40.060194     18.066437     53.744630
  C      41.899601     19.145661     53.836342
  H      42.543151     18.272432     53.712671
  C      42.532033     20.371922     54.222405
  C      41.695363     21.584503     54.174962
  H      42.218333     22.532990     54.290789
  C      40.359513     21.520444     54.077711
  H      39.758023     22.427485     54.172134
  C      39.617167     20.229061     53.856464
  H      38.858321     20.122735     54.648964
  O      38.990536     20.247947     52.571781
  H      37.991418     20.205865     52.655991
  C      44.033801     20.504120     53.927259
  O      44.734219     19.461102     53.986833
  O      44.451746     21.643107     53.614957
24
Coordinates from ORCA-job neb_MEP_ALL.QMRegion E -1076.129870242061
  C      42.614059     20.111087     56.273384
  H      43.277802     19.248737     56.280022
  H      43.028571     20.969818     56.803004
  C      41.226485     19.825819     56.593888
  C      40.272725     20.879425     57.189258
  O      40.769119     21.933010     57.654836
  O      39.047301     20.610262     57.174531
  O      40.736060     18.748920     56.248536
  C      40.549677     19.039648     53.821594
  H      40.061519     18.072127     53.689234
  C      41.894322     19.140248     53.871684
  H      42.536456     18.269983     53.729830
  C      42.540255     20.366905     54.344658
  C      41.696540     21.584082     54.205034
  H      42.215764     22.536523     54.300772
  C      40.365638     21.520385     54.069024
  H      39.762092     22.429241     54.152433
  C      39.620557     20.228546     53.844658
  H      38.862629     20.116646     54.640142
  O      38.983534     20.267074     52.566709
  H      37.985088     20.214606     52.650876
  C      44.033722     20.504224     53.958672
  O      44.732645     19.458212     53.990542
  O      44.442193     21.636583     53.617300
24
Coordinates from ORCA-job neb_MEP_ALL.QMRegion E -1076.149461014926
  C      42.603436     20.132183     56.115020
  H      43.240018     19.247141     56.271100
  H      43.024359     21.005345     56.639711
  C      41.209430     19.818137     56.596387
  C      40.264130     20.892162     57.194578
  O      40.777990     21.938618     57.663766
  O      39.043381     20.626655     57.186566
  O      40.746631     18.716497     56.408073
  C      40.563788     19.045603     53.768894
  H      40.081880     18.083682     53.588365
  C      41.892999     19.133699     53.904250
  H      42.537764     18.262387     53.782407
  C      42.547365     20.356203     54.479929
  C      41.704437     21.582787     54.248567
  H      42.215451     22.541689     54.339067
  C      40.379958     21.517971     54.072972
  H      39.780945     22.432683     54.104834
  C      39.633604     20.229502     53.832506
  H      38.886672     20.097457     54.636260
  O      38.978065     20.310534     52.567701
  H      37.981375     20.230832     52.656987
  C      44.031240     20.501857     53.994970
  O      44.733888     19.460214     54.017631
  O      44.427616     21.633154     53.633596
24
Coordinates from ORCA-job neb_MEP_ALL.QMRegion E -1076.159997922397
  C      42.654000     20.127000     56.113000
  H      43.340000     19.287000     56.293000
  H      43.050000     21.046000     56.568000
  C      41.303000     19.764000     56.682000
  C      40.332000     20.849000     57.228000
  O      40.829000     21.908000     57.680000
  O      39.113000     20.562000     57.217000
  O      40.921000     18.612000     56.668000
  C      40.598000     19.077000     53.588000
  H      40.155000     18.162000     53.194000
  C      41.892000     19.124000     53.921000
  H      42.542000     18.255000     53.804000
  C      42.538000     20.334000     54.544000
  C      41.692000     21.561000     54.333000
  H      42.184000     22.518000     54.504000
  C      40.389000     21.510000     54.043000
  H      39.797000     22.428000     54.036000
  C      39.648000     20.238000     53.725000
  H      38.948000     20.030000     54.556000
  O      38.917000     20.394000     52.514000
  H      37.928000     20.307000     52.657000
  C      44.007000     20.492000     54.022000
  O      44.720000     19.457000     54.031000
  O      44.380000     21.625000     53.646000
24
Coordinates from ORCA-job neb_MEP_ALL.QMRegion E -1076.135916675124
  C      42.394000     19.871000     56.917000
  H      43.081000     19.125000     56.517000
  H      42.772000     20.646000     57.583000
  C      41.093000     19.875000     56.600000
  C      40.130000     20.896000     57.181000
  O      40.619000     21.952000     57.663000
  O      38.904000     20.616000     57.157000
  O      40.534000     18.917000     55.790000
  C      40.530000     19.125000     54.332000
  H      40.032000     18.225000     53.947000
  C      41.961000     19.207000     53.905000
  H      42.559000     18.294000     53.866000
  C      42.576000     20.401000     53.813000
  C      41.786000     21.634000     53.919000
  H      42.351000     22.566000     53.920000
  C      40.448000     21.625000     54.039000
  H      39.897000     22.559000     54.169000
  C      39.656000     20.344000     53.957000
  H      38.842000     20.373000     54.696000
  O      39.126000     20.193000     52.642000
  H      38.128000     20.171000     52.669000
  C      44.090000     20.517000     53.728000
  O      44.781000     19.478000     53.903000
  O      44.542000     21.670000     53.521000
24
Coordinates from ORCA-job neb_MEP_ALL.QMRegion E -1076.138771624381
  C      42.451889     19.913485     56.815470
  H      43.139490     19.189488     56.381742
  H      42.848022     20.719102     57.425156
  C      41.137000     19.884644     56.569976
  C      40.174322     20.889742     57.170629
  O      40.669081     21.939721     57.659045
  O      38.948636     20.606711     57.159430
  O      40.572525     18.912152     55.786080
  C      40.529058     19.093316     54.317972
  H      40.034131     18.181154     53.952592
  C      41.949299     19.189902     53.870436
  H      42.553396     18.283790     53.796456
  C      42.555935     20.391412     53.818588
  C      41.756397     21.614856     53.957546
  H      42.311049     22.551050     54.006102
  C      40.416408     21.589358     54.060677
  H      39.853487     22.513484     54.208481
  C      39.639078     20.301815     53.953786
  H      38.828474     20.310386     54.695361
  O      39.104980     20.160546     52.641361
  H      38.106206     20.149831     52.670407
  C      44.070507     20.513434     53.731439
  O      44.765293     19.478555     53.914906
  O      44.523666     21.667548     53.538938
24
Coordinates from ORCA-job neb_MEP_ALL.QMRegion E -1076.134869718992
  C      42.531392     19.983114     56.648873
  H      43.221166     19.257604     56.227928
  H      42.950109     20.871661     57.104739
  C      41.200658     19.885044     56.518907
  C      40.243662     20.875282     57.153618
  O      40.739037     21.923277     57.644929
  O      39.016906     20.596361     57.153345
  O      40.629891     18.886652     55.773742
  C      40.532562     19.040862     54.275702
  H      40.055005     18.110576     53.930269
  C      41.936145     19.169232     53.825423
  H      42.554246     18.280472     53.697326
  C      42.527502     20.379054     53.878528
  C      41.706859     21.586522     54.052830
  H      42.240295     22.529152     54.175517
  C      40.364551     21.535045     54.090139
  H      39.775686     22.444845     54.222784
  C      39.614733     20.238177     53.938591
  H      38.815843     20.198962     54.687109
  O      39.057980     20.149718     52.632468
  H      38.055984     20.152664     52.668325
  C      44.040217     20.509260     53.784534
  O      44.743053     19.476963     53.958080
  O      44.493180     21.661970     53.591627
24
Coordinates from ORCA-job neb_MEP_ALL.QMRegion E -1076.123225314938
  C      42.552065     20.016816     56.586336
  H      43.237132     19.247231     56.241450
  H      42.975586     20.919491     57.006661
  C      41.207008     19.868159     56.549412
  C      40.251330     20.882405     57.161334
  O      40.746515     21.934411     57.645817
  O      39.023071     20.608142     57.151876
  O      40.652414     18.847979     55.877870
  C      40.533472     19.034440     54.160916
  H      40.057386     18.084981     53.886689
  C      41.929141     19.164855     53.821564
  H      42.554011     18.281576     53.698220
  C      42.527371     20.375176     53.978002
  C      41.704190     21.584256     54.101825
  H      42.232832     22.527643     54.233970
  C      40.362767     21.531360     54.089809
  H      39.768693     22.440750     54.194236
  C      39.616087     20.238127     53.913336
  H      38.832454     20.169753     54.675033
  O      39.036932     20.190953     52.612959
  H      38.034410     20.179657     52.665897
  C      44.038444     20.505864     53.846802
  O      44.741230     19.470548     53.985825
  O      44.483712     21.654174     53.615140
24
Coordinates from ORCA-job neb_MEP_ALL.QMRegion E -1076.115629173007
  C      42.575207     20.047755     56.526451
  H      43.247944     19.241474     56.247520
  H      43.004355     20.957053     56.937968
  C      41.210316     19.838347     56.584785
  C      40.256645     20.887396     57.170502
  O      40.752443     21.942092     57.648599
  O      39.028654     20.618229     57.157927
  O      40.677504     18.808563     56.028188
  C      40.535219     19.034370     54.014232
  H      40.055236     18.068475     53.844276
  C      41.912558     19.157670     53.820595
  H      42.546499     18.278922     53.701402
  C      42.525809     20.376073     54.070940
  C      41.701104     21.586934     54.132772
  H      42.227647     22.533724     54.248284
  C      40.360408     21.529222     54.086608
  H      39.761541     22.436765     54.186795
  C      39.616892     20.236395     53.887341
  H      38.848782     20.147250     54.665334
  O      39.015262     20.219129     52.592460
  H      38.012588     20.186017     52.659861
  C      44.035336     20.505357     53.885797
  O      44.735603     19.465316     53.989260
  O      44.469683     21.649670     53.616944
24
Coordinates from ORCA-job neb_MEP_ALL.QMRegion E -1076.117023398666
  C      42.592380     20.074708     56.439041
  H      43.256008     19.232208     56.260561
  H      43.018090     20.973513     56.889572
  C      41.211143     19.823774     56.596269
  C      40.257509     20.889563     57.175117
  O      40.755496     21.943659     57.651799
  O      39.031219     20.621837     57.165003
  O      40.690273     18.779624     56.132755
  C      40.539330     19.036930     53.933597
  H      40.056989     18.067889     53.802149
  C      41.902264     19.151362     53.833134
  H      42.542598     18.276130     53.711039
  C      42.529120     20.375639     54.164053
  C      41.699157     21.588757     54.153381
  H      42.224391     22.537301     54.258042
  C      40.360692     21.527060     54.081328
  H      39.759999     22.434216     54.175491
  C      39.617617     20.235118     53.871269
  H      38.856157     20.134949     54.657863
  O      39.002799     20.240185     52.581081
  H      38.001315     20.193816     52.656404
  C      44.034681     20.505151     53.912897
  O      44.733389     19.462678     53.992758
  O      44.460781     21.646289     53.618808
24
Coordinates from ORCA-job neb_MEP_ALL.QMRegion E -1076.120633993999
  C      42.604582     20.094011     56.339148
  H      43.266656     19.230431     56.266715
  H      43.018958     20.975037     56.832095
  C      41.213576     19.826354     56.599994
  C      40.260004     20.889560     57.178316
  O      40.769791     21.937182     57.650744
  O      39.036574     20.615174     57.170616
  O      40.715563     18.762881     56.222719
  C      40.543548     19.038474     53.847782
  H      40.059053     18.062455     53.765378
  C      41.893580     19.148832     53.831403
  H      42.538814     18.274067     53.719920
  C      42.532797     20.372711     54.271954
  C      41.695388     21.590604     54.182988
  H      42.220926     22.541835     54.271832
  C      40.360009     21.523903     54.078968
  H      39.759082     22.432975     54.164568
  C      39.618105     20.230681     53.856783
  H      38.862167     20.124607     54.653872
  O      38.992932     20.253432     52.572522
  H      37.995187     20.197173     52.659727
  C      44.034464     20.504633     53.943159
  O      44.735419     19.461545     53.992818
  O      44.451236     21.640194     53.617864
24
Coordinates from ORCA-job neb_MEP_ALL.QMRegion E -1076.130317492042
  C      42.595718     20.109615     56.228988
  H      43.269015     19.260082     56.265421
  H      43.011892     20.951228     56.766547
  C      41.209439     19.840752     56.568965
  C      40.270294     20.886869     57.173766
  O      40.784240     21.927231     57.658949
  O      39.052760     20.597241     57.178264
  O      40.736857     18.757199     56.239882
  C      40.554906     19.040449     53.826291
  H      40.066020     18.069338     53.722941
  C      41.898210     19.142330     53.874530
  H      42.538826     18.272089     53.722246
  C      42.545730     20.366679     54.377781
  C      41.695935     21.583956     54.226568
  H      42.215204     22.540890     54.291702
  C      40.366297     21.515400     54.078216
  H      39.763385     22.423050     54.152314
  C      39.620664     20.225269     53.855455
  H      38.858842     20.118152     54.650030
  O      38.987919     20.259257     52.574899
  H      37.990361     20.206076     52.658311
  C      44.038500     20.504771     53.966478
  O      44.738278     19.460245     53.986547
  O      44.441229     21.636825     53.611679
24
Coordinates from ORCA-job neb_MEP_ALL.QMRegion E -1076.149833144741
  C      42.604315     20.133583     56.100654
  H      43.250819     19.264137     56.279090
  H      43.021403     20.978867     56.658552
  C      41.218077     19.823018     56.593374
  C      40.271915     20.891787     57.201756
  O      40.777579     21.941940     57.664113
  O      39.049171     20.617635     57.182012
  O      40.756971     18.718399     56.382592
  C      40.567113     19.046740     53.755609
  H      40.076831     18.081620     53.591971
  C      41.894361     19.134151     53.915410
  H      42.535202     18.261454     53.770514
  C      42.551055     20.357521     54.509314
  C      41.701442     21.579674     54.251037
  H      42.212895     22.536853     54.337960
  C      40.377704     21.519943     54.059243
  H      39.775639     22.434804     54.113523
  C      39.630639     20.228885     53.830949
  H      38.879569     20.097643     54.635540
  O      38.976662     20.307298     52.566289
  H      37.981557     20.231149     52.655811
  C      44.034571     20.504019     54.005047
  O      44.733380     19.458659     54.006336
  O      44.429033     21.629692     53.625642
24
Coordinates from ORCA-job neb_MEP_ALL.QMRegion E -1076.159997922397
  C      42.654000     20.127000     56.113000
  H      43.340000     19.287000     56.293000
  H      43.050000     21.046000     56.568000
  C      41.303000     19.764000     56.682000
  C      40.332000     20.849000     57.228000
  O      40.829000     21.908000     57.680000
  O      39.113000     20.562000     57.217000
  O      40.921000     18.612000     56.668000
  C      40.598000     19.077000     53.588000
  H      40.155000     18.162000     53.194000
  C      41.892000     19.124000     53.921000
  H      42.542000     18.255000     53.804000
  C      42.538000     20.334000     54.544000
  C      41.692000     21.561000     54.333000
  H      42.184000     22.518000     54.504000
  C      40.389000     21.510000     54.043000
  H      39.797000     22.428000     54.036000
  C      39.648000     20.238000     53.725000
  H      38.948000     20.030000     54.556000
  O      38.917000     20.394000     52.514000
  H      37.928000     20.307000     52.657000
  C      44.007000     20.492000     54.022000
  O      44.720000     19.457000     54.031000
  O      44.380000     21.625000     53.646000
24
Coordinates from ORCA-job neb_MEP_ALL.QMRegion E -1076.135916675124
  C      42.394000     19.871000     56.917000
  H      43.081000     19.125000     56.517000
  H      42.772000     20.646000     57.583000
  C      41.093000     19.875000     56.600000
  C      40.130000     20.896000     57.181000
  O      40.619000     21.952000     57.663000
  O      38.904000     20.616000     57.157000
  O      40.534000     18.917000     55.790000
  C      40.530000     19.125000     54.332000
  H      40.032000     18.225000     53.947000
  C      41.961000     19.207000     53.905000
  H      42.559000     18.294000     53.866000
  C      42.576000     20.401000     53.813000
  C      41.786000     21.634000     53.919000
  H      42.351000     22.566000     53.920000
  C      40.448000     21.625000     54.039000
  H      39.897000     22.559000     54.169000
  C      39.656000     20.344000     53.957000
  H      38.842000     20.373000     54.696000
  O      39.126000     20.193000     52.642000
  H      38.128000     20.171000     52.669000
  C      44.090000     20.517000     53.728000
  O      44.781000     19.478000     53.903000
  O      44.542000     21.670000     53.521000
24
Coordinates from ORCA-job neb_MEP_ALL.QMRegion E -1076.138781425559
  C      42.454069     19.915733     56.812855
  H      43.141129     19.189599     56.377964
  H      42.852391     20.724749     57.424122
  C      41.138916     19.881430     56.565294
  C      40.177435     20.888897     57.171338
  O      40.667338     21.941951     57.660309
  O      38.951423     20.608212     57.159997
  O      40.567604     18.906246     55.783235
  C      40.529227     19.092239     54.318076
  H      40.035410     18.181692     53.954762
  C      41.949927     19.189590     53.867723
  H      42.553269     18.283438     53.794710
  C      42.556453     20.391346     53.815981
  C      41.755747     21.613792     53.959238
  H      42.309988     22.550899     54.007901
  C      40.415578     21.588066     54.061032
  H      39.851686     22.512700     54.209114
  C      39.637953     20.299865     53.953263
  H      38.827612     20.308545     54.696289
  O      39.104626     20.159614     52.640162
  H      38.105485     20.149608     52.670957
  C      44.071157     20.514466     53.738064
  O      44.764110     19.476657     53.913181
  O      44.521635     21.668177     53.537019
24
Coordinates from ORCA-job neb_MEP_ALL.QMRegion E -1076.134633185435
  C      42.532738     19.984656     56.649015
  H      43.221593     19.253992     56.226075
  H      42.953534     20.877838     57.112682
  C      41.200558     19.878770     56.513505
  C      40.244960     20.877781     57.148939
  O      40.735206     21.926837     57.649273
  O      39.018034     20.597174     57.155474
  O      40.618242     18.876714     55.777116
  C      40.533379     19.042032     54.272706
  H      40.055639     18.112107     53.934498
  C      41.938873     19.170972     53.821130
  H      42.554704     18.279253     53.697732
  C      42.531833     20.381076     53.872967
  C      41.708418     21.585294     54.052988
  H      42.240172     22.528548     54.175329
  C      40.365943     21.535730     54.090780
  H      39.775039     22.445149     54.222827
  C      39.612316     20.239218     53.937565
  H      38.814358     20.199316     54.690414
  O      39.058855     20.147691     52.628595
  H      38.057278     20.152967     52.670640
  C      44.043694     20.510840     53.795340
  O      44.740367     19.473116     53.954856
  O      44.488827     21.663541     53.587555
24
Coordinates from ORCA-job neb_MEP_ALL.QMRegion E -1076.122686069760
  C      42.556069     20.021878     56.584560
  H      43.238108     19.244669     56.238267
  H      42.986571     20.935000     57.000453
  C      41.209008     19.853182     56.546436
  C      40.254828     20.883758     57.157249
  O      40.743114     21.937758     57.650036
  O      39.025172     20.612311     57.155802
  O      40.644358     18.836134     55.886964
  C      40.535157     19.033217     54.152522
  H      40.056958     18.083216     53.883076
  C      41.930768     19.165962     53.819823
  H      42.553049     18.279168     53.697713
  C      42.530795     20.377227     53.982916
  C      41.704515     21.584166     54.110260
  H      42.231974     22.528795     54.234082
  C      40.363130     21.531232     54.088963
  H      39.766307     22.440056     54.194156
  C      39.613502     20.237561     53.908519
  H      38.833524     20.166097     54.676544
  O      39.033742     20.193700     52.606126
  H      38.030621     20.179400     52.665613
  C      44.040674     20.506921     53.860898
  O      44.738172     19.465952     53.982790
  O      44.476432     21.654197     53.611343
24
Coordinates from ORCA-job neb_MEP_ALL.QMRegion E -1076.115331162227
  C      42.578373     20.049438     56.525612
  H      43.248442     19.239576     56.247043
  H      43.007258     20.962001     56.938297
  C      41.210702     19.834702     56.581307
  C      40.257742     20.887061     57.169176
  O      40.749964     21.942516     57.650098
  O      39.029218     20.620170     57.159664
  O      40.672612     18.803713     56.032372
  C      40.536783     19.034696     54.009019
  H      40.055213     18.068819     53.843649
  C      41.913577     19.157738     53.821978
  H      42.546428     18.278299     53.701559
  C      42.527521     20.377923     54.069460
  C      41.700611     21.586671     54.135678
  H      42.227464     22.533224     54.248294
  C      40.360476     21.528895     54.085308
  H      39.761247     22.436267     54.186375
  C      39.615998     20.236106     53.886872
  H      38.847027     20.146676     54.666939
  O      39.014855     20.219423     52.591483
  H      38.012700     20.186311     52.660025
  C      44.036838     20.505264     53.891155
  O      44.734814     19.463663     53.988142
  O      44.466858     21.649672     53.615597
24
Coordinates from ORCA-job neb_MEP_ALL.QMRegion E -1076.116814827697
  C      42.592246     20.075238     56.438600
  H      43.256471     19.231456     56.260230
  H      43.017842     20.973575     56.888706
  C      41.211333     19.825064     56.595101
  C      40.258688     20.890153     57.176510
  O      40.755113     21.942406     57.650902
  O      39.031001     20.621653     57.164715
  O      40.689790     18.778969     56.132700
  C      40.539736     19.036520     53.927363
  H      40.056727     18.067383     53.803001
  C      41.902531     19.151146     53.835347
  H      42.542125     18.276503     53.711319
  C      42.529571     20.376591     54.163683
  C      41.698805     21.588693     54.155462
  H      42.224257     22.536948     54.257964
  C      40.360739     21.527269     54.080543
  H      39.760100     22.434319     54.175020
  C      39.618232     20.234615     53.872640
  H      38.854516     20.135448     54.658697
  O      39.003450     20.239085     52.582476
  H      38.002133     20.193825     52.656568
  C      44.035315     20.505408     53.915932
  O      44.733907     19.461945     53.992053
  O      44.459655     21.645830     53.618116
24
Coordinates from ORCA-job neb_MEP_ALL.QMRegion E -1076.123286042422
  C      42.606068     20.096706     56.331245
  H      43.262529     19.229112     56.268815
  H      43.023298     20.980338     56.837072
  C      41.213341     19.816262     56.595901
  C      40.261671     20.890022     57.180263
  O      40.763505     21.941046     57.652727
  O      39.036621     20.619382     57.170877
  O      40.705471     18.757833     56.211878
  C      40.543815     19.036598     53.865477
  H      40.060011     18.065621     53.764011
  C      41.896252     19.147375     53.843177
  H      42.538247     18.275360     53.718558
  C      42.534384     20.372564     54.269481
  C      41.696832     21.589629     54.180352
  H      42.219947     22.540354     54.270843
  C      40.362466     21.524924     54.078739
  H      39.759270     22.432271     54.163684
  C      39.619875     20.231516     53.858518
  H      38.862401     20.124217     54.651861
  O      38.992390     20.254079     52.575131
  H      37.994210     20.197926     52.656844
  C      44.034137     20.504650     53.937573
  O      44.733607     19.460829     53.995480
  O      44.451245     21.642234     53.619841
24
Coordinates from ORCA-job neb_MEP_ALL.QMRegion E -1076.132123719081
  C      42.611747     20.119830     56.207598
  H      43.267418     19.238141     56.269223
  H      43.022005     20.979319     56.775873
  C      41.209673     19.807559     56.574093
  C      40.268514     20.891200     57.180263
  O      40.776296     21.930447     57.657466
  O      39.044013     20.607857     57.179555
  O      40.722143     18.754410     56.255759
  C      40.553708     19.038408     53.827663
  H      40.067064     18.067949     53.720232
  C      41.892722     19.143528     53.863955
  H      42.539269     18.272067     53.726430
  C      42.545245     20.365069     54.389379
  C      41.697363     21.587156     54.214585
  H      42.214734     22.540859     54.291603
  C      40.366386     21.517393     54.082362
  H      39.762395     22.426467     54.149562
  C      39.621296     20.226332     53.852976
  H      38.864164     20.116196     54.647905
  O      38.986827     20.262434     52.572735
  H      37.989280     20.204882     52.658653
  C      44.035079     20.505972     53.958399
  O      44.736443     19.459968     53.993878
  O      44.441136     21.637030     53.617784
24
Coordinates from ORCA-job neb_MEP_ALL.QMRegion E -1076.149240098295
  C      42.606346     20.133940     56.101954
  H      43.248736     19.260632     56.277764
  H      43.024723     20.991575     56.646986
  C      41.214979     19.814349     56.588327
  C      40.268459     20.891842     57.197501
  O      40.780524     21.941984     57.667301
  O      39.051419     20.617782     57.185631
  O      40.755315     18.716075     56.400194
  C      40.567568     19.048469     53.758622
  H      40.082061     18.085811     53.578597
  C      41.893134     19.132760     53.916027
  H      42.535777     18.261793     53.776306
  C      42.551557     20.357319     54.501563
  C      41.702216     21.579840     54.260934
  H      42.212568     22.539074     54.341551
  C      40.379312     21.517845     54.068075
  H      39.779373     22.431664     54.106062
  C      39.631840     20.230017     53.825762
  H      38.885589     20.095654     54.632585
  O      38.974005     20.310704     52.562106
  H      37.978380     20.232500     52.656399
  C      44.032670     20.501161     54.003566
  O      44.733166     19.458564     54.011667
  O      44.424654     21.630076     53.630199
24
Coordinates from ORCA-job neb_MEP_ALL.QMRegion E -1076.159997922397
  C      42.654000     20.127000     56.113000
  H      43.340000     19.287000     56.293000
  H      43.050000     21.046000     56.568000
  C      41.303000     19.764000     56.682000
  C      40.332000     20.849000     57.228000
  O      40.829000     21.908000     57.680000
  O      39.113000     20.562000     57.217000
  O      40.921000     18.612000     56.668000
  C      40.598000     19.077000     53.588000
  H      40.155000     18.162000     53.194000
  C      41.892000     19.124000     53.921000
  H      42.542000     18.255000     53.804000
  C      42.538000     20.334000     54.544000
  C      41.692000     21.561000     54.333000
  H      42.184000     22.518000     54.504000
  C      40.389000     21.510000     54.043000
  H      39.797000     22.428000     54.036000
  C      39.648000     20.238000     53.725000
  H      38.948000     20.030000     54.556000
  O      38.917000     20.394000     52.514000
  H      37.928000     20.307000     52.657000
  C      44.007000     20.492000     54.022000
  O      44.720000     19.457000     54.031000
  O      44.380000     21.625000     53.646000
24
Coordinates from ORCA-job neb_MEP_ALL.QMRegion E -1076.135916675124
  C      42.394000     19.871000     56.917000
  H      43.081000     19.125000     56.517000
  H      42.772000     20.646000     57.583000
  C      41.093000     19.875000     56.600000
  C      40.130000     20.896000     57.181000
  O      40.619000     21.952000     57.663000
  O      38.904000     20.616000     57.157000
  O      40.534000     18.917000     55.790000
  C      40.530000     19.125000     54.332000
  H      40.032000     18.225000     53.947000
  C      41.961000     19.207000     53.905000
  H      42.559000     18.294000     53.866000
  C      42.576000     20.401000     53.813000
  C      41.786000     21.634000     53.919000
  H      42.351000     22.566000     53.920000
  C      40.448000     21.625000     54.039000
  H      39.897000     22.559000     54.169000
  C      39.656000     20.344000     53.957000
  H      38.842000     20.373000     54.696000
  O      39.126000     20.193000     52.642000
  H      38.128000     20.171000     52.669000
  C      44.090000     20.517000     53.728000
  O      44.781000     19.478000     53.903000
  O      44.542000     21.670000     53.521000
24
Coordinates from ORCA-job neb_MEP_ALL.QMRegion E -1076.138841007820
  C      42.455988     19.917218     56.810921
  H      43.142202     19.189973     56.375522
  H      42.855012     20.727992     57.423036
  C      41.139730     19.879282     56.562570
  C      40.179443     20.888727     57.171644
  O      40.666451     21.942843     57.660944
  O      38.953423     20.608893     57.160357
  O      40.565161     18.903171     55.782083
  C      40.529436     19.091665     54.317708
  H      40.036085     18.181626     53.955985
  C      41.950171     19.189509     53.865850
  H      42.553307     18.283027     53.793466
  C      42.556655     20.391264     53.814677
  C      41.755385     21.613221     53.960128
  H      42.309143     22.550632     54.009042
  C      40.414750     21.587238     54.061322
  H      39.850564     22.511900     54.209573
  C      39.637249     20.298700     53.953054
  H      38.827057     20.307234     54.696831
  O      39.104049     20.158832     52.639462
  H      38.105255     20.149397     52.671294
  C      44.071316     20.514850     53.741456
  O      44.763363     19.475729     53.912283
  O      44.520544     21.668598     53.536072
24
Coordinates from ORCA-job neb_MEP_ALL.QMRegion E -1076.135116769862
  C      42.534460     19.986649     56.647251
  H      43.221923     19.251829     56.225569
  H      42.955912     20.882118     57.114802
  C      41.200504     19.874453     56.511765
  C      40.245976     20.880086     57.146741
  O      40.732680     21.928241     57.651238
  O      39.019439     20.598140     57.156622
  O      40.612365     18.870346     55.781625
  C      40.533779     19.042483     54.267821
  H      40.055982     18.112094     53.935732
  C      41.940348     19.172029     53.818360
  H      42.555006     18.278465     53.698010
  C      42.533965     20.381720     53.872982
  C      41.709499     21.584791     54.054270
  H      42.239950     22.528196     54.176634
  C      40.366262     21.535820     54.090952
  H      39.774630     22.445170     54.222241
  C      39.611287     20.239764     53.936246
  H      38.814043     20.198784     54.691943
  O      39.058595     20.147449     52.626021
  H      38.057620     20.153771     52.671852
  C      44.044854     20.511610     53.802405
  O      44.739204     19.470537     53.953958
  O      44.486640     21.664601     53.585990
24
Coordinates from ORCA-job neb_MEP_ALL.QMRegion E -1076.121473703292
  C      42.559468     20.024430     56.583489
  H      43.238500     19.244029     56.236455
  H      42.992702     20.943559     56.995187
  C      41.210284     19.846885     56.546289
  C      40.256756     20.884540     57.155528
  O      40.741441     21.938337     57.651547
  O      39.027053     20.614744     57.157798
  O      40.639957     18.828577     55.891608
  C      40.535746     19.032331     54.146592
  H      40.056998     18.082222     53.880755
  C      41.932200     19.166558     53.818963
  H      42.552372     18.277884     53.697300
  C      42.531861     20.377784     53.986862
  C      41.704736     21.584032     54.115513
  H      42.231409     22.529703     54.234389
  C      40.362591     21.530913     54.088405
  H      39.764915     22.439295     54.194078
  C      39.612478     20.237076     53.905788
  H      38.834191     20.163704     54.677166
  O      39.031444     20.195330     52.602664
  H      38.028288     20.179170     52.665063
  C      44.041106     20.506672     53.868245
  O      44.736684     19.463571     53.981425
  O      44.472843     21.654692     53.609501
24
Coordinates from ORCA-job neb_MEP_ALL.QMRegion E -1076.115396611765
  C      42.579795     20.050318     56.524823
  H      43.248968     19.238435     56.246836
  H      43.009049     20.964987     56.938130
  C      41.211298     19.832529     56.579500
  C      40.258171     20.887047     57.168448
  O      40.748760     21.942515     57.650885
  O      39.029610     20.621167     57.160664
  O      40.670186     18.800989     56.035922
  C      40.537373     19.034924     54.004771
  H      40.055350     18.069088     53.843005
  C      41.914588     19.157997     53.822627
  H      42.546417     18.277878     53.701778
  C      42.528119     20.378490     54.069401
  C      41.700653     21.586534     54.137417
  H      42.227292     22.532959     54.248445
  C      40.360054     21.528587     54.084526
  H      39.761074     22.435840     54.186008
  C      39.615439     20.235797     53.886644
  H      38.846106     20.146228     54.667733
  O      39.014597     20.219644     52.590934
  H      38.012630     20.186536     52.660068
  C      44.037343     20.505441     53.893987
  O      44.734590     19.462498     53.987695
  O      44.465374     21.649659     53.614998
24
Coordinates from ORCA-job neb_MEP_ALL.QMRegion E -1076.116857808438
  C      42.592566     20.074953     56.438589
  H      43.256476     19.231271     56.259948
  H      43.017752     20.973870     56.888467
  C      41.210782     19.824767     56.593855
  C      40.257926     20.888805     57.176365
  O      40.755526     21.943091     57.651109
  O      39.031663     20.621788     57.164668
  O      40.689771     18.779632     56.132524
  C      40.540053     19.036508     53.923961
  H      40.056503     18.066862     53.803687
  C      41.902909     19.151257     53.836374
  H      42.541960     18.276628     53.711563
  C      42.529722     20.376945     54.163369
  C      41.698739     21.588684     54.156669
  H      42.224200     22.536762     54.257913
  C      40.360702     21.527247     54.080226
  H      39.760149     22.434411     54.174684
  C      39.618329     20.234243     53.873471
  H      38.853550     20.135822     54.659333
  O      39.003851     20.238211     52.583290
  H      38.002836     20.193765     52.656814
  C      44.035769     20.505113     53.917571
  O      44.734117     19.461723     53.991703
  O      44.459079     21.645778     53.617740
24
Coordinates from ORCA-job neb_MEP_ALL.QMRegion E -1076.123203697238
  C      42.606148     20.099116     56.327875
  H      43.260189     19.228064     56.269952
  H      43.024931     20.981663     56.839487
  C      41.212721     19.811825     56.593419
  C      40.261787     20.889357     57.181266
  O      40.760220     21.943286     57.653750
  O      39.036876     20.621807     57.170760
  O      40.699828     18.755811     56.204151
  C      40.545565     19.036683     53.876558
  H      40.060209     18.066889     53.763695
  C      41.895953     19.146360     53.850798
  H      42.538500     18.275586     53.717843
  C      42.535624     20.372672     54.267813
  C      41.697964     21.589034     54.178485
  H      42.219643     22.539605     54.269972
  C      40.363386     21.525106     54.078357
  H      39.759585     22.431897     54.163055
  C      39.620734     20.231895     53.860421
  H      38.862078     20.124409     54.650985
  O      38.993578     20.254075     52.576967
  H      37.993322     20.198426     52.655202
  C      44.034134     20.504670     53.934919
  O      44.732622     19.460653     53.996634
  O      44.451393     21.643216     53.620685
24
Coordinates from ORCA-job neb_MEP_ALL.QMRegion E -1076.134538782403
  C      42.621567     20.123241     56.198602
  H      43.264431     19.227068     56.271802
  H      43.026477     20.992740     56.780121
  C      41.216895     19.807463     56.582682
  C      40.263674     20.887677     57.183582
  O      40.772202     21.935834     57.657154
  O      39.041030     20.616302     57.179795
  O      40.706702     18.736770     56.261916
  C      40.551525     19.037773     53.828849
  H      40.067290     18.066712     53.719387
  C      41.891475     19.143344     53.859222
  H      42.538782     18.272799     53.728899
  C      42.545035     20.365645     54.393301
  C      41.698037     21.587690     54.206933
  H      42.215032     22.541786     54.290356
  C      40.366262     21.519330     54.083726
  H      39.761822     22.428705     54.147956
  C      39.622272     20.227016     53.851811
  H      38.867208     20.115033     54.646767
  O      38.986531     20.264626     52.572029
  H      37.988609     20.203944     52.658481
  C      44.032869     20.503374     53.955114
  O      44.734376     19.460965     53.998156
  O      44.441943     21.639216     53.620753
24
Coordinates from ORCA-job neb_MEP_ALL.QMRegion E -1076.150411192766
  C      42.607369     20.134060     56.100727
  H      43.247246     19.258406     56.276868
  H      43.026595     21.000639     56.636034
  C      41.215774     19.817584     56.587285
  C      40.271148     20.894596     57.195566
  O      40.781577     21.939147     57.668371
  O      39.049558     20.617258     57.188348
  O      40.751958     18.706119     56.413974
  C      40.567494     19.049651     53.758778
  H      40.086137     18.089047     53.566541
  C      41.892982     19.132424     53.917225
  H      42.536264     18.261596     53.781417
  C      42.551820     20.356236     54.498876
  C      41.702945     21.580171     54.268351
  H      42.212184     22.540544     54.345322
  C      40.380745     21.515974     54.073856
  H      39.782204     22.429774     54.099997
  C      39.632963     20.230861     53.822014
  H      38.890097     20.093779     54.630031
  O      38.972361     20.313948     52.559515
  H      37.975815     20.233971     52.656690
  C      44.030645     20.500221     54.003070
  O      44.733529     19.457875     54.015755
  O      44.421527     21.629994     53.633667
24
Coordinates from ORCA-job neb_MEP_ALL.QMRegion E -1076.159997922397
  C      42.654000     20.127000     56.113000
  H      43.340000     19.287000     56.293000
  H      43.050000     21.046000     56.568000
  C      41.303000     19.764000     56.682000
  C      40.332000     20.849000     57.228000
  O      40.829000     21.908000     57.680000
  O      39.113000     20.562000     57.217000
  O      40.921000     18.612000     56.668000
  C      40.598000     19.077000     53.588000
  H      40.155000     18.162000     53.194000
  C      41.892000     19.124000     53.921000
  H      42.542000     18.255000     53.804000
  C      42.538000     20.334000     54.544000
  C      41.692000     21.561000     54.333000
  H      42.184000     22.518000     54.504000
  C      40.389000     21.510000     54.043000
  H      39.797000     22.428000     54.036000
  C      39.648000     20.238000     53.725000
  H      38.948000     20.030000     54.556000
  O      38.917000     20.394000     52.514000
  H      37.928000     20.307000     52.657000
  C      44.007000     20.492000     54.022000
  O      44.720000     19.457000     54.031000
  O      44.380000     21.625000     53.646000
24
Coordinates from ORCA-job neb_MEP_ALL.QMRegion E -1076.135916675124
  C      42.394000     19.871000     56.917000
  H      43.081000     19.125000     56.517000
  H      42.772000     20.646000     57.583000
  C      41.093000     19.875000     56.600000
  C      40.130000     20.896000     57.181000
  O      40.619000     21.952000     57.663000
  O      38.904000     20.616000     57.157000
  O      40.534000     18.917000     55.790000
  C      40.530000     19.125000     54.332000
  H      40.032000     18.225000     53.947000
  C      41.961000     19.207000     53.905000
  H      42.559000     18.294000     53.866000
  C      42.576000     20.401000     53.813000
  C      41.786000     21.634000     53.919000
  H      42.351000     22.566000     53.920000
  C      40.448000     21.625000     54.039000
  H      39.897000     22.559000     54.169000
  C      39.656000     20.344000     53.957000
  H      38.842000     20.373000     54.696000
  O      39.126000     20.193000     52.642000
  H      38.128000     20.171000     52.669000
  C      44.090000     20.517000     53.728000
  O      44.781000     19.478000     53.903000
  O      44.542000     21.670000     53.521000
24
Coordinates from ORCA-job neb_MEP_ALL.QMRegion E -1076.138982741027
  C      42.456591     19.917682     56.809910
  H      43.142677     19.190435     56.374680
  H      42.855576     20.728535     57.421922
  C      41.140062     19.878922     56.562407
  C      40.179936     20.888783     57.171413
  O      40.666755     21.942668     57.660973
  O      38.954086     20.608721     57.160428
  O      40.565442     18.903145     55.782389
  C      40.529537     19.091534     54.317131
  H      40.036119     18.181092     53.956056
  C      41.950065     19.189435     53.865239
  H      42.553394     18.282803     53.792906
  C      42.556525     20.391254     53.814841
  C      41.755076     21.613102     53.960250
  H      42.308715     22.550416     54.009504
  C      40.414402     21.586928     54.061465
  H      39.850197     22.511362     54.209782
  C      39.637030     20.298416     53.953047
  H      38.826910     20.306638     54.696887
  O      39.103830     20.158424     52.639443
  H      38.105129     20.149275     52.671344
  C      44.071077     20.514794     53.741308
  O      44.763198     19.475788     53.912364
  O      44.520432     21.668583     53.536254
24
Coordinates from ORCA-job neb_MEP_ALL.QMRegion E -1076.134945941032
  C      42.535165     19.987786     56.645403
  H      43.222052     19.251578     56.226019
  H      42.956550     20.883210     57.112656
  C      41.200799     19.873560     56.513102
  C      40.246259     20.880454     57.146778
  O      40.732434     21.928258     57.651070
  O      39.020114     20.598723     57.156624
  O      40.612671     18.869258     55.783812
  C      40.533796     19.042250     54.264871
  H      40.055972     18.111174     53.934673
  C      41.940300     19.171876     53.817850
  H      42.555051     18.278344     53.698057
  C      42.533841     20.381511     53.876107
  C      41.709427     21.584852     54.055575
  H      42.239847     22.528255     54.178072
  C      40.366111     21.535565     54.090718
  H      39.774546     22.445011     54.221647
  C      39.611461     20.239675     53.935452
  H      38.814610     20.198028     54.691668
  O      39.058009     20.148267     52.625523
  H      38.057106     20.154417     52.671813
  C      44.044488     20.511459     53.803680
  O      44.739272     19.470305     53.954776
  O      44.486646     21.664554     53.586683
24
Coordinates from ORCA-job neb_MEP_ALL.QMRegion E -1076.121339118363
  C      42.560360     20.024614     56.583035
  H      43.238659     19.244635     56.236211
  H      42.993399     20.944322     56.992351
  C      41.210706     19.847759     56.547626
  C      40.256907     20.884246     57.155921
  O      40.741970     21.937584     57.650977
  O      39.027627     20.614954     57.157707
  O      40.640422     18.827562     55.892708
  C      40.535665     19.032176     54.144057
  H      40.057258     18.081927     53.879897
  C      41.932339     19.166273     53.819052
  H      42.552207     18.277802     53.697120
  C      42.531253     20.377422     53.989038
  C      41.704366     21.583950     54.116647
  H      42.231222     22.530036     54.234805
  C      40.362182     21.530557     54.088285
  H      39.764625     22.438838     54.193973
  C      39.612660     20.236770     53.905400
  H      38.834470     20.162977     54.676841
  O      39.030793     20.195701     52.602699
  H      38.027591     20.179098     52.664555
  C      44.040485     20.506424     53.868230
  O      44.736761     19.463571     53.981743
  O      44.472741     21.654533     53.609858
24
Coordinates from ORCA-job neb_MEP_ALL.QMRegion E -1076.115415712146
  C      42.579864     20.050362     56.524428
  H      43.249247     19.238332     56.246919
  H      43.009292     20.965320     56.937656
  C      41.211465     19.832302     56.579650
  C      40.258087     20.887122     57.168367
  O      40.748943     21.942342     57.650915
  O      39.029644     20.621103     57.160748
  O      40.670426     18.800736     56.037553
  C      40.537387     19.035083     54.002938
  H      40.055506     18.069117     53.842575
  C      41.914736     19.157981     53.822480
  H      42.546481     18.277770     53.701954
  C      42.527958     20.378284     54.070329
  C      41.700599     21.586436     54.137632
  H      42.227233     22.532993     54.248639
  C      40.359901     21.528403     54.084449
  H      39.760996     22.435680     54.185825
  C      39.615325     20.235615     53.886606
  H      38.846100     20.146026     54.667682
  O      39.014471     20.219720     52.590878
  H      38.012492     20.186621     52.660009
  C      44.037166     20.505380     53.894021
  O      44.734644     19.462425     53.987849
  O      44.465373     21.649660     53.615142
24
Coordinates from ORCA-job neb_MEP_ALL.QMRegion E -1076.116960279265
  C      42.592743     20.074561     56.438999
  H      43.256331     19.231333     56.259775
  H      43.017752     20.974089     56.888735
  C      41.210588     19.824357     56.593384
  C      40.257926     20.888597     57.175998
  O      40.755574     21.943242     57.651274
  O      39.031618     20.621764     57.164749
  O      40.689576     18.779996     56.131970
  C      40.540188     19.036633     53.923826
  H      40.056464     18.066657     53.804012
  C      41.903055     19.151391     53.836119
  H      42.542069     18.276554     53.711685
  C      42.529746     20.376879     54.163260
  C      41.698797     21.588658     54.156769
  H      42.224234     22.536776     54.257904
  C      40.360668     21.527118     54.080361
  H      39.760156     22.434432     54.174580
  C      39.618107     20.234138     53.873577
  H      38.853402     20.135941     54.659587
  O      39.003987     20.237834     52.583380
  H      38.003101     20.193676     52.657011
  C      44.035817     20.505041     53.917512
  O      44.734175     19.461706     53.991752
  O      44.459041     21.645791     53.617788
24
Coordinates from ORCA-job neb_MEP_ALL.QMRegion E -1076.123034394611
  C      42.605373     20.099390     56.328571
  H      43.259744     19.227982     56.269996
  H      43.024274     20.980308     56.839407
  C      41.211938     19.812619     56.592916
  C      40.261405     20.888886     57.181362
  O      40.760148     21.943103     57.653564
  O      39.036652     20.621850     57.170442
  O      40.699668     18.756991     56.201957
  C      40.545714     19.037160     53.878377
  H      40.060138     18.066931     53.764297
  C      41.895773     19.146066     53.852349
  H      42.538866     18.275327     53.717955
  C      42.535864     20.372790     54.267524
  C      41.698113     21.588959     54.177922
  H      42.219909     22.539669     54.269523
  C      40.363269     21.524806     54.078146
  H      39.759849     22.431906     54.162832
  C      39.620819     20.231857     53.861627
  H      38.861450     20.124884     54.651324
  O      38.994312     20.253561     52.577468
  H      37.993670     20.198537     52.655063
  C      44.034328     20.504723     53.935266
  O      44.732677     19.460788     53.996334
  O      44.451564     21.643108     53.620443
24
Coordinates from ORCA-job neb_MEP_ALL.QMRegion E -1076.135021403486
  C      42.621774     20.121924     56.201956
  H      43.262173     19.227365     56.272377
  H      43.025849     20.990935     56.778972
  C      41.215211     19.806853     56.583407
  C      40.263766     20.886506     57.185001
  O      40.770674     21.936788     57.656421
  O      39.040595     20.618249     57.179079
  O      40.707466     18.737619     56.264142
  C      40.551075     19.038075     53.830198
  H      40.066870     18.066273     53.719946
  C      41.892246     19.143273     53.861035
  H      42.538316     18.273163     53.729104
  C      42.544907     20.366226     54.390136
  C      41.698212     21.587323     54.205746
  H      42.215438     22.542376     54.288867
  C      40.366211     21.519915     54.082636
  H      39.761815     22.429208     54.147713
  C      39.622672     20.227414     53.852137
  H      38.867434     20.114888     54.646729
  O      38.986994     20.265215     52.572581
  H      37.988475     20.203662     52.658009
  C      44.032781     20.503586     53.955744
  O      44.733807     19.460936     53.998630
  O      44.442037     21.639242     53.621003
24
Coordinates from ORCA-job neb_MEP_ALL.QMRegion E -1076.151337194547
  C      42.607372     20.134120     56.098929
  H      43.246686     19.258021     56.276595
  H      43.026803     21.003514     56.629731
  C      41.214779     19.817165     56.587691
  C      40.271710     20.894836     57.194823
  O      40.782392     21.938080     57.668752
  O      39.049471     20.617348     57.189411
  O      40.753175     18.705181     56.421147
  C      40.567749     19.050154     53.757043
  H      40.087770     18.090251     53.560143
  C      41.893137     19.132674     53.918140
  H      42.536480     18.261184     53.784054
  C      42.551680     20.355286     54.500172
  C      41.703301     21.580267     54.271133
  H      42.211940     22.540965     54.347788
  C      40.381452     21.515216     54.075223
  H      39.783354     22.429374     54.097303
  C      39.633518     20.231046     53.820817
  H      38.891741     20.092726     54.628819
  O      38.971673     20.315817     52.558999
  H      37.974983     20.234956     52.656669
  C      44.029911     20.499873     54.003641
  O      44.733649     19.457801     54.017313
  O      44.420515     21.629920     53.634881
24
Coordinates from ORCA-job neb_MEP_ALL.QMRegion E -1076.159997922397
  C      42.654000     20.127000     56.113000
  H      43.340000     19.287000     56.293000
  H      43.050000     21.046000     56.568000
  C      41.303000     19.764000     56.682000
  C      40.332000     20.849000     57.228000
  O      40.829000     21.908000     57.680000
  O      39.113000     20.562000     57.217000
  O      40.921000     18.612000     56.668000
  C      40.598000     19.077000     53.588000
  H      40.155000     18.162000     53.194000
  C      41.892000     19.124000     53.921000
  H      42.542000     18.255000     53.804000
  C      42.538000     20.334000     54.544000
  C      41.692000     21.561000     54.333000
  H      42.184000     22.518000     54.504000
  C      40.389000     21.510000     54.043000
  H      39.797000     22.428000     54.036000
  C      39.648000     20.238000     53.725000
  H      38.948000     20.030000     54.556000
  O      38.917000     20.394000     52.514000
  H      37.928000     20.307000     52.657000
  C      44.007000     20.492000     54.022000
  O      44.720000     19.457000     54.031000
  O      44.380000     21.625000     53.646000
24
Coordinates from ORCA-job neb_MEP_ALL.QMRegion E -1076.135916675124
  C      42.394000     19.871000     56.917000
  H      43.081000     19.125000     56.517000
  H      42.772000     20.646000     57.583000
  C      41.093000     19.875000     56.600000
  C      40.130000     20.896000     57.181000
  O      40.619000     21.952000     57.663000
  O      38.904000     20.616000     57.157000
  O      40.534000     18.917000     55.790000
  C      40.530000     19.125000     54.332000
  H      40.032000     18.225000     53.947000
  C      41.961000     19.207000     53.905000
  H      42.559000     18.294000     53.866000
  C      42.576000     20.401000     53.813000
  C      41.786000     21.634000     53.919000
  H      42.351000     22.566000     53.920000
  C      40.448000     21.625000     54.039000
  H      39.897000     22.559000     54.169000
  C      39.656000     20.344000     53.957000
  H      38.842000     20.373000     54.696000
  O      39.126000     20.193000     52.642000
  H      38.128000     20.171000     52.669000
  C      44.090000     20.517000     53.728000
  O      44.781000     19.478000     53.903000
  O      44.542000     21.670000     53.521000
24
Coordinates from ORCA-job neb_MEP_ALL.QMRegion E -1076.138997082970
  C      42.460861     19.921281     56.801929
  H      43.146691     19.194081     56.367831
  H      42.859935     20.732779     57.412436
  C      41.143266     19.877201     56.561662
  C      40.183898     20.888617     57.169570
  O      40.669782     21.941583     57.661147
  O      38.958633     20.607215     57.160827
  O      40.568023     18.902906     55.784029
  C      40.530021     19.090031     54.313104
  H      40.036447     18.176941     53.956451
  C      41.949403     19.188496     53.860716
  H      42.553846     18.281416     53.788379
  C      42.555278     20.391093     53.816212
  C      41.752396     21.611962     53.961435
  H      42.305378     22.548896     54.013418
  C      40.411911     21.584343     54.062534
  H      39.847121     22.507305     54.211450
  C      39.635435     20.295996     53.952868
  H      38.825810     20.301820     54.697231
  O      39.102206     20.155357     52.639403
  H      38.103855     20.148321     52.671669
  C      44.069321     20.514502     53.740108
  O      44.761929     19.476231     53.913143
  O      44.519462     21.668338     53.537835
24
Coordinates from ORCA-job neb_MEP_ALL.QMRegion E -1076.134772192108
  C      42.539727     19.995824     56.632256
  H      43.223429     19.249962     56.229120
  H      42.961423     20.891455     57.095197
  C      41.203137     19.867894     56.522900
  C      40.248881     20.881399     57.147216
  O      40.732217     21.929703     57.649957
  O      39.023412     20.602579     57.156164
  O      40.616104     18.862112     55.797827
  C      40.534070     19.039848     54.245089
  H      40.055976     18.104239     53.926253
  C      41.939493     19.170279     53.814913
  H      42.555372     18.277559     53.698162
  C      42.532807     20.380130     53.899472
  C      41.708341     21.585110     54.065930
  H      42.239005     22.528794     54.189086
  C      40.365263     21.533939     54.088971
  H      39.773794     22.443621     54.217040
  C      39.612553     20.238660     53.929756
  H      38.819186     20.192120     54.689143
  O      39.053559     20.154692     52.621987
  H      38.052783     20.159231     52.671215
  C      44.042731     20.510389     53.812964
  O      44.739354     19.469563     53.961024
  O      44.486197     21.662946     53.592329
24
Coordinates from ORCA-job neb_MEP_ALL.QMRegion E -1076.121143477822
  C      42.564741     20.026572     56.579882
  H      43.240581     19.248257     56.234233
  H      42.998316     20.949464     56.972115
  C      41.213044     19.850692     56.554908
  C      40.258601     20.881515     57.158402
  O      40.746805     21.933879     57.647651
  O      39.030000     20.615674     57.156807
  O      40.646037     18.823818     55.902484
  C      40.535795     19.031373     54.126503
  H      40.058964     18.079395     53.873425
  C      41.931904     19.163938     53.819805
  H      42.551472     18.277015     53.695774
  C      42.527765     20.375437     54.004125
  C      41.701482     21.583554     54.124372
  H      42.229559     22.531797     54.238013
  C      40.359819     21.528038     54.087699
  H      39.762378     22.435582     54.193068
  C      39.613355     20.234481     53.902791
  H      38.836539     20.157718     54.674410
  O      39.026350     20.198245     52.602862
  H      38.022657     20.178629     52.661106
  C      44.036757     20.504788     53.868075
  O      44.736881     19.464189     53.984034
  O      44.471745     21.652733     53.612645
24
Coordinates from ORCA-job neb_MEP_ALL.QMRegion E -1076.115409920334
  C      42.581316     20.050956     56.521549
  H      43.251180     19.237810     56.247668
  H      43.010674     20.967055     56.933969
  C      41.211846     19.831056     56.581379
  C      40.257803     20.887471     57.167895
  O      40.750454     21.941256     57.651073
  O      39.029679     20.620504     57.161201
  O      40.672581     18.798823     56.049369
  C      40.538089     19.036168     53.989650
  H      40.056602     18.069117     53.839267
  C      41.914532     19.157130     53.821212
  H      42.547037     18.277007     53.703245
  C      42.527336     20.377445     54.077327
  C      41.699861     21.585768     54.139032
  H      42.226723     22.533084     54.250071
  C      40.359141     21.527091     54.084076
  H      39.760376     22.434535     54.184474
  C      39.614731     20.234458     53.885969
  H      38.846102     20.144435     54.667308
  O      39.013304     20.220277     52.590436
  H      38.011494     20.187226     52.659558
  C      44.036247     20.504848     53.894202
  O      44.734749     19.462377     53.988943
  O      44.465280     21.649314     53.616297
24
Coordinates from ORCA-job neb_MEP_ALL.QMRegion E -1076.116948527366
  C      42.593276     20.072616     56.442395
  H      43.255790     19.231243     56.258414
  H      43.017542     20.975149     56.890622
  C      41.210382     19.823044     56.590741
  C      40.258317     20.888532     57.173998
  O      40.755452     21.942884     57.651787
  O      39.031359     20.621449     57.165244
  O      40.687421     18.781130     56.127270
  C      40.540761     19.036989     53.923184
  H      40.056513     18.065635     53.806382
  C      41.904049     19.152015     53.833949
  H      42.542859     18.276105     53.712564
  C      42.530091     20.376579     54.162487
  C      41.698987     21.588329     54.157334
  H      42.224475     22.536882     54.257875
  C      40.360466     21.526321     54.081404
  H      39.760254     22.434438     54.173837
  C      39.616844     20.233453     53.874334
  H      38.852426     20.136692     54.661363
  O      39.004897     20.235122     52.583908
  H      38.004831     20.192978     52.658405
  C      44.036004     20.504686     53.916880
  O      44.734648     19.461555     53.992164
  O      44.458880     21.645818     53.618206
24
Coordinates from ORCA-job neb_MEP_ALL.QMRegion E -1076.122957494746
  C      42.599564     20.098149     56.334757
  H      43.255961     19.228226     56.270024
  H      43.019908     20.972101     56.840250
  C      41.207084     19.819079     56.589567
  C      40.259130     20.886861     57.181606
  O      40.759704     21.941009     57.652110
  O      39.033981     20.621570     57.168276
  O      40.698228     18.765597     56.185865
  C      40.545075     19.038793     53.890437
  H      40.059930     18.067912     53.769696
  C      41.896707     19.144460     53.861659
  H      42.541037     18.273874     53.719179
  C      42.536934     20.373262     54.264651
  C      41.698673     21.588667     54.173894
  H      42.221784     22.539978     54.265987
  C      40.363158     21.523344     54.077217
  H      39.761776     22.431937     54.161307
  C      39.620828     20.231682     53.869560
  H      38.856604     20.128549     54.654446
  O      38.999317     20.249260     52.581182
  H      37.997098     20.199136     52.654437
  C      44.035563     20.505283     53.937413
  O      44.733592     19.461266     53.994196
  O      44.452925     21.642448     53.618713
24
Coordinates from ORCA-job neb_MEP_ALL.QMRegion E -1076.134950838539
  C      42.615390     20.113114     56.227542
  H      43.248359     19.227685     56.276572
  H      43.021698     20.977542     56.773376
  C      41.209356     19.811300     56.590894
  C      40.263279     20.882022     57.193928
  O      40.761136     21.941801     57.651122
  O      39.036861     20.629474     57.173598
  O      40.709482     18.738030     56.274298
  C      40.551130     19.039322     53.841385
  H      40.064080     18.064451     53.725653
  C      41.893248     19.142848     53.873930
  H      42.536139     18.274565     53.730320
  C      42.544405     20.369663     54.366638
  C      41.699313     21.587227     54.197140
  H      42.217975     22.545073     54.277392
  C      40.366513     21.523407     54.074980
  H      39.762042     22.432617     54.146278
  C      39.624689     20.230346     53.855444
  H      38.868113     20.114727     54.647136
  O      38.989565     20.268452     52.576305
  H      37.988948     20.201775     52.654618
  C      44.032564     20.505400     53.959476
  O      44.730423     19.460538     54.001550
  O      44.443355     21.639439     53.622503
24
Coordinates from ORCA-job neb_MEP_ALL.QMRegion E -1076.151665492359
  C      42.606432     20.134094     56.086150
  H      43.242681     19.255817     56.274750
  H      43.028033     21.024220     56.582498
  C      41.211011     19.817875     56.591592
  C      40.272727     20.895228     57.189848
  O      40.789517     21.931476     57.671816
  O      39.050405     20.618441     57.196950
  O      40.761436     18.695108     56.474064
  C      40.571344     19.054116     53.742878
  H      40.099707     18.098861     53.511782
  C      41.893141     19.133060     53.924447
  H      42.537771     18.258419     53.803953
  C      42.550716     20.349635     54.510219
  C      41.705778     21.580021     54.291151
  H      42.210141     22.543869     54.366957
  C      40.386589     21.510656     54.084229
  H      39.791961     22.426389     54.077472
  C      39.637757     20.232076     53.811735
  H      38.903207     20.084623     54.620286
  O      38.966500     20.330107     52.555557
  H      37.969221     20.242596     52.656524
  C      44.025293     20.496760     54.008706
  O      44.734106     19.457993     54.028471
  O      44.413113     21.629177     53.643585
24
Coordinates from ORCA-job neb_MEP_ALL.QMRegion E -1076.159997922397
  C      42.654000     20.127000     56.113000
  H      43.340000     19.287000     56.293000
  H      43.050000     21.046000     56.568000
  C      41.303000     19.764000     56.682000
  C      40.332000     20.849000     57.228000
  O      40.829000     21.908000     57.680000
  O      39.113000     20.562000     57.217000
  O      40.921000     18.612000     56.668000
  C      40.598000     19.077000     53.588000
  H      40.155000     18.162000     53.194000
  C      41.892000     19.124000     53.921000
  H      42.542000     18.255000     53.804000
  C      42.538000     20.334000     54.544000
  C      41.692000     21.561000     54.333000
  H      42.184000     22.518000     54.504000
  C      40.389000     21.510000     54.043000
  H      39.797000     22.428000     54.036000
  C      39.648000     20.238000     53.725000
  H      38.948000     20.030000     54.556000
  O      38.917000     20.394000     52.514000
  H      37.928000     20.307000     52.657000
  C      44.007000     20.492000     54.022000
  O      44.720000     19.457000     54.031000
  O      44.380000     21.625000     53.646000
24
Coordinates from ORCA-job neb_MEP_ALL.QMRegion E -1076.135916675124
  C      42.394000     19.871000     56.917000
  H      43.081000     19.125000     56.517000
  H      42.772000     20.646000     57.583000
  C      41.093000     19.875000     56.600000
  C      40.130000     20.896000     57.181000
  O      40.619000     21.952000     57.663000
  O      38.904000     20.616000     57.157000
  O      40.534000     18.917000     55.790000
  C      40.530000     19.125000     54.332000
  H      40.032000     18.225000     53.947000
  C      41.961000     19.207000     53.905000
  H      42.559000     18.294000     53.866000
  C      42.576000     20.401000     53.813000
  C      41.786000     21.634000     53.919000
  H      42.351000     22.566000     53.920000
  C      40.448000     21.625000     54.039000
  H      39.897000     22.559000     54.169000
  C      39.656000     20.344000     53.957000
  H      38.842000     20.373000     54.696000
  O      39.126000     20.193000     52.642000
  H      38.128000     20.171000     52.669000
  C      44.090000     20.517000     53.728000
  O      44.781000     19.478000     53.903000
  O      44.542000     21.670000     53.521000
24
Coordinates from ORCA-job neb_MEP_ALL.QMRegion E -1076.139087836784
  C      42.462074     19.922262     56.799304
  H      43.148535     19.195403     56.365026
  H      42.861280     20.734465     57.406915
  C      41.144789     19.878978     56.561954
  C      40.185004     20.887765     57.169492
  O      40.672108     21.941331     57.660655
  O      38.958994     20.606536     57.160458
  O      40.570037     18.902838     55.782953
  C      40.529638     19.088401     54.313128
  H      40.036681     18.175598     53.955917
  C      41.949330     19.187636     53.860245
  H      42.553537     18.281789     53.786531
  C      42.554388     20.390597     53.817056
  C      41.751433     21.611233     53.962768
  H      42.304242     22.548762     54.015825
  C      40.411185     21.583256     54.062816
  H      39.845655     22.506353     54.211935
  C      39.635272     20.294576     53.952465
  H      38.825723     20.299844     54.696983
  O      39.101617     20.154974     52.639486
  H      38.102736     20.148147     52.671562
  C      44.068894     20.514489     53.740196
  O      44.761578     19.476295     53.913874
  O      44.518974     21.668208     53.538772
24
Coordinates from ORCA-job neb_MEP_ALL.QMRegion E -1076.133123034878
  C      42.538528     19.994699     56.633561
  H      43.224205     19.250736     56.228680
  H      42.961650     20.891688     57.091413
  C      41.202980     19.869457     56.521895
  C      40.249305     20.879022     57.148655
  O      40.735339     21.930802     57.649184
  O      39.020981     20.601661     57.154852
  O      40.619323     18.865014     55.792996
  C      40.534248     19.038237     54.249947
  H      40.056230     18.103857     53.924964
  C      41.938809     19.169847     53.816984
  H      42.555492     18.277712     53.697494
  C      42.532287     20.379811     53.899988
  C      41.707776     21.584893     54.067708
  H      42.238680     22.528827     54.190235
  C      40.365246     21.534152     54.088960
  H      39.773471     22.443131     54.216462
  C      39.612515     20.237815     53.930070
  H      38.819987     20.191364     54.688089
  O      39.053184     20.155437     52.622498
  H      38.051647     20.159381     52.670483
  C      44.043415     20.510060     53.812670
  O      44.739166     19.471012     53.961847
  O      44.485839     21.661269     53.593556
24
Coordinates from ORCA-job neb_MEP_ALL.QMRegion E -1076.119728085053
  C      42.561698     20.026890     56.579497
  H      43.241828     19.247265     56.234104
  H      42.997599     20.948370     56.972777
  C      41.211603     19.845648     56.551021
  C      40.258888     20.881231     57.158169
  O      40.748514     21.936083     57.648669
  O      39.027696     20.614093     57.156206
  O      40.650290     18.830174     55.905704
  C      40.536758     19.031743     54.127711
  H      40.058805     18.078742     53.873116
  C      41.929539     19.163786     53.819916
  H      42.552380     18.276829     53.695698
  C      42.529143     20.376246     54.002417
  C      41.701675     21.583729     54.122988
  H      42.228759     22.530277     54.238631
  C      40.360377     21.528157     54.088483
  H      39.762070     22.435579     54.192695
  C      39.612440     20.234441     53.903214
  H      38.836384     20.157663     54.674421
  O      39.026977     20.197722     52.602817
  H      38.022993     20.178733     52.661663
  C      44.037845     20.505093     53.867997
  O      44.736346     19.464984     53.984114
  O      44.471624     21.652057     53.612994
24
Coordinates from ORCA-job neb_MEP_ALL.QMRegion E -1076.115367623988
  C      42.582353     20.051388     56.521141
  H      43.251197     19.238208     56.248114
  H      43.009982     20.965692     56.933429
  C      41.210937     19.831803     56.582992
  C      40.257966     20.887161     57.168445
  O      40.750953     21.941468     57.650792
  O      39.029625     20.620259     57.160783
  O      40.673862     18.798797     56.049912
  C      40.538492     19.035626     53.989261
  H      40.056655     18.068726     53.838642
  C      41.912734     19.156187     53.820729
  H      42.547164     18.277046     53.703309
  C      42.527940     20.378072     54.078192
  C      41.699702     21.585989     54.138651
  H      42.226415     22.532678     54.250186
  C      40.359359     21.527176     54.084488
  H      39.760260     22.434460     54.184383
  C      39.615342     20.234740     53.885109
  H      38.846442     20.144015     54.667134
  O      39.012756     20.220364     52.590280
  H      38.011286     20.187193     52.659514
  C      44.036600     20.504893     53.894098
  O      44.734436     19.463000     53.988955
  O      44.465342     21.648844     53.616491
24
Coordinates from ORCA-job neb_MEP_ALL.QMRegion E -1076.116826140115
  C      42.592471     20.073855     56.442774
  H      43.256598     19.230545     56.258339
  H      43.017199     20.974196     56.890381
  C      41.211169     19.824623     56.591855
  C      40.258216     20.889527     57.174550
  O      40.755325     21.941606     57.651124
  O      39.031792     20.621315     57.165069
  O      40.687188     18.779857     56.127018
  C      40.540197     19.036142     53.924017
  H      40.057161     18.066384     53.806085
  C      41.903833     19.151560     53.833322
  H      42.542962     18.276180     53.712577
  C      42.530122     20.376561     54.162661
  C      41.698718     21.588187     54.157065
  H      42.224361     22.536785     54.258018
  C      40.360472     21.526474     54.081527
  H      39.760332     22.434098     54.173773
  C      39.617562     20.233544     53.874197
  H      38.852856     20.136308     54.661078
  O      39.004659     20.235299     52.583554
  H      38.004249     20.192868     52.658295
  C      44.035788     20.504834     53.916597
  O      44.734606     19.461696     53.992315
  O      44.459165     21.645719     53.618381
24
Coordinates from ORCA-job neb_MEP_ALL.QMRegion E -1076.122048514017
  C      42.599408     20.093636     56.337403
  H      43.255573     19.228820     56.269186
  H      43.020517     20.975092     56.842483
  C      41.208520     19.819576     56.590070
  C      40.258513     20.888862     57.179805
  O      40.760426     21.940243     57.652437
  O      39.033033     20.620541     57.168821
  O      40.697703     18.765902     56.186710
  C      40.544459     19.036278     53.886908
  H      40.060058     18.068174     53.771709
  C      41.898465     19.145706     53.856356
  H      42.540343     18.274422     53.720352
  C      42.535693     20.372493     54.263973
  C      41.698406     21.589127     54.174699
  H      42.221614     22.539656     54.265428
  C      40.363809     21.524658     54.078585
  H      39.761762     22.431952     54.161366
  C      39.619431     20.231669     53.867705
  H      38.856212     20.129045     54.655904
  O      38.998209     20.248101     52.580923
  H      37.999185     20.198547     52.655575
  C      44.035553     20.505013     53.936842
  O      44.734433     19.460717     53.994369
  O      44.453012     21.642649     53.618870
24
Coordinates from ORCA-job neb_MEP_ALL.QMRegion E -1076.132939563289
  C      42.602658     20.114016     56.225612
  H      43.252463     19.225521     56.276292
  H      43.022595     20.977463     56.776965
  C      41.210033     19.810780     56.590131
  C      40.260371     20.889289     57.189073
  O      40.765874     21.939486     57.652739
  O      39.036296     20.622509     57.173473
  O      40.711912     18.744513     56.267883
  C      40.550969     19.037209     53.842869
  H      40.065373     18.068077     53.727941
  C      41.891771     19.142248     53.873811
  H      42.537664     18.272991     53.730625
  C      42.543316     20.368191     54.370276
  C      41.699152     21.590877     54.198532
  H      42.217495     22.542859     54.276521
  C      40.367522     21.522255     54.075977
  H      39.763111     22.431546     54.146220
  C      39.623242     20.229575     53.856746
  H      38.865856     20.116640     54.648978
  O      38.989809     20.266211     52.575964
  H      37.991061     20.202413     52.655037
  C      44.034010     20.505466     53.958759
  O      44.732349     19.460328     54.000258
  O      44.444274     21.639158     53.621719
24
Coordinates from ORCA-job neb_MEP_ALL.QMRegion E -1076.153205710720
  C      42.605134     20.133396     56.089490
  H      43.242651     19.257294     56.275185
  H      43.027027     21.023044     56.579548
  C      41.213398     19.815133     56.593157
  C      40.270225     20.894799     57.191989
  O      40.790940     21.932467     57.671564
  O      39.050935     20.619018     57.196201
  O      40.765301     18.698854     56.477130
  C      40.572916     19.053667     53.738540
  H      40.100229     18.099148     53.507782
  C      41.892912     19.130611     53.923786
  H      42.537069     18.258835     53.805628
  C      42.550158     20.351633     54.509143
  C      41.705555     21.578573     54.289669
  H      42.209930     22.543017     54.370043
  C      40.386359     21.512667     54.081285
  H      39.792448     22.426558     54.077138
  C      39.638356     20.231693     53.811157
  H      38.901957     20.083297     54.620966
  O      38.966500     20.331792     52.556583
  H      37.969968     20.243711     52.656569
  C      44.026430     20.496927     54.010884
  O      44.733616     19.458778     54.027998
  O      44.413219     21.628419     53.643223
24
Coordinates from ORCA-job neb_MEP_ALL.QMRegion E -1076.159997922397
  C      42.654000     20.127000     56.113000
  H      43.340000     19.287000     56.293000
  H      43.050000     21.046000     56.568000
  C      41.303000     19.764000     56.682000
  C      40.332000     20.849000     57.228000
  O      40.829000     21.908000     57.680000
  O      39.113000     20.562000     57.217000
  O      40.921000     18.612000     56.668000
  C      40.598000     19.077000     53.588000
  H      40.155000     18.162000     53.194000
  C      41.892000     19.124000     53.921000
  H      42.542000     18.255000     53.804000
  C      42.538000     20.334000     54.544000
  C      41.692000     21.561000     54.333000
  H      42.184000     22.518000     54.504000
  C      40.389000     21.510000     54.043000
  H      39.797000     22.428000     54.036000
  C      39.648000     20.238000     53.725000
  H      38.948000     20.030000     54.556000
  O      38.917000     20.394000     52.514000
  H      37.928000     20.307000     52.657000
  C      44.007000     20.492000     54.022000
  O      44.720000     19.457000     54.031000
  O      44.380000     21.625000     53.646000
24
Coordinates from ORCA-job neb_MEP_ALL.QMRegion E -1076.135916675124
  C      42.394000     19.871000     56.917000
  H      43.081000     19.125000     56.517000
  H      42.772000     20.646000     57.583000
  C      41.093000     19.875000     56.600000
  C      40.130000     20.896000     57.181000
  O      40.619000     21.952000     57.663000
  O      38.904000     20.616000     57.157000
  O      40.534000     18.917000     55.790000
  C      40.530000     19.125000     54.332000
  H      40.032000     18.225000     53.947000
  C      41.961000     19.207000     53.905000
  H      42.559000     18.294000     53.866000
  C      42.576000     20.401000     53.813000
  C      41.786000     21.634000     53.919000
  H      42.351000     22.566000     53.920000
  C      40.448000     21.625000     54.039000
  H      39.897000     22.559000     54.169000
  C      39.656000     20.344000     53.957000
  H      38.842000     20.373000     54.696000
  O      39.126000     20.193000     52.642000
  H      38.128000     20.171000     52.669000
  C      44.090000     20.517000     53.728000
  O      44.781000     19.478000     53.903000
  O      44.542000     21.670000     53.521000
24
Coordinates from ORCA-job neb_MEP_ALL.QMRegion E -1076.139091564652
  C      42.463469     19.923007     56.797077
  H      43.150023     19.196609     56.362595
  H      42.862577     20.736092     57.402387
  C      41.145668     19.879773     56.561487
  C      40.185744     20.887520     57.169632
  O      40.673795     21.940749     57.660125
  O      38.959813     20.606068     57.160203
  O      40.571792     18.902990     55.782427
  C      40.529606     19.087261     54.313136
  H      40.036809     18.174322     53.955477
  C      41.948964     19.187153     53.859850
  H      42.553449     18.281847     53.784911
  C      42.553811     20.390178     53.817646
  C      41.750787     21.610741     53.963894
  H      42.303198     22.548514     54.017854
  C      40.410340     21.582413     54.063112
  H      39.844462     22.505391     54.212338
  C      39.635054     20.293340     53.952247
  H      38.825666     20.298150     54.696759
  O      39.100883     20.154591     52.639452
  H      38.101958     20.147982     52.671482
  C      44.068385     20.514349     53.740390
  O      44.761280     19.476355     53.914453
  O      44.518575     21.668195     53.539510
24
Coordinates from ORCA-job neb_MEP_ALL.QMRegion E -1076.133318362855
  C      42.538232     19.993948     56.634328
  H      43.224750     19.251439     56.228337
  H      42.961966     20.892153     57.087882
  C      41.202827     19.870392     56.520985
  C      40.248985     20.878527     57.150059
  O      40.737023     21.930094     57.648073
  O      39.020624     20.601301     57.154010
  O      40.621566     18.866851     55.789926
  C      40.534272     19.037265     54.252991
  H      40.056526     18.103478     53.923888
  C      41.938634     19.169579     53.818508
  H      42.555563     18.277872     53.696937
  C      42.531896     20.379410     53.900710
  C      41.707670     21.584750     54.069312
  H      42.238293     22.528741     54.191473
  C      40.364933     21.533905     54.089059
  H      39.773047     22.442798     54.215869
  C      39.612786     20.237224     53.930064
  H      38.820393     20.190594     54.687455
  O      39.052631     20.156097     52.622811
  H      38.050796     20.159583     52.669907
  C      44.042787     20.509660     53.812850
  O      44.739610     19.471199     53.962744
  O      44.485922     21.660938     53.594448
24
Coordinates from ORCA-job neb_MEP_ALL.QMRegion E -1076.119711105195
  C      42.561363     20.026327     56.578564
  H      43.242203     19.247198     56.234384
  H      42.996689     20.947357     56.973308
  C      41.211224     19.845835     56.550557
  C      40.258444     20.881749     57.158345
  O      40.748955     21.935993     57.648700
  O      39.027571     20.613390     57.155865
  O      40.651667     18.831569     55.906869
  C      40.536670     19.031781     54.127531
  H      40.058920     18.078557     53.873164
  C      41.929065     19.163829     53.819729
  H      42.552715     18.277085     53.695728
  C      42.529337     20.376278     54.001377
  C      41.701934     21.583460     54.121835
  H      42.228305     22.529472     54.239178
  C      40.360345     21.528156     54.089010
  H      39.761899     22.435532     54.192421
  C      39.612365     20.234500     53.903510
  H      38.836051     20.157599     54.674564
  O      39.027233     20.197257     52.602911
  H      38.023405     20.178813     52.662057
  C      44.038024     20.505158     53.867904
  O      44.736411     19.465032     53.984264
  O      44.471982     21.652319     53.613139
24
Coordinates from ORCA-job neb_MEP_ALL.QMRegion E -1076.115370803043
  C      42.582165     20.051458     56.520617
  H      43.251352     19.238364     56.248467
  H      43.009711     20.965052     56.933208
  C      41.211021     19.831946     56.583988
  C      40.257875     20.887116     57.169000
  O      40.751268     21.941517     57.650534
  O      39.029719     20.620143     57.160489
  O      40.674935     18.798994     56.050709
  C      40.538160     19.035221     53.988734
  H      40.056689     18.068391     53.838120
  C      41.912445     19.156091     53.820447
  H      42.547176     18.277089     53.703356
  C      42.527815     20.377877     54.078848
  C      41.699816     21.586058     54.138389
  H      42.226208     22.532502     54.250299
  C      40.359342     21.527230     54.084700
  H      39.760165     22.434392     54.184319
  C      39.615631     20.234763     53.884651
  H      38.846907     20.143670     54.666825
  O      39.012487     20.220473     52.590090
  H      38.010982     20.187164     52.659516
  C      44.036502     20.504995     53.894096
  O      44.734472     19.463078     53.988996
  O      44.465574     21.648855     53.616545
24
Coordinates from ORCA-job neb_MEP_ALL.QMRegion E -1076.116824451852
  C      42.592437     20.073716     56.442879
  H      43.256764     19.230617     56.258399
  H      43.017091     20.973845     56.890438
  C      41.210727     19.824520     56.592195
  C      40.258013     20.889106     57.174441
  O      40.755669     21.941790     57.651132
  O      39.031852     20.621254     57.164948
  O      40.687765     18.780214     56.127259
  C      40.540216     19.036040     53.924869
  H      40.057429     18.066518     53.805811
  C      41.903655     19.151468     53.832960
  H      42.543110     18.276153     53.712542
  C      42.529911     20.376336     54.162454
  C      41.698704     21.588153     54.156864
  H      42.224231     22.536646     54.258126
  C      40.360474     21.526423     54.081582
  H      39.760313     22.433908     54.173736
  C      39.617865     20.233521     53.874067
  H      38.853273     20.136000     54.660801
  O      39.004451     20.235425     52.583350
  H      38.003859     20.192775     52.658211
  C      44.035705     20.504822     53.916431
  O      44.734520     19.461855     53.992421
  O      44.459377     21.645719     53.618490
24
Coordinates from ORCA-job neb_MEP_ALL.QMRegion E -1076.122001854971
  C      42.599729     20.093128     56.340719
  H      43.256028     19.228180     56.268415
  H      43.020352     20.975864     56.843568
  C      41.208699     19.819576     56.590372
  C      40.257872     20.889573     57.178413
  O      40.760915     21.940093     57.652757
  O      39.032886     20.620069     57.169181
  O      40.697344     18.766243     56.187179
  C      40.545188     19.036057     53.884607
  H      40.059792     18.067418     53.773194
  C      41.898061     19.146397     53.852358
  H      42.540221     18.274534     53.721095
  C      42.535196     20.372309     54.262774
  C      41.698539     21.589169     54.175380
  H      42.221634     22.539568     54.265044
  C      40.363605     21.524943     54.079350
  H      39.761650     22.432203     54.161474
  C      39.618815     20.231475     53.866850
  H      38.856202     20.129419     54.656704
  O      38.998389     20.247320     52.580547
  H      37.999781     20.198001     52.656490
  C      44.035674     20.504680     53.936533
  O      44.734812     19.460690     53.994455
  O      44.452987     21.642543     53.619024
24
Coordinates from ORCA-job neb_MEP_ALL.QMRegion E -1076.133054452002
  C      42.600220     20.113299     56.225452
  H      43.253208     19.226646     56.275756
  H      43.022122     20.976291     56.779273
  C      41.208761     19.814441     56.590194
  C      40.258822     20.891401     57.184956
  O      40.768779     21.939106     57.654371
  O      39.035991     20.618537     57.173611
  O      40.711655     18.745919     56.261878
  C      40.550580     19.037247     53.844096
  H      40.065643     18.069372     53.729949
  C      41.891976     19.141487     53.873200
  H      42.538374     18.272346     53.731025
  C      42.542201     20.367951     54.372388
  C      41.698894     21.590886     54.199492
  H      42.217853     22.542609     54.275867
  C      40.367681     21.521894     54.076829
  H      39.763872     22.430680     54.146184
  C      39.622453     20.228786     53.857679
  H      38.864055     20.118272     54.650441
  O      38.990592     20.264293     52.576001
  H      37.992447     20.202766     52.655471
  C      44.034802     20.504870     53.958607
  O      44.733752     19.460364     53.999148
  O      44.444936     21.639104     53.621011
24
Coordinates from ORCA-job neb_MEP_ALL.QMRegion E -1076.153410661384
  C      42.604314     20.132883     56.091175
  H      43.242909     19.258264     56.275657
  H      43.026341     21.022582     56.577654
  C      41.216021     19.817725     56.595636
  C      40.270931     20.895254     57.193684
  O      40.791354     21.932598     57.671142
  O      39.049830     20.619240     57.195696
  O      40.766794     18.697150     56.479187
  C      40.573509     19.053364     53.734971
  H      40.100618     18.099286     53.504273
  C      41.893218     19.130023     53.923530
  H      42.536949     18.258495     53.806953
  C      42.549562     20.351802     54.508592
  C      41.705290     21.578330     54.288277
  H      42.209632     22.542005     54.372683
  C      40.386541     21.513259     54.078870
  H      39.792552     22.427246     54.076853
  C      39.638663     20.231622     53.810907
  H      38.901337     20.082152     54.621218
  O      38.966552     20.333229     52.557142
  H      37.970449     20.244654     52.656685
  C      44.026647     20.497556     54.012366
  O      44.733632     19.458719     54.027800
  O      44.413547     21.628161     53.642949
24
Coordinates from ORCA-job neb_MEP_ALL.QMRegion E -1076.159997922397
  C      42.654000     20.127000     56.113000
  H      43.340000     19.287000     56.293000
  H      43.050000     21.046000     56.568000
  C      41.303000     19.764000     56.682000
  C      40.332000     20.849000     57.228000
  O      40.829000     21.908000     57.680000
  O      39.113000     20.562000     57.217000
  O      40.921000     18.612000     56.668000
  C      40.598000     19.077000     53.588000
  H      40.155000     18.162000     53.194000
  C      41.892000     19.124000     53.921000
  H      42.542000     18.255000     53.804000
  C      42.538000     20.334000     54.544000
  C      41.692000     21.561000     54.333000
  H      42.184000     22.518000     54.504000
  C      40.389000     21.510000     54.043000
  H      39.797000     22.428000     54.036000
  C      39.648000     20.238000     53.725000
  H      38.948000     20.030000     54.556000
  O      38.917000     20.394000     52.514000
  H      37.928000     20.307000     52.657000
  C      44.007000     20.492000     54.022000
  O      44.720000     19.457000     54.031000
  O      44.380000     21.625000     53.646000
24
Coordinates from ORCA-job neb_MEP_ALL.QMRegion E -1076.135916675124
  C      42.394000     19.871000     56.917000
  H      43.081000     19.125000     56.517000
  H      42.772000     20.646000     57.583000
  C      41.093000     19.875000     56.600000
  C      40.130000     20.896000     57.181000
  O      40.619000     21.952000     57.663000
  O      38.904000     20.616000     57.157000
  O      40.534000     18.917000     55.790000
  C      40.530000     19.125000     54.332000
  H      40.032000     18.225000     53.947000
  C      41.961000     19.207000     53.905000
  H      42.559000     18.294000     53.866000
  C      42.576000     20.401000     53.813000
  C      41.786000     21.634000     53.919000
  H      42.351000     22.566000     53.920000
  C      40.448000     21.625000     54.039000
  H      39.897000     22.559000     54.169000
  C      39.656000     20.344000     53.957000
  H      38.842000     20.373000     54.696000
  O      39.126000     20.193000     52.642000
  H      38.128000     20.171000     52.669000
  C      44.090000     20.517000     53.728000
  O      44.781000     19.478000     53.903000
  O      44.542000     21.670000     53.521000
24
Coordinates from ORCA-job neb_MEP_ALL.QMRegion E -1076.139136796543
  C      42.467296     19.925146     56.790385
  H      43.154443     19.200183     56.355202
  H      42.866793     20.741364     57.389398
  C      41.148564     19.881203     56.559267
  C      40.188059     20.886877     57.169803
  O      40.678388     21.939076     57.658776
  O      38.962580     20.604899     57.159679
  O      40.576642     18.903379     55.781377
  C      40.529768     19.084212     54.312928
  H      40.037188     18.170484     53.954363
  C      41.947722     19.185911     53.858550
  H      42.553368     18.281707     53.780034
  C      42.552327     20.389110     53.819134
  C      41.748733     21.609359     53.967217
  H      42.300036     22.547636     54.023825
  C      40.407903     21.579912     54.064058
  H      39.840943     22.502338     54.213532
  C      39.634233     20.289729     53.951712
  H      38.825444     20.293084     54.696156
  O      39.098673     20.153282     52.639242
  H      38.099716     20.147452     52.671293
  C      44.066797     20.513969     53.741182
  O      44.760388     19.476478     53.916059
  O      44.517268     21.668093     53.541598
24
Coordinates from ORCA-job neb_MEP_ALL.QMRegion E -1076.133411001980
  C      42.537968     19.992068     56.635773
  H      43.226254     19.253401     56.227304
  H      42.963127     20.894067     57.077417
  C      41.203028     19.873057     56.518702
  C      40.248115     20.877554     57.152667
  O      40.740844     21.927402     57.645343
  O      39.020782     20.600806     57.152299
  O      40.626571     18.870525     55.782947
  C      40.534310     19.035165     54.259411
  H      40.057620     18.102463     53.921064
  C      41.938649     19.168747     53.822326
  H      42.555778     18.278369     53.695354
  C      42.530924     20.378371     53.903156
  C      41.707238     21.584077     54.073932
  H      42.237078     22.528403     54.195599
  C      40.364231     21.532708     54.089611
  H      39.771562     22.441856     54.213965
  C      39.613598     20.235675     53.929803
  H      38.821114     20.188182     54.686069
  O      39.050957     20.157884     52.623436
  H      38.048485     20.160289     52.668458
  C      44.040895     20.508594     53.814033
  O      44.740875     19.471074     53.965476
  O      44.486011     21.660458     53.596999
24
Coordinates from ORCA-job neb_MEP_ALL.QMRegion E -1076.119821620679
  C      42.562145     20.025068     56.575522
  H      43.242994     19.247173     56.235403
  H      42.993960     20.944381     56.974586
  C      41.211447     19.850278     56.552053
  C      40.257237     20.883046     57.158750
  O      40.749301     21.934853     57.648474
  O      39.028268     20.612172     57.155202
  O      40.653176     18.831188     55.909303
  C      40.535875     19.031822     54.125127
  H      40.059386     18.078170     53.873379
  C      41.928929     19.163803     53.818799
  H      42.553204     18.278198     53.695951
  C      42.529080     20.375865     53.999291
  C      41.702066     21.582288     54.118757
  H      42.227378     22.527863     54.240785
  C      40.360210     21.527928     54.090173
  H      39.761474     22.435393     54.191703
  C      39.612623     20.234597     53.904194
  H      38.835103     20.157289     54.674923
  O      39.027758     20.196074     52.603261
  H      38.024482     20.179060     52.663086
  C      44.038199     20.505476     53.867558
  O      44.736917     19.464814     53.984766
  O      44.473177     21.653242     53.613561
24
Coordinates from ORCA-job neb_MEP_ALL.QMRegion E -1076.115387354710
  C      42.581339     20.051514     56.518923
  H      43.251864     19.238643     56.249485
  H      43.009287     20.963812     56.932806
  C      41.211699     19.831911     56.586493
  C      40.257776     20.887050     57.170530
  O      40.751987     21.941706     57.649912
  O      39.029897     20.619923     57.159784
  O      40.677723     18.799295     56.053416
  C      40.537289     19.034472     53.986818
  H      40.056652     18.067198     53.836527
  C      41.912182     19.156071     53.819847
  H      42.547135     18.277224     53.703475
  C      42.527123     20.377082     54.080688
  C      41.699936     21.585911     54.137797
  H      42.225781     22.532309     54.250658
  C      40.359437     21.527254     54.085057
  H      39.759833     22.434228     54.184156
  C      39.616079     20.234529     53.883615
  H      38.848416     20.142645     54.665767
  O      39.011816     20.220869     52.589434
  H      38.010004     20.187090     52.659556
  C      44.036135     20.505166     53.894260
  O      44.734656     19.463114     53.989113
  O      44.466207     21.649098     53.616631
24
Coordinates from ORCA-job neb_MEP_ALL.QMRegion E -1076.116835159413
  C      42.592361     20.072542     56.443228
  H      43.256914     19.231197     56.258656
  H      43.016917     20.973162     56.890928
  C      41.209933     19.824132     56.593031
  C      40.258088     20.888332     57.174356
  O      40.756429     21.942104     57.651047
  O      39.031457     20.621004     57.164582
  O      40.689233     18.781122     56.127736
  C      40.540537     19.036158     53.927152
  H      40.057945     18.066436     53.805107
  C      41.903354     19.151264     53.832132
  H      42.543529     18.276072     53.712360
  C      42.529313     20.375794     54.161433
  C      41.698759     21.587961     54.156279
  H      42.223880     22.536245     54.258431
  C      40.360529     21.526129     54.081646
  H      39.760140     22.433464     54.173677
  C      39.618350     20.233362     53.873626
  H      38.854450     20.135119     54.660022
  O      39.003890     20.235684     52.582981
  H      38.002902     20.192498     52.657990
  C      44.035458     20.504873     53.915977
  O      44.734338     19.462138     53.992702
  O      44.459880     21.645740     53.618777
24
Coordinates from ORCA-job neb_MEP_ALL.QMRegion E -1076.121954239855
  C      42.600985     20.093065     56.350462
  H      43.257634     19.226073     56.266394
  H      43.019539     20.976880     56.846402
  C      41.208262     19.819701     56.591169
  C      40.256974     20.890860     57.175384
  O      40.761734     21.939728     57.653267
  O      39.032613     20.619242     57.169908
  O      40.696546     18.766991     56.188006
  C      40.545811     19.036506     53.879149
  H      40.059180     18.065042     53.777146
  C      41.897290     19.148004     53.842326
  H      42.540172     18.274691     53.722718
  C      42.534384     20.372230     54.258082
  C      41.698545     21.588877     54.177081
  H      42.221918     22.539567     54.264154
  C      40.362770     21.524794     54.080968
  H      39.761208     22.433138     54.161891
  C      39.618290     20.230885     53.865631
  H      38.856777     20.130205     54.658136
  O      38.999128     20.245383     52.579296
  H      38.000546     20.196393     52.658793
  C      44.035802     20.503931     53.935911
  O      44.735613     19.460792     53.994659
  O      44.452905     21.642009     53.619467
24
Coordinates from ORCA-job neb_MEP_ALL.QMRegion E -1076.132935811360
  C      42.600852     20.112250     56.227808
  H      43.253021     19.231318     56.273928
  H      43.019564     20.971793     56.784768
  C      41.202351     19.821037     56.587301
  C      40.256782     20.895227     57.175771
  O      40.773315     21.936990     57.657668
  O      39.035505     20.610697     57.174314
  O      40.710574     18.752089     56.246823
  C      40.550435     19.038737     53.847207
  H      40.065213     18.070583     53.735834
  C      41.892958     19.140474     53.870857
  H      42.539883     18.271004     53.732347
  C      42.540272     20.367137     54.376492
  C      41.698529     21.588800     54.202226
  H      42.219325     22.542904     54.274036
  C      40.367119     21.520647     54.079213
  H      39.765479     22.428915     54.146081
  C      39.620558     20.227291     53.860363
  H      38.859483     20.122783     54.654124
  O      38.993851     20.258797     52.576554
  H      37.995550     20.203376     52.656833
  C      44.036334     20.503991     53.958557
  O      44.737264     19.460337     53.996180
  O      44.446107     21.638132     53.619328
24
Coordinates from ORCA-job neb_MEP_ALL.QMRegion E -1076.153596799085
  C      42.602736     20.132122     56.094512
  H      43.244090     19.260467     56.277300
  H      43.024911     21.022320     56.573490
  C      41.219172     19.819096     56.603255
  C      40.272008     20.895282     57.197484
  O      40.792317     21.934085     57.670689
  O      39.048650     20.620489     57.194440
  O      40.773358     18.697377     56.485279
  C      40.574871     19.053068     53.725461
  H      40.101619     18.099380     53.493953
  C      41.894025     19.129683     53.922644
  H      42.537237     18.256681     53.810623
  C      42.547758     20.350817     54.507353
  C      41.704698     21.578212     54.284056
  H      42.208786     22.539056     54.380343
  C      40.386821     21.514080     54.072116
  H      39.792641     22.429583     54.076072
  C      39.639185     20.231460     53.810338
  H      38.900463     20.078871     54.621368
  O      38.966554     20.337438     52.558079
  H      37.971637     20.247381     52.657176
  C      44.026950     20.498642     54.015747
  O      44.733570     19.458604     54.027634
  O      44.414746     21.628124     53.642344
24
Coordinates from ORCA-job neb_MEP_ALL.QMRegion E -1076.159997922397
  C      42.654000     20.127000     56.113000
  H      43.340000     19.287000     56.293000
  H      43.050000     21.046000     56.568000
  C      41.303000     19.764000     56.682000
  C      40.332000     20.849000     57.228000
  O      40.829000     21.908000     57.680000
  O      39.113000     20.562000     57.217000
  O      40.921000     18.612000     56.668000
  C      40.598000     19.077000     53.588000
  H      40.155000     18.162000     53.194000
  C      41.892000     19.124000     53.921000
  H      42.542000     18.255000     53.804000
  C      42.538000     20.334000     54.544000
  C      41.692000     21.561000     54.333000
  H      42.184000     22.518000     54.504000
  C      40.389000     21.510000     54.043000
  H      39.797000     22.428000     54.036000
  C      39.648000     20.238000     53.725000
  H      38.948000     20.030000     54.556000
  O      38.917000     20.394000     52.514000
  H      37.928000     20.307000     52.657000
  C      44.007000     20.492000     54.022000
  O      44.720000     19.457000     54.031000
  O      44.380000     21.625000     53.646000
24
Coordinates from ORCA-job neb_MEP_ALL.QMRegion E -1076.135916675124
  C      42.394000     19.871000     56.917000
  H      43.081000     19.125000     56.517000
  H      42.772000     20.646000     57.583000
  C      41.093000     19.875000     56.600000
  C      40.130000     20.896000     57.181000
  O      40.619000     21.952000     57.663000
  O      38.904000     20.616000     57.157000
  O      40.534000     18.917000     55.790000
  C      40.530000     19.125000     54.332000
  H      40.032000     18.225000     53.947000
  C      41.961000     19.207000     53.905000
  H      42.559000     18.294000     53.866000
  C      42.576000     20.401000     53.813000
  C      41.786000     21.634000     53.919000
  H      42.351000     22.566000     53.920000
  C      40.448000     21.625000     54.039000
  H      39.897000     22.559000     54.169000
  C      39.656000     20.344000     53.957000
  H      38.842000     20.373000     54.696000
  O      39.126000     20.193000     52.642000
  H      38.128000     20.171000     52.669000
  C      44.090000     20.517000     53.728000
  O      44.781000     19.478000     53.903000
  O      44.542000     21.670000     53.521000
24
Coordinates from ORCA-job neb_MEP_ALL.QMRegion E -1076.139149735940
  C      42.471793     19.928023     56.782138
  H      43.159822     19.204489     56.345712
  H      42.872714     20.748719     57.374381
  C      41.152712     19.881568     56.555442
  C      40.192080     20.885689     57.168731
  O      40.682967     21.937730     57.658052
  O      38.966186     20.603965     57.159711
  O      40.580882     18.902702     55.780759
  C      40.529976     19.080948     54.311693
  H      40.037938     18.166078     53.953771
  C      41.946806     19.184540     53.856277
  H      42.553406     18.281141     53.773982
  C      42.550655     20.388278     53.820460
  C      41.745930     21.607645     53.971207
  H      42.296074     22.546333     54.031123
  C      40.405093     21.576663     54.065413
  H      39.836631     22.498190     54.214984
  C      39.632938     20.285686     53.951094
  H      38.824846     20.286785     54.695758
  O      39.096116     20.151228     52.638826
  H      38.097035     20.146723     52.671230
  C      44.065003     20.513629     53.742815
  O      44.759143     19.476484     53.917730
  O      44.515273     21.667760     53.543895
24
Coordinates from ORCA-job neb_MEP_ALL.QMRegion E -1076.133316683321
  C      42.538828     19.991063     56.635908
  H      43.227758     19.254921     56.225878
  H      42.964566     20.896846     57.067173
  C      41.204272     19.875636     56.516729
  C      40.249223     20.876165     57.150847
  O      40.743006     21.925241     57.644691
  O      39.021150     20.600836     57.152146
  O      40.627826     18.870791     55.779594
  C      40.534611     19.034281     54.261062
  H      40.059399     18.102006     53.919499
  C      41.939490     19.168002     53.824644
  H      42.556291     18.278718     53.693769
  C      42.530540     20.377666     53.905493
  C      41.706550     21.582733     54.078064
  H      42.235622     22.527715     54.200909
  C      40.363683     21.531167     54.090881
  H      39.769775     22.440457     54.211727
  C      39.613682     20.234331     53.929623
  H      38.820910     20.185561     54.685603
  O      39.049546     20.158938     52.623530
  H      38.046713     20.161117     52.667737
  C      44.040809     20.507926     53.816253
  O      44.740980     19.470875     53.968227
  O      44.485164     21.659657     53.599690
24
Coordinates from ORCA-job neb_MEP_ALL.QMRegion E -1076.119821932061
  C      42.563343     20.026103     56.573075
  H      43.244126     19.246183     56.236208
  H      42.992011     20.942056     56.975765
  C      41.212198     19.853265     56.553780
  C      40.257632     20.882963     57.158593
  O      40.748782     21.935015     57.648916
  O      39.028566     20.611992     57.155032
  O      40.653412     18.828854     55.912705
  C      40.535585     19.031938     54.121099
  H      40.059651     18.077360     53.873177
  C      41.929019     19.163450     53.817353
  H      42.553460     18.279158     53.696279
  C      42.528636     20.375299     53.998407
  C      41.701387     21.581366     54.116551
  H      42.226902     22.526977     54.242263
  C      40.359779     21.527330     54.090434
  H      39.761227     22.435104     54.191207
  C      39.612739     20.234209     53.904489
  H      38.834738     20.156632     54.674809
  O      39.027989     20.195370     52.603537
  H      38.025116     20.179295     52.663967
  C      44.038691     20.505725     53.867111
  O      44.737132     19.465152     53.985235
  O      44.474093     21.653423     53.614164
24
Coordinates from ORCA-job neb_MEP_ALL.QMRegion E -1076.115393085216
  C      42.581916     20.051925     56.517296
  H      43.252364     19.238654     56.250543
  H      43.009336     20.963361     56.932798
  C      41.212009     19.831265     56.588533
  C      40.258164     20.886739     57.171683
  O      40.752289     21.942215     57.649701
  O      39.030028     20.619988     57.159399
  O      40.679528     18.798305     56.056736
  C      40.537448     19.034183     53.983991
  H      40.056463     18.065709     53.834701
  C      41.911533     19.155558     53.819635
  H      42.547064     18.277320     53.703514
  C      42.526789     20.376878     54.082312
  C      41.699813     21.585457     54.137651
  H      42.225563     22.532369     54.251033
  C      40.359343     21.526884     54.084815
  H      39.759452     22.433970     54.184049
  C      39.616198     20.233976     53.882584
  H      38.849896     20.141413     54.664712
  O      39.010957     20.221401     52.588647
  H      38.009007     20.187043     52.659597
  C      44.036167     20.505263     53.894688
  O      44.734596     19.463243     53.989177
  O      44.466283     21.648977     53.616769
24
Coordinates from ORCA-job neb_MEP_ALL.QMRegion E -1076.116818995926
  C      42.591905     20.071867     56.444410
  H      43.257130     19.231520     56.258898
  H      43.016732     20.972333     56.891770
  C      41.211144     19.824449     56.594049
  C      40.257895     20.888371     57.174884
  O      40.756660     21.941738     57.650635
  O      39.031599     20.620952     57.164182
  O      40.689516     18.780452     56.127399
  C      40.540473     19.035943     53.928516
  H      40.058307     18.066022     53.804661
  C      41.903887     19.151064     53.831739
  H      42.543863     18.276048     53.711992
  C      42.529134     20.375678     54.159592
  C      41.698753     21.587443     54.155650
  H      42.223622     22.535892     54.258754
  C      40.360525     21.525783     54.081471
  H      39.759807     22.433044     54.173709
  C      39.618349     20.233129     53.873000
  H      38.855440     20.134153     54.659428
  O      39.003330     20.235669     52.582975
  H      38.002265     20.192189     52.657838
  C      44.035245     20.504892     53.915589
  O      44.734185     19.462160     53.992930
  O      44.460121     21.645851     53.619013
24
Coordinates from ORCA-job neb_MEP_ALL.QMRegion E -1076.121647788142
  C      42.601493     20.090791     56.357680
  H      43.258645     19.225415     56.265330
  H      43.019236     20.977769     56.849519
  C      41.208276     19.820720     56.591909
  C      40.257257     20.890850     57.174921
  O      40.761595     21.939439     57.652772
  O      39.032662     20.619521     57.169917
  O      40.696354     18.766721     56.188249
  C      40.544081     19.036764     53.875903
  H      40.059395     18.063551     53.779985
  C      41.897554     19.149123     53.836418
  H      42.540467     18.274644     53.723132
  C      42.534272     20.372438     54.251684
  C      41.697781     21.588488     54.178131
  H      42.222205     22.539538     54.263875
  C      40.362030     21.524016     54.081576
  H      39.760855     22.433633     54.162356
  C      39.619350     20.230628     53.865774
  H      38.858582     20.130022     54.657791
  O      38.999249     20.244248     52.578314
  H      38.000060     20.194869     52.660063
  C      44.035367     20.503681     53.935937
  O      44.735915     19.460780     53.994945
  O      44.452978     21.641613     53.619869
24
Coordinates from ORCA-job neb_MEP_ALL.QMRegion E -1076.132254658246
  C      42.603409     20.114234     56.230754
  H      43.252167     19.233889     56.272309
  H      43.016945     20.968419     56.788628
  C      41.202007     19.825778     56.578774
  C      40.255933     20.894368     57.172846
  O      40.771582     21.933615     57.658131
  O      39.036485     20.610340     57.175532
  O      40.705470     18.755951     56.236580
  C      40.550882     19.039368     53.847583
  H      40.063797     18.069169     53.741311
  C      41.894262     19.141956     53.868262
  H      42.540352     18.270509     53.734172
  C      42.543176     20.365527     54.379468
  C      41.698495     21.586667     54.205784
  H      42.220277     22.542605     54.272449
  C      40.366454     21.518499     54.081614
  H      39.765765     22.429059     54.145622
  C      39.619780     20.227583     53.863567
  H      38.856770     20.126391     54.656175
  O      38.996013     20.253756     52.577483
  H      37.998305     20.203144     52.658243
  C      44.036615     20.502996     53.959627
  O      44.738871     19.460629     53.994103
  O      44.445908     21.636830     53.618338
24
Coordinates from ORCA-job neb_MEP_ALL.QMRegion E -1076.153877204063
  C      42.602060     20.132463     56.096103
  H      43.246364     19.261626     56.279675
  H      43.024538     21.024134     56.573635
  C      41.221828     19.823718     56.612205
  C      40.272804     20.895582     57.200553
  O      40.791810     21.935696     57.670667
  O      39.049838     20.622347     57.193335
  O      40.777373     18.692656     56.489234
  C      40.575914     19.053853     53.718518
  H      40.102437     18.099104     53.484143
  C      41.894334     19.129411     53.920254
  H      42.538126     18.254240     53.813724
  C      42.545971     20.349248     54.506530
  C      41.704173     21.577227     54.279012
  H      42.208357     22.536657     54.387809
  C      40.386288     21.514817     54.066237
  H      39.792588     22.431738     54.075739
  C      39.639095     20.231162     53.808939
  H      38.901160     20.075783     54.620745
  O      38.966238     20.341371     52.557678
  H      37.972400     20.250054     52.657994
  C      44.027472     20.498973     54.015956
  O      44.733162     19.458879     54.028222
  O      44.415913     21.628149     53.642701
24
Coordinates from ORCA-job neb_MEP_ALL.QMRegion E -1076.159997922397
  C      42.654000     20.127000     56.113000
  H      43.340000     19.287000     56.293000
  H      43.050000     21.046000     56.568000
  C      41.303000     19.764000     56.682000
  C      40.332000     20.849000     57.228000
  O      40.829000     21.908000     57.680000
  O      39.113000     20.562000     57.217000
  O      40.921000     18.612000     56.668000
  C      40.598000     19.077000     53.588000
  H      40.155000     18.162000     53.194000
  C      41.892000     19.124000     53.921000
  H      42.542000     18.255000     53.804000
  C      42.538000     20.334000     54.544000
  C      41.692000     21.561000     54.333000
  H      42.184000     22.518000     54.504000
  C      40.389000     21.510000     54.043000
  H      39.797000     22.428000     54.036000
  C      39.648000     20.238000     53.725000
  H      38.948000     20.030000     54.556000
  O      38.917000     20.394000     52.514000
  H      37.928000     20.307000     52.657000
  C      44.007000     20.492000     54.022000
  O      44.720000     19.457000     54.031000
  O      44.380000     21.625000     53.646000
24
Coordinates from ORCA-job neb_MEP_ALL.QMRegion E -1076.135916675124
  C      42.394000     19.871000     56.917000
  H      43.081000     19.125000     56.517000
  H      42.772000     20.646000     57.583000
  C      41.093000     19.875000     56.600000
  C      40.130000     20.896000     57.181000
  O      40.619000     21.952000     57.663000
  O      38.904000     20.616000     57.157000
  O      40.534000     18.917000     55.790000
  C      40.530000     19.125000     54.332000
  H      40.032000     18.225000     53.947000
  C      41.961000     19.207000     53.905000
  H      42.559000     18.294000     53.866000
  C      42.576000     20.401000     53.813000
  C      41.786000     21.634000     53.919000
  H      42.351000     22.566000     53.920000
  C      40.448000     21.625000     54.039000
  H      39.897000     22.559000     54.169000
  C      39.656000     20.344000     53.957000
  H      38.842000     20.373000     54.696000
  O      39.126000     20.193000     52.642000
  H      38.128000     20.171000     52.669000
  C      44.090000     20.517000     53.728000
  O      44.781000     19.478000     53.903000
  O      44.542000     21.670000     53.521000
24
Coordinates from ORCA-job neb_MEP_ALL.QMRegion E -1076.139156798547
  C      42.478782     19.932385     56.770733
  H      43.167198     19.210520     56.332297
  H      42.881195     20.759182     57.353876
  C      41.158350     19.881647     56.549911
  C      40.198000     20.884305     57.166733
  O      40.688677     21.935786     57.657343
  O      38.971924     20.602858     57.160048
  O      40.585584     18.900768     55.779819
  C      40.530259     19.076580     54.309388
  H      40.039200     18.160196     53.953504
  C      41.945967     19.182655     53.852584
  H      42.553490     18.280214     53.765525
  C      42.548367     20.387269     53.822036
  C      41.742103     21.605196     53.976600
  H      42.290507     22.544420     54.041262
  C      40.401011     21.572031     54.067437
  H      39.830617     22.492167     54.217025
  C      39.630976     20.280224     53.950202
  H      38.823745     20.277986     54.695480
  O      39.092697     20.148045     52.638237
  H      38.093370     20.145635     52.671260
  C      44.062522     20.513150     53.745400
  O      44.757314     19.476328     53.919890
  O      44.512383     21.667413     53.546911
24
Coordinates from ORCA-job neb_MEP_ALL.QMRegion E -1076.133084641413
  C      42.540652     19.990916     56.634749
  H      43.229780     19.256103     56.223834
  H      42.966605     20.900976     57.054934
  C      41.205775     19.876854     56.513612
  C      40.250842     20.875718     57.147224
  O      40.744581     21.922474     57.644711
  O      39.022694     20.600974     57.152484
  O      40.627661     18.869805     55.778771
  C      40.535316     19.033762     54.259897
  H      40.061902     18.101525     53.918217
  C      41.940667     19.167408     53.826165
  H      42.557286     18.278829     53.691849
  C      42.530827     20.376925     53.908428
  C      41.705829     21.580985     54.082763
  H      42.233542     22.526394     54.208315
  C      40.362599     21.529173     54.092802
  H      39.767509     22.438264     54.208821
  C      39.613093     20.232807     53.929413
  H      38.820201     20.182132     54.685528
  O      39.048011     20.159749     52.623326
  H      38.044962     20.162214     52.667430
  C      44.040642     20.507197     53.819744
  O      44.740889     19.470115     53.971694
  O      44.484174     21.659240     53.602971
24
Coordinates from ORCA-job neb_MEP_ALL.QMRegion E -1076.119665360070
  C      42.564667     20.027128     56.570034
  H      43.245287     19.244956     56.237287
  H      42.990880     20.940895     56.977561
  C      41.212826     19.853328     56.554701
  C      40.258165     20.883129     57.158845
  O      40.747722     21.935512     57.649505
  O      39.029396     20.612292     57.154949
  O      40.654219     18.826765     55.918340
  C      40.535758     19.031667     54.115526
  H      40.059813     18.076074     53.872451
  C      41.928561     19.162997     53.815498
  H      42.553913     18.279720     53.696624
  C      42.528386     20.374985     53.997983
  C      41.700688     21.580762     54.114725
  H      42.226379     22.526038     54.243816
  C      40.358816     21.526479     54.090090
  H      39.761008     22.434564     54.190789
  C      39.612735     20.233419     53.904305
  H      38.834757     20.155466     54.674402
  O      39.027943     20.194891     52.603623
  H      38.025439     20.179545     52.664891
  C      44.038931     20.505893     53.866793
  O      44.737415     19.465528     53.985744
  O      44.474999     21.653516     53.614848
24
Coordinates from ORCA-job neb_MEP_ALL.QMRegion E -1076.115394829113
  C      42.582937     20.052699     56.515458
  H      43.253161     19.238323     56.251837
  H      43.009798     20.963403     56.933135
  C      41.212620     19.829825     56.590565
  C      40.258564     20.886468     57.172925
  O      40.752359     21.942721     57.649608
  O      39.030530     20.620267     57.159158
  O      40.681199     18.796456     56.061490
  C      40.537447     19.033330     53.979673
  H      40.056433     18.064211     53.832358
  C      41.911084     19.154972     53.819622
  H      42.546989     18.277308     53.703493
  C      42.526634     20.376666     54.084188
  C      41.699643     21.585152     54.137781
  H      42.225263     22.532320     54.251471
  C      40.358935     21.526230     54.084118
  H      39.759014     22.433439     54.183945
  C      39.616471     20.233197     53.881001
  H      38.851447     20.139666     54.663644
  O      39.009718     20.222092     52.587680
  H      38.007782     20.187007     52.659619
  C      44.036099     20.505293     53.895378
  O      44.734529     19.463220     53.989250
  O      44.466144     21.648872     53.616920
24
Coordinates from ORCA-job neb_MEP_ALL.QMRegion E -1076.116782295162
  C      42.592080     20.071239     56.446441
  H      43.257356     19.231848     56.259185
  H      43.016575     20.971405     56.893068
  C      41.211725     19.823548     56.594881
  C      40.258070     20.887814     57.175284
  O      40.756883     21.941933     57.650456
  O      39.031686     20.620993     57.163719
  O      40.690164     18.780204     56.127222
  C      40.540646     19.035442     53.929469
  H      40.058640     18.065247     53.804185
  C      41.904475     19.151001     53.831571
  H      42.544353     18.275910     53.711420
  C      42.529122     20.375542     54.156728
  C      41.698721     21.586877     54.154904
  H      42.223303     22.535379     54.259167
  C      40.360337     21.525302     54.081052
  H      39.759345     22.432463     54.173790
  C      39.618236     20.232723     53.872164
  H      38.856440     20.132862     54.658916
  O      39.002632     20.235487     52.582957
  H      38.001579     20.191797     52.657735
  C      44.035205     20.504890     53.915195
  O      44.733951     19.462139     53.993160
  O      44.460199     21.645949     53.619282
24
Coordinates from ORCA-job neb_MEP_ALL.QMRegion E -1076.121269377006
  C      42.601556     20.088793     56.364576
  H      43.259844     19.224858     56.264711
  H      43.018980     20.977942     56.852565
  C      41.208744     19.820720     56.592581
  C      40.257577     20.890060     57.175588
  O      40.761364     21.939669     57.651936
  O      39.033135     20.620317     57.169526
  O      40.696819     18.766449     56.188909
  C      40.543696     19.036972     53.873412
  H      40.059861     18.062035     53.782203
  C      41.896768     19.149749     53.832163
  H      42.540923     18.274554     53.722860
  C      42.533907     20.372709     54.244026
  C      41.697246     21.588219     54.178929
  H      42.222228     22.539179     54.264066
  C      40.361194     21.523453     54.081800
  H      39.760588     22.433494     54.162818
  C      39.620576     20.230405     53.865380
  H      38.861176     20.129014     54.656704
  O      38.998414     20.243595     52.577680
  H      37.999174     20.193195     52.660883
  C      44.035118     20.503466     53.936156
  O      44.735726     19.460859     53.995513
  O      44.453043     21.641360     53.620454
24
Coordinates from ORCA-job neb_MEP_ALL.QMRegion E -1076.131669932698
  C      42.605911     20.115455     56.230698
  H      43.251192     19.235535     56.270883
  H      43.014788     20.967182     56.792852
  C      41.201903     19.827966     56.567157
  C      40.256885     20.890725     57.171657
  O      40.768123     21.931225     57.658206
  O      39.035983     20.612451     57.176977
  O      40.699790     18.761412     56.228115
  C      40.551136     19.039285     53.846467
  H      40.062391     18.067075     53.747081
  C      41.896305     19.143915     53.865571
  H      42.540152     18.270611     53.736584
  C      42.547418     20.364397     54.383298
  C      41.698885     21.584272     54.210647
  H      42.220763     22.541523     54.270983
  C      40.366300     21.517093     54.084640
  H      39.765970     22.429427     54.144664
  C      39.619693     20.227544     53.866667
  H      38.854854     20.129760     54.657662
  O      38.998565     20.248555     52.579000
  H      38.000545     20.202316     52.659896
  C      44.036968     20.502206     53.961407
  O      44.739992     19.460406     53.992498
  O      44.444753     21.635416     53.617722
24
Coordinates from ORCA-job neb_MEP_ALL.QMRegion E -1076.153961411911
  C      42.602410     20.134141     56.098560
  H      43.249315     19.263018     56.282939
  H      43.024626     21.026995     56.576801
  C      41.222056     19.820437     56.621109
  C      40.274358     20.896476     57.203990
  O      40.790531     21.938349     57.671205
  O      39.051224     20.624468     57.191949
  O      40.783856     18.694013     56.493328
  C      40.576075     19.054270     53.711766
  H      40.103607     18.099349     53.473236
  C      41.895222     19.128348     53.916600
  H      42.539094     18.251439     53.816882
  C      42.544218     20.347590     54.504985
  C      41.703457     21.575714     54.272837
  H      42.207957     22.533761     54.396344
  C      40.385365     21.515705     54.060139
  H      39.792426     22.434026     54.075719
  C      39.638927     20.231220     53.806190
  H      38.902891     20.072261     54.619605
  O      38.965478     20.345553     52.556309
  H      37.972934     20.253198     52.659099
  C      44.027482     20.499040     54.014601
  O      44.732984     19.458858     54.029162
  O      44.417299     21.628343     53.643518
24
Coordinates from ORCA-job neb_MEP_ALL.QMRegion E -1076.159997922397
  C      42.654000     20.127000     56.113000
  H      43.340000     19.287000     56.293000
  H      43.050000     21.046000     56.568000
  C      41.303000     19.764000     56.682000
  C      40.332000     20.849000     57.228000
  O      40.829000     21.908000     57.680000
  O      39.113000     20.562000     57.217000
  O      40.921000     18.612000     56.668000
  C      40.598000     19.077000     53.588000
  H      40.155000     18.162000     53.194000
  C      41.892000     19.124000     53.921000
  H      42.542000     18.255000     53.804000
  C      42.538000     20.334000     54.544000
  C      41.692000     21.561000     54.333000
  H      42.184000     22.518000     54.504000
  C      40.389000     21.510000     54.043000
  H      39.797000     22.428000     54.036000
  C      39.648000     20.238000     53.725000
  H      38.948000     20.030000     54.556000
  O      38.917000     20.394000     52.514000
  H      37.928000     20.307000     52.657000
  C      44.007000     20.492000     54.022000
  O      44.720000     19.457000     54.031000
  O      44.380000     21.625000     53.646000
24
Coordinates from ORCA-job neb_MEP_ALL.QMRegion E -1076.135916675124
  C      42.394000     19.871000     56.917000
  H      43.081000     19.125000     56.517000
  H      42.772000     20.646000     57.583000
  C      41.093000     19.875000     56.600000
  C      40.130000     20.896000     57.181000
  O      40.619000     21.952000     57.663000
  O      38.904000     20.616000     57.157000
  O      40.534000     18.917000     55.790000
  C      40.530000     19.125000     54.332000
  H      40.032000     18.225000     53.947000
  C      41.961000     19.207000     53.905000
  H      42.559000     18.294000     53.866000
  C      42.576000     20.401000     53.813000
  C      41.786000     21.634000     53.919000
  H      42.351000     22.566000     53.920000
  C      40.448000     21.625000     54.039000
  H      39.897000     22.559000     54.169000
  C      39.656000     20.344000     53.957000
  H      38.842000     20.373000     54.696000
  O      39.126000     20.193000     52.642000
  H      38.128000     20.171000     52.669000
  C      44.090000     20.517000     53.728000
  O      44.781000     19.478000     53.903000
  O      44.542000     21.670000     53.521000
24
Coordinates from ORCA-job neb_MEP_ALL.QMRegion E -1076.139125920172
  C      42.487077     19.937992     56.757530
  H      43.175553     19.217425     56.316602
  H      42.891230     20.771358     57.331357
  C      41.165329     19.881084     56.543692
  C      40.205121     20.883209     57.163689
  O      40.694410     21.933623     57.657038
  O      38.979637     20.601627     57.160750
  O      40.589018     18.897061     55.778384
  C      40.530796     19.071918     54.305848
  H      40.040970     18.153836     53.954180
  C      41.945409     19.180487     53.847347
  H      42.553697     18.278898     53.755809
  C      42.546002     20.386242     53.823278
  C      41.737522     21.602224     53.982297
  H      42.284095     22.542112     54.052709
  C      40.396352     21.566525     54.069929
  H      39.823644     22.484940     54.219484
  C      39.628345     20.274077     53.949241
  H      38.822000     20.267922     54.695655
  O      39.088945     20.143721     52.637591
  H      38.089464     20.144190     52.671530
  C      44.059727     20.512793     53.748612
  O      44.755025     19.475834     53.922048
  O      44.508954     21.667215     53.550047
24
Coordinates from ORCA-job neb_MEP_ALL.QMRegion E -1076.132714097371
  C      42.543034     19.992896     56.629487
  H      43.232173     19.255546     56.221765
  H      42.969271     20.906687     57.044329
  C      41.207484     19.873707     56.510475
  C      40.252479     20.877372     57.142587
  O      40.744683     21.921021     57.646214
  O      39.025890     20.601121     57.153135
  O      40.625360     18.866502     55.785210
  C      40.536527     19.034071     54.252023
  H      40.064457     18.100415     53.917474
  C      41.941658     19.167149     53.824425
  H      42.558786     18.278386     53.690306
  C      42.532195     20.376685     53.912319
  C      41.704671     21.579273     54.086467
  H      42.231115     22.524369     54.216985
  C      40.361436     21.526950     54.094791
  H      39.765221     22.435588     54.206000
  C      39.611423     20.231621     53.928799
  H      38.818978     20.178280     54.686181
  O      39.046709     20.159914     52.622459
  H      38.044077     20.163477     52.668266
  C      44.040504     20.506984     53.824575
  O      44.740408     19.468684     53.974995
  O      44.483461     21.659508     53.606014
24
Coordinates from ORCA-job neb_MEP_ALL.QMRegion E -1076.119331886414
  C      42.566027     20.027321     56.567522
  H      43.245825     19.244178     56.238500
  H      42.992126     20.942781     56.979578
  C      41.213653     19.849216     56.555123
  C      40.258719     20.883497     57.159725
  O      40.746482     21.936248     57.649912
  O      39.030764     20.613318     57.155028
  O      40.655115     18.824513     55.925195
  C      40.536417     19.030426     54.108640
  H      40.059792     18.074478     53.870929
  C      41.927677     19.162398     53.813818
  H      42.554402     18.279134     53.696739
  C      42.528232     20.375405     53.999082
  C      41.699748     21.580889     54.114925
  H      42.226067     22.525741     54.244570
  C      40.358171     21.525528     54.088527
  H      39.760740     22.433787     54.190847
  C      39.612803     20.232110     53.902898
  H      38.835561     20.153579     54.673708
  O      39.026896     20.195142     52.602976
  H      38.024770     20.179645     52.665297
  C      44.038601     20.505908     53.867108
  O      44.737682     19.465472     53.985974
  O      44.475131     21.653442     53.615212
24
Coordinates from ORCA-job neb_MEP_ALL.QMRegion E -1076.115407524694
  C      42.584217     20.053563     56.514224
  H      43.254287     19.237464     56.253031
  H      43.010988     20.964583     56.934213
  C      41.213731     19.827570     56.591558
  C      40.259136     20.886392     57.173534
  O      40.752001     21.942891     57.649862
  O      39.031223     20.620699     57.159376
  O      40.681805     18.793671     56.067136
  C      40.537481     19.032097     53.974086
  H      40.056719     18.063261     53.829999
  C      41.911121     19.154458     53.820013
  H      42.547056     18.276943     53.703325
  C      42.526758     20.376591     54.085717
  C      41.698966     21.585105     54.138346
  H      42.224944     22.532113     54.251843
  C      40.358706     21.525365     54.082767
  H      39.758599     22.432471     54.183898
  C      39.616684     20.232069     53.879093
  H      38.852351     20.137615     54.663068
  O      39.008327     20.222709     52.586721
  H      38.006592     20.187025     52.659591
  C      44.035868     20.505040     53.896194
  O      44.734487     19.462871     53.989310
  O      44.465630     21.648946     53.617022
24
Coordinates from ORCA-job neb_MEP_ALL.QMRegion E -1076.116743580153
  C      42.592921     20.070449     56.448735
  H      43.257676     19.231904     56.259500
  H      43.016884     20.971381     56.894838
  C      41.211816     19.821937     56.595508
  C      40.259438     20.887319     57.175637
  O      40.756597     21.942175     57.650445
  O      39.031585     20.621100     57.163388
  O      40.690698     18.779432     56.127564
  C      40.541318     19.034716     53.928178
  H      40.058807     18.064029     53.803680
  C      41.904621     19.150655     53.831832
  H      42.544870     18.275691     53.710781
  C      42.529462     20.375713     54.153851
  C      41.698473     21.586536     54.154348
  H      42.222996     22.534792     54.259615
  C      40.359981     21.524696     54.080231
  H      39.758823     22.431772     54.173901
  C      39.618135     20.231899     53.871338
  H      38.856881     20.131432     54.658881
  O      39.001907     20.235055     52.582667
  H      38.001018     20.191460     52.657829
  C      44.035404     20.504880     53.915013
  O      44.733849     19.461894     53.993291
  O      44.459945     21.646025     53.619485
24
Coordinates from ORCA-job neb_MEP_ALL.QMRegion E -1076.121008528630
  C      42.601675     20.089269     56.366476
  H      43.260758     19.224789     56.265506
  H      43.018846     20.976097     56.853313
  C      41.209681     19.818874     56.593649
  C      40.258962     20.888833     57.178043
  O      40.761097     21.940598     57.650897
  O      39.033451     20.621285     57.168557
  O      40.698108     18.765120     56.190207
  C      40.544242     19.036429     53.873649
  H      40.060865     18.061641     53.781436
  C      41.896955     19.148443     53.833958
  H      42.541042     18.274867     53.721257
  C      42.532892     20.373058     54.238873
  C      41.697105     21.588088     54.178382
  H      42.221725     22.538521     54.265446
  C      40.361413     21.523434     54.080929
  H      39.760353     22.432257     54.162992
  C      39.621417     20.230150     53.863229
  H      38.863753     20.126451     54.655015
  O      38.996805     20.244470     52.578136
  H      37.997235     20.192210     52.660319
  C      44.035122     20.503721     53.936309
  O      44.734811     19.460742     53.996569
  O      44.453052     21.641580     53.621285
24
Coordinates from ORCA-job neb_MEP_ALL.QMRegion E -1076.131521708100
  C      42.608743     20.114842     56.225306
  H      43.250709     19.233922     56.270784
  H      43.014095     20.970166     56.795248
  C      41.200442     19.825156     56.559698
  C      40.259301     20.886573     57.175063
  O      40.764068     21.931362     57.657007
  O      39.034133     20.617222     57.177461
  O      40.696157     18.764439     56.226620
  C      40.553301     19.038505     53.843843
  H      40.062086     18.064615     53.750312
  C      41.896415     19.145289     53.864136
  H      42.539058     18.271617     53.738430
  C      42.549691     20.365137     54.384829
  C      41.700128     21.582786     54.214739
  H      42.220131     22.539663     54.270930
  C      40.367463     21.518221     54.087116
  H      39.766193     22.429662     54.143425
  C      39.621421     20.226421     53.867073
  H      38.856114     20.130180     54.657137
  O      38.998763     20.246440     52.580747
  H      38.001050     20.200338     52.661125
  C      44.037840     20.502447     53.963068
  O      44.739473     19.458955     53.993222
  O      44.442626     21.635106     53.618392
24
Coordinates from ORCA-job neb_MEP_ALL.QMRegion E -1076.154172871181
  C      42.604957     20.137121     56.101615
  H      43.251962     19.265173     56.286282
  H      43.025401     21.030348     56.585204
  C      41.223836     19.816041     56.624630
  C      40.274967     20.896326     57.206218
  O      40.788961     21.942610     57.672959
  O      39.052806     20.626165     57.190725
  O      40.786241     18.694690     56.494373
  C      40.575971     19.053702     53.709102
  H      40.104643     18.100531     53.465862
  C      41.895176     19.126484     53.912880
  H      42.539787     18.249101     53.818134
  C      42.544286     20.346637     54.502918
  C      41.702967     21.574484     54.268738
  H      42.207510     22.530772     54.402234
  C      40.384389     21.516139     54.057391
  H      39.792088     22.435208     54.076360
  C      39.638897     20.232218     53.801745
  H      38.906181     20.069936     54.617594
  O      38.963966     20.347653     52.553294
  H      37.972197     20.255677     52.660086
  C      44.026259     20.497777     54.011389
  O      44.733282     19.458408     54.029979
  O      44.418252     21.628933     53.644583
24
Coordinates from ORCA-job neb_MEP_ALL.QMRegion E -1076.159997922397
  C      42.654000     20.127000     56.113000
  H      43.340000     19.287000     56.293000
  H      43.050000     21.046000     56.568000
  C      41.303000     19.764000     56.682000
  C      40.332000     20.849000     57.228000
  O      40.829000     21.908000     57.680000
  O      39.113000     20.562000     57.217000
  O      40.921000     18.612000     56.668000
  C      40.598000     19.077000     53.588000
  H      40.155000     18.162000     53.194000
  C      41.892000     19.124000     53.921000
  H      42.542000     18.255000     53.804000
  C      42.538000     20.334000     54.544000
  C      41.692000     21.561000     54.333000
  H      42.184000     22.518000     54.504000
  C      40.389000     21.510000     54.043000
  H      39.797000     22.428000     54.036000
  C      39.648000     20.238000     53.725000
  H      38.948000     20.030000     54.556000
  O      38.917000     20.394000     52.514000
  H      37.928000     20.307000     52.657000
  C      44.007000     20.492000     54.022000
  O      44.720000     19.457000     54.031000
  O      44.380000     21.625000     53.646000
24
Coordinates from ORCA-job neb_MEP_ALL.QMRegion E -1076.135916675124
  C      42.394000     19.871000     56.917000
  H      43.081000     19.125000     56.517000
  H      42.772000     20.646000     57.583000
  C      41.093000     19.875000     56.600000
  C      40.130000     20.896000     57.181000
  O      40.619000     21.952000     57.663000
  O      38.904000     20.616000     57.157000
  O      40.534000     18.917000     55.790000
  C      40.530000     19.125000     54.332000
  H      40.032000     18.225000     53.947000
  C      41.961000     19.207000     53.905000
  H      42.559000     18.294000     53.866000
  C      42.576000     20.401000     53.813000
  C      41.786000     21.634000     53.919000
  H      42.351000     22.566000     53.920000
  C      40.448000     21.625000     54.039000
  H      39.897000     22.559000     54.169000
  C      39.656000     20.344000     53.957000
  H      38.842000     20.373000     54.696000
  O      39.126000     20.193000     52.642000
  H      38.128000     20.171000     52.669000
  C      44.090000     20.517000     53.728000
  O      44.781000     19.478000     53.903000
  O      44.542000     21.670000     53.521000
24
Coordinates from ORCA-job neb_MEP_ALL.QMRegion E -1076.139090341929
  C      42.495470     19.944051     56.743620
  H      43.184017     19.224569     56.300349
  H      42.901579     20.783593     57.309690
  C      41.172528     19.879617     56.537460
  C      40.213298     20.882004     57.159978
  O      40.700150     21.932233     57.657325
  O      38.987557     20.599869     57.161452
  O      40.591593     18.892962     55.776857
  C      40.531514     19.067429     54.301739
  H      40.042983     18.147542     53.955706
  C      41.945006     19.178282     53.840923
  H      42.554059     18.277318     53.745862
  C      42.543786     20.385144     53.823780
  C      41.732696     21.599055     53.987329
  H      42.277484     22.539581     54.063972
  C      40.391574     21.560685     54.072525
  H      39.816404     22.477323     54.222272
  C      39.625327     20.267670     53.948478
  H      38.819779     20.257717     54.696280
  O      39.085237     20.138475     52.637044
  H      38.085890     20.142374     52.672065
  C      44.057151     20.512619     53.751666
  O      44.752345     19.475304     53.923845
  O      44.505452     21.667130     53.552942
24
Coordinates from ORCA-job neb_MEP_ALL.QMRegion E -1076.132190867376
  C      42.546431     19.997238     56.618612
  H      43.234771     19.253173     56.220711
  H      42.972245     20.913403     57.035894
  C      41.209216     19.868492     56.511340
  C      40.256050     20.878940     57.138453
  O      40.744057     21.923252     57.649094
  O      39.028149     20.601318     57.153416
  O      40.622344     18.859685     55.798248
  C      40.537656     19.034363     54.236942
  H      40.066280     18.097573     53.916018
  C      41.942238     19.167005     53.818952
  H      42.560260     18.277678     53.689565
  C      42.533014     20.376862     53.918628
  C      41.703109     21.577769     54.089177
  H      42.228660     22.522200     54.226130
  C      40.360225     21.524778     54.095791
  H      39.763189     22.432935     54.203761
  C      39.609553     20.230655     53.927155
  H      38.818039     20.173866     54.686970
  O      39.045278     20.160168     52.620721
  H      38.043676     20.164962     52.670059
  C      44.042144     20.507476     53.830622
  O      44.738826     19.468024     53.977517
  O      44.482605     21.659046     53.608670
24
Coordinates from ORCA-job neb_MEP_ALL.QMRegion E -1076.118985840679
  C      42.568105     20.029580     56.567351
  H      43.246569     19.243210     56.239367
  H      42.994868     20.945566     56.980167
  C      41.214783     19.844516     56.557363
  C      40.260596     20.882401     57.160190
  O      40.746159     21.937807     57.650320
  O      39.030949     20.614601     57.155272
  O      40.655242     18.820036     55.932393
  C      40.537178     19.028963     54.099583
  H      40.059561     18.072354     53.868418
  C      41.927443     19.161421     53.812705
  H      42.554452     18.277847     53.696549
  C      42.527434     20.375759     54.002557
  C      41.698979     21.581471     54.117361
  H      42.226034     22.526535     54.244329
  C      40.357866     21.524672     54.085984
  H      39.760360     22.432632     54.191346
  C      39.613130     20.230382     53.900211
  H      38.837314     20.150949     54.672700
  O      39.024781     20.196219     52.601326
  H      38.022656     20.179563     52.664926
  C      44.038588     20.505585     53.868277
  O      44.737226     19.465469     53.985721
  O      44.473950     21.652830     53.615162
24
Coordinates from ORCA-job neb_MEP_ALL.QMRegion E -1076.115445690269
  C      42.586712     20.054204     56.514056
  H      43.255477     19.236562     56.254105
  H      43.012491     20.966288     56.935892
  C      41.214268     19.825400     56.591708
  C      40.260030     20.885940     57.173022
  O      40.751665     21.942975     57.650588
  O      39.031731     20.620968     57.159984
  O      40.681481     18.790220     56.072845
  C      40.538725     19.031767     53.968029
  H      40.057046     18.062313     53.827759
  C      41.910835     19.153400     53.820545
  H      42.547373     18.276252     53.703036
  C      42.526884     20.377133     54.086783
  C      41.698449     21.584829     54.139085
  H      42.224636     22.531881     54.252126
  C      40.358323     21.524311     54.080939
  H      39.758199     22.431011     54.183893
  C      39.616386     20.230568     53.877496
  H      38.852687     20.135506     54.662826
  O      39.006975     20.223057     52.585724
  H      38.005505     20.187107     52.659515
  C      44.036034     20.504812     53.896757
  O      44.734232     19.462562     53.989305
  O      44.464575     21.648609     53.617211
24
Coordinates from ORCA-job neb_MEP_ALL.QMRegion E -1076.116733868586
  C      42.593310     20.070289     56.450410
  H      43.258579     19.231122     56.259873
  H      43.017721     20.972248     56.896458
  C      41.213664     19.821307     56.596417
  C      40.259593     20.887284     57.176184
  O      40.756080     21.941793     57.650362
  O      39.033108     20.621427     57.163283
  O      40.690324     18.776490     56.128962
  C      40.541236     19.033582     53.923660
  H      40.059044     18.062755     53.802804
  C      41.905346     19.149818     53.832258
  H      42.545179     18.275531     53.710329
  C      42.529716     20.376134     54.152746
  C      41.698017     21.586237     54.154153
  H      42.222747     22.534415     54.260134
  C      40.359572     21.523967     54.079070
  H      39.758273     22.430943     54.173918
  C      39.618050     20.230598     53.870498
  H      38.856856     20.129889     54.659175
  O      39.001167     20.234485     52.582057
  H      38.000525     20.191297     52.658107
  C      44.035605     20.504660     53.915156
  O      44.733994     19.461466     53.993327
  O      44.459541     21.646215     53.619587
24
Coordinates from ORCA-job neb_MEP_ALL.QMRegion E -1076.120993320759
  C      42.601773     20.088902     56.361072
  H      43.260612     19.226370     56.267848
  H      43.019672     20.974229     56.852177
  C      41.211416     19.817285     56.595991
  C      40.260474     20.887215     57.181381
  O      40.760977     21.941714     57.649946
  O      39.034499     20.622209     57.167335
  O      40.699804     18.761442     56.191801
  C      40.544173     19.035130     53.876316
  H      40.062351     18.062447     53.777132
  C      41.898635     19.146173     53.842018
  H      42.541410     18.274784     53.718538
  C      42.532617     20.373248     54.238461
  C      41.697020     21.587935     54.176117
  H      42.221005     22.538006     54.268106
  C      40.362346     21.522983     54.078520
  H      39.759885     22.430464     54.162832
  C      39.622274     20.229771     53.860984
  H      38.865860     20.122556     54.652934
  O      38.994259     20.246832     52.578505
  H      37.994494     20.192320     52.658463
  C      44.034471     20.504306     53.936338
  O      44.733535     19.460374     53.997913
  O      44.453239     21.642437     53.622182
24
Coordinates from ORCA-job neb_MEP_ALL.QMRegion E -1076.131621795158
  C      42.610823     20.116945     56.217193
  H      43.251354     19.228359     56.272299
  H      43.013581     20.973118     56.791839
  C      41.202513     19.822304     56.561702
  C      40.258211     20.884905     57.182896
  O      40.761340     21.933086     57.654352
  O      39.034951     20.623418     57.176648
  O      40.693298     18.757796     56.232803
  C      40.554651     19.036541     53.839830
  H      40.063825     18.062752     53.749227
  C      41.896475     19.145951     53.864972
  H      42.537600     18.273111     53.738910
  C      42.549896     20.365783     54.384409
  C      41.701034     21.583726     54.216168
  H      42.219080     22.538400     54.273156
  C      40.369522     21.518856     54.087453
  H      39.766009     22.430415     54.142300
  C      39.624810     20.226099     53.864220
  H      38.861375     20.126257     54.654343
  O      38.997082     20.248817     52.581823
  H      37.998410     20.197462     52.661693
  C      44.037745     20.502357     53.964217
  O      44.736936     19.457787     53.996606
  O      44.441189     21.636786     53.620242
24
Coordinates from ORCA-job neb_MEP_ALL.QMRegion E -1076.154264401972
  C      42.609451     20.140461     56.103853
  H      43.254309     19.267975     56.289185
  H      43.026493     21.033377     56.598292
  C      41.227068     19.815890     56.622021
  C      40.276199     20.897527     57.207460
  O      40.786132     21.944526     57.674367
  O      39.054376     20.626707     57.189864
  O      40.782791     18.691498     56.490884
  C      40.575560     19.053650     53.711028
  H      40.104676     18.101602     53.463956
  C      41.894955     19.124976     53.911233
  H      42.539963     18.247530     53.816581
  C      42.545652     20.346207     54.500864
  C      41.702924     21.573284     54.268654
  H      42.207206     22.528652     54.403788
  C      40.383944     21.516081     54.058856
  H      39.791603     22.434755     54.077771
  C      39.639261     20.233116     53.796674
  H      38.910789     20.069667     54.614420
  O      38.961914     20.346688     52.549074
  H      37.969772     20.256870     52.660505
  C      44.025767     20.496298     54.007036
  O      44.733299     19.458053     54.030031
  O      44.417626     21.628219     53.645802
24
Coordinates from ORCA-job neb_MEP_ALL.QMRegion E -1076.159997922397
  C      42.654000     20.127000     56.113000
  H      43.340000     19.287000     56.293000
  H      43.050000     21.046000     56.568000
  C      41.303000     19.764000     56.682000
  C      40.332000     20.849000     57.228000
  O      40.829000     21.908000     57.680000
  O      39.113000     20.562000     57.217000
  O      40.921000     18.612000     56.668000
  C      40.598000     19.077000     53.588000
  H      40.155000     18.162000     53.194000
  C      41.892000     19.124000     53.921000
  H      42.542000     18.255000     53.804000
  C      42.538000     20.334000     54.544000
  C      41.692000     21.561000     54.333000
  H      42.184000     22.518000     54.504000
  C      40.389000     21.510000     54.043000
  H      39.797000     22.428000     54.036000
  C      39.648000     20.238000     53.725000
  H      38.948000     20.030000     54.556000
  O      38.917000     20.394000     52.514000
  H      37.928000     20.307000     52.657000
  C      44.007000     20.492000     54.022000
  O      44.720000     19.457000     54.031000
  O      44.380000     21.625000     53.646000
24
Coordinates from ORCA-job neb_MEP_ALL.QMRegion E -1076.135916675124
  C      42.394000     19.871000     56.917000
  H      43.081000     19.125000     56.517000
  H      42.772000     20.646000     57.583000
  C      41.093000     19.875000     56.600000
  C      40.130000     20.896000     57.181000
  O      40.619000     21.952000     57.663000
  O      38.904000     20.616000     57.157000
  O      40.534000     18.917000     55.790000
  C      40.530000     19.125000     54.332000
  H      40.032000     18.225000     53.947000
  C      41.961000     19.207000     53.905000
  H      42.559000     18.294000     53.866000
  C      42.576000     20.401000     53.813000
  C      41.786000     21.634000     53.919000
  H      42.351000     22.566000     53.920000
  C      40.448000     21.625000     54.039000
  H      39.897000     22.559000     54.169000
  C      39.656000     20.344000     53.957000
  H      38.842000     20.373000     54.696000
  O      39.126000     20.193000     52.642000
  H      38.128000     20.171000     52.669000
  C      44.090000     20.517000     53.728000
  O      44.781000     19.478000     53.903000
  O      44.542000     21.670000     53.521000
24
Coordinates from ORCA-job neb_MEP_ALL.QMRegion E -1076.138983988835
  C      42.505441     19.951155     56.727089
  H      43.193833     19.233097     56.281536
  H      42.912989     20.796725     57.284951
  C      41.180187     19.878055     56.530848
  C      40.222511     20.880703     57.156478
  O      40.707495     21.930586     57.657217
  O      38.996959     20.597127     57.161650
  O      40.595666     18.889356     55.774948
  C      40.532253     19.062034     54.297368
  H      40.045263     18.140045     53.957527
  C      41.944356     19.175549     53.832986
  H      42.554467     18.275612     53.734290
  C      42.541073     20.383621     53.823916
  C      41.727256     21.595244     53.992498
  H      42.269718     22.536533     54.076639
  C      40.385721     21.553812     54.075371
  H      39.807888     22.468493     54.225842
  C      39.621850     20.259830     53.947768
  H      38.817112     20.245927     54.697087
  O      39.081161     20.131885     52.636693
  H      38.081832     20.139943     52.672796
  C      44.054211     20.512456     53.754387
  O      44.749148     19.474837     53.925758
  O      44.501725     21.667246     53.556227
24
Coordinates from ORCA-job neb_MEP_ALL.QMRegion E -1076.131131871168
  C      42.551110     20.004217     56.603962
  H      43.238051     19.249663     56.220689
  H      42.975490     20.920417     57.026138
  C      41.210772     19.862475     56.516359
  C      40.259397     20.880607     57.138529
  O      40.743866     21.926890     57.650779
  O      39.031163     20.602110     57.152229
  O      40.622184     18.851239     55.814019
  C      40.538506     19.032883     54.218111
  H      40.067175     18.092099     53.912026
  C      41.941719     19.166656     53.811795
  H      42.561515     18.276940     53.689154
  C      42.532883     20.376788     53.928407
  C      41.701363     21.576709     54.092838
  H      42.225983     22.520234     54.236111
  C      40.358294     21.522808     54.095203
  H      39.761196     22.430190     54.201882
  C      39.608253     20.228970     53.924179
  H      38.818589     20.168061     54.686679
  O      39.043039     20.161660     52.618176
  H      38.042240     20.166842     52.671929
  C      44.042867     20.507931     53.838019
  O      44.737625     19.467451     53.979991
  O      44.482277     21.658692     53.611306
24
Coordinates from ORCA-job neb_MEP_ALL.QMRegion E -1076.118567941200
  C      42.570435     20.031978     56.568218
  H      43.247641     19.242652     56.240447
  H      42.998511     20.948725     56.979606
  C      41.215414     19.838661     56.560507
  C      40.261841     20.881493     57.161190
  O      40.747025     21.938502     57.649981
  O      39.031565     20.615589     57.155305
  O      40.657165     18.815929     55.942354
  C      40.538189     19.027513     54.087698
  H      40.059238     18.069379     53.864588
  C      41.926955     19.160049     53.812275
  H      42.554418     18.276104     53.696027
  C      42.526834     20.375876     54.007952
  C      41.698902     21.582114     54.120844
  H      42.225836     22.527719     54.243629
  C      40.357467     21.523845     54.083206
  H      39.759664     22.430885     54.191892
  C      39.613446     20.228606     53.896454
  H      38.839996     20.147423     54.671301
  O      39.021784     20.197754     52.598672
  H      38.019269     20.179408     52.664008
  C      44.038003     20.505241     53.870345
  O      44.736498     19.465027     53.985180
  O      44.471940     21.652180     53.614758
24
Coordinates from ORCA-job neb_MEP_ALL.QMRegion E -1076.115495185480
  C      42.589317     20.054708     56.514654
  H      43.257077     19.235720     56.255379
  H      43.013931     20.967570     56.937958
  C      41.214819     19.823325     56.591867
  C      40.260685     20.885654     57.172277
  O      40.751715     21.942365     57.651177
  O      39.032534     20.620829     57.160573
  O      40.681679     18.786977     56.079290
  C      40.539603     19.031161     53.961254
  H      40.057772     18.061549     53.825239
  C      41.911015     19.152227     53.820749
  H      42.547920     18.275309     53.702705
  C      42.526884     20.377391     54.088002
  C      41.698171     21.584469     54.139546
  H      42.224109     22.531461     54.252409
  C      40.357697     21.522890     54.078994
  H      39.757639     22.429053     54.183849
  C      39.616126     20.229062     53.875807
  H      38.852882     20.133004     54.662596
  O      39.005390     20.223078     52.584589
  H      38.004241     20.187222     52.659341
  C      44.035957     20.504489     53.897089
  O      44.733946     19.462245     53.989237
  O      44.463571     21.648339     53.617383
24
Coordinates from ORCA-job neb_MEP_ALL.QMRegion E -1076.116793486653
  C      42.594996     20.070908     56.451108
  H      43.259873     19.230025     56.260545
  H      43.018773     20.973234     56.897381
  C      41.214011     19.818906     56.597029
  C      40.260517     20.886812     57.176340
  O      40.756070     21.941843     57.650627
  O      39.034139     20.621369     57.163282
  O      40.691308     18.774252     56.133279
  C      40.541462     19.032306     53.916843
  H      40.059417     18.061189     53.800805
  C      41.905573     19.149143     53.832506
  H      42.545695     18.274997     53.710126
  C      42.529537     20.375939     54.153833
  C      41.697523     21.585985     54.154269
  H      42.222354     22.534150     54.260855
  C      40.359043     21.522925     54.077703
  H      39.757654     22.429710     54.173688
  C      39.617935     20.228947     53.869267
  H      38.857007     20.127857     54.659290
  O      39.000095     20.233999     52.580990
  H      37.999694     20.191296     52.658431
  C      44.035823     20.504505     53.915625
  O      44.734199     19.461196     53.993337
  O      44.459073     21.646113     53.619747
24
Coordinates from ORCA-job neb_MEP_ALL.QMRegion E -1076.121261894238
  C      42.601394     20.089173     56.352628
  H      43.260594     19.227870     56.270679
  H      43.021181     20.972616     56.849865
  C      41.212935     19.813495     56.598463
  C      40.261704     20.886063     57.183940
  O      40.761375     21.942389     57.649459
  O      39.036198     20.622431     57.166315
  O      40.702664     18.758411     56.194752
  C      40.546380     19.033977     53.879396
  H      40.063581     18.062899     53.770456
  C      41.898708     19.143823     53.852050
  H      42.542586     18.273768     53.715633
  C      42.533281     20.372992     54.242302
  C      41.697605     21.587835     54.172811
  H      42.220098     22.537515     54.271520
  C      40.362659     21.522217     54.075094
  H      39.759208     22.428188     54.162399
  C      39.622328     20.228817     53.858939
  H      38.867243     20.118032     54.651216
  O      38.991304     20.249693     52.577945
  H      37.991537     20.193246     52.656293
  C      44.034013     20.504744     53.936034
  O      44.732013     19.460449     53.999233
  O      44.453368     21.643250     53.623145
24
Coordinates from ORCA-job neb_MEP_ALL.QMRegion E -1076.132246543377
  C      42.609622     20.116746     56.208885
  H      43.252075     19.223024     56.274768
  H      43.013586     20.975152     56.784248
  C      41.203286     19.813562     56.570942
  C      40.258397     20.885929     57.189594
  O      40.762716     21.937794     57.652717
  O      39.033302     20.626616     57.174974
  O      40.696902     18.752024     56.245740
  C      40.555056     19.034597     53.836090
  H      40.067564     18.061957     53.744463
  C      41.896218     19.144993     53.867666
  H      42.537085     18.273949     53.737807
  C      42.548150     20.366408     54.383066
  C      41.701353     21.586052     54.214503
  H      42.218511     22.538786     54.277561
  C      40.370924     21.519120     54.085250
  H      39.766133     22.430286     54.141574
  C      39.628519     20.225790     53.859350
  H      38.869383     20.118815     54.650457
  O      38.992576     20.254686     52.581063
  H      37.994409     20.194334     52.661800
  C      44.036482     20.503545     53.964095
  O      44.733968     19.457275     54.001529
  O      44.441006     21.638303     53.623132
24
Coordinates from ORCA-job neb_MEP_ALL.QMRegion E -1076.154299761776
  C      42.614545     20.144255     56.105809
  H      43.257218     19.271593     56.292107
  H      43.027090     21.035125     56.613074
  C      41.226912     19.809790     56.615496
  C      40.277427     20.898136     57.207205
  O      40.783801     21.945855     57.676012
  O      39.055957     20.626218     57.189120
  O      40.780941     18.696184     56.485938
  C      40.574893     19.053798     53.713482
  H      40.104084     18.102753     53.464470
  C      41.895679     19.123700     53.912434
  H      42.539286     18.246601     53.813298
  C      42.547710     20.346254     54.499273
  C      41.703021     21.571591     54.271835
  H      42.207115     22.527369     54.403310
  C      40.384146     21.515712     54.061932
  H      39.791137     22.433222     54.079697
  C      39.640444     20.233710     53.791343
  H      38.915952     20.070435     54.610149
  O      38.959388     20.343904     52.544587
  H      37.966071     20.257511     52.660163
  C      44.025383     20.494627     54.004047
  O      44.733488     19.457044     54.028930
  O      44.416198     21.627315     53.646210
24
Coordinates from ORCA-job neb_MEP_ALL.QMRegion E -1076.159997922397
  C      42.654000     20.127000     56.113000
  H      43.340000     19.287000     56.293000
  H      43.050000     21.046000     56.568000
  C      41.303000     19.764000     56.682000
  C      40.332000     20.849000     57.228000
  O      40.829000     21.908000     57.680000
  O      39.113000     20.562000     57.217000
  O      40.921000     18.612000     56.668000
  C      40.598000     19.077000     53.588000
  H      40.155000     18.162000     53.194000
  C      41.892000     19.124000     53.921000
  H      42.542000     18.255000     53.804000
  C      42.538000     20.334000     54.544000
  C      41.692000     21.561000     54.333000
  H      42.184000     22.518000     54.504000
  C      40.389000     21.510000     54.043000
  H      39.797000     22.428000     54.036000
  C      39.648000     20.238000     53.725000
  H      38.948000     20.030000     54.556000
  O      38.917000     20.394000     52.514000
  H      37.928000     20.307000     52.657000
  C      44.007000     20.492000     54.022000
  O      44.720000     19.457000     54.031000
  O      44.380000     21.625000     53.646000
24
Coordinates from ORCA-job neb_MEP_ALL.QMRegion E -1076.135916675124
  C      42.394000     19.871000     56.917000
  H      43.081000     19.125000     56.517000
  H      42.772000     20.646000     57.583000
  C      41.093000     19.875000     56.600000
  C      40.130000     20.896000     57.181000
  O      40.619000     21.952000     57.663000
  O      38.904000     20.616000     57.157000
  O      40.534000     18.917000     55.790000
  C      40.530000     19.125000     54.332000
  H      40.032000     18.225000     53.947000
  C      41.961000     19.207000     53.905000
  H      42.559000     18.294000     53.866000
  C      42.576000     20.401000     53.813000
  C      41.786000     21.634000     53.919000
  H      42.351000     22.566000     53.920000
  C      40.448000     21.625000     54.039000
  H      39.897000     22.559000     54.169000
  C      39.656000     20.344000     53.957000
  H      38.842000     20.373000     54.696000
  O      39.126000     20.193000     52.642000
  H      38.128000     20.171000     52.669000
  C      44.090000     20.517000     53.728000
  O      44.781000     19.478000     53.903000
  O      44.542000     21.670000     53.521000
24
Coordinates from ORCA-job neb_MEP_ALL.QMRegion E -1076.138749065206
  C      42.518222     19.960547     56.704199
  H      43.207465     19.244877     56.256049
  H      42.927637     20.813410     57.250326
  C      41.190919     19.877472     56.522929
  C      40.234105     20.878752     57.153334
  O      40.718703     21.927682     57.655899
  O      39.009517     20.592945     57.161083
  O      40.603730     18.886220     55.772191
  C      40.533164     19.054141     54.292392
  H      40.048036     18.129181     53.959145
  C      41.942763     19.171629     53.822650
  H      42.554898     18.273679     53.718431
  C      42.537042     20.381228     53.824235
  C      41.719612     21.589948     53.999476
  H      42.259047     22.532389     54.093852
  C      40.377811     21.544489     54.078898
  H      39.796164     22.456694     54.230945
  C      39.617458     20.248683     53.946902
  H      38.813875     20.229761     54.697761
  O      39.075420     20.123011     52.636428
  H      38.076188     20.136475     52.673680
  C      44.049973     20.512229     53.757145
  O      44.745062     19.474442     53.928536
  O      44.497064     21.667431     53.560951
24
Coordinates from ORCA-job neb_MEP_ALL.QMRegion E -1076.129391770614
  C      42.556115     20.012264     56.587741
  H      43.242388     19.246403     56.221338
  H      42.979769     20.928391     57.011060
  C      41.213146     19.856352     56.523886
  C      40.261967     20.881437     57.143663
  O      40.745643     21.930301     57.649941
  O      39.034931     20.603780     57.149246
  O      40.627856     18.843415     55.829995
  C      40.539228     19.028591     54.198142
  H      40.067486     18.083522     53.904163
  C      41.939862     19.165399     53.805360
  H      42.562501     18.276444     53.688231
  C      42.531683     20.376003     53.942313
  C      41.698726     21.575891     54.099676
  H      42.222748     22.518749     54.247962
  C      40.356105     21.520444     54.093039
  H      39.758468     22.427132     54.199817
  C      39.607986     20.225714     53.919566
  H      38.821399     20.159768     54.684423
  O      39.038887     20.165198     52.614808
  H      38.038435     20.169293     52.672977
  C      44.041643     20.508040     53.847011
  O      44.737372     19.466758     53.983363
  O      44.481959     21.658018     53.614794
24
Coordinates from ORCA-job neb_MEP_ALL.QMRegion E -1076.117976646467
  C      42.572789     20.032708     56.568473
  H      43.249265     19.242925     56.242448
  H      43.002268     20.951587     56.978655
  C      41.215958     19.833074     56.564873
  C      40.262184     20.881236     57.162855
  O      40.749178     21.937748     57.648819
  O      39.032752     20.615808     57.154926
  O      40.662165     18.812604     55.957126
  C      40.539110     19.025884     54.071320
  H      40.059229     18.065557     53.859326
  C      41.925786     19.158098     53.812137
  H      42.554589     18.274327     53.695228
  C      42.526744     20.375698     54.014813
  C      41.698772     21.582113     54.123878
  H      42.225132     22.528638     54.243195
  C      40.357485     21.522611     54.080801
  H      39.758307     22.428491     54.192103
  C      39.613813     20.226951     53.891780
  H      38.843351     20.142716     54.669502
  O      39.017819     20.199238     52.595209
  H      38.015082     20.179294     52.662846
  C      44.036757     20.504806     53.873091
  O      44.735699     19.464214     53.984566
  O      44.469659     21.651844     53.614221
24
Coordinates from ORCA-job neb_MEP_ALL.QMRegion E -1076.115524918887
  C      42.591271     20.054907     56.515403
  H      43.259419     19.235107     56.257382
  H      43.015138     20.967792     56.940456
  C      41.216128     19.821582     56.593260
  C      40.261165     20.885342     57.171975
  O      40.752612     21.941194     57.651340
  O      39.033539     20.620091     57.160767
  O      40.683655     18.784017     56.087351
  C      40.539917     19.029843     53.953111
  H      40.058941     18.060438     53.821681
  C      41.911271     19.150926     53.820281
  H      42.548762     18.274116     53.702371
  C      42.526838     20.376862     54.090051
  C      41.697511     21.583809     54.139351
  H      42.223193     22.530814     54.252815
  C      40.357367     21.521040     54.077170
  H      39.756644     22.426511     54.183684
  C      39.616110     20.227385     53.873472
  H      38.853595     20.129587     54.661864
  O      39.003233     20.222815     52.583086
  H      38.002312     20.187325     52.659041
  C      44.035322     20.504138     53.897299
  O      44.733724     19.461916     53.989076
  O      44.462946     21.648293     53.617502
24
Coordinates from ORCA-job neb_MEP_ALL.QMRegion E -1076.116925587170
  C      42.597634     20.071366     56.449983
  H      43.261622     19.229086     56.261911
  H      43.020055     20.974131     56.897609
  C      41.214066     19.816237     56.598488
  C      40.261980     20.885933     57.176378
  O      40.756934     21.941883     57.650932
  O      39.034720     20.620777     57.163227
  O      40.693801     18.771537     56.140934
  C      40.542437     19.031042     53.908152
  H      40.060153     18.059105     53.796886
  C      41.904707     19.147874     53.832099
  H      42.546529     18.274136     53.710206
  C      42.529233     20.375378     54.157690
  C      41.696872     21.585515     54.154586
  H      42.221597     22.533826     54.261954
  C      40.358511     21.521353     54.076169
  H      39.756801     22.427779     54.173071
  C      39.617930     20.226900     53.867124
  H      38.857974     20.124780     54.658719
  O      38.998204     20.233752     52.579368
  H      37.998073     20.191404     52.658640
  C      44.035733     20.504264     53.916477
  O      44.734370     19.461228     53.993411
  O      44.458683     21.645764     53.620063
24
Coordinates from ORCA-job neb_MEP_ALL.QMRegion E -1076.121629845745
  C      42.601873     20.091235     56.345186
  H      43.261688     19.227962     56.273090
  H      43.022730     20.971207     56.847028
  C      41.214181     19.809338     56.601251
  C      40.263284     20.885591     57.184517
  O      40.762614     21.942170     57.649597
  O      39.037628     20.621417     57.165823
  O      40.705748     18.755011     56.199727
  C      40.548414     19.032565     53.879495
  H      40.064721     18.062433     53.762817
  C      41.899333     19.141152     53.859116
  H      42.543995     18.272590     53.713710
  C      42.534206     20.372444     54.249701
  C      41.697835     21.587370     54.169586
  H      42.219107     22.537125     54.275124
  C      40.362723     21.521009     54.071447
  H      39.758119     22.425729     54.161704
  C      39.621601     20.226874     53.856587
  H      38.867845     20.113314     54.650487
  O      38.988748     20.251825     52.576290
  H      37.988625     20.194482     52.654799
  C      44.033948     20.505028     53.935672
  O      44.731047     19.460711     54.000234
  O      44.453261     21.643530     53.624080
24
Coordinates from ORCA-job neb_MEP_ALL.QMRegion E -1076.133354564977
  C      42.605321     20.111491     56.204943
  H      43.252255     19.221472     56.277215
  H      43.013844     20.974689     56.775607
  C      41.205064     19.808461     56.586430
  C      40.258570     20.889193     57.192065
  O      40.767983     21.942767     57.652464
  O      39.032207     20.625481     57.173068
  O      40.703762     18.743460     56.258916
  C      40.556468     19.034254     53.834197
  H      40.072277     18.061644     53.737600
  C      41.894388     19.141791     53.871208
  H      42.538696     18.273121     53.735023
  C      42.544790     20.367374     54.380696
  C      41.701029     21.588117     54.209734
  H      42.218826     22.540930     54.283572
  C      40.370948     21.519281     54.080553
  H      39.766660     22.428200     54.141595
  C      39.630572     20.224506     53.853216
  H      38.877875     20.109371     54.647143
  O      38.987587     20.261936     52.578404
  H      37.989296     20.191713     52.661658
  C      44.034606     20.504462     53.962953
  O      44.731520     19.458408     54.006335
  O      44.442666     21.639428     53.626105
24
Coordinates from ORCA-job neb_MEP_ALL.QMRegion E -1076.154136647155
  C      42.618404     20.147666     56.107931
  H      43.261932     19.276856     56.295904
  H      43.026347     21.035507     56.627099
  C      41.230647     19.814261     56.610794
  C      40.278896     20.897757     57.206321
  O      40.783000     21.946921     57.677721
  O      39.057027     20.624906     57.188116
  O      40.778223     18.694214     56.480897
  C      40.576364     19.054020     53.712068
  H      40.103430     18.104231     53.462359
  C      41.895871     19.122356     53.916026
  H      42.538025     18.245349     53.809932
  C      42.550208     20.346286     54.499860
  C      41.703209     21.569696     54.276706
  H      42.207013     22.525963     54.404387
  C      40.384911     21.514881     54.063368
  H      39.790869     22.431478     54.081761
  C      39.642448     20.234197     53.785275
  H      38.921127     20.070709     54.604795
  O      38.956093     20.341191     52.540293
  H      37.961668     20.258879     52.659070
  C      44.025015     20.493090     54.003706
  O      44.733938     19.455178     54.026625
  O      44.414694     21.626563     53.645488
24
Coordinates from ORCA-job neb_MEP_ALL.QMRegion E -1076.159997922397
  C      42.654000     20.127000     56.113000
  H      43.340000     19.287000     56.293000
  H      43.050000     21.046000     56.568000
  C      41.303000     19.764000     56.682000
  C      40.332000     20.849000     57.228000
  O      40.829000     21.908000     57.680000
  O      39.113000     20.562000     57.217000
  O      40.921000     18.612000     56.668000
  C      40.598000     19.077000     53.588000
  H      40.155000     18.162000     53.194000
  C      41.892000     19.124000     53.921000
  H      42.542000     18.255000     53.804000
  C      42.538000     20.334000     54.544000
  C      41.692000     21.561000     54.333000
  H      42.184000     22.518000     54.504000
  C      40.389000     21.510000     54.043000
  H      39.797000     22.428000     54.036000
  C      39.648000     20.238000     53.725000
  H      38.948000     20.030000     54.556000
  O      38.917000     20.394000     52.514000
  H      37.928000     20.307000     52.657000
  C      44.007000     20.492000     54.022000
  O      44.720000     19.457000     54.031000
  O      44.380000     21.625000     53.646000
24
Coordinates from ORCA-job neb_MEP_ALL.QMRegion E -1076.135916675124
  C      42.394000     19.871000     56.917000
  H      43.081000     19.125000     56.517000
  H      42.772000     20.646000     57.583000
  C      41.093000     19.875000     56.600000
  C      40.130000     20.896000     57.181000
  O      40.619000     21.952000     57.663000
  O      38.904000     20.616000     57.157000
  O      40.534000     18.917000     55.790000
  C      40.530000     19.125000     54.332000
  H      40.032000     18.225000     53.947000
  C      41.961000     19.207000     53.905000
  H      42.559000     18.294000     53.866000
  C      42.576000     20.401000     53.813000
  C      41.786000     21.634000     53.919000
  H      42.351000     22.566000     53.920000
  C      40.448000     21.625000     54.039000
  H      39.897000     22.559000     54.169000
  C      39.656000     20.344000     53.957000
  H      38.842000     20.373000     54.696000
  O      39.126000     20.193000     52.642000
  H      38.128000     20.171000     52.669000
  C      44.090000     20.517000     53.728000
  O      44.781000     19.478000     53.903000
  O      44.542000     21.670000     53.521000
24
Coordinates from ORCA-job neb_MEP_ALL.QMRegion E -1076.138321187511
  C      42.531047     19.970029     56.680078
  H      43.221768     19.257228     56.229702
  H      42.942003     20.829820     57.212933
  C      41.202536     19.878502     56.515518
  C      40.246060     20.875802     57.151161
  O      40.731244     21.924482     57.653697
  O      39.021586     20.588589     57.159941
  O      40.614530     18.884177     55.769733
  C      40.534173     19.045415     54.287760
  H      40.050619     18.117090     53.959783
  C      41.940399     19.167638     53.812534
  H      42.555226     18.272057     53.701830
  C      42.532410     20.378469     53.824847
  C      41.711387     21.584483     54.007005
  H      42.247695     22.527841     54.112019
  C      40.369554     21.534872     54.082189
  H      39.783920     22.444453     54.236386
  C      39.613279     20.236835     53.945941
  H      38.811109     20.212656     54.697872
  O      39.069120     20.114040     52.636221
  H      38.070064     20.132776     52.674485
  C      44.045385     20.511876     53.759536
  O      44.741112     19.474400     53.931590
  O      44.492440     21.667409     53.566152
24
Coordinates from ORCA-job neb_MEP_ALL.QMRegion E -1076.127160150436
  C      42.559549     20.015978     56.578187
  H      43.245700     19.246214     56.222334
  H      42.984121     20.934801     56.995759
  C      41.216007     19.852813     56.529742
  C      40.264758     20.879279     57.149440
  O      40.749415     21.932251     57.647554
  O      39.035891     20.605699     57.146373
  O      40.638030     18.839775     55.840303
  C      40.539654     19.023116     54.184548
  H      40.067469     18.075115     53.895348
  C      41.937961     19.163393     53.803311
  H      42.562813     18.276514     53.686521
  C      42.529427     20.374502     53.954720
  C      41.696443     21.575293     54.107723
  H      42.219969     22.518540     54.257199
  C      40.354556     21.518022     54.090420
  H      39.755545     22.424574     54.198314
  C      39.609082     20.221917     53.914445
  H      38.825696     20.151539     54.680889
  O      39.033798     20.169250     52.611698
  H      38.032990     20.171300     52.672365
  C      44.040417     20.507358     53.854030
  O      44.737129     19.467090     53.986345
  O      44.480287     21.656220     53.618125
24
Coordinates from ORCA-job neb_MEP_ALL.QMRegion E -1076.117369366619
  C      42.575242     20.032659     56.568361
  H      43.251454     19.243564     56.244866
  H      43.004088     20.951788     56.977702
  C      41.216919     19.832309     56.570399
  C      40.262909     20.880257     57.163661
  O      40.752033     21.936699     57.647871
  O      39.032849     20.615065     57.154397
  O      40.667695     18.809055     55.971861
  C      40.539180     19.024668     54.054441
  H      40.059972     18.062404     53.854427
  C      41.924758     19.156044     53.811948
  H      42.554869     18.273445     53.694437
  C      42.526509     20.374956     54.021065
  C      41.698660     21.581168     54.124716
  H      42.223962     22.528585     54.243395
  C      40.357574     21.521021     54.079817
  H      39.756654     22.426035     54.191721
  C      39.614417     20.225707     53.887694
  H      38.846104     20.138231     54.667845
  O      39.014192     20.199906     52.592410
  H      38.011552     20.179276     52.661816
  C      44.036132     20.504514     53.875128
  O      44.734897     19.463793     53.984118
  O      44.467911     21.651488     53.613965
24
Coordinates from ORCA-job neb_MEP_ALL.QMRegion E -1076.115596467288
  C      42.592578     20.054529     56.515723
  H      43.261704     19.235258     56.259839
  H      43.015624     20.966522     56.942724
  C      41.217426     19.820981     56.596047
  C      40.261900     20.884464     57.172324
  O      40.754338     21.940341     57.651073
  O      39.034005     20.618872     57.160316
  O      40.687195     18.782034     56.094229
  C      40.540597     19.028919     53.946413
  H      40.059933     18.058502     53.817743
  C      41.910718     19.149401     53.819169
  H      42.549671     18.273092     53.702148
  C      42.526696     20.375923     54.092436
  C      41.697089     21.582678     54.138498
  H      42.222021     22.530058     54.253188
  C      40.357072     21.519441     54.076156
  H      39.755416     22.423996     54.183361
  C      39.616144     20.225584     53.871107
  H      38.854992     20.126160     54.660476
  O      39.001101     20.222290     52.581611
  H      38.000063     20.187356     52.658686
  C      44.034874     20.504118     53.897384
  O      44.733451     19.461889     53.988743
  O      44.462662     21.648046     53.617551
24
Coordinates from ORCA-job neb_MEP_ALL.QMRegion E -1076.117174117995
  C      42.599187     20.071467     56.446077
  H      43.263657     19.228538     56.263940
  H      43.021286     20.974517     56.896920
  C      41.216478     19.816113     56.601267
  C      40.261837     20.885616     57.176990
  O      40.758373     21.940678     57.650584
  O      39.036278     20.620020     57.163102
  O      40.696427     18.767234     56.149810
  C      40.542557     19.029776     53.900061
  H      40.061344     18.057351     53.791528
  C      41.904307     19.145870     53.831065
  H      42.547139     18.273485     53.710662
  C      42.529139     20.374782     54.164242
  C      41.696299     21.584765     54.155198
  H      42.220500     22.533421     54.263123
  C      40.358149     21.519582     54.074928
  H      39.755836     22.425557     54.172106
  C      39.618237     20.225024     53.864263
  H      38.859783     20.121238     54.657282
  O      38.995836     20.233917     52.577744
  H      37.995842     20.191634     52.658535
  C      44.035088     20.504027     53.917683
  O      44.734449     19.461331     53.993523
  O      44.458366     21.645378     53.620413
24
Coordinates from ORCA-job neb_MEP_ALL.QMRegion E -1076.122128670395
  C      42.604620     20.092591     56.341667
  H      43.263267     19.227162     56.274087
  H      43.023782     20.971378     56.845188
  C      41.215153     19.809144     56.603134
  C      40.264003     20.884957     57.182802
  O      40.764495     21.940870     57.650272
  O      39.038671     20.619612     57.166133
  O      40.707359     18.750843     56.205788
  C      40.548079     19.030872     53.873738
  H      40.065628     18.060979     53.757087
  C      41.901012     19.139430     53.858481
  H      42.544987     18.271848     53.714327
  C      42.534620     20.371581     54.258668
  C      41.697053     21.586409     54.168944
  H      42.218187     22.536819     54.277048
  C      40.362514     21.519198     54.069332
  H      39.756883     22.423964     54.160745
  C      39.620792     20.224598     53.854751
  H      38.867321     20.110379     54.650975
  O      38.987499     20.251429     52.574502
  H      37.987264     20.195539     52.654839
  C      44.033907     20.504832     53.936592
  O      44.731894     19.460527     53.999959
  O      44.452995     21.643376     53.624056
24
Coordinates from ORCA-job neb_MEP_ALL.QMRegion E -1076.134167446216
  C      42.602828     20.108049     56.211740
  H      43.252514     19.223914     56.278277
  H      43.014318     20.970030     56.770182
  C      41.206187     19.807453     56.597525
  C      40.258397     20.892339     57.190454
  O      40.771560     21.941643     57.652087
  O      39.037304     20.622421     57.172134
  O      40.710979     18.737143     56.267784
  C      40.555574     19.034197     53.834623
  H      40.075444     18.061756     53.730592
  C      41.896056     19.138251     53.874186
  H      42.541661     18.271147     53.731480
  C      42.541290     20.366996     54.377303
  C      41.700195     21.588981     54.203388
  H      42.218994     22.542731     54.288620
  C      40.370184     21.518198     54.074526
  H      39.765913     22.425389     54.142565
  C      39.629475     20.223120     53.848212
  H      38.881578     20.101847     54.646597
  O      38.983928     20.266453     52.575049
  H      37.985521     20.191666     52.660743
  C      44.033295     20.504775     53.962119
  O      44.731014     19.460226     54.008053
  O      44.444917     21.639594     53.627294
24
Coordinates from ORCA-job neb_MEP_ALL.QMRegion E -1076.154155462148
  C      42.619647     20.149548     56.109978
  H      43.267214     19.282571     56.299658
  H      43.024215     21.034520     56.633629
  C      41.231237     19.814602     56.609496
  C      40.280010     20.898599     57.205369
  O      40.783967     21.945548     57.678433
  O      39.058417     20.623035     57.187242
  O      40.782467     18.699210     56.480070
  C      40.578898     19.054525     53.705350
  H      40.103530     18.106004     53.455876
  C      41.896570     19.121351     53.920857
  H      42.536613     18.243958     53.808474
  C      42.551723     20.345533     54.504654
  C      41.703665     21.569153     54.281553
  H      42.206818     22.524712     54.408185
  C      40.386176     21.513557     54.061505
  H      39.791235     22.430132     54.082933
  C      39.644266     20.234082     53.780154
  H      38.924282     20.069778     54.600104
  O      38.953262     20.340126     52.537691
  H      37.958099     20.261021     52.657497
  C      44.026175     20.492536     54.005903
  O      44.733803     19.453914     54.023942
  O      44.413296     21.625156     53.644197
24
Coordinates from ORCA-job neb_MEP_ALL.QMRegion E -1076.159997922397
  C      42.654000     20.127000     56.113000
  H      43.340000     19.287000     56.293000
  H      43.050000     21.046000     56.568000
  C      41.303000     19.764000     56.682000
  C      40.332000     20.849000     57.228000
  O      40.829000     21.908000     57.680000
  O      39.113000     20.562000     57.217000
  O      40.921000     18.612000     56.668000
  C      40.598000     19.077000     53.588000
  H      40.155000     18.162000     53.194000
  C      41.892000     19.124000     53.921000
  H      42.542000     18.255000     53.804000
  C      42.538000     20.334000     54.544000
  C      41.692000     21.561000     54.333000
  H      42.184000     22.518000     54.504000
  C      40.389000     21.510000     54.043000
  H      39.797000     22.428000     54.036000
  C      39.648000     20.238000     53.725000
  H      38.948000     20.030000     54.556000
  O      38.917000     20.394000     52.514000
  H      37.928000     20.307000     52.657000
  C      44.007000     20.492000     54.022000
  O      44.720000     19.457000     54.031000
  O      44.380000     21.625000     53.646000
24
Coordinates from ORCA-job neb_MEP_ALL.QMRegion E -1076.135916675124
  C      42.394000     19.871000     56.917000
  H      43.081000     19.125000     56.517000
  H      42.772000     20.646000     57.583000
  C      41.093000     19.875000     56.600000
  C      40.130000     20.896000     57.181000
  O      40.619000     21.952000     57.663000
  O      38.904000     20.616000     57.157000
  O      40.534000     18.917000     55.790000
  C      40.530000     19.125000     54.332000
  H      40.032000     18.225000     53.947000
  C      41.961000     19.207000     53.905000
  H      42.559000     18.294000     53.866000
  C      42.576000     20.401000     53.813000
  C      41.786000     21.634000     53.919000
  H      42.351000     22.566000     53.920000
  C      40.448000     21.625000     54.039000
  H      39.897000     22.559000     54.169000
  C      39.656000     20.344000     53.957000
  H      38.842000     20.373000     54.696000
  O      39.126000     20.193000     52.642000
  H      38.128000     20.171000     52.669000
  C      44.090000     20.517000     53.728000
  O      44.781000     19.478000     53.903000
  O      44.542000     21.670000     53.521000
24
Coordinates from ORCA-job neb_MEP_ALL.QMRegion E -1076.137676561882
  C      42.531935     19.970637     56.678105
  H      43.222169     19.257396     56.229242
  H      42.942041     20.830597     57.208865
  C      41.202795     19.878598     56.515694
  C      40.246294     20.875229     57.152038
  O      40.731968     21.924330     57.652980
  O      39.021847     20.588940     57.159370
  O      40.617008     18.884482     55.771479
  C      40.534246     19.044608     54.286547
  H      40.050773     18.115704     53.958312
  C      41.939970     19.167514     53.812367
  H      42.555181     18.272470     53.701274
  C      42.531897     20.378423     53.826373
  C      41.710956     21.584228     54.008382
  H      42.246798     22.527192     54.114284
  C      40.368910     21.534476     54.081959
  H      39.783330     22.443782     54.236254
  C      39.613470     20.236257     53.945372
  H      38.811766     20.211251     54.697228
  O      39.068413     20.114480     52.635930
  H      38.069218     20.132918     52.674503
  C      44.045092     20.511690     53.760441
  O      44.741227     19.474600     53.932221
  O      44.492286     21.667066     53.566948
24
Coordinates from ORCA-job neb_MEP_ALL.QMRegion E -1076.125458412456
  C      42.559086     20.013424     56.586008
  H      43.244549     19.248363     56.222112
  H      42.983028     20.931356     56.998738
  C      41.216106     19.856123     56.528218
  C      40.263592     20.878001     57.148842
  O      40.749626     21.929420     57.646301
  O      39.035794     20.606114     57.147037
  O      40.639008     18.841972     55.832194
  C      40.539306     19.022685     54.192376
  H      40.067280     18.076044     53.896503
  C      41.938542     19.163182     53.806387
  H      42.562434     18.276886     53.685839
  C      42.529029     20.374098     53.950828
  C      41.697341     21.575275     54.106980
  H      42.220510     22.519514     54.253809
  C      40.354762     21.518383     54.090405
  H      39.755780     22.424793     54.199505
  C      39.609949     20.221750     53.914591
  H      38.826405     20.152497     54.680455
  O      39.033854     20.168224     52.612181
  H      38.032420     20.170437     52.671393
  C      44.039252     20.506893     53.851239
  O      44.737728     19.466839     53.985413
  O      44.479686     21.656709     53.617123
24
Coordinates from ORCA-job neb_MEP_ALL.QMRegion E -1076.116925177532
  C      42.575670     20.032873     56.569313
  H      43.251937     19.243689     56.245007
  H      43.002827     20.949674     56.977689
  C      41.216861     19.834821     56.570634
  C      40.262260     20.880380     57.163438
  O      40.751969     21.935434     57.647591
  O      39.033635     20.614787     57.154405
  O      40.667805     18.809187     55.971062
  C      40.539036     19.025497     54.054846
  H      40.060484     18.062806     53.854718
  C      41.924994     19.156021     53.812010
  H      42.554871     18.274066     53.694343
  C      42.526470     20.374233     54.020631
  C      41.698764     21.580432     54.123292
  H      42.223742     22.527999     54.243547
  C      40.357181     21.520773     54.080836
  H      39.756543     22.425746     54.191321
  C      39.614321     20.225763     53.888268
  H      38.845869     20.138493     54.667775
  O      39.014531     20.199313     52.592959
  H      38.011803     20.179250     52.661716
  C      44.035974     20.504647     53.874464
  O      44.735228     19.463752     53.984156
  O      44.468434     21.651643     53.614014
24
Coordinates from ORCA-job neb_MEP_ALL.QMRegion E -1076.115683906716
  C      42.592148     20.054360     56.515781
  H      43.261689     19.235718     56.260069
  H      43.015085     20.965307     56.942725
  C      41.217275     19.821304     56.596411
  C      40.261691     20.884384     57.172928
  O      40.754714     21.940088     57.650577
  O      39.034266     20.618596     57.159851
  O      40.688139     18.783172     56.092397
  C      40.539999     19.028683     53.948323
  H      40.060047     18.058335     53.817693
  C      41.911380     19.149540     53.818777
  H      42.549620     18.273286     53.702216
  C      42.526529     20.375387     54.092214
  C      41.697342     21.582228     54.138090
  H      42.221828     22.529960     54.253019
  C      40.356929     21.519280     54.076757
  H      39.755137     22.424106     54.183217
  C      39.616204     20.225644     53.871389
  H      38.855314     20.126263     54.660047
  O      39.001181     20.221796     52.581763
  H      37.999992     20.187284     52.658615
  C      44.034910     20.504043     53.897361
  O      44.733498     19.462016     53.988499
  O      44.462964     21.648219     53.617314
24
Coordinates from ORCA-job neb_MEP_ALL.QMRegion E -1076.117515318708
  C      42.600109     20.072497     56.443695
  H      43.263824     19.228884     56.264672
  H      43.021024     20.973432     56.895833
  C      41.215085     19.814375     56.600787
  C      40.263006     20.885396     57.176902
  O      40.759010     21.940768     57.650637
  O      39.034980     20.619445     57.163111
  O      40.698328     18.769149     56.152267
  C      40.542995     19.029980     53.900617
  H      40.061411     18.057256     53.789954
  C      41.904073     19.146633     53.831116
  H      42.547228     18.273072     53.710944
  C      42.529045     20.373828     54.166578
  C      41.696415     21.584475     54.155727
  H      42.220146     22.533395     54.263031
  C      40.358342     21.519310     54.075119
  H      39.755672     22.425222     54.171762
  C      39.618043     20.225142     53.863640
  H      38.860455     20.120848     54.656424
  O      38.995419     20.234230     52.577743
  H      37.995373     20.191840     52.658248
  C      44.035039     20.504207     53.918195
  O      44.734197     19.461399     53.993393
  O      44.458057     21.645112     53.620345
24
Coordinates from ORCA-job neb_MEP_ALL.QMRegion E -1076.122735144501
  C      42.604815     20.091866     56.343963
  H      43.263813     19.226401     56.273213
  H      43.023795     20.972932     56.846248
  C      41.214066     19.808860     56.600213
  C      40.263647     20.885414     57.182070
  O      40.764340     21.939016     57.650201
  O      39.038574     20.619125     57.166597
  O      40.708172     18.754060     56.207413
  C      40.549198     19.031789     53.869843
  H      40.064973     18.059406     53.757879
  C      41.897990     19.141109     53.853631
  H      42.545562     18.271165     53.716276
  C      42.535074     20.370937     54.259931
  C      41.696949     21.585974     54.171557
  H      42.218014     22.536638     54.275238
  C      40.361085     21.518355     54.070482
  H      39.756953     22.424126     54.160337
  C      39.620766     20.224254     53.856452
  H      38.866522     20.112097     54.651182
  O      38.988585     20.249140     52.574425
  H      37.988433     20.195729     52.655784
  C      44.034499     20.504463     53.937982
  O      44.732877     19.460872     53.998411
  O      44.452503     21.642377     53.623040
24
Coordinates from ORCA-job neb_MEP_ALL.QMRegion E -1076.134248493945
  C      42.605506     20.109040     56.220450
  H      43.252623     19.226435     56.277437
  H      43.016139     20.969348     56.773570
  C      41.206890     19.807645     56.592165
  C      40.263986     20.887130     57.187497
  O      40.769970     21.940302     57.652754
  O      39.036126     20.621889     57.172911
  O      40.711794     18.739769     56.268557
  C      40.557012     19.034348     53.834756
  H      40.073201     18.060649     53.728543
  C      41.895233     19.138685     53.873018
  H      42.542743     18.270234     53.730903
  C      42.543545     20.366203     54.375866
  C      41.699734     21.587117     54.201929
  H      42.218331     22.542253     54.287705
  C      40.368538     21.517044     54.072888
  H      39.763923     22.425212     54.143273
  C      39.627015     20.223652     53.849657
  H      38.877778     20.103180     54.647891
  O      38.984599     20.264358     52.574287
  H      37.986028     20.194353     52.659542
  C      44.033117     20.505230     53.962695
  O      44.732457     19.460165     54.005515
  O      44.444498     21.638363     53.625972
24
Coordinates from ORCA-job neb_MEP_ALL.QMRegion E -1076.154369593524
  C      42.617377     20.147601     56.108507
  H      43.267796     19.282103     56.299374
  H      43.023158     21.033789     56.627092
  C      41.231920     19.823081     56.612647
  C      40.279263     20.897376     57.203291
  O      40.786173     21.944180     57.678174
  O      39.058552     20.622426     57.187872
  O      40.782570     18.693503     56.481358
  C      40.579617     19.055610     53.702749
  H      40.104087     18.105917     53.453930
  C      41.896822     19.122453     53.922408
  H      42.536621     18.244092     53.809530
  C      42.551251     20.345205     54.509417
  C      41.703730     21.569410     54.282723
  H      42.207221     22.526478     54.409088
  C      40.387037     21.513251     54.060082
  H      39.791956     22.429700     54.082076
  C      39.643909     20.232999     53.781584
  H      38.922495     20.069378     54.600629
  O      38.953513     20.340666     52.538883
  H      37.958748     20.260944     52.656892
  C      44.026273     20.492759     54.007928
  O      44.733864     19.453822     54.023657
  O      44.413580     21.625647     53.643492
24
Coordinates from ORCA-job neb_MEP_ALL.QMRegion E -1076.159997922397
  C      42.654000     20.127000     56.113000
  H      43.340000     19.287000     56.293000
  H      43.050000     21.046000     56.568000
  C      41.303000     19.764000     56.682000
  C      40.332000     20.849000     57.228000
  O      40.829000     21.908000     57.680000
  O      39.113000     20.562000     57.217000
  O      40.921000     18.612000     56.668000
  C      40.598000     19.077000     53.588000
  H      40.155000     18.162000     53.194000
  C      41.892000     19.124000     53.921000
  H      42.542000     18.255000     53.804000
  C      42.538000     20.334000     54.544000
  C      41.692000     21.561000     54.333000
  H      42.184000     22.518000     54.504000
  C      40.389000     21.510000     54.043000
  H      39.797000     22.428000     54.036000
  C      39.648000     20.238000     53.725000
  H      38.948000     20.030000     54.556000
  O      38.917000     20.394000     52.514000
  H      37.928000     20.307000     52.657000
  C      44.007000     20.492000     54.022000
  O      44.720000     19.457000     54.031000
  O      44.380000     21.625000     53.646000
24
Coordinates from ORCA-job neb_MEP_ALL.QMRegion E -1076.135916675124
  C      42.394000     19.871000     56.917000
  H      43.081000     19.125000     56.517000
  H      42.772000     20.646000     57.583000
  C      41.093000     19.875000     56.600000
  C      40.130000     20.896000     57.181000
  O      40.619000     21.952000     57.663000
  O      38.904000     20.616000     57.157000
  O      40.534000     18.917000     55.790000
  C      40.530000     19.125000     54.332000
  H      40.032000     18.225000     53.947000
  C      41.961000     19.207000     53.905000
  H      42.559000     18.294000     53.866000
  C      42.576000     20.401000     53.813000
  C      41.786000     21.634000     53.919000
  H      42.351000     22.566000     53.920000
  C      40.448000     21.625000     54.039000
  H      39.897000     22.559000     54.169000
  C      39.656000     20.344000     53.957000
  H      38.842000     20.373000     54.696000
  O      39.126000     20.193000     52.642000
  H      38.128000     20.171000     52.669000
  C      44.090000     20.517000     53.728000
  O      44.781000     19.478000     53.903000
  O      44.542000     21.670000     53.521000
24
Coordinates from ORCA-job neb_MEP_ALL.QMRegion E -1076.137626361452
  C      42.532162     19.970894     56.677035
  H      43.222429     19.257427     56.228918
  H      42.941985     20.830988     57.206633
  C      41.203307     19.878916     56.515963
  C      40.246515     20.874835     57.152562
  O      40.732412     21.924215     57.652528
  O      39.021843     20.589135     57.159021
  O      40.618511     18.884530     55.772061
  C      40.534317     19.044042     54.286193
  H      40.050885     18.114851     53.957470
  C      41.939687     19.167455     53.812291
  H      42.555137     18.272780     53.700927
  C      42.531576     20.378376     53.827088
  C      41.710537     21.583994     54.009099
  H      42.246262     22.526817     54.115546
  C      40.368622     21.534198     54.081744
  H      39.782941     22.443387     54.236269
  C      39.613620     20.235856     53.945017
  H      38.812222     20.210389     54.696819
  O      39.067949     20.114630     52.635758
  H      38.068713     20.132899     52.674534
  C      44.044865     20.511592     53.760842
  O      44.741335     19.474702     53.932521
  O      44.492189     21.666890     53.567371
24
Coordinates from ORCA-job neb_MEP_ALL.QMRegion E -1076.126343291151
  C      42.558298     20.011323     56.591835
  H      43.243839     19.249825     56.222201
  H      42.982612     20.929213     57.001531
  C      41.216238     19.857986     56.527232
  C      40.263117     20.877057     57.148377
  O      40.750004     21.927778     57.645619
  O      39.034953     20.606173     57.147586
  O      40.639958     18.843521     55.827278
  C      40.539099     19.022445     54.197308
  H      40.067078     18.076741     53.897050
  C      41.938799     19.162938     53.808728
  H      42.562132     18.277029     53.685423
  C      42.528842     20.373880     53.948401
  C      41.697774     21.575384     54.106343
  H      42.221008     22.520292     54.250843
  C      40.355283     21.518631     54.090300
  H      39.755984     22.424985     54.200381
  C      39.610498     20.221742     53.914494
  H      38.827127     20.153167     54.680020
  O      39.033718     20.167650     52.612324
  H      38.031869     20.169810     52.670552
  C      44.038777     20.506539     53.849159
  O      44.737875     19.466952     53.984517
  O      44.478977     21.656712     53.616272
24
Coordinates from ORCA-job neb_MEP_ALL.QMRegion E -1076.116914018889
  C      42.575400     20.032315     56.570064
  H      43.252197     19.243905     56.245108
  H      43.002090     20.948509     56.978166
  C      41.216873     19.836041     56.570269
  C      40.262228     20.880272     57.163104
  O      40.752059     21.934963     57.647607
  O      39.033547     20.614409     57.154371
  O      40.668058     18.810020     55.969986
  C      40.538960     19.025902     54.055930
  H      40.060902     18.063210     53.855119
  C      41.925105     19.156059     53.812025
  H      42.554967     18.274426     53.694222
  C      42.526590     20.373898     54.019815
  C      41.698652     21.579916     54.122214
  H      42.223560     22.527449     54.243572
  C      40.357125     21.520532     54.081580
  H      39.756414     22.425590     54.191073
  C      39.614210     20.225844     53.888782
  H      38.845572     20.138729     54.667823
  O      39.014827     20.198740     52.593395
  H      38.012083     20.179184     52.661671
  C      44.036064     20.504601     53.873905
  O      44.735368     19.463894     53.984118
  O      44.468782     21.651710     53.614027
24
Coordinates from ORCA-job neb_MEP_ALL.QMRegion E -1076.115684594946
  C      42.591731     20.054138     56.515874
  H      43.261690     19.236042     56.260222
  H      43.014722     20.964487     56.942823
  C      41.217347     19.821767     56.596688
  C      40.261735     20.884174     57.173255
  O      40.754997     21.940028     57.650292
  O      39.034266     20.618377     57.159528
  O      40.688644     18.783817     56.090721
  C      40.540003     19.028582     53.949850
  H      40.060103     18.058161     53.817695
  C      41.911359     19.149567     53.818543
  H      42.549668     18.273350     53.702243
  C      42.526604     20.375119     54.091964
  C      41.697327     21.581926     54.137804
  H      42.221673     22.529823     54.252861
  C      40.356960     21.519208     54.077215
  H      39.754943     22.424144     54.183101
  C      39.616246     20.225644     53.871575
  H      38.855443     20.126352     54.659807
  O      39.001256     20.221370     52.581901
  H      37.999971     20.187219     52.658569
  C      44.034956     20.504170     53.897270
  O      44.733587     19.462049     53.988314
  O      44.463118     21.648204     53.617169
24
Coordinates from ORCA-job neb_MEP_ALL.QMRegion E -1076.117604861961
  C      42.600143     20.072846     56.441813
  H      43.264063     19.229121     56.265270
  H      43.020939     20.972855     56.895365
  C      41.215638     19.815113     56.601129
  C      40.262591     20.885169     57.176937
  O      40.759471     21.940565     57.650566
  O      39.035172     20.619253     57.163140
  O      40.698745     18.768785     56.153202
  C      40.543107     19.030052     53.900973
  H      40.061563     18.057328     53.788861
  C      41.903968     19.146501     53.831078
  H      42.547147     18.272980     53.711149
  C      42.529229     20.373664     54.168376
  C      41.696456     21.584170     54.156080
  H      42.219885     22.533345     54.262904
  C      40.358434     21.519139     54.075246
  H      39.755558     22.424929     54.171536
  C      39.618063     20.225168     53.863260
  H      38.860831     20.120571     54.655849
  O      38.995120     20.234392     52.577693
  H      37.995010     20.191986     52.658033
  C      44.034889     20.504140     53.918508
  O      44.734061     19.461419     53.993261
  O      44.457870     21.645082     53.620247
24
Coordinates from ORCA-job neb_MEP_ALL.QMRegion E -1076.122814537500
  C      42.605385     20.091545     56.345606
  H      43.264184     19.225908     56.272671
  H      43.023648     20.973767     56.847120
  C      41.214073     19.810665     56.599042
  C      40.263249     20.885154     57.181192
  O      40.764552     21.938301     57.650452
  O      39.038256     20.618704     57.166933
  O      40.707757     18.754443     56.207729
  C      40.548168     19.031764     53.867103
  H      40.064777     18.058779     53.758522
  C      41.898056     19.141780     53.850095
  H      42.545436     18.271247     53.717746
  C      42.535093     20.370627     54.260772
  C      41.696357     21.585485     54.173377
  H      42.217873     22.536546     54.273817
  C      40.360843     21.517915     54.071537
  H      39.756926     22.424228     54.160046
  C      39.620733     20.223949     53.857217
  H      38.865808     20.113289     54.651457
  O      38.989276     20.247383     52.574553
  H      37.989397     20.195852     52.656456
  C      44.034718     20.504195     53.938719
  O      44.733739     19.460837     53.997339
  O      44.452194     21.641877     53.622309
24
Coordinates from ORCA-job neb_MEP_ALL.QMRegion E -1076.133938648304
  C      42.606713     20.109312     56.225935
  H      43.253285     19.227687     56.276952
  H      43.017845     20.969717     56.776915
  C      41.208563     19.809449     56.589376
  C      40.264600     20.885047     57.185941
  O      40.769240     21.938122     57.652749
  O      39.038007     20.621262     57.173263
  O      40.711831     18.739889     56.268255
  C      40.556193     19.034071     53.834497
  H      40.071880     18.060367     53.727081
  C      41.896141     19.138683     53.871941
  H      42.543243     18.269894     53.730611
  C      42.544450     20.365819     54.374733
  C      41.699286     21.585958     54.201119
  H      42.217611     22.541589     54.286785
  C      40.367514     21.516540     54.072027
  H      39.762607     22.424855     54.143735
  C      39.625507     20.223471     53.850646
  H      38.874924     20.104340     54.648755
  O      38.984926     20.262586     52.573832
  H      37.986533     20.196344     52.658674
  C      44.033575     20.504581     53.962951
  O      44.733289     19.460432     54.003623
  O      44.444259     21.637988     53.624896
24
Coordinates from ORCA-job neb_MEP_ALL.QMRegion E -1076.154528951417
  C      42.615955     20.146465     56.107946
  H      43.267941     19.281732     56.299151
  H      43.022466     21.033312     56.621701
  C      41.229656     19.821072     56.613667
  C      40.279206     20.897549     57.202273
  O      40.787542     21.942571     57.677716
  O      39.058336     20.621876     57.188310
  O      40.785464     18.696539     56.483406
  C      40.580173     19.056113     53.700946
  H      40.104730     18.106067     53.452358
  C      41.896998     19.123094     53.923525
  H      42.536541     18.244409     53.810443
  C      42.550856     20.345081     54.512539
  C      41.704126     21.569899     54.283841
  H      42.207379     22.527638     54.409750
  C      40.387485     21.512920     54.059131
  H      39.792564     22.429332     54.081281
  C      39.643679     20.232442     53.782526
  H      38.921077     20.069006     54.601127
  O      38.953834     20.341103     52.539780
  H      37.959153     20.260839     52.656450
  C      44.026606     20.493247     54.009443
  O      44.733764     19.453912     54.023505
  O      44.413507     21.625515     53.643146
24
Coordinates from ORCA-job neb_MEP_ALL.QMRegion E -1076.159997922397
  C      42.654000     20.127000     56.113000
  H      43.340000     19.287000     56.293000
  H      43.050000     21.046000     56.568000
  C      41.303000     19.764000     56.682000
  C      40.332000     20.849000     57.228000
  O      40.829000     21.908000     57.680000
  O      39.113000     20.562000     57.217000
  O      40.921000     18.612000     56.668000
  C      40.598000     19.077000     53.588000
  H      40.155000     18.162000     53.194000
  C      41.892000     19.124000     53.921000
  H      42.542000     18.255000     53.804000
  C      42.538000     20.334000     54.544000
  C      41.692000     21.561000     54.333000
  H      42.184000     22.518000     54.504000
  C      40.389000     21.510000     54.043000
  H      39.797000     22.428000     54.036000
  C      39.648000     20.238000     53.725000
  H      38.948000     20.030000     54.556000
  O      38.917000     20.394000     52.514000
  H      37.928000     20.307000     52.657000
  C      44.007000     20.492000     54.022000
  O      44.720000     19.457000     54.031000
  O      44.380000     21.625000     53.646000
24
Coordinates from ORCA-job neb_MEP_ALL.QMRegion E -1076.135916675124
  C      42.394000     19.871000     56.917000
  H      43.081000     19.125000     56.517000
  H      42.772000     20.646000     57.583000
  C      41.093000     19.875000     56.600000
  C      40.130000     20.896000     57.181000
  O      40.619000     21.952000     57.663000
  O      38.904000     20.616000     57.157000
  O      40.534000     18.917000     55.790000
  C      40.530000     19.125000     54.332000
  H      40.032000     18.225000     53.947000
  C      41.961000     19.207000     53.905000
  H      42.559000     18.294000     53.866000
  C      42.576000     20.401000     53.813000
  C      41.786000     21.634000     53.919000
  H      42.351000     22.566000     53.920000
  C      40.448000     21.625000     54.039000
  H      39.897000     22.559000     54.169000
  C      39.656000     20.344000     53.957000
  H      38.842000     20.373000     54.696000
  O      39.126000     20.193000     52.642000
  H      38.128000     20.171000     52.669000
  C      44.090000     20.517000     53.728000
  O      44.781000     19.478000     53.903000
  O      44.542000     21.670000     53.521000
24
Coordinates from ORCA-job neb_MEP_ALL.QMRegion E -1076.137602400326
  C      42.532325     19.970846     56.676392
  H      43.222605     19.257305     56.228529
  H      42.941611     20.831041     57.205099
  C      41.203971     19.879622     56.516379
  C      40.246690     20.874303     57.153128
  O      40.732880     21.924040     57.652022
  O      39.021680     20.589304     57.158628
  O      40.620265     18.884393     55.771645
  C      40.534422     19.043249     54.286813
  H      40.051078     18.113948     53.956754
  C      41.939362     19.167446     53.812271
  H      42.555054     18.273269     53.700556
  C      42.531173     20.378276     53.827142
  C      41.709996     21.583633     54.009421
  H      42.245670     22.526384     54.116469
  C      40.368280     21.533826     54.081300
  H      39.782503     22.442944     54.236573
  C      39.613881     20.235261     53.944604
  H      38.812869     20.209481     54.696349
  O      39.067480     20.114388     52.635613
  H      38.068156     20.132534     52.674643
  C      44.044560     20.511496     53.760780
  O      44.741505     19.474828     53.932545
  O      44.492066     21.666780     53.567613
24
Coordinates from ORCA-job neb_MEP_ALL.QMRegion E -1076.126901253338
  C      42.556791     20.007796     56.601208
  H      43.242989     19.251812     56.223041
  H      42.982657     20.926412     57.007564
  C      41.216065     19.859563     56.526058
  C      40.262254     20.875763     57.147760
  O      40.750949     21.925939     57.645008
  O      39.033012     20.605820     57.148573
  O      40.641715     18.845643     55.821879
  C      40.538817     19.022315     54.203161
  H      40.066667     18.077963     53.897322
  C      41.939034     19.162546     53.812405
  H      42.561614     18.276931     53.685014
  C      42.528726     20.373592     53.945492
  C      41.698571     21.575806     54.104932
  H      42.221982     22.521532     54.244975
  C      40.356255     21.519053     54.089945
  H      39.756494     22.425228     54.201722
  C      39.611234     20.222034     53.913905
  H      38.828594     20.154216     54.679176
  O      39.033229     20.167095     52.612109
  H      38.030742     20.168833     52.668970
  C      44.038278     20.505990     53.845838
  O      44.737818     19.467328     53.982612
  O      44.477612     21.656422     53.614511
24
Coordinates from ORCA-job neb_MEP_ALL.QMRegion E -1076.117055626390
  C      42.574406     20.030573     56.571420
  H      43.252497     19.244346     56.245286
  H      43.001164     20.947156     56.979785
  C      41.216909     19.837028     56.568858
  C      40.262367     20.879995     57.162450
  O      40.752325     21.934761     57.647917
  O      39.032935     20.613600     57.154243
  O      40.668471     18.812227     55.967179
  C      40.538949     19.026252     54.059089
  H      40.061628     18.063998     53.856053
  C      41.925232     19.156252     53.811988
  H      42.555286     18.274799     53.693934
  C      42.526987     20.373691     54.017617
  C      41.698485     21.579184     54.120517
  H      42.223193     22.526283     54.243416
  C      40.357077     21.520103     54.082692
  H      39.756174     22.425354     54.190741
  C      39.613962     20.225955     53.889777
  H      38.844816     20.139178     54.668119
  O      39.015379     20.197596     52.594129
  H      38.012707     20.178988     52.661663
  C      44.036439     20.504575     53.872879
  O      44.735589     19.464152     53.983942
  O      44.469267     21.651702     53.613988
24
Coordinates from ORCA-job neb_MEP_ALL.QMRegion E -1076.115683308367
  C      42.591065     20.053654     56.516249
  H      43.261703     19.236500     56.260410
  H      43.014211     20.963326     56.943242
  C      41.217499     19.822438     56.596839
  C      40.261996     20.883693     57.173588
  O      40.755370     21.940035     57.649954
  O      39.034182     20.618032     57.159067
  O      40.689188     18.784835     56.087390
  C      40.540211     19.028357     53.952638
  H      40.060245     18.057936     53.817843
  C      41.911160     19.149572     53.818294
  H      42.549825     18.273377     53.702233
  C      42.526850     20.374834     54.091239
  C      41.697235     21.581547     54.137406
  H      42.221359     22.529425     54.252513
  C      40.356947     21.519149     54.077940
  H      39.754681     22.424078     54.182892
  C      39.616363     20.225549     53.871882
  H      38.855389     20.126518     54.659609
  O      39.001455     20.220510     52.582199
  H      38.000026     20.187075     52.658522
  C      44.035121     20.504287     53.896999
  O      44.733761     19.462131     53.987992
  O      44.463320     21.648165     53.616933
24
Coordinates from ORCA-job neb_MEP_ALL.QMRegion E -1076.117683202577
  C      42.599810     20.073122     56.439218
  H      43.264588     19.229473     56.266292
  H      43.020883     20.972059     56.895381
  C      41.216903     19.816797     56.601685
  C      40.261943     20.885230     57.177211
  O      40.759891     21.939745     57.650267
  O      39.035851     20.618961     57.163164
  O      40.699055     18.767827     56.153658
  C      40.542966     19.029915     53.901910
  H      40.061942     18.057665     53.787353
  C      41.904090     19.145904     53.831098
  H      42.546916     18.272965     53.711380
  C      42.529632     20.373629     54.170693
  C      41.696447     21.583702     54.156518
  H      42.219432     22.533142     54.262508
  C      40.358498     21.518821     54.075426
  H      39.755365     22.424383     54.171268
  C      39.618335     20.225100     53.862881
  H      38.861147     20.120161     54.655064
  O      38.994731     20.234420     52.577526
  H      37.994423     20.192186     52.657699
  C      44.034645     20.504093     53.918743
  O      44.733944     19.461324     53.992934
  O      44.457559     21.645076     53.620013
24
Coordinates from ORCA-job neb_MEP_ALL.QMRegion E -1076.122860856446
  C      42.606582     20.091446     56.348365
  H      43.264709     19.225291     56.272088
  H      43.023260     20.974525     56.848874
  C      41.214287     19.813511     56.597850
  C      40.262628     20.884925     57.179714
  O      40.764988     21.937520     57.651034
  O      39.037545     20.617882     57.167389
  O      40.706863     18.754638     56.207259
  C      40.546646     19.031176     53.863797
  H      40.064551     18.058106     53.759480
  C      41.898986     19.142438     53.845050
  H      42.544827     18.271742     53.719898
  C      42.534728     20.370147     54.261343
  C      41.695629     21.584689     54.176060
  H      42.217464     22.536220     54.271340
  C      40.360839     21.517483     54.073505
  H      39.756842     22.424144     54.159609
  C      39.620340     20.223461     53.857557
  H      38.864550     20.115011     54.651996
  O      38.990310     20.244581     52.574978
  H      37.990869     20.196005     52.657443
  C      44.034926     20.503749     53.939187
  O      44.735027     19.460517     53.995798
  O      44.451707     21.641432     53.621249
24
Coordinates from ORCA-job neb_MEP_ALL.QMRegion E -1076.133724907691
  C      42.608093     20.109607     56.233061
  H      43.255526     19.228364     56.276459
  H      43.021031     20.971613     56.783808
  C      41.210447     19.811642     56.586791
  C      40.263999     20.884700     57.183780
  O      40.769352     21.934102     57.652595
  O      39.040971     20.618690     57.173320
  O      40.712785     18.740277     56.266745
  C      40.554408     19.033335     53.833637
  H      40.070102     18.060444     53.724806
  C      41.897259     19.138494     53.869542
  H      42.543799     18.269581     53.730411
  C      42.544491     20.365250     54.372574
  C      41.698115     21.584485     54.200479
  H      42.216046     22.539972     54.284650
  C      40.366429     21.515999     54.071576
  H      39.760766     22.423890     54.144305
  C      39.623403     20.222303     53.851930
  H      38.870330     20.106629     54.649794
  O      38.985751     20.259196     52.573399
  H      37.987173     20.199498     52.657385
  C      44.034860     20.503884     53.962613
  O      44.734938     19.460239     54.000630
  O      44.443771     21.637526     53.623229
24
Coordinates from ORCA-job neb_MEP_ALL.QMRegion E -1076.154811178145
  C      42.613769     20.144253     56.107826
  H      43.267659     19.280985     56.298729
  H      43.021485     21.032911     56.612243
  C      41.228512     19.820316     56.614565
  C      40.278757     20.897740     57.201177
  O      40.789859     21.939935     57.676783
  O      39.057608     20.621143     57.189024
  O      40.788042     18.697716     56.486826
  C      40.581200     19.056459     53.698687
  H      40.106222     18.106567     53.449924
  C      41.896992     19.123870     53.925141
  H      42.536346     18.245406     53.812111
  C      42.550476     20.345359     54.516621
  C      41.704779     21.570946     54.285967
  H      42.207427     22.529449     54.410611
  C      40.388415     21.512342     54.058105
  H      39.793615     22.428631     54.079655
  C      39.643359     20.231895     53.784025
  H      38.918514     20.068331     54.602224
  O      38.954341     20.341738     52.541210
  H      37.959906     20.260418     52.655761
  C      44.027064     20.493951     54.012040
  O      44.733458     19.454312     54.023392
  O      44.413171     21.625108     53.642755
24
Coordinates from ORCA-job neb_MEP_ALL.QMRegion E -1076.159997922397
  C      42.654000     20.127000     56.113000
  H      43.340000     19.287000     56.293000
  H      43.050000     21.046000     56.568000
  C      41.303000     19.764000     56.682000
  C      40.332000     20.849000     57.228000
  O      40.829000     21.908000     57.680000
  O      39.113000     20.562000     57.217000
  O      40.921000     18.612000     56.668000
  C      40.598000     19.077000     53.588000
  H      40.155000     18.162000     53.194000
  C      41.892000     19.124000     53.921000
  H      42.542000     18.255000     53.804000
  C      42.538000     20.334000     54.544000
  C      41.692000     21.561000     54.333000
  H      42.184000     22.518000     54.504000
  C      40.389000     21.510000     54.043000
  H      39.797000     22.428000     54.036000
  C      39.648000     20.238000     53.725000
  H      38.948000     20.030000     54.556000
  O      38.917000     20.394000     52.514000
  H      37.928000     20.307000     52.657000
  C      44.007000     20.492000     54.022000
  O      44.720000     19.457000     54.031000
  O      44.380000     21.625000     53.646000
24
Coordinates from ORCA-job neb_MEP_ALL.QMRegion E -1076.135916675124
  C      42.394000     19.871000     56.917000
  H      43.081000     19.125000     56.517000
  H      42.772000     20.646000     57.583000
  C      41.093000     19.875000     56.600000
  C      40.130000     20.896000     57.181000
  O      40.619000     21.952000     57.663000
  O      38.904000     20.616000     57.157000
  O      40.534000     18.917000     55.790000
  C      40.530000     19.125000     54.332000
  H      40.032000     18.225000     53.947000
  C      41.961000     19.207000     53.905000
  H      42.559000     18.294000     53.866000
  C      42.576000     20.401000     53.813000
  C      41.786000     21.634000     53.919000
  H      42.351000     22.566000     53.920000
  C      40.448000     21.625000     54.039000
  H      39.897000     22.559000     54.169000
  C      39.656000     20.344000     53.957000
  H      38.842000     20.373000     54.696000
  O      39.126000     20.193000     52.642000
  H      38.128000     20.171000     52.669000
  C      44.090000     20.517000     53.728000
  O      44.781000     19.478000     53.903000
  O      44.542000     21.670000     53.521000
24
Coordinates from ORCA-job neb_MEP_ALL.QMRegion E -1076.137593435138
  C      42.532244     19.970214     56.677513
  H      43.222294     19.257010     56.228601
  H      42.940950     20.830126     57.207214
  C      41.203808     19.879784     56.516227
  C      40.246389     20.874249     57.153163
  O      40.732743     21.923900     57.652010
  O      39.021521     20.589185     57.158620
  O      40.620552     18.884397     55.770477
  C      40.534454     19.043105     54.288228
  H      40.051193     18.114104     53.957223
  C      41.939332     19.167505     53.812376
  H      42.555027     18.273488     53.700652
  C      42.531113     20.378264     53.825636
  C      41.709993     21.583567     54.008369
  H      42.245690     22.526295     54.115368
  C      40.368195     21.533771     54.080918
  H      39.782584     22.442919     54.237119
  C      39.614027     20.235009     53.944664
  H      38.813078     20.209687     54.696364
  O      39.067592     20.113538     52.635728
  H      38.068285     20.131850     52.674802
  C      44.044556     20.511516     53.759724
  O      44.741548     19.474932     53.931885
  O      44.492063     21.666914     53.567125
24
Coordinates from ORCA-job neb_MEP_ALL.QMRegion E -1076.127578428500
  C      42.556322     20.006328     56.606138
  H      43.242857     19.252337     56.224483
  H      42.983105     20.925035     57.012757
  C      41.215522     19.859204     56.526356
  C      40.261306     20.875739     57.147896
  O      40.751296     21.925287     57.644999
  O      39.032236     20.605305     57.149216
  O      40.642338     18.845857     55.821608
  C      40.538716     19.022654     54.203761
  H      40.066402     18.078776     53.896902
  C      41.939177     19.162372     53.813914
  H      42.561282     18.276549     53.685189
  C      42.528860     20.373509     53.944948
  C      41.699192     21.576092     54.103501
  H      42.222733     22.522125     54.240534
  C      40.356737     21.519347     54.089532
  H      39.757002     22.425265     54.202286
  C      39.611507     20.222515     53.913212
  H      38.829468     20.154811     54.678725
  O      39.032792     20.167150     52.611557
  H      38.029993     20.168344     52.667939
  C      44.037816     20.505778     53.844185
  O      44.737858     19.467253     53.981054
  O      44.477027     21.656461     53.612957
24
Coordinates from ORCA-job neb_MEP_ALL.QMRegion E -1076.117219386543
  C      42.574095     20.029736     56.572714
  H      43.252657     19.244447     56.245338
  H      43.000600     20.946313     56.981442
  C      41.216912     19.837487     56.567758
  C      40.262176     20.880132     57.162228
  O      40.752267     21.934550     57.648087
  O      39.032998     20.613123     57.154110
  O      40.667986     18.813270     55.963699
  C      40.539036     19.026329     54.062491
  H      40.062037     18.064453     53.856907
  C      41.925613     19.156504     53.811854
  H      42.555553     18.274864     53.693687
  C      42.527218     20.373715     54.015430
  C      41.698462     21.578767     54.119667
  H      42.222975     22.525497     54.243080
  C      40.356933     21.519907     54.083135
  H      39.756055     22.425171     54.190645
  C      39.613731     20.225833     53.890562
  H      38.844075     20.139511     54.668518
  O      39.015872     20.196706     52.594597
  H      38.013192     20.178764     52.661747
  C      44.036683     20.504558     53.872158
  O      44.735850     19.464146     53.983723
  O      44.469597     21.651833     53.613832
24
Coordinates from ORCA-job neb_MEP_ALL.QMRegion E -1076.115669729830
  C      42.590836     20.053313     56.516843
  H      43.261728     19.236635     56.260409
  H      43.014004     20.962860     56.943817
  C      41.217502     19.822461     56.596348
  C      40.262108     20.883490     57.173606
  O      40.755392     21.939917     57.649838
  O      39.034364     20.617875     57.158896
  O      40.689166     18.785528     56.084772
  C      40.540107     19.028100     53.954621
  H      40.060435     18.057931     53.818161
  C      41.911546     19.149649     53.818319
  H      42.549932     18.273372     53.702170
  C      42.526883     20.374707     54.090347
  C      41.697166     21.581350     54.137267
  H      42.221157     22.529094     54.252208
  C      40.356845     21.519039     54.078262
  H      39.754555     22.423944     54.182755
  C      39.616377     20.225376     53.872235
  H      38.855086     20.126640     54.659689
  O      39.001697     20.219777     52.582446
  H      38.000201     20.186932     52.658556
  C      44.035261     20.504242     53.896674
  O      44.733955     19.462140     53.987788
  O      44.463418     21.648200     53.616783
24
Coordinates from ORCA-job neb_MEP_ALL.QMRegion E -1076.117760917341
  C      42.599934     20.073324     56.438900
  H      43.264935     19.229670     56.266863
  H      43.020792     20.971478     56.896313
  C      41.216419     19.816325     56.601213
  C      40.262302     20.884866     57.177101
  O      40.760054     21.939797     57.650378
  O      39.035829     20.618695     57.163144
  O      40.699641     18.768694     56.152902
  C      40.543200     19.029773     53.903137
  H      40.062115     18.057804     53.786936
  C      41.904079     19.145966     53.831403
  H      42.546936     18.272767     53.711309
  C      42.529686     20.373282     54.170750
  C      41.696333     21.583499     54.156529
  H      42.219161     22.532908     54.262026
  C      40.358491     21.518551     54.075519
  H      39.755217     22.424016     54.171250
  C      39.618445     20.224889     53.863013
  H      38.860973     20.120026     54.654801
  O      38.994704     20.234051     52.577429
  H      37.994208     20.192226     52.657560
  C      44.034720     20.504047     53.918525
  O      44.733906     19.461298     53.992567
  O      44.457418     21.645109     53.619757
24
Coordinates from ORCA-job neb_MEP_ALL.QMRegion E -1076.122802408084
  C      42.606782     20.091380     56.349578
  H      43.264933     19.225276     56.272259
  H      43.023136     20.974530     56.850371
  C      41.214255     19.813262     56.597359
  C      40.262263     20.885440     57.179301
  O      40.764979     21.937065     57.651275
  O      39.037452     20.617452     57.167498
  O      40.707018     18.755794     56.206312
  C      40.547403     19.030905     53.863711
  H      40.064364     18.057741     53.759672
  C      41.898487     19.142775     53.843707
  H      42.544596     18.271762     53.720577
  C      42.534629     20.369820     54.260672
  C      41.695734     21.584305     54.177060
  H      42.217101     22.535887     54.269901
  C      40.360685     21.517198     54.074562
  H      39.756750     22.423827     54.159433
  C      39.619984     20.223181     53.857436
  H      38.863987     20.115583     54.652087
  O      38.990515     20.243310     52.575040
  H      37.991413     20.196020     52.657792
  C      44.035038     20.503495     53.938629
  O      44.735257     19.460403     53.995177
  O      44.451372     21.641360     53.620880
24
Coordinates from ORCA-job neb_MEP_ALL.QMRegion E -1076.133240932992
  C      42.609548     20.110375     56.235023
  H      43.257477     19.227867     56.276564
  H      43.022538     20.972785     56.787991
  C      41.210388     19.812237     56.587323
  C      40.263866     20.884713     57.181967
  O      40.771121     21.933966     57.653419
  O      39.040245     20.616047     57.173020
  O      40.714149     18.740639     56.265172
  C      40.554400     19.032887     53.832715
  H      40.069325     18.060540     53.723421
  C      41.896256     19.138397     53.867735
  H      42.543853     18.269532     53.730671
  C      42.543758     20.364852     54.371730
  C      41.697486     21.583809     54.201121
  H      42.214961     22.538925     54.282770
  C      40.365602     21.515333     54.072391
  H      39.760065     22.423041     54.144282
  C      39.622643     20.221388     53.852363
  H      38.868114     20.108184     54.649766
  O      38.985934     20.256861     52.573340
  H      37.987616     20.201019     52.656908
  C      44.035425     20.503256     53.961807
  O      44.735941     19.459840     53.999116
  O      44.443622     21.637727     53.622346
24
Coordinates from ORCA-job neb_MEP_ALL.QMRegion E -1076.155019737075
  C      42.613136     20.142835     56.108329
  H      43.266944     19.280032     56.298466
  H      43.021308     21.033371     56.606566
  C      41.228011     19.818349     56.614155
  C      40.278170     20.897044     57.200686
  O      40.791224     21.938971     57.676334
  O      39.057074     20.621059     57.189494
  O      40.788689     18.698055     56.488953
  C      40.581366     19.056530     53.698652
  H      40.107483     18.106815     53.448974
  C      41.897105     19.124462     53.925771
  H      42.536344     18.246437     53.813176
  C      42.550308     20.345714     54.517315
  C      41.705067     21.571594     54.287353
  H      42.207247     22.530563     54.410662
  C      40.389051     21.512111     54.058341
  H      39.794248     22.428108     54.078345
  C      39.643148     20.231648     53.785110
  H      38.916953     20.068001     54.603048
  O      38.954789     20.341913     52.541939
  H      37.960400     20.259772     52.655467
  C      44.026933     20.494199     54.013492
  O      44.733310     19.454542     54.023605
  O      44.412849     21.625040     53.642721
24
Coordinates from ORCA-job neb_MEP_ALL.QMRegion E -1076.159997922397
  C      42.654000     20.127000     56.113000
  H      43.340000     19.287000     56.293000
  H      43.050000     21.046000     56.568000
  C      41.303000     19.764000     56.682000
  C      40.332000     20.849000     57.228000
  O      40.829000     21.908000     57.680000
  O      39.113000     20.562000     57.217000
  O      40.921000     18.612000     56.668000
  C      40.598000     19.077000     53.588000
  H      40.155000     18.162000     53.194000
  C      41.892000     19.124000     53.921000
  H      42.542000     18.255000     53.804000
  C      42.538000     20.334000     54.544000
  C      41.692000     21.561000     54.333000
  H      42.184000     22.518000     54.504000
  C      40.389000     21.510000     54.043000
  H      39.797000     22.428000     54.036000
  C      39.648000     20.238000     53.725000
  H      38.948000     20.030000     54.556000
  O      38.917000     20.394000     52.514000
  H      37.928000     20.307000     52.657000
  C      44.007000     20.492000     54.022000
  O      44.720000     19.457000     54.031000
  O      44.380000     21.625000     53.646000
24
Coordinates from ORCA-job neb_MEP_ALL.QMRegion E -1076.135916675124
  C      42.394000     19.871000     56.917000
  H      43.081000     19.125000     56.517000
  H      42.772000     20.646000     57.583000
  C      41.093000     19.875000     56.600000
  C      40.130000     20.896000     57.181000
  O      40.619000     21.952000     57.663000
  O      38.904000     20.616000     57.157000
  O      40.534000     18.917000     55.790000
  C      40.530000     19.125000     54.332000
  H      40.032000     18.225000     53.947000
  C      41.961000     19.207000     53.905000
  H      42.559000     18.294000     53.866000
  C      42.576000     20.401000     53.813000
  C      41.786000     21.634000     53.919000
  H      42.351000     22.566000     53.920000
  C      40.448000     21.625000     54.039000
  H      39.897000     22.559000     54.169000
  C      39.656000     20.344000     53.957000
  H      38.842000     20.373000     54.696000
  O      39.126000     20.193000     52.642000
  H      38.128000     20.171000     52.669000
  C      44.090000     20.517000     53.728000
  O      44.781000     19.478000     53.903000
  O      44.542000     21.670000     53.521000
24
Coordinates from ORCA-job neb_MEP_ALL.QMRegion E -1076.137654677322
  C      42.531556     19.968887     56.680147
  H      43.221541     19.256467     56.229057
  H      42.939704     20.828008     57.212579
  C      41.203465     19.879817     56.515799
  C      40.245810     20.874319     57.152924
  O      40.732190     21.923725     57.652251
  O      39.021091     20.588817     57.158814
  O      40.620258     18.884571     55.768802
  C      40.534500     19.043342     54.290382
  H      40.051288     18.114885     53.958571
  C      41.939417     19.167644     53.812586
  H      42.555039     18.273637     53.701093
  C      42.531188     20.378312     53.822461
  C      41.710137     21.583629     54.005915
  H      42.246080     22.526358     54.112463
  C      40.368381     21.533875     54.080343
  H      39.783021     22.443107     54.238098
  C      39.614177     20.234871     53.945041
  H      38.813131     20.210649     54.696661
  O      39.068124     20.111847     52.636085
  H      38.068875     20.130599     52.675073
  C      44.044686     20.511636     53.757484
  O      44.741581     19.475077     53.930457
  O      44.492172     21.667249     53.565943
24
Coordinates from ORCA-job neb_MEP_ALL.QMRegion E -1076.127752458015
  C      42.555939     20.005256     56.611052
  H      43.243008     19.252368     56.227020
  H      42.983744     20.923427     57.020083
  C      41.214994     19.858187     56.527808
  C      40.260356     20.875931     57.148360
  O      40.751310     21.925109     57.645374
  O      39.031406     20.604568     57.150011
  O      40.642455     18.845138     55.823201
  C      40.538690     19.023373     54.202351
  H      40.066097     18.079735     53.896017
  C      41.939396     19.162210     53.814916
  H      42.560894     18.275894     53.685774
  C      42.529143     20.373470     53.945068
  C      41.699781     21.576361     54.101349
  H      42.223749     22.522640     54.234729
  C      40.357382     21.519671     54.088835
  H      39.757699     22.425308     54.202682
  C      39.611648     20.223243     53.912287
  H      38.830309     20.155493     54.678320
  O      39.032289     20.167479     52.610670
  H      38.029176     20.167869     52.666761
  C      44.037630     20.505668     53.842586
  O      44.737820     19.467140     53.978895
  O      44.476512     21.656475     53.610806
24
Coordinates from ORCA-job neb_MEP_ALL.QMRegion E -1076.117361999242
  C      42.573753     20.028876     56.574289
  H      43.252874     19.244421     56.245439
  H      43.000051     20.945453     56.983815
  C      41.217084     19.837954     56.566435
  C      40.262127     20.880211     57.161978
  O      40.752070     21.934479     57.648377
  O      39.033058     20.612604     57.153959
  O      40.666941     18.814178     55.958591
  C      40.539161     19.026247     54.067342
  H      40.062492     18.064934     53.857943
  C      41.926355     19.156859     53.811628
  H      42.555870     18.274831     53.693379
  C      42.527473     20.373740     54.012549
  C      41.698297     21.578272     54.118909
  H      42.222782     22.524666     54.242518
  C      40.356801     21.519659     54.083410
  H      39.755907     22.424949     54.190588
  C      39.613391     20.225554     53.891549
  H      38.843057     20.139874     54.669079
  O      39.016488     20.195588     52.595130
  H      38.013804     20.178442     52.661899
  C      44.037052     20.504550     53.871272
  O      44.736184     19.464099     53.983382
  O      44.469964     21.651993     53.613576
24
Coordinates from ORCA-job neb_MEP_ALL.QMRegion E -1076.115657312571
  C      42.590619     20.052798     56.517918
  H      43.261792     19.236669     56.260293
  H      43.013840     20.962514     56.944788
  C      41.217634     19.822491     56.595376
  C      40.262345     20.883247     57.173383
  O      40.755300     21.939731     57.649815
  O      39.034575     20.617682     57.158794
  O      40.688707     18.786188     56.081072
  C      40.540200     19.027862     53.957187
  H      40.060689     18.057915     53.818741
  C      41.912015     19.149747     53.818486
  H      42.550131     18.273301     53.702040
  C      42.526946     20.374635     54.088891
  C      41.696974     21.581064     54.137168
  H      42.220950     22.528697     54.251778
  C      40.356717     21.518808     54.078532
  H      39.754413     22.423716     54.182589
  C      39.616257     20.225072     53.872838
  H      38.854507     20.126802     54.659942
  O      39.002081     20.218714     52.582789
  H      38.000551     20.186703     52.658657
  C      44.035435     20.504172     53.896141
  O      44.734257     19.462111     53.987540
  O      44.463499     21.648233     53.616611
24
Coordinates from ORCA-job neb_MEP_ALL.QMRegion E -1076.117748198558
  C      42.599844     20.073231     56.439595
  H      43.265377     19.229896     56.267478
  H      43.020664     20.970856     56.898307
  C      41.216505     19.816532     56.600655
  C      40.262553     20.884538     57.177003
  O      40.760051     21.939713     57.650485
  O      39.036125     20.618415     57.163094
  O      40.699602     18.769105     56.150340
  C      40.543396     19.029564     53.904969
  H      40.062323     18.057923     53.786976
  C      41.904278     19.145815     53.831847
  H      42.546965     18.272583     53.711075
  C      42.529760     20.373112     54.169796
  C      41.696186     21.583166     54.156282
  H      42.218883     22.532580     54.261256
  C      40.358335     21.518199     54.075625
  H      39.755015     22.423547     54.171354
  C      39.618484     20.224487     53.863462
  H      38.860420     20.119981     54.654713
  O      38.994864     20.233209     52.577435
  H      37.994177     20.192185     52.657467
  C      44.034829     20.503983     53.917904
  O      44.734005     19.461225     53.991997
  O      44.457337     21.645201     53.619367
24
Coordinates from ORCA-job neb_MEP_ALL.QMRegion E -1076.122709621552
  C      42.606834     20.091323     56.350473
  H      43.265165     19.225568     56.272942
  H      43.023010     20.974024     56.852432
  C      41.214585     19.813311     56.597528
  C      40.262065     20.885625     57.179005
  O      40.764937     21.937155     57.651671
  O      39.037386     20.617096     57.167490
  O      40.706976     18.756271     56.204177
  C      40.547524     19.030408     53.865047
  H      40.064403     18.057707     53.759597
  C      41.898876     19.142758     53.843680
  H      42.544247     18.271783     53.720819
  C      42.534641     20.369583     54.259272
  C      41.695708     21.583786     54.177480
  H      42.216722     22.535567     54.268377
  C      40.360756     21.516748     54.075516
  H      39.756556     22.423316     54.159342
  C      39.619789     20.222759     53.857267
  H      38.863512     20.115748     54.651931
  O      38.990645     20.242207     52.574950
  H      37.991539     20.195962     52.657951
  C      44.034941     20.503251     53.937396
  O      44.735197     19.460231     53.994664
  O      44.451056     21.641501     53.620611
24
Coordinates from ORCA-job neb_MEP_ALL.QMRegion E -1076.133030462594
  C      42.611309     20.111310     56.235522
  H      43.259766     19.227138     56.277094
  H      43.023778     20.973760     56.792344
  C      41.210654     19.812373     56.588757
  C      40.262741     20.886091     57.180884
  O      40.772981     21.933526     57.654047
  O      39.039779     20.613231     57.172534
  O      40.716045     18.741028     56.263059
  C      40.553680     19.032237     53.831464
  H      40.068776     18.060686     53.721770
  C      41.895537     19.138290     53.865866
  H      42.543453     18.269748     53.731247
  C      42.542812     20.364322     54.371359
  C      41.696474     21.582997     54.202544
  H      42.213775     22.537964     54.280199
  C      40.364829     21.514202     54.074134
  H      39.759517     22.421943     54.143949
  C      39.622129     20.220276     53.852556
  H      38.866201     20.109862     54.649147
  O      38.986291     20.254090     52.573351
  H      37.987823     20.202321     52.656697
  C      44.035813     20.502792     53.960272
  O      44.736818     19.459379     53.997644
  O      44.443372     21.637754     53.621612
24
Coordinates from ORCA-job neb_MEP_ALL.QMRegion E -1076.155090623572
  C      42.612835     20.141184     56.108880
  H      43.265841     19.278243     56.298195
  H      43.021504     21.034541     56.600415
  C      41.228069     19.817158     56.613472
  C      40.278028     20.896288     57.200440
  O      40.792330     21.937596     57.675567
  O      39.056149     20.621134     57.190059
  O      40.787857     18.695917     56.490959
  C      40.581433     19.056592     53.699975
  H      40.109155     18.106869     53.448555
  C      41.896972     19.125383     53.926015
  H      42.536578     18.247911     53.814371
  C      42.550164     20.346145     54.516865
  C      41.705394     21.572335     54.288889
  H      42.206863     22.531882     54.410195
  C      40.389570     21.511834     54.059391
  H      39.794914     22.427487     54.076591
  C      39.642831     20.231422     53.786654
  H      38.915185     20.067783     54.604087
  O      38.955400     20.341845     52.542725
  H      37.961097     20.258633     52.655249
  C      44.026613     20.494484     54.014705
  O      44.733117     19.454826     54.024167
  O      44.412346     21.625018     53.642969
24
Coordinates from ORCA-job neb_MEP_ALL.QMRegion E -1076.159997922397
  C      42.654000     20.127000     56.113000
  H      43.340000     19.287000     56.293000
  H      43.050000     21.046000     56.568000
  C      41.303000     19.764000     56.682000
  C      40.332000     20.849000     57.228000
  O      40.829000     21.908000     57.680000
  O      39.113000     20.562000     57.217000
  O      40.921000     18.612000     56.668000
  C      40.598000     19.077000     53.588000
  H      40.155000     18.162000     53.194000
  C      41.892000     19.124000     53.921000
  H      42.542000     18.255000     53.804000
  C      42.538000     20.334000     54.544000
  C      41.692000     21.561000     54.333000
  H      42.184000     22.518000     54.504000
  C      40.389000     21.510000     54.043000
  H      39.797000     22.428000     54.036000
  C      39.648000     20.238000     53.725000
  H      38.948000     20.030000     54.556000
  O      38.917000     20.394000     52.514000
  H      37.928000     20.307000     52.657000
  C      44.007000     20.492000     54.022000
  O      44.720000     19.457000     54.031000
  O      44.380000     21.625000     53.646000
24
Coordinates from ORCA-job neb_MEP_ALL.QMRegion E -1076.135916675124
  C      42.394000     19.871000     56.917000
  H      43.081000     19.125000     56.517000
  H      42.772000     20.646000     57.583000
  C      41.093000     19.875000     56.600000
  C      40.130000     20.896000     57.181000
  O      40.619000     21.952000     57.663000
  O      38.904000     20.616000     57.157000
  O      40.534000     18.917000     55.790000
  C      40.530000     19.125000     54.332000
  H      40.032000     18.225000     53.947000
  C      41.961000     19.207000     53.905000
  H      42.559000     18.294000     53.866000
  C      42.576000     20.401000     53.813000
  C      41.786000     21.634000     53.919000
  H      42.351000     22.566000     53.920000
  C      40.448000     21.625000     54.039000
  H      39.897000     22.559000     54.169000
  C      39.656000     20.344000     53.957000
  H      38.842000     20.373000     54.696000
  O      39.126000     20.193000     52.642000
  H      38.128000     20.171000     52.669000
  C      44.090000     20.517000     53.728000
  O      44.781000     19.478000     53.903000
  O      44.542000     21.670000     53.521000
24
Coordinates from ORCA-job neb_MEP_ALL.QMRegion E -1076.137779513121
  C      42.529807     19.965935     56.686197
  H      43.219527     19.255556     56.230861
  H      42.936612     20.822160     57.225601
  C      41.202465     19.879940     56.515228
  C      40.244615     20.874240     57.152294
  O      40.730687     21.923393     57.652852
  O      39.020003     20.587886     57.159347
  O      40.619215     18.885419     55.767608
  C      40.534649     19.044636     54.292939
  H      40.051195     18.116811     53.961716
  C      41.939724     19.167972     53.812902
  H      42.555161     18.273603     53.702446
  C      42.531346     20.378534     53.815436
  C      41.710714     21.584050     53.999898
  H      42.247269     22.526671     54.105013
  C      40.369074     21.534408     54.079200
  H      39.784413     22.443635     54.240159
  C      39.614438     20.235179     53.946138
  H      38.812860     20.213373     54.697560
  O      39.069603     20.108004     52.637109
  H      38.070575     20.127871     52.675595
  C      44.045065     20.511980     53.752250
  O      44.741674     19.475442     53.927058
  O      44.492662     21.668019     53.563025
24
Coordinates from ORCA-job neb_MEP_ALL.QMRegion E -1076.127801997210
  C      42.555860     20.004548     56.616527
  H      43.243360     19.251802     56.232196
  H      42.983934     20.920124     57.032468
  C      41.214724     19.856761     56.531397
  C      40.259787     20.875491     57.149510
  O      40.750074     21.925814     57.646420
  O      39.030580     20.603818     57.151168
  O      40.641595     18.843481     55.825785
  C      40.538733     19.024501     54.199570
  H      40.065731     18.081000     53.894515
  C      41.939988     19.162152     53.815009
  H      42.560428     18.274827     53.687187
  C      42.529740     20.373350     53.945016
  C      41.700521     21.576530     54.097655
  H      42.225334     22.522893     54.225776
  C      40.358033     21.520070     54.087368
  H      39.758766     22.425567     54.202685
  C      39.611604     20.224201     53.911380
  H      38.830741     20.156563     54.678102
  O      39.031918     20.168080     52.609530
  H      38.028562     20.167309     52.665376
  C      44.038349     20.505826     53.840706
  O      44.737791     19.467071     53.975430
  O      44.476284     21.656386     53.607393
24
Coordinates from ORCA-job neb_MEP_ALL.QMRegion E -1076.117557415330
  C      42.573219     20.027845     56.575542
  H      43.253314     19.244241     56.246001
  H      42.999692     20.944648     56.987127
  C      41.217640     19.838243     56.564798
  C      40.262677     20.879678     57.161603
  O      40.751664     21.934720     57.648922
  O      39.033053     20.612103     57.153893
  O      40.665540     18.815091     55.951628
  C      40.539366     19.025755     54.074156
  H      40.063121     18.065365     53.858654
  C      41.927616     19.157184     53.811432
  H      42.556222     18.274620     53.693057
  C      42.527853     20.373481     54.009508
  C      41.697963     21.577610     54.118488
  H      42.222631     22.523952     54.241587
  C      40.356388     21.519103     54.083351
  H      39.755669     22.424558     54.190404
  C      39.612845     20.225000     53.892703
  H      38.841709     20.140059     54.669672
  O      39.017145     20.194187     52.595773
  H      38.014504     20.178007     52.662097
  C      44.037615     20.504603     53.870150
  O      44.736604     19.464112     53.982837
  O      44.470360     21.652018     53.613209
24
Coordinates from ORCA-job neb_MEP_ALL.QMRegion E -1076.115642015362
  C      42.590388     20.051708     56.520343
  H      43.261955     19.236597     56.259903
  H      43.013603     20.962124     56.946673
  C      41.217934     19.822673     56.593299
  C      40.262847     20.882742     57.172522
  O      40.755183     21.939404     57.649979
  O      39.034769     20.617247     57.158765
  O      40.687524     18.787151     56.074645
  C      40.540600     19.027604     53.961456
  H      40.061149     18.057816     53.819993
  C      41.912794     19.149881     53.818759
  H      42.550570     18.273130     53.701782
  C      42.527134     20.374485     54.085987
  C      41.696741     21.580491     54.137025
  H      42.220705     22.528187     54.251047
  C      40.356258     21.518242     54.078775
  H      39.754196     22.423234     54.182323
  C      39.615841     20.224485     53.874039
  H      38.853324     20.127021     54.660560
  O      39.002811     20.216747     52.583443
  H      38.001329     20.186213     52.658926
  C      44.035707     20.503938     53.895131
  O      44.734677     19.462175     53.987132
  O      44.463617     21.648302     53.616346
24
Coordinates from ORCA-job neb_MEP_ALL.QMRegion E -1076.117677451243
  C      42.599511     20.072399     56.442939
  H      43.265939     19.230285     56.268140
  H      43.020335     20.969991     56.902565
  C      41.217386     19.817057     56.599277
  C      40.262970     20.884822     57.177007
  O      40.759634     21.938864     57.650419
  O      39.036754     20.617900     57.162978
  O      40.698740     18.769780     56.144023
  C      40.543003     19.029044     53.908381
  H      40.062676     18.057924     53.788071
  C      41.905537     19.145421     53.832395
  H      42.547047     18.272404     53.710557
  C      42.529870     20.373143     54.166474
  C      41.695923     21.582484     54.155449
  H      42.218574     22.532065     54.259815
  C      40.357902     21.517514     54.075848
  H      39.754617     22.422849     54.171662
  C      39.618114     20.223798     53.864475
  H      38.859064     20.120072     54.654997
  O      38.995435     20.231131     52.577926
  H      37.994739     20.191904     52.657498
  C      44.034941     20.503954     53.916414
  O      44.734429     19.461107     53.990942
  O      44.457409     21.645302     53.618678
24
Coordinates from ORCA-job neb_MEP_ALL.QMRegion E -1076.122583592225
  C      42.606796     20.091531     56.351920
  H      43.265664     19.226254     56.274554
  H      43.022747     20.972345     56.855863
  C      41.214845     19.813268     56.597787
  C      40.262856     20.885327     57.179384
  O      40.764411     21.937561     57.652004
  O      39.037468     20.616904     57.167209
  O      40.706960     18.756557     56.199738
  C      40.547184     19.030004     53.869003
  H      40.064796     18.057864     53.759183
  C      41.899638     19.142135     53.845978
  H      42.544143     18.271303     53.720195
  C      42.534919     20.369492     54.256380
  C      41.695614     21.583107     54.176517
  H      42.216341     22.535193     54.266582
  C      40.360453     21.515783     54.075888
  H      39.756236     22.422234     54.159504
  C      39.619907     20.221977     53.857752
  H      38.863011     20.115114     54.651231
  O      38.990679     20.241133     52.574698
  H      37.991094     20.195732     52.657720
  C      44.034536     20.503235     53.935360
  O      44.734804     19.459984     53.993909
  O      44.450903     21.641858     53.620186
24
Coordinates from ORCA-job neb_MEP_ALL.QMRegion E -1076.132887903995
  C      42.613187     20.111607     56.234812
  H      43.261753     19.227669     56.278632
  H      43.024277     20.973123     56.796134
  C      41.213000     19.811967     56.589441
  C      40.261966     20.887284     57.181770
  O      40.772538     21.932270     57.654038
  O      39.040440     20.612262     57.172196
  O      40.718542     18.741862     56.260500
  C      40.552705     19.031749     53.830702
  H      40.068261     18.060095     53.719205
  C      41.894915     19.138480     53.865219
  H      42.542415     18.269901     53.732050
  C      42.543072     20.363587     54.371923
  C      41.695000     21.581570     54.204817
  H      42.212518     22.537460     54.276361
  C      40.363978     21.512137     54.076999
  H      39.758975     22.420319     54.143135
  C      39.621592     20.218942     53.852614
  H      38.864788     20.111072     54.647471
  O      38.986323     20.250879     52.572857
  H      37.987746     20.203031     52.657039
  C      44.035254     20.502492     53.957772
  O      44.736813     19.459337     53.995960
  O      44.442835     21.637256     53.620963
24
Coordinates from ORCA-job neb_MEP_ALL.QMRegion E -1076.155168532614
  C      42.612688     20.139125     56.108060
  H      43.264267     19.274106     56.297922
  H      43.022463     21.036863     56.593275
  C      41.227297     19.815370     56.613171
  C      40.277217     20.894302     57.199842
  O      40.793379     21.935672     57.674347
  O      39.056051     20.621598     57.190879
  O      40.785481     18.691306     56.492461
  C      40.580758     19.056536     53.704105
  H      40.111696     18.106292     53.449844
  C      41.896748     19.127116     53.925288
  H      42.537451     18.250447     53.815749
  C      42.549966     20.346497     54.515425
  C      41.705453     21.573190     54.290343
  H      42.206112     22.533899     54.408329
  C      40.389623     21.511151     54.062237
  H      39.795481     22.426887     54.073886
  C      39.642083     20.231089     53.789615
  H      38.912839     20.068017     54.605591
  O      38.956653     20.341026     52.544089
  H      37.962425     20.256232     52.655211
  C      44.026204     20.494546     54.014881
  O      44.732689     19.455423     54.025631
  O      44.411646     21.625448     53.643856
24
Coordinates from ORCA-job neb_MEP_ALL.QMRegion E -1076.159997922397
  C      42.654000     20.127000     56.113000
  H      43.340000     19.287000     56.293000
  H      43.050000     21.046000     56.568000
  C      41.303000     19.764000     56.682000
  C      40.332000     20.849000     57.228000
  O      40.829000     21.908000     57.680000
  O      39.113000     20.562000     57.217000
  O      40.921000     18.612000     56.668000
  C      40.598000     19.077000     53.588000
  H      40.155000     18.162000     53.194000
  C      41.892000     19.124000     53.921000
  H      42.542000     18.255000     53.804000
  C      42.538000     20.334000     54.544000
  C      41.692000     21.561000     54.333000
  H      42.184000     22.518000     54.504000
  C      40.389000     21.510000     54.043000
  H      39.797000     22.428000     54.036000
  C      39.648000     20.238000     53.725000
  H      38.948000     20.030000     54.556000
  O      38.917000     20.394000     52.514000
  H      37.928000     20.307000     52.657000
  C      44.007000     20.492000     54.022000
  O      44.720000     19.457000     54.031000
  O      44.380000     21.625000     53.646000
24
Coordinates from ORCA-job neb_MEP_ALL.QMRegion E -1076.135916675124
  C      42.394000     19.871000     56.917000
  H      43.081000     19.125000     56.517000
  H      42.772000     20.646000     57.583000
  C      41.093000     19.875000     56.600000
  C      40.130000     20.896000     57.181000
  O      40.619000     21.952000     57.663000
  O      38.904000     20.616000     57.157000
  O      40.534000     18.917000     55.790000
  C      40.530000     19.125000     54.332000
  H      40.032000     18.225000     53.947000
  C      41.961000     19.207000     53.905000
  H      42.559000     18.294000     53.866000
  C      42.576000     20.401000     53.813000
  C      41.786000     21.634000     53.919000
  H      42.351000     22.566000     53.920000
  C      40.448000     21.625000     54.039000
  H      39.897000     22.559000     54.169000
  C      39.656000     20.344000     53.957000
  H      38.842000     20.373000     54.696000
  O      39.126000     20.193000     52.642000
  H      38.128000     20.171000     52.669000
  C      44.090000     20.517000     53.728000
  O      44.781000     19.478000     53.903000
  O      44.542000     21.670000     53.521000
24
Coordinates from ORCA-job neb_MEP_ALL.QMRegion E -1076.138044512087
  C      42.528165     19.963404     56.691702
  H      43.217577     19.254827     56.233037
  H      42.933603     20.816126     57.237939
  C      41.201439     19.880166     56.515294
  C      40.243390     20.874203     57.152010
  O      40.729179     21.923019     57.653280
  O      39.019119     20.586998     57.159799
  O      40.618179     18.886348     55.767658
  C      40.534779     19.046078     54.294288
  H      40.050884     18.118537     53.964462
  C      41.940044     19.168200     53.812999
  H      42.555273     18.273429     53.703932
  C      42.531529     20.378843     53.809264
  C      41.711336     21.584577     53.994135
  H      42.248521     22.527054     54.097641
  C      40.369859     21.535073     54.078173
  H      39.785908     22.444206     54.241956
  C      39.614658     20.235825     53.947192
  H      38.812507     20.216111     54.698441
  O      39.071039     20.104555     52.638120
  H      38.072277     20.125422     52.676001
  C      44.045490     20.512326     53.747425
  O      44.741752     19.475850     53.923805
  O      44.493221     21.668670     53.560188
24
Coordinates from ORCA-job neb_MEP_ALL.QMRegion E -1076.127833071442
  C      42.555997     20.004459     56.618785
  H      43.243715     19.250991     56.236336
  H      42.983470     20.917478     57.041313
  C      41.214619     19.855338     56.533743
  C      40.259533     20.875412     57.151026
  O      40.748429     21.926355     57.647107
  O      39.030791     20.603463     57.151745
  O      40.640788     18.842865     55.827192
  C      40.538834     19.025095     54.198200
  H      40.065608     18.081682     53.893519
  C      41.940382     19.162149     53.814276
  H      42.560290     18.274093     53.688408
  C      42.530451     20.373368     53.944504
  C      41.700810     21.576389     54.095026
  H      42.226367     22.522721     54.220040
  C      40.358261     21.520279     54.086206
  H      39.759437     22.425876     54.202210
  C      39.611359     20.224642     53.911236
  H      38.830399     20.157278     54.678209
  O      39.032051     20.168419     52.609091
  H      38.028671     20.167052     52.664830
  C      44.038806     20.506028     53.839698
  O      44.738216     19.466787     53.973263
  O      44.476827     21.656684     53.605158
24
Coordinates from ORCA-job neb_MEP_ALL.QMRegion E -1076.117803133231
  C      42.573412     20.027796     56.575835
  H      43.253692     19.244000     56.246596
  H      42.999618     20.944134     56.988754
  C      41.217913     19.838153     56.563929
  C      40.262914     20.879499     57.161685
  O      40.751277     21.934429     57.649019
  O      39.033678     20.611952     57.153924
  O      40.664793     18.815261     55.947698
  C      40.539597     19.025280     54.077992
  H      40.063486     18.065366     53.858481
  C      41.928283     19.157169     53.811548
  H      42.556423     18.274304     53.692950
  C      42.528086     20.373257     54.008593
  C      41.697737     21.577247     54.118733
  H      42.222552     22.523821     54.240950
  C      40.356077     21.518704     54.083066
  H      39.755498     22.424213     54.190167
  C      39.612508     20.224450     53.893198
  H      38.840996     20.139894     54.669855
  O      39.017387     20.193437     52.596068
  H      38.014749     20.177760     52.662210
  C      44.037759     20.504492     53.869672
  O      44.736908     19.464089     53.982491
  O      44.470568     21.652130     53.612944
24
Coordinates from ORCA-job neb_MEP_ALL.QMRegion E -1076.115619624254
  C      42.590316     20.050769     56.522532
  H      43.262104     19.236492     56.259501
  H      43.013408     20.961852     56.948157
  C      41.218057     19.822687     56.591455
  C      40.263058     20.882558     57.171746
  O      40.755088     21.938876     57.650075
  O      39.035101     20.616858     57.158793
  O      40.686616     18.788032     56.069979
  C      40.540594     19.027299     53.964578
  H      40.061596     18.057806     53.821094
  C      41.913753     19.149988     53.818848
  H      42.550912     18.273018     53.701582
  C      42.527223     20.374282     54.083589
  C      41.696496     21.580059     54.136880
  H      42.220554     22.527880     54.250519
  C      40.356005     21.517737     54.078872
  H      39.754024     22.422833     54.182132
  C      39.615479     20.223989     53.874972
  H      38.852352     20.127099     54.661132
  O      39.003392     20.215181     52.583977
  H      38.001982     20.185764     52.659184
  C      44.035834     20.503877     53.894311
  O      44.734993     19.462162     53.986856
  O      44.463689     21.648335     53.616176
24
Coordinates from ORCA-job neb_MEP_ALL.QMRegion E -1076.117474553691
  C      42.599684     20.071572     56.446890
  H      43.266251     19.230531     56.268299
  H      43.019955     20.969350     56.905990
  C      41.217051     19.816366     56.597640
  C      40.263374     20.883993     57.176289
  O      40.759653     21.939200     57.650857
  O      39.036865     20.617495     57.162919
  O      40.698398     18.771561     56.138772
  C      40.543398     19.028775     53.911179
  H      40.062794     18.057550     53.789437
  C      41.905891     19.145707     53.832692
  H      42.547430     18.272014     53.710109
  C      42.529883     20.372832     54.162843
  C      41.695664     21.582083     54.154645
  H      42.218396     22.531659     54.258705
  C      40.357532     21.516970     54.076062
  H      39.754300     22.422375     54.171917
  C      39.617541     20.223263     53.865428
  H      38.857867     20.120213     54.655473
  O      38.996039     20.229247     52.578451
  H      37.995449     20.191533     52.657673
  C      44.035183     20.503784     53.915202
  O      44.734711     19.461230     53.990131
  O      44.457600     21.645419     53.618143
24
Coordinates from ORCA-job neb_MEP_ALL.QMRegion E -1076.122331736220
  C      42.606333     20.091297     56.353141
  H      43.266042     19.226902     56.275889
  H      43.022669     20.971065     56.858489
  C      41.215023     19.812231     56.597437
  C      40.263070     20.884981     57.180116
  O      40.763944     21.937754     57.652000
  O      39.038332     20.616990     57.166887
  O      40.707316     18.757445     56.196303
  C      40.547797     19.029842     53.872666
  H      40.065149     18.057938     53.758842
  C      41.899430     19.141476     53.848731
  H      42.544421     18.270601     53.719206
  C      42.535104     20.369487     54.254035
  C      41.695508     21.582826     54.174839
  H      42.216142     22.534912     54.265732
  C      40.360179     21.515083     54.075469
  H      39.755952     22.421319     54.159795
  C      39.619809     20.221502     53.858221
  H      38.862618     20.114142     54.650708
  O      38.990675     20.240667     52.574732
  H      37.990605     20.195485     52.657275
  C      44.034480     20.503239     53.934029
  O      44.734264     19.460093     53.993357
  O      44.451009     21.642135     53.619854
24
Coordinates from ORCA-job neb_MEP_ALL.QMRegion E -1076.132786927826
  C      42.614169     20.111760     56.233233
  H      43.262418     19.228497     56.280141
  H      43.023633     20.971282     56.796621
  C      41.214077     19.811509     56.589556
  C      40.263264     20.885376     57.182538
  O      40.771642     21.933893     57.654692
  O      39.039782     20.613025     57.172138
  O      40.719855     18.742284     56.259038
  C      40.552933     19.031492     53.831311
  H      40.068387     18.059493     53.717654
  C      41.894165     19.138552     53.866464
  H      42.541584     18.269727     53.732402
  C      42.543560     20.363326     54.372924
  C      41.695003     21.581003     54.206106
  H      42.211887     22.537401     54.274072
  C      40.363253     21.510790     54.078581
  H      39.758904     22.419191     54.142487
  C      39.621528     20.218276     53.852274
  H      38.864664     20.110658     54.646171
  O      38.986226     20.249698     52.572436
  H      37.987288     20.202558     52.657582
  C      44.034266     20.502216     53.956519
  O      44.736077     19.459374     53.995219
  O      44.442568     21.637399     53.620556
24
Coordinates from ORCA-job neb_MEP_ALL.QMRegion E -1076.155211013047
  C      42.612919     20.138015     56.106936
  H      43.263002     19.270929     56.297695
  H      43.023318     21.038047     56.590062
  C      41.226001     19.812398     56.612931
  C      40.277784     20.893191     57.199675
  O      40.793520     21.934290     57.673360
  O      39.055368     20.621656     57.191258
  O      40.784008     18.689379     56.492494
  C      40.579908     19.056225     53.708075
  H      40.113238     18.105403     53.452236
  C      41.896558     19.128284     53.924169
  H      42.538338     18.252331     53.816211
  C      42.549839     20.346691     54.513951
  C      41.705227     21.573575     54.290639
  H      42.205429     22.535055     54.406186
  C      40.389027     21.510740     54.064850
  H      39.795517     22.426681     54.072186
  C      39.641467     20.230792     53.791903
  H      38.911368     20.068572     54.606675
  O      38.957686     20.339946     52.545182
  H      37.963527     20.254182     52.655416
  C      44.025637     20.494767     54.014085
  O      44.732637     19.455592     54.026850
  O      44.411358     21.626012     53.644643
24
Coordinates from ORCA-job neb_MEP_ALL.QMRegion E -1076.159997922397
  C      42.654000     20.127000     56.113000
  H      43.340000     19.287000     56.293000
  H      43.050000     21.046000     56.568000
  C      41.303000     19.764000     56.682000
  C      40.332000     20.849000     57.228000
  O      40.829000     21.908000     57.680000
  O      39.113000     20.562000     57.217000
  O      40.921000     18.612000     56.668000
  C      40.598000     19.077000     53.588000
  H      40.155000     18.162000     53.194000
  C      41.892000     19.124000     53.921000
  H      42.542000     18.255000     53.804000
  C      42.538000     20.334000     54.544000
  C      41.692000     21.561000     54.333000
  H      42.184000     22.518000     54.504000
  C      40.389000     21.510000     54.043000
  H      39.797000     22.428000     54.036000
  C      39.648000     20.238000     53.725000
  H      38.948000     20.030000     54.556000
  O      38.917000     20.394000     52.514000
  H      37.928000     20.307000     52.657000
  C      44.007000     20.492000     54.022000
  O      44.720000     19.457000     54.031000
  O      44.380000     21.625000     53.646000
