24
Coordinates from ORCA-job neb_NEB-CI_converged.QMRegion
  C          42.59031636026798     20.05076851323598     56.52253202571578
  H          43.26210364782946     19.23649202459344     56.25950075662390
  H          43.01340788777888     20.96185220073329     56.94815723096133
  C          41.21805722340083     19.82268735936326     56.59145497791719
  C          40.26305831958157     20.88255789437979     57.17174647313747
  O          40.75508756715080     21.93887592908240     57.65007461833633
  O          39.03510051866242     20.61685755801741     57.15879302248179
  O          40.68661600529003     18.78803242787636     56.06997935934265
  C          40.54059354692174     19.02729931498415     53.96457824643335
  H          40.06159555256178     18.05780573209175     53.82109363484687
  C          41.91375251709093     19.14998771045321     53.81884804310634
  H          42.55091246018496     18.27301809241306     53.70158173977246
  C          42.52722290265357     20.37428234923665     54.08358923878509
  C          41.69649586273854     21.58005851913419     54.13688046658443
  H          42.22055428603367     22.52788025667118     54.25051934868385
  C          40.35600508687260     21.51773733162476     54.07887160871508
  H          39.75402362618529     22.42283345616523     54.18213203385615
  C          39.61547875991356     20.22398902914060     53.87497180596698
  H          38.85235237713522     20.12709943036350     54.66113190152682
  O          39.00339151320728     20.21518066444145     52.58397710744329
  H          38.00198164624013     20.18576409671629     52.65918412632168
  C          44.03583411373000     20.50387707459010     53.89431056674739
  O          44.73499333157455     19.46216230743506     53.98685648513802
  O          44.46368876372651     21.64833459055157     53.61617552287831
