24
Coordinates from ORCA-job neb_MEP.QMRegion E -1076.123628179114
  C      45.788000     30.879000     60.789000
  H      46.603000     30.156000     60.734000
  H      45.899000     31.757000     61.425000
  C      44.656000     30.712000     60.097000
  C      43.491000     31.687000     60.204000
  O      43.731000     32.856000     60.609000
  O      42.354000     31.264000     59.899000
  O      44.451000     29.588000     59.318000
  C      44.847000     29.615000     57.895000
  H      44.627000     28.596000     57.546000
  C      46.318000     29.906000     57.836000
  H      47.023000     29.114000     58.093000
  C      46.759000     31.169000     57.664000
  C      45.794000     32.232000     57.344000
  H      46.184000     33.249000     57.312000
  C      44.498000     31.979000     57.089000
  H      43.817000     32.796000     56.832000
  C      43.932000     30.583000     57.103000
  H      42.981000     30.599000     57.660000
  O      43.717000     30.144000     55.770000
  H      42.787000     29.762000     55.702000
  C      48.213000     31.552000     57.925000
  O      49.059000     30.675000     58.210000
  O      48.456000     32.796000     57.909000
24
Coordinates from ORCA-job neb_MEP.QMRegion E -1076.125665904811
  C      45.818187     30.885370     60.700019
  H      46.640765     30.172005     60.637186
  H      45.944715     31.784457     61.300056
  C      44.663836     30.699356     60.051076
  C      43.500735     31.672169     60.186125
  O      43.746144     32.839816     60.593476
  O      42.357649     31.246045     59.906280
  O      44.443885     29.571121     59.281898
  C      44.843312     29.598989     57.850652
  H      44.625426     28.579705     57.502782
  C      46.311359     29.897097     57.798020
  H      47.023819     29.103734     58.033612
  C      46.740331     31.169608     57.671961
  C      45.769106     32.231055     57.370386
  H      46.147871     33.252577     57.372089
  C      44.480074     31.971847     57.087012
  H      43.797006     32.782610     56.818653
  C      43.921380     30.573955     57.076023
  H      42.975061     30.574373     57.642681
  O      43.695086     30.160236     55.737808
  H      42.766921     29.770635     55.673356
  C      48.190053     31.554407     57.943515
  O      49.035892     30.677418     58.230260
  O      48.432537     32.798455     57.928588
24
Coordinates from ORCA-job neb_MEP.QMRegion E -1076.125808047032
  C      45.848107     30.890723     60.607526
  H      46.680230     30.190532     60.533544
  H      45.992081     31.814867     61.161549
  C      44.674486     30.687268     59.999130
  C      43.512106     31.655388     60.166684
  O      43.764319     32.821034     60.576287
  O      42.362647     31.227943     59.915789
  O      44.437431     29.554497     59.244024
  C      44.840876     29.582874     57.801701
  H      44.625417     28.563889     57.455681
  C      46.304274     29.887941     57.758156
  H      47.024653     29.094316     57.966854
  C      46.719383     31.168795     57.678994
  C      45.740395     32.228757     57.399906
  H      46.107313     33.254089     57.438671
  C      44.460419     31.962870     57.083922
  H      43.777935     32.769565     56.804333
  C      43.909979     30.563476     57.046130
  H      42.968901     30.546508     57.622286
  O      43.670380     30.178266     55.702768
  H      42.744018     29.780893     55.641819
  C      48.164562     31.556749     57.962548
  O      49.009763     30.680161     58.253412
  O      48.405467     32.801034     57.951849
24
Coordinates from ORCA-job neb_MEP.QMRegion E -1076.124372374869
  C      45.885002     30.902013     60.497688
  H      46.723568     30.211411     60.418191
  H      46.052417     31.858549     60.986292
  C      44.687144     30.668890     59.946449
  C      43.526077     31.636802     60.150351
  O      43.785462     32.803203     60.555329
  O      42.369983     31.211408     59.928040
  O      44.438864     29.532633     59.195377
  C      44.838124     29.559578     57.744992
  H      44.629952     28.541504     57.388655
  C      46.294374     29.877026     57.708281
  H      47.024964     29.086042     57.886762
  C      46.689054     31.167195     57.699419
  C      45.703164     32.225710     57.440699
  H      46.056932     33.253980     57.518413
  C      44.438063     31.951782     57.076352
  H      43.756639     32.755241     56.784327
  C      43.899856     30.549428     57.006004
  H      42.970433     30.508288     57.597651
  O      43.635663     30.206833     55.656279
  H      42.712783     29.794500     55.602621
  C      48.129805     31.558890     57.991597
  O      48.975877     30.682141     58.280649
  O      48.371325     32.803153     57.978112
24
Coordinates from ORCA-job neb_MEP.QMRegion E -1076.120254477659
  C      45.918172     30.920525     60.413763
  H      46.751600     30.222810     60.347926
  H      46.101639     31.897374     60.854330
  C      44.693471     30.649871     59.932591
  C      43.535114     31.627483     60.147871
  O      43.798376     32.798400     60.540148
  O      42.375247     31.206503     59.936632
  O      44.440243     29.511907     59.191998
  C      44.846433     29.536956     57.674952
  H      44.637382     28.513994     57.324462
  C      46.286047     29.867962     57.665404
  H      47.022718     29.081086     57.832723
  C      46.659036     31.166007     57.737751
  C      45.674216     32.224008     57.474493
  H      46.021341     33.253193     57.572873
  C      44.424180     31.944639     57.066744
  H      43.742832     32.746000     56.767677
  C      43.896940     30.539675     56.968574
  H      42.984153     30.474221     57.580367
  O      43.604063     30.235128     55.615156
  H      42.686318     29.804250     55.573269
  C      48.100737     31.559635     58.022620
  O      48.949385     30.681313     58.298072
  O      48.346073     32.802991     57.993253
24
Coordinates from ORCA-job neb_MEP.QMRegion E -1076.108917541995
  C      45.950271     30.944366     60.349556
  H      46.765397     30.223395     60.323959
  H      46.134746     31.924385     60.776622
  C      44.689818     30.631352     59.954047
  C      43.537646     31.627920     60.153743
  O      43.803862     32.803036     60.532138
  O      42.376722     31.209897     59.941872
  O      44.422656     29.498580     59.299576
  C      44.885255     29.522465     57.534379
  H      44.645578     28.485442     57.271261
  C      46.275908     29.857563     57.633312
  H      47.016875     29.077889     57.810027
  C      46.629630     31.167593     57.796877
  C      45.657429     32.224688     57.496710
  H      46.004084     33.253514     57.598288
  C      44.419189     31.941537     57.058458
  H      43.737549     32.741112     56.756917
  C      43.901443     30.535550     56.938010
  H      43.004644     30.449116     57.571716
  O      43.579551     30.257982     55.584061
  H      42.668920     29.808797     55.557031
  C      48.081934     31.560055     58.051602
  O      48.933288     30.678727     58.304114
  O      48.332403     32.800952     57.996789
24
Coordinates from ORCA-job neb_MEP.QMRegion E -1076.104852713843
  C      45.999589     30.976238     60.240615
  H      46.777623     30.218786     60.312566
  H      46.164900     31.944629     60.697356
  C      44.683415     30.614654     59.968412
  C      43.536310     31.630337     60.158085
  O      43.811186     32.805332     60.526522
  O      42.377228     31.211126     59.950492
  O      44.400441     29.487166     59.452391
  C      44.935573     29.510928     57.368469
  H      44.658321     28.467258     57.213307
  C      46.255806     29.842502     57.613715
  H      47.008009     29.074383     57.796193
  C      46.591503     31.173132     57.897733
  C      45.641873     32.226645     57.520509
  H      45.989260     33.255408     57.617599
  C      44.417268     31.937644     57.050384
  H      43.735791     32.736302     56.745583
  C      43.909226     30.529656     56.911142
  H      43.023238     30.427084     57.562284
  O      43.555655     30.280650     55.556773
  H      42.654741     29.812799     55.544226
  C      48.063556     31.561122     58.084061
  O      48.919258     30.676589     58.307205
  O      48.320610     32.798433     57.997682
24
Coordinates from ORCA-job neb_MEP.QMRegion E -1076.110796598083
  C      46.055535     31.006399     60.075177
  H      46.777706     30.220311     60.302575
  H      46.185207     31.944066     60.616024
  C      44.682358     30.608372     59.954010
  C      43.535218     31.629617     60.161190
  O      43.819198     32.801413     60.525726
  O      42.378667     31.206807     59.961176
  O      44.388080     29.477661     59.542443
  C      44.963365     29.505539     57.286567
  H      44.672711     28.461617     57.160970
  C      46.239771     29.832357     57.615487
  H      47.001125     29.070117     57.788509
  C      46.553369     31.176164     58.037218
  C      45.627215     32.227577     57.547741
  H      45.975928     33.257448     57.631569
  C      44.418807     31.933267     57.046788
  H      43.738291     32.731060     56.733765
  C      43.912795     30.523514     56.896717
  H      43.030916     30.412387     57.554236
  O      43.540152     30.295801     55.542665
  H      42.646339     29.816221     55.535679
  C      48.050201     31.562322     58.111105
  O      48.910753     30.676562     58.307286
  O      48.311301     32.796049     57.995734
24
Coordinates from ORCA-job neb_MEP.QMRegion E -1076.122560406381
  C      46.101235     31.024090     59.904842
  H      46.773681     30.233307     60.271025
  H      46.206428     31.939743     60.505142
  C      44.683986     30.609490     59.923770
  C      43.536893     31.628206     60.160388
  O      43.829210     32.795576     60.524961
  O      42.382380     31.198136     59.973359
  O      44.377315     29.462313     59.607226
  C      44.982949     29.503279     57.224831
  H      44.690129     28.458928     57.101518
  C      46.227707     29.826613     57.616354
  H      46.995664     29.066981     57.775331
  C      46.520494     31.176257     58.163379
  C      45.609955     32.225212     57.580723
  H      45.955655     33.257345     57.654333
  C      44.418543     31.926477     57.047244
  H      43.742115     32.722563     56.719180
  C      43.914211     30.517071     56.881214
  H      43.036161     30.395204     57.544076
  O      43.523824     30.312078     55.527684
  H      42.636422     29.821475     55.524564
  C      48.035568     31.563242     58.132452
  O      48.900431     30.677721     58.309944
  O      48.297416     32.794234     57.995384
24
Coordinates from ORCA-job neb_MEP.QMRegion E -1076.149696585311
  C      46.128000     31.084000     59.693000
  H      46.832000     30.395000     60.183000
  H      46.217000     32.079000     60.129000
  C      44.725000     30.593000     59.942000
  C      43.553000     31.597000     60.204000
  O      43.837000     32.795000     60.460000
  O      42.404000     31.122000     60.149000
  O      44.480000     29.405000     59.928000
  C      45.105000     29.518000     56.899000
  H      44.913000     28.511000     56.528000
  C      46.246000     29.815000     57.530000
  H      47.021000     29.065000     57.699000
  C      46.490000     31.162000     58.152000
  C      45.603000     32.216000     57.529000
  H      45.918000     33.251000     57.667000
  C      44.469000     31.917000     56.887000
  H      43.828000     32.707000     56.486000
  C      43.986000     30.505000     56.675000
  H      43.189000     30.305000     57.425000
  O      43.447000     30.375000     55.371000
  H      42.565000     29.881000     55.432000
  C      48.010000     31.566000     58.118000
  O      48.880000     30.689000     58.306000
  O      48.259000     32.801000     57.998000
