24
Coordinates from ORCA-job neb_initial_path.QMRegion E   0.000000000000
  C      45.788000     30.879000     60.789000
  H      46.603000     30.156000     60.734000
  H      45.899000     31.757000     61.425000
  C      44.656000     30.712000     60.097000
  C      43.491000     31.687000     60.204000
  O      43.731000     32.856000     60.609000
  O      42.354000     31.264000     59.899000
  O      44.451000     29.588000     59.318000
  C      44.847000     29.615000     57.895000
  H      44.627000     28.596000     57.546000
  C      46.318000     29.906000     57.836000
  H      47.023000     29.114000     58.093000
  C      46.759000     31.169000     57.664000
  C      45.794000     32.232000     57.344000
  H      46.184000     33.249000     57.312000
  C      44.498000     31.979000     57.089000
  H      43.817000     32.796000     56.832000
  C      43.932000     30.583000     57.103000
  H      42.981000     30.599000     57.660000
  O      43.717000     30.144000     55.770000
  H      42.787000     29.762000     55.702000
  C      48.213000     31.552000     57.925000
  O      49.059000     30.675000     58.210000
  O      48.456000     32.796000     57.909000
24
Coordinates from ORCA-job neb_initial_path.QMRegion E   0.000000000000
  C      45.825571     30.895429     60.685857
  H      46.632286     30.166714     60.665000
  H      45.942000     31.786857     61.296571
  C      44.661429     30.695857     60.070857
  C      43.499000     31.676857     60.195857
  O      43.745286     32.846286     60.595429
  O      42.358571     31.253857     59.909000
  O      44.445143     29.572143     59.334857
  C      44.860571     29.598429     57.811000
  H      44.633429     28.576000     57.486429
  C      46.306429     29.895571     57.799857
  H      47.019571     29.107857     58.043143
  C      46.729143     31.169000     57.709286
  C      45.767571     32.230857     57.373286
  H      46.149286     33.249857     57.364429
  C      44.484286     31.971571     57.083000
  H      43.803571     32.785429     56.817571
  C      43.927429     30.573714     57.072000
  H      42.986143     30.569571     57.642429
  O      43.690286     30.166571     55.735571
  H      42.765143     29.771143     55.676000
  C      48.187286     31.553429     57.951571
  O      49.035286     30.675571     58.226000
  O      48.432286     32.796286     57.923714
24
Coordinates from ORCA-job neb_initial_path.QMRegion E   0.000000000000
  C      45.863143     30.911857     60.582714
  H      46.661571     30.177429     60.596000
  H      45.985000     31.816714     61.168143
  C      44.666857     30.679714     60.044714
  C      43.507000     31.666714     60.187714
  O      43.759571     32.836571     60.581857
  O      42.363143     31.243714     59.919000
  O      44.439286     29.556286     59.351714
  C      44.874143     29.581857     57.727000
  H      44.639857     28.556000     57.426857
  C      46.294857     29.885143     57.763714
  H      47.016143     29.101714     57.993286
  C      46.699286     31.169000     57.754571
  C      45.741143     32.229714     57.402571
  H      46.114571     33.250714     57.416857
  C      44.470571     31.964143     57.077000
  H      43.790143     32.774857     56.803143
  C      43.922857     30.564429     57.041000
  H      42.991286     30.540143     57.624857
  O      43.663571     30.189143     55.701143
  H      42.743286     29.780286     55.650000
  C      48.161571     31.554857     57.978143
  O      49.011571     30.676143     58.242000
  O      48.408571     32.796571     57.938429
24
Coordinates from ORCA-job neb_initial_path.QMRegion E   0.000000000000
  C      45.900714     30.928286     60.479571
  H      46.690857     30.188143     60.527000
  H      46.028000     31.846571     61.039714
  C      44.672286     30.663571     60.018571
  C      43.515000     31.656571     60.179571
  O      43.773857     32.826857     60.568286
  O      42.367714     31.233571     59.929000
  O      44.433429     29.540429     59.368571
  C      44.887714     29.565286     57.643000
  H      44.646286     28.536000     57.367286
  C      46.283286     29.874714     57.727571
  H      47.012714     29.095571     57.943429
  C      46.669429     31.169000     57.799857
  C      45.714714     32.228571     57.431857
  H      46.079857     33.251571     57.469286
  C      44.456857     31.956714     57.071000
  H      43.776714     32.764286     56.788714
  C      43.918286     30.555143     57.010000
  H      42.996429     30.510714     57.607286
  O      43.636857     30.211714     55.666714
  H      42.721429     29.789429     55.624000
  C      48.135857     31.556286     58.004714
  O      48.987857     30.676714     58.258000
  O      48.384857     32.796857     57.953143
24
Coordinates from ORCA-job neb_initial_path.QMRegion E   0.000000000000
  C      45.938286     30.944714     60.376429
  H      46.720143     30.198857     60.458000
  H      46.071000     31.876429     60.911286
  C      44.677714     30.647429     59.992429
  C      43.523000     31.646429     60.171429
  O      43.788143     32.817143     60.554714
  O      42.372286     31.223429     59.939000
  O      44.427571     29.524571     59.385429
  C      44.901286     29.548714     57.559000
  H      44.652714     28.516000     57.307714
  C      46.271714     29.864286     57.691429
  H      47.009286     29.089429     57.893571
  C      46.639571     31.169000     57.845143
  C      45.688286     32.227429     57.461143
  H      46.045143     33.252429     57.521714
  C      44.443143     31.949286     57.065000
  H      43.763286     32.753714     56.774286
  C      43.913714     30.545857     56.979000
  H      43.001571     30.481286     57.589714
  O      43.610143     30.234286     55.632286
  H      42.699571     29.798571     55.598000
  C      48.110143     31.557714     58.031286
  O      48.964143     30.677286     58.274000
  O      48.361143     32.797143     57.967857
24
Coordinates from ORCA-job neb_initial_path.QMRegion E   0.000000000000
  C      45.975857     30.961143     60.273286
  H      46.749429     30.209571     60.389000
  H      46.114000     31.906286     60.782857
  C      44.683143     30.631286     59.966286
  C      43.531000     31.636286     60.163286
  O      43.802429     32.807429     60.541143
  O      42.376857     31.213286     59.949000
  O      44.421714     29.508714     59.402286
  C      44.914857     29.532143     57.475000
  H      44.659143     28.496000     57.248143
  C      46.260143     29.853857     57.655286
  H      47.005857     29.083286     57.843714
  C      46.609714     31.169000     57.890429
  C      45.661857     32.226286     57.490429
  H      46.010429     33.253286     57.574143
  C      44.429429     31.941857     57.059000
  H      43.749857     32.743143     56.759857
  C      43.909143     30.536571     56.948000
  H      43.006714     30.451857     57.572143
  O      43.583429     30.256857     55.597857
  H      42.677714     29.807714     55.572000
  C      48.084429     31.559143     58.057857
  O      48.940429     30.677857     58.290000
  O      48.337429     32.797429     57.982571
24
Coordinates from ORCA-job neb_initial_path.QMRegion E   0.000000000000
  C      46.013429     30.977571     60.170143
  H      46.778714     30.220286     60.320000
  H      46.157000     31.936143     60.654429
  C      44.688571     30.615143     59.940143
  C      43.539000     31.626143     60.155143
  O      43.816714     32.797714     60.527571
  O      42.381429     31.203143     59.959000
  O      44.415857     29.492857     59.419143
  C      44.928429     29.515571     57.391000
  H      44.665571     28.476000     57.188571
  C      46.248571     29.843429     57.619143
  H      47.002429     29.077143     57.793857
  C      46.579857     31.169000     57.935714
  C      45.635429     32.225143     57.519714
  H      45.975714     33.254143     57.626571
  C      44.415714     31.934429     57.053000
  H      43.736429     32.732571     56.745429
  C      43.904571     30.527286     56.917000
  H      43.011857     30.422429     57.554571
  O      43.556714     30.279429     55.563429
  H      42.655857     29.816857     55.546000
  C      48.058714     31.560571     58.084429
  O      48.916714     30.678429     58.306000
  O      48.313714     32.797714     57.997286
24
Coordinates from ORCA-job neb_initial_path.QMRegion E   0.000000000000
  C      46.051000     30.994000     60.067000
  H      46.808000     30.231000     60.251000
  H      46.200000     31.966000     60.526000
  C      44.694000     30.599000     59.914000
  C      43.547000     31.616000     60.147000
  O      43.831000     32.788000     60.514000
  O      42.386000     31.193000     59.969000
  O      44.410000     29.477000     59.436000
  C      44.942000     29.499000     57.307000
  H      44.672000     28.456000     57.129000
  C      46.237000     29.833000     57.583000
  H      46.999000     29.071000     57.744000
  C      46.550000     31.169000     57.981000
  C      45.609000     32.224000     57.549000
  H      45.941000     33.255000     57.679000
  C      44.402000     31.927000     57.047000
  H      43.723000     32.722000     56.731000
  C      43.900000     30.518000     56.886000
  H      43.017000     30.393000     57.537000
  O      43.530000     30.302000     55.529000
  H      42.634000     29.826000     55.520000
  C      48.033000     31.562000     58.111000
  O      48.893000     30.679000     58.322000
  O      48.290000     32.798000     58.012000
24
Coordinates from ORCA-job neb_initial_path.QMRegion E   0.000000000000
  C      46.089500     31.039000     59.880000
  H      46.820000     30.313000     60.217000
  H      46.208500     32.022500     60.327500
  C      44.709500     30.596000     59.928000
  C      43.550000     31.606500     60.175500
  O      43.834000     32.791500     60.487000
  O      42.395000     31.157500     60.059000
  O      44.445000     29.441000     59.682000
  C      45.023500     29.508500     57.103000
  H      44.792500     28.483500     56.828500
  C      46.241500     29.824000     57.556500
  H      47.010000     29.068000     57.721500
  C      46.520000     31.165500     58.066500
  C      45.606000     32.220000     57.539000
  H      45.929500     33.253000     57.673000
  C      44.435500     31.922000     56.967000
  H      43.775500     32.714500     56.608500
  C      43.943000     30.511500     56.780500
  H      43.103000     30.349000     57.481000
  O      43.488500     30.338500     55.450000
  H      42.599500     29.853500     55.476000
  C      48.021500     31.564000     58.114500
  O      48.886500     30.684000     58.314000
  O      48.274500     32.799500     58.005000
24
Coordinates from ORCA-job neb_initial_path.QMRegion E   0.000000000000
  C      46.128000     31.084000     59.693000
  H      46.832000     30.395000     60.183000
  H      46.217000     32.079000     60.129000
  C      44.725000     30.593000     59.942000
  C      43.553000     31.597000     60.204000
  O      43.837000     32.795000     60.460000
  O      42.404000     31.122000     60.149000
  O      44.480000     29.405000     59.928000
  C      45.105000     29.518000     56.899000
  H      44.913000     28.511000     56.528000
  C      46.246000     29.815000     57.530000
  H      47.021000     29.065000     57.699000
  C      46.490000     31.162000     58.152000
  C      45.603000     32.216000     57.529000
  H      45.918000     33.251000     57.667000
  C      44.469000     31.917000     56.887000
  H      43.828000     32.707000     56.486000
  C      43.986000     30.505000     56.675000
  H      43.189000     30.305000     57.425000
  O      43.447000     30.375000     55.371000
  H      42.565000     29.881000     55.432000
  C      48.010000     31.566000     58.118000
  O      48.880000     30.689000     58.306000
  O      48.259000     32.801000     57.998000
