24
Coordinates from ORCA-job neb_NEB-CI_converged.QMRegion
  C          46.77263900908867     27.25528437659406     56.67626045486645
  H          47.69992433426959     26.81455371372129     56.34047976509395
  H          46.79260089177435     28.23206786798747     57.15346118686958
  C          45.67147348214523     26.40773427810818     56.81088731470312
  C          44.37884599289215     26.89164489579617     57.50132212222334
  O          44.48272451391168     27.79617341390916     58.35570277904781
  O          43.29974488433938     26.31861107893532     57.17846054716156
  O          45.68221941630464     25.25106186355303     56.29263814664395
  C          45.25677564415034     25.44184227780270     54.07752505524699
  H          45.19077407910240     24.36089882009300     53.94972354744553
  C          46.46746969752093     26.08822091799512     53.95359872803230
  H          47.39701566633053     25.53579769673564     53.82572906265280
  C          46.55298944948144     27.46316996653622     54.20155925999858
  C          45.32348836142219     28.25551050817741     54.24674346391722
  H          45.42564157356129     29.33870979636437     54.31945932881058
  C          44.11876711711385     27.66630610616733     54.19041216119208
  H          43.21438450789110     28.27663872686581     54.21166533451058
  C          43.93918010789677     26.17992943647386     54.06224745773928
  H          43.35257043013772     25.82971376672621     54.92809002768443
  O          43.27358804491012     25.89756387364315     52.84148706168029
  H          42.46409502722218     25.30528298536736     53.01431973004239
  C          47.88050258025645     28.16175304446996     53.94295665184454
  O          48.92655974900531     27.49270616073696     53.80525086234656
  O          47.85411976251929     29.41235824972359     53.85565725038937
