24
Coordinates from ORCA-job neb_MEP.QMRegion E -1076.011592353980
  C      46.671000     27.084000     57.144000
  H      47.580000     26.785000     56.631000
  H      46.696000     27.893000     57.872000
  C      45.511000     26.472000     56.878000
  C      44.220000     26.898000     57.571000
  O      44.302000     27.819000     58.410000
  O      43.154000     26.306000     57.242000
  O      45.430000     25.390000     56.034000
  C      45.306000     25.544000     54.574000
  H      45.209000     24.509000     54.221000
  C      46.572000     26.175000     54.086000
  H      47.478000     25.571000     54.029000
  C      46.647000     27.508000     53.912000
  C      45.433000     28.329000     54.015000
  H      45.556000     29.411000     53.956000
  C      44.217000     27.778000     54.170000
  H      43.335000     28.422000     54.223000
  C      44.007000     26.286000     54.193000
  H      43.286000     26.033000     54.985000
  O      43.535000     25.874000     52.924000
  H      42.723000     25.282000     53.044000
  C      47.989000     28.201000     53.764000
  O      49.047000     27.548000     53.640000
  O      47.964000     29.454000     53.842000
24
Coordinates from ORCA-job neb_MEP.QMRegion E -1076.018006478919
  C      46.721625     27.082016     56.989524
  H      47.600024     26.805615     56.415161
  H      46.772593     27.902295     57.703636
  C      45.558690     26.447348     56.793185
  C      44.298269     26.869772     57.539446
  O      44.409157     27.778674     58.387454
  O      43.217864     26.292637     57.230797
  O      45.444995     25.359238     55.962189
  C      45.275528     25.495282     54.502536
  H      45.176772     24.457037     54.164712
  C      46.522109     26.137445     53.990358
  H      47.433655     25.545837     53.902905
  C      46.590045     27.477184     53.876592
  C      45.372019     28.286520     54.024651
  H      45.488982     29.370759     54.006729
  C      44.161651     27.722437     54.175006
  H      43.275911     28.356154     54.259025
  C      43.963247     26.228600     54.164272
  H      43.260925     25.953830     54.965836
  O      43.466659     25.835389     52.898772
  H      42.629137     25.282931     53.024004
  C      47.931338     28.177008     53.758349
  O      48.993183     27.524412     53.662865
  O      47.907542     29.430054     53.836974
24
Coordinates from ORCA-job neb_MEP.QMRegion E -1076.004912796265
  C      46.758465     27.175674     56.794117
  H      47.653583     26.836171     56.287773
  H      46.785517     28.140014     57.299839
  C      45.629287     26.442968     56.737821
  C      44.368637     26.884625     57.486945
  O      44.478564     27.784865     58.346426
  O      43.283654     26.310600     57.183064
  O      45.539609     25.312109     55.968662
  C      45.277035     25.441722     54.386728
  H      45.196386     24.390937     54.071534
  C      46.496648     26.120364     53.938962
  H      47.412081     25.548678     53.800240
  C      46.557979     27.467444     54.014623
  C      45.330807     28.254837     54.195732
  H      45.432630     29.338004     54.278655
  C      44.122430     27.668826     54.213595
  H      43.219474     28.282506     54.252206
  C      43.940971     26.177062     54.127719
  H      43.302232     25.855111     54.960611
  O      43.354374     25.850935     52.880855
  H      42.515267     25.297603     53.028993
  C      47.890229     28.168384     53.866614
  O      48.947390     27.505649     53.784628
  O      47.869227     29.422823     53.852553
24
Coordinates from ORCA-job neb_MEP.QMRegion E -1075.988757431119
  C      46.767344     27.219054     56.745921
  H      47.679091     26.826435     56.315922
  H      46.790174     28.197429     57.220091
  C      45.654810     26.423057     56.780433
  C      44.375616     26.889252     57.494842
  O      44.479178     27.791617     58.352324
  O      43.292591     26.316613     57.178680
  O      45.617819     25.280359     56.138803
  C      45.264929     25.441107     54.213446
  H      45.194673     24.369946     54.009295
  C      46.483022     26.105069     53.943960
  H      47.404943     25.542362     53.810346
  C      46.554608     27.464311     54.107250
  C      45.326858     28.254650     54.224999
  H      45.428875     29.337604     54.305219
  C      44.119780     27.667466     54.201653
  H      43.215963     28.278370     54.229481
  C      43.938561     26.179841     54.092600
  H      43.330966     25.839781     54.944114
  O      43.308171     25.877564     52.858706
  H      42.483771     25.302473     53.020266
  C      47.884561     28.164626     53.910295
  O      48.935645     27.498153     53.797990
  O      47.860295     29.417213     53.854961
24
Coordinates from ORCA-job neb_MEP.QMRegion E -1075.985077363982
  C      46.772639     27.255284     56.676260
  H      47.699924     26.814554     56.340480
  H      46.792601     28.232068     57.153461
  C      45.671473     26.407734     56.810887
  C      44.378846     26.891645     57.501322
  O      44.482725     27.796173     58.355703
  O      43.299745     26.318611     57.178461
  O      45.682219     25.251062     56.292638
  C      45.256776     25.441842     54.077525
  H      45.190774     24.360899     53.949724
  C      46.467470     26.088221     53.953599
  H      47.397016     25.535798     53.825729
  C      46.552989     27.463170     54.201559
  C      45.323488     28.255511     54.246743
  H      45.425642     29.338710     54.319459
  C      44.118767     27.666306     54.190412
  H      43.214385     28.276639     54.211665
  C      43.939180     26.179929     54.062247
  H      43.352570     25.829714     54.928090
  O      43.273588     25.897564     52.841487
  H      42.464095     25.305283     53.014320
  C      47.880503     28.161753     53.942957
  O      48.926560     27.492706     53.805251
  O      47.854120     29.412358     53.855657
24
Coordinates from ORCA-job neb_MEP.QMRegion E -1075.988847778486
  C      46.762611     27.288792     56.527002
  H      47.711445     26.797558     56.367147
  H      46.788159     28.240645     57.062984
  C      45.672378     26.402444     56.802616
  C      44.381492     26.893750     57.500678
  O      44.497734     27.795469     58.355596
  O      43.304335     26.317854     57.185348
  O      45.716011     25.233120     56.386021
  C      45.258022     25.447169     54.019860
  H      45.190670     24.365011     53.902170
  C      46.458674     26.079803     53.982642
  H      47.391514     25.533876     53.844301
  C      46.560722     27.463125     54.348249
  C      45.320353     28.258502     54.278613
  H      45.420511     29.343013     54.332986
  C      44.121415     27.667435     54.188047
  H      43.216518     28.278211     54.189480
  C      43.940156     26.179866     54.052792
  H      43.359555     25.824311     54.921292
  O      43.257074     25.912301     52.838471
  H      42.456932     25.310009     53.013792
  C      47.877916     28.161033     53.980543
  O      48.917679     27.490071     53.812068
  O      47.846519     29.408018     53.856145
24
Coordinates from ORCA-job neb_MEP.QMRegion E -1076.003615251482
  C      46.751093     27.310801     56.351344
  H      47.704222     26.788302     56.388801
  H      46.778838     28.236719     56.952375
  C      45.668233     26.397613     56.782825
  C      44.385480     26.895013     57.499734
  O      44.515721     27.792910     58.355181
  O      43.309715     26.316943     57.192547
  O      45.747630     25.215379     56.477322
  C      45.262375     25.454926     53.976342
  H      45.193317     24.373314     53.849887
  C      46.454078     26.072988     54.019562
  H      47.388252     25.531965     53.864595
  C      46.575078     27.463825     54.515656
  C      45.320991     28.259719     54.317351
  H      45.415820     29.346498     54.347901
  C      44.128168     27.667243     54.189973
  H      43.223447     28.279287     54.163056
  C      43.941954     26.178633     54.046832
  H      43.364591     25.818057     54.916738
  O      43.243535     25.926811     52.837869
  H      42.452003     25.315619     53.014037
  C      47.875474     28.160418     54.016078
  O      48.908342     27.487432     53.818083
  O      47.837152     29.402691     53.855922
24
Coordinates from ORCA-job neb_MEP.QMRegion E -1076.023872668429
  C      46.739706     27.305876     56.234343
  H      47.697695     26.815283     56.422856
  H      46.721506     28.265777     56.763524
  C      45.702413     26.374400     56.822055
  C      44.409176     26.887924     57.501142
  O      44.554697     27.784026     58.355139
  O      43.330351     26.321882     57.187991
  O      45.899137     25.173647     56.782959
  C      45.248135     25.483190     53.879566
  H      45.172193     24.425142     53.628557
  C      46.438098     26.056396     54.075445
  H      47.368032     25.500828     53.953543
  C      46.575985     27.445135     54.642653
  C      45.325117     28.255386     54.400652
  H      45.417585     29.340452     54.464231
  C      44.138348     27.685929     54.175613
  H      43.250360     28.315161     54.083450
  C      43.931870     26.205610     53.994785
  H      43.389556     25.823484     54.881493
  O      43.171675     25.997872     52.819539
  H      42.410636     25.352739     53.008732
  C      47.857667     28.144667     54.064512
  O      48.886298     27.472959     53.847546
  O      47.802469     29.380778     53.863578
24
Coordinates from ORCA-job neb_MEP.QMRegion E -1076.025243273692
  C      46.762460     27.290754     56.241622
  H      47.742758     26.828604     56.346288
  H      46.756496     28.260983     56.747654
  C      45.829424     26.343401     56.949433
  C      44.499013     26.854942     57.526847
  O      44.601510     27.763663     58.372132
  O      43.439820     26.297809     57.142081
  O      46.153206     25.179321     57.113193
  C      45.061120     25.572773     53.807302
  H      44.951353     24.548906     53.442541
  C      46.264662     26.058900     54.121920
  H      47.166168     25.451720     54.035261
  C      46.469555     27.437146     54.700221
  C      45.253009     28.304851     54.501046
  H      45.378923     29.378572     54.641709
  C      44.060194     27.817501     54.156593
  H      43.221791     28.502027     54.011886
  C      43.782550     26.363384     53.904087
  H      43.201342     25.978603     54.765276
  O      43.028845     26.245026     52.717301
  H      42.326099     25.522497     52.841402
  C      47.749870     28.101512     54.078834
  O      48.769530     27.408499     53.892798
  O      47.708331     29.332460     53.843346
24
Coordinates from ORCA-job neb_MEP.QMRegion E -1076.029436791519
  C      46.751000     27.288000     56.219000
  H      47.725000     26.822000     56.366000
  H      46.728000     28.260000     56.721000
  C      45.776000     26.342000     56.877000
  C      44.460000     26.860000     57.496000
  O      44.588000     27.760000     58.348000
  O      43.388000     26.304000     57.146000
  O      46.051000     25.158000     56.963000
  C      45.151000     25.537000     53.775000
  H      45.055000     24.514000     53.407000
  C      46.346000     26.055000     54.068000
  H      47.265000     25.479000     53.953000
  C      46.516000     27.430000     54.662000
  C      45.281000     28.272000     54.456000
  H      45.393000     29.348000     54.589000
  C      44.092000     27.750000     54.152000
  H      43.226000     28.406000     54.041000
  C      43.852000     26.285000     53.914000
  H      43.319000     25.887000     54.798000
  O      43.065000     26.127000     52.753000
  H      42.328000     25.454000     52.926000
  C      47.796000     28.117000     54.068000
  O      48.823000     27.437000     53.876000
  O      47.744000     29.351000     53.850000
