24
Coordinates from ORCA-job neb_initial_path.QMRegion E   0.000000000000
  C      46.671000     27.084000     57.144000
  H      47.580000     26.785000     56.631000
  H      46.696000     27.893000     57.872000
  C      45.511000     26.472000     56.878000
  C      44.220000     26.898000     57.571000
  O      44.302000     27.819000     58.410000
  O      43.154000     26.306000     57.242000
  O      45.430000     25.390000     56.034000
  C      45.306000     25.544000     54.574000
  H      45.209000     24.509000     54.221000
  C      46.572000     26.175000     54.086000
  H      47.478000     25.571000     54.029000
  C      46.647000     27.508000     53.912000
  C      45.433000     28.329000     54.015000
  H      45.556000     29.411000     53.956000
  C      44.217000     27.778000     54.170000
  H      43.335000     28.422000     54.223000
  C      44.007000     26.286000     54.193000
  H      43.286000     26.033000     54.985000
  O      43.535000     25.874000     52.924000
  H      42.723000     25.282000     53.044000
  C      47.989000     28.201000     53.764000
  O      49.047000     27.548000     53.640000
  O      47.964000     29.454000     53.842000
24
Coordinates from ORCA-job neb_initial_path.QMRegion E   0.000000000000
  C      46.679889     27.106667     57.041222
  H      47.596111     26.789111     56.601556
  H      46.699556     27.933778     57.744111
  C      45.540444     26.457556     56.877889
  C      44.246667     26.893778     57.562667
  O      44.333778     27.812444     58.403111
  O      43.180000     26.305778     57.231333
  O      45.499000     25.364222     56.137222
  C      45.288778     25.543222     54.485222
  H      45.191889     24.509556     54.130556
  C      46.546889     26.161667     54.084000
  H      47.454333     25.560778     54.020556
  C      46.632444     27.499333     53.995333
  C      45.416111     28.322667     54.064000
  H      45.537889     29.404000     54.026333
  C      44.203111     27.774889     54.168000
  H      43.322889     28.420222     54.202778
  C      43.989778     26.285889     54.162000
  H      43.289667     26.016778     54.964222
  O      43.482778     25.902111     52.905000
  H      42.679111     25.301111     53.030889
  C      47.967556     28.191667     53.797778
  O      49.022111     27.535667     53.666222
  O      47.939556     29.442556     53.842889
24
Coordinates from ORCA-job neb_initial_path.QMRegion E   0.000000000000
  C      46.688778     27.129333     56.938444
  H      47.612222     26.793222     56.572111
  H      46.703111     27.974556     57.616222
  C      45.569889     26.443111     56.877778
  C      44.273333     26.889556     57.554333
  O      44.365556     27.805889     58.396222
  O      43.206000     26.305556     57.220667
  O      45.568000     25.338444     56.240444
  C      45.271556     25.542444     54.396444
  H      45.174778     24.510111     54.040111
  C      46.521778     26.148333     54.082000
  H      47.430667     25.550556     54.012111
  C      46.617889     27.490667     54.078667
  C      45.399222     28.316333     54.113000
  H      45.519778     29.397000     54.096667
  C      44.189222     27.771778     54.166000
  H      43.310778     28.418444     54.182556
  C      43.972556     26.285778     54.131000
  H      43.293333     26.000556     54.943444
  O      43.430556     25.930222     52.886000
  H      42.635222     25.320222     53.017778
  C      47.946111     28.182333     53.831556
  O      48.997222     27.523333     53.692444
  O      47.915111     29.431111     53.843778
24
Coordinates from ORCA-job neb_initial_path.QMRegion E   0.000000000000
  C      46.697667     27.152000     56.835667
  H      47.628333     26.797333     56.542667
  H      46.706667     28.015333     57.488333
  C      45.599333     26.428667     56.877667
  C      44.300000     26.885333     57.546000
  O      44.397333     27.799333     58.389333
  O      43.232000     26.305333     57.210000
  O      45.637000     25.312667     56.343667
  C      45.254333     25.541667     54.307667
  H      45.157667     24.510667     53.949667
  C      46.496667     26.135000     54.080000
  H      47.407000     25.540333     54.003667
  C      46.603333     27.482000     54.162000
  C      45.382333     28.310000     54.162000
  H      45.501667     29.390000     54.167000
  C      44.175333     27.768667     54.164000
  H      43.298667     28.416667     54.162333
  C      43.955333     26.285667     54.100000
  H      43.297000     25.984333     54.922667
  O      43.378333     25.958333     52.867000
  H      42.591333     25.339333     53.004667
  C      47.924667     28.173000     53.865333
  O      48.972333     27.511000     53.718667
  O      47.890667     29.419667     53.844667
24
Coordinates from ORCA-job neb_initial_path.QMRegion E   0.000000000000
  C      46.706556     27.174667     56.732889
  H      47.644444     26.801444     56.513222
  H      46.710222     28.056111     57.360444
  C      45.628778     26.414222     56.877556
  C      44.326667     26.881111     57.537667
  O      44.429111     27.792778     58.382444
  O      43.258000     26.305111     57.199333
  O      45.706000     25.286889     56.446889
  C      45.237111     25.540889     54.218889
  H      45.140556     24.511222     53.859222
  C      46.471556     26.121667     54.078000
  H      47.383333     25.530111     53.995222
  C      46.588778     27.473333     54.245333
  C      45.365444     28.303667     54.211000
  H      45.483556     29.383000     54.237333
  C      44.161444     27.765556     54.162000
  H      43.286556     28.414889     54.142111
  C      43.938111     26.285556     54.069000
  H      43.300667     25.968111     54.901889
  O      43.326111     25.986444     52.848000
  H      42.547444     25.358444     52.991556
  C      47.903222     28.163667     53.899111
  O      48.947444     27.498667     53.744889
  O      47.866222     29.408222     53.845556
24
Coordinates from ORCA-job neb_initial_path.QMRegion E   0.000000000000
  C      46.715444     27.197333     56.630111
  H      47.660556     26.805556     56.483778
  H      46.713778     28.096889     57.232556
  C      45.658222     26.399778     56.877444
  C      44.353333     26.876889     57.529333
  O      44.460889     27.786222     58.375556
  O      43.284000     26.304889     57.188667
  O      45.775000     25.261111     56.550111
  C      45.219889     25.540111     54.130111
  H      45.123444     24.511778     53.768778
  C      46.446444     26.108333     54.076000
  H      47.359667     25.519889     53.986778
  C      46.574222     27.464667     54.328667
  C      45.348556     28.297333     54.260000
  H      45.465444     29.376000     54.307667
  C      44.147556     27.762444     54.160000
  H      43.274444     28.413111     54.121889
  C      43.920889     26.285444     54.038000
  H      43.304333     25.951889     54.881111
  O      43.273889     26.014556     52.829000
  H      42.503556     25.377556     52.978444
  C      47.881778     28.154333     53.932889
  O      48.922556     27.486333     53.771111
  O      47.841778     29.396778     53.846444
24
Coordinates from ORCA-job neb_initial_path.QMRegion E   0.000000000000
  C      46.724333     27.220000     56.527333
  H      47.676667     26.809667     56.454333
  H      46.717333     28.137667     57.104667
  C      45.687667     26.385333     56.877333
  C      44.380000     26.872667     57.521000
  O      44.492667     27.779667     58.368667
  O      43.310000     26.304667     57.178000
  O      45.844000     25.235333     56.653333
  C      45.202667     25.539333     54.041333
  H      45.106333     24.512333     53.678333
  C      46.421333     26.095000     54.074000
  H      47.336000     25.509667     53.978333
  C      46.559667     27.456000     54.412000
  C      45.331667     28.291000     54.309000
  H      45.447333     29.369000     54.378000
  C      44.133667     27.759333     54.158000
  H      43.262333     28.411333     54.101667
  C      43.903667     26.285333     54.007000
  H      43.308000     25.935667     54.860333
  O      43.221667     26.042667     52.810000
  H      42.459667     25.396667     52.965333
  C      47.860333     28.145000     53.966667
  O      48.897667     27.474000     53.797333
  O      47.817333     29.385333     53.847333
24
Coordinates from ORCA-job neb_initial_path.QMRegion E   0.000000000000
  C      46.733222     27.242667     56.424556
  H      47.692778     26.813778     56.424889
  H      46.720889     28.178444     56.976778
  C      45.717111     26.370889     56.877222
  C      44.406667     26.868444     57.512667
  O      44.524444     27.773111     58.361778
  O      43.336000     26.304444     57.167333
  O      45.913000     25.209556     56.756556
  C      45.185444     25.538556     53.952556
  H      45.089222     24.512889     53.587889
  C      46.396222     26.081667     54.072000
  H      47.312333     25.499444     53.969889
  C      46.545111     27.447333     54.495333
  C      45.314778     28.284667     54.358000
  H      45.429222     29.362000     54.448333
  C      44.119778     27.756222     54.156000
  H      43.250222     28.409556     54.081444
  C      43.886444     26.285222     53.976000
  H      43.311667     25.919444     54.839556
  O      43.169444     26.070778     52.791000
  H      42.415778     25.415778     52.952222
  C      47.838889     28.135667     54.000444
  O      48.872778     27.461667     53.823556
  O      47.792889     29.373889     53.848222
24
Coordinates from ORCA-job neb_initial_path.QMRegion E   0.000000000000
  C      46.742111     27.265333     56.321778
  H      47.708889     26.817889     56.395444
  H      46.724444     28.219222     56.848889
  C      45.746556     26.356444     56.877111
  C      44.433333     26.864222     57.504333
  O      44.556222     27.766556     58.354889
  O      43.362000     26.304222     57.156667
  O      45.982000     25.183778     56.859778
  C      45.168222     25.537778     53.863778
  H      45.072111     24.513444     53.497444
  C      46.371111     26.068333     54.070000
  H      47.288667     25.489222     53.961444
  C      46.530556     27.438667     54.578667
  C      45.297889     28.278333     54.407000
  H      45.411111     29.355000     54.518667
  C      44.105889     27.753111     54.154000
  H      43.238111     28.407778     54.061222
  C      43.869222     26.285111     53.945000
  H      43.315333     25.903222     54.818778
  O      43.117222     26.098889     52.772000
  H      42.371889     25.434889     52.939111
  C      47.817444     28.126333     54.034222
  O      48.847889     27.449333     53.849778
  O      47.768444     29.362444     53.849111
24
Coordinates from ORCA-job neb_initial_path.QMRegion E   0.000000000000
  C      46.751000     27.288000     56.219000
  H      47.725000     26.822000     56.366000
  H      46.728000     28.260000     56.721000
  C      45.776000     26.342000     56.877000
  C      44.460000     26.860000     57.496000
  O      44.588000     27.760000     58.348000
  O      43.388000     26.304000     57.146000
  O      46.051000     25.158000     56.963000
  C      45.151000     25.537000     53.775000
  H      45.055000     24.514000     53.407000
  C      46.346000     26.055000     54.068000
  H      47.265000     25.479000     53.953000
  C      46.516000     27.430000     54.662000
  C      45.281000     28.272000     54.456000
  H      45.393000     29.348000     54.589000
  C      44.092000     27.750000     54.152000
  H      43.226000     28.406000     54.041000
  C      43.852000     26.285000     53.914000
  H      43.319000     25.887000     54.798000
  O      43.065000     26.127000     52.753000
  H      42.328000     25.454000     52.926000
  C      47.796000     28.117000     54.068000
  O      48.823000     27.437000     53.876000
  O      47.744000     29.351000     53.850000
