24
Coordinates from ORCA-job neb.QMRegion E -1076.301285152036
  C      48.046541     29.830854     62.617303
  H      48.771140     29.055138     62.388545
  H      48.381019     30.722866     63.133507
  C      46.703966     29.500505     62.536913
  C      45.611050     30.452238     63.053178
  O      45.958043     31.567307     63.525673
  O      44.427823     30.055278     62.971115
  O      46.349665     28.449574     61.892286
  C      46.517148     28.796494     59.864047
  H      46.264537     27.768814     59.605833
  C      47.846202     29.214357     59.856338
  H      48.666508     28.500650     59.757498
  C      48.160730     30.509958     60.276115
  C      47.093197     31.515120     60.272175
  H      47.380329     32.542741     60.492468
  C      45.818028     31.187069     60.000844
  H      45.042112     31.954255     59.992887
  C      45.369608     29.778248     59.726392
  H      44.612045     29.518007     60.482479
  O      44.818956     29.669317     58.419521
  H      43.885839     29.305645     58.483230
  C      49.621924     30.987105     60.310088
  O      50.541573     30.128454     60.280098
  O      49.824535     32.225602     60.356430
