24
Coordinates from ORCA-job neb_initial_path.QMRegion E   0.000000000000
  C      47.828000     29.430000     63.400000
  H      48.578000     28.669000     63.181000
  H      48.029000     30.174000     64.170000
  C      46.650000     29.450000     62.768000
  C      45.558000     30.445000     63.134000
  O      45.902000     31.550000     63.626000
  O      44.373000     30.085000     62.940000
  O      46.341000     28.486000     61.825000
  C      46.505000     28.814000     60.401000
  H      46.292000     27.862000     59.896000
  C      47.929000     29.247000     60.184000
  H      48.729000     28.501000     60.204000
  C      48.265000     30.553000     60.144000
  C      47.205000     31.568000     60.129000
  H      47.526000     32.608000     60.187000
  C      45.903000     31.241000     60.039000
  H      45.143000     32.025000     60.024000
  C      45.421000     29.819000     59.936000
  H      44.584000     29.690000     60.639000
  O      44.995000     29.548000     58.605000
  H      44.053000     29.223000     58.622000
  C      49.719000     31.014000     60.223000
  O      50.644000     30.161000     60.228000
  O      49.908000     32.253000     60.331000
24
Coordinates from ORCA-job neb_initial_path.QMRegion E   0.000000000000
  C      47.865667     29.500500     63.261500
  H      48.611167     28.735833     63.044500
  H      48.089667     30.269000     63.989000
  C      46.659500     29.459000     62.727333
  C      45.567333     30.446167     63.119833
  O      45.912167     31.552667     63.608667
  O      44.382833     30.079500     62.945667
  O      46.343500     28.480333     61.835667
  C      46.507000     28.811000     60.309833
  H      46.287333     27.846667     59.845667
  C      47.914333     29.241500     60.128000
  H      48.718000     28.501333     60.126333
  C      48.246833     30.544833     60.170000
  C      47.185667     31.558833     60.154167
  H      47.500500     32.596667     60.240333
  C      45.888667     31.231667     60.032167
  H      45.125667     32.012500     60.019333
  C      45.412333     29.812167     59.900000
  H      44.588833     29.660500     60.611833
  O      44.964667     29.569000     58.573167
  H      44.024333     29.237167     58.598167
  C      49.702167     31.009000     60.238167
  O      50.626167     30.155000     60.236333
  O      49.893500     32.248000     60.335167
24
Coordinates from ORCA-job neb_initial_path.QMRegion E   0.000000000000
  C      47.903333     29.571000     63.123000
  H      48.644333     28.802667     62.908000
  H      48.150333     30.364000     63.808000
  C      46.669000     29.468000     62.686667
  C      45.576667     30.447333     63.105667
  O      45.922333     31.555333     63.591333
  O      44.392667     30.074000     62.951333
  O      46.346000     28.474667     61.846333
  C      46.509000     28.808000     60.218667
  H      46.282667     27.831333     59.795333
  C      47.899667     29.236000     60.072000
  H      48.707000     28.501667     60.048667
  C      48.228667     30.536667     60.196000
  C      47.166333     31.549667     60.179333
  H      47.475000     32.585333     60.293667
  C      45.874333     31.222333     60.025333
  H      45.108333     32.000000     60.014667
  C      45.403667     29.805333     59.864000
  H      44.593667     29.631000     60.584667
  O      44.934333     29.590000     58.541333
  H      43.995667     29.251333     58.574333
  C      49.685333     31.004000     60.253333
  O      50.608333     30.149000     60.244667
  O      49.879000     32.243000     60.339333
24
Coordinates from ORCA-job neb_initial_path.QMRegion E   0.000000000000
  C      47.941000     29.641500     62.984500
  H      48.677500     28.869500     62.771500
  H      48.211000     30.459000     63.627000
  C      46.678500     29.477000     62.646000
  C      45.586000     30.448500     63.091500
  O      45.932500     31.558000     63.574000
  O      44.402500     30.068500     62.957000
  O      46.348500     28.469000     61.857000
  C      46.511000     28.805000     60.127500
  H      46.278000     27.816000     59.745000
  C      47.885000     29.230500     60.016000
  H      48.696000     28.502000     59.971000
  C      48.210500     30.528500     60.222000
  C      47.147000     31.540500     60.204500
  H      47.449500     32.574000     60.347000
  C      45.860000     31.213000     60.018500
  H      45.091000     31.987500     60.010000
  C      45.395000     29.798500     59.828000
  H      44.598500     29.601500     60.557500
  O      44.904000     29.611000     58.509500
  H      43.967000     29.265500     58.550500
  C      49.668500     30.999000     60.268500
  O      50.590500     30.143000     60.253000
  O      49.864500     32.238000     60.343500
24
Coordinates from ORCA-job neb_initial_path.QMRegion E   0.000000000000
  C      47.978667     29.712000     62.846000
  H      48.710667     28.936333     62.635000
  H      48.271667     30.554000     63.446000
  C      46.688000     29.486000     62.605333
  C      45.595333     30.449667     63.077333
  O      45.942667     31.560667     63.556667
  O      44.412333     30.063000     62.962667
  O      46.351000     28.463333     61.867667
  C      46.513000     28.802000     60.036333
  H      46.273333     27.800667     59.694667
  C      47.870333     29.225000     59.960000
  H      48.685000     28.502333     59.893333
  C      48.192333     30.520333     60.248000
  C      47.127667     31.531333     60.229667
  H      47.424000     32.562667     60.400333
  C      45.845667     31.203667     60.011667
  H      45.073667     31.975000     60.005333
  C      45.386333     29.791667     59.792000
  H      44.603333     29.572000     60.530333
  O      44.873667     29.632000     58.477667
  H      43.938333     29.279667     58.526667
  C      49.651667     30.994000     60.283667
  O      50.572667     30.137000     60.261333
  O      49.850000     32.233000     60.347667
24
Coordinates from ORCA-job neb_initial_path.QMRegion E   0.000000000000
  C      48.016333     29.782500     62.707500
  H      48.743833     29.003167     62.498500
  H      48.332333     30.649000     63.265000
  C      46.697500     29.495000     62.564667
  C      45.604667     30.450833     63.063167
  O      45.952833     31.563333     63.539333
  O      44.422167     30.057500     62.968333
  O      46.353500     28.457667     61.878333
  C      46.515000     28.799000     59.945167
  H      46.268667     27.785333     59.644333
  C      47.855667     29.219500     59.904000
  H      48.674000     28.502667     59.815667
  C      48.174167     30.512167     60.274000
  C      47.108333     31.522167     60.254833
  H      47.398500     32.551333     60.453667
  C      45.831333     31.194333     60.004833
  H      45.056333     31.962500     60.000667
  C      45.377667     29.784833     59.756000
  H      44.608167     29.542500     60.503167
  O      44.843333     29.653000     58.445833
  H      43.909667     29.293833     58.502833
  C      49.634833     30.989000     60.298833
  O      50.554833     30.131000     60.269667
  O      49.835500     32.228000     60.351833
24
Coordinates from ORCA-job neb_initial_path.QMRegion E   0.000000000000
  C      48.054000     29.853000     62.569000
  H      48.777000     29.070000     62.362000
  H      48.393000     30.744000     63.084000
  C      46.707000     29.504000     62.524000
  C      45.614000     30.452000     63.049000
  O      45.963000     31.566000     63.522000
  O      44.432000     30.052000     62.974000
  O      46.356000     28.452000     61.889000
  C      46.517000     28.796000     59.854000
  H      46.264000     27.770000     59.594000
  C      47.841000     29.214000     59.848000
  H      48.663000     28.503000     59.738000
  C      48.156000     30.504000     60.300000
  C      47.089000     31.513000     60.280000
  H      47.373000     32.540000     60.507000
  C      45.817000     31.185000     59.998000
  H      45.039000     31.950000     59.996000
  C      45.369000     29.778000     59.720000
  H      44.613000     29.513000     60.476000
  O      44.813000     29.674000     58.414000
  H      43.881000     29.308000     58.479000
  C      49.618000     30.984000     60.314000
  O      50.537000     30.125000     60.278000
  O      49.821000     32.223000     60.356000
24
Coordinates from ORCA-job neb_initial_path.QMRegion E   0.000000000000
  C      48.061000     29.917000     62.419000
  H      48.781667     29.124000     62.335667
  H      48.375333     30.801000     62.964667
  C      46.714000     29.500333     62.527667
  C      45.618000     30.444667     63.069000
  O      45.965333     31.571667     63.504667
  O      44.446333     30.021000     63.035000
  O      46.399667     28.404333     62.061000
  C      46.553667     28.820667     59.708333
  H      46.308000     27.815667     59.385333
  C      47.848667     29.207000     59.834333
  H      48.676667     28.502667     59.725667
  C      48.152667     30.486000     60.396333
  C      47.089000     31.506333     60.294667
  H      47.367333     32.534667     60.522667
  C      45.832333     31.183333     59.963000
  H      45.062000     31.953333     59.927667
  C      45.389667     29.777333     59.665000
  H      44.673667     29.477333     60.445000
  O      44.773667     29.698667     58.390333
  H      43.843000     29.340667     58.484000
  C      49.615000     30.986000     60.331000
  O      50.538667     30.132333     60.284667
  O      49.811000     32.225000     60.348333
24
Coordinates from ORCA-job neb_initial_path.QMRegion E   0.000000000000
  C      48.068000     29.981000     62.269000
  H      48.786333     29.178000     62.309333
  H      48.357667     30.858000     62.845333
  C      46.721000     29.496667     62.531333
  C      45.622000     30.437333     63.089000
  O      45.967667     31.577333     63.487333
  O      44.460667     29.990000     63.096000
  O      46.443333     28.356667     62.233000
  C      46.590333     28.845333     59.562667
  H      46.352000     27.861333     59.176667
  C      47.856333     29.200000     59.820667
  H      48.690333     28.502333     59.713333
  C      48.149333     30.468000     60.492667
  C      47.089000     31.499667     60.309333
  H      47.361667     32.529333     60.538333
  C      45.847667     31.181667     59.928000
  H      45.085000     31.956667     59.859333
  C      45.410333     29.776667     59.610000
  H      44.734333     29.441667     60.414000
  O      44.734333     29.723333     58.366667
  H      43.805000     29.373333     58.489000
  C      49.612000     30.988000     60.348000
  O      50.540333     30.139667     60.291333
  O      49.801000     32.227000     60.340667
24
Coordinates from ORCA-job neb_initial_path.QMRegion E   0.000000000000
  C      48.075000     30.045000     62.119000
  H      48.791000     29.232000     62.283000
  H      48.340000     30.915000     62.726000
  C      46.728000     29.493000     62.535000
  C      45.626000     30.430000     63.109000
  O      45.970000     31.583000     63.470000
  O      44.475000     29.959000     63.157000
  O      46.487000     28.309000     62.405000
  C      46.627000     28.870000     59.417000
  H      46.396000     27.907000     58.968000
  C      47.864000     29.193000     59.807000
  H      48.704000     28.502000     59.701000
  C      48.146000     30.450000     60.589000
  C      47.089000     31.493000     60.324000
  H      47.356000     32.524000     60.554000
  C      45.863000     31.180000     59.893000
  H      45.108000     31.960000     59.791000
  C      45.431000     29.776000     59.555000
  H      44.795000     29.406000     60.383000
  O      44.695000     29.748000     58.343000
  H      43.767000     29.406000     58.494000
  C      49.609000     30.990000     60.365000
  O      50.542000     30.147000     60.298000
  O      49.791000     32.229000     60.333000
