24
Coordinates from ORCA-job neb_MEP.QMRegion E -1076.317365925964
  C      47.828000     29.430000     63.400000
  H      48.578000     28.669000     63.181000
  H      48.029000     30.174000     64.170000
  C      46.650000     29.450000     62.768000
  C      45.558000     30.445000     63.134000
  O      45.902000     31.550000     63.626000
  O      44.373000     30.085000     62.940000
  O      46.341000     28.486000     61.825000
  C      46.505000     28.814000     60.401000
  H      46.292000     27.862000     59.896000
  C      47.929000     29.247000     60.184000
  H      48.729000     28.501000     60.204000
  C      48.265000     30.553000     60.144000
  C      47.205000     31.568000     60.129000
  H      47.526000     32.608000     60.187000
  C      45.903000     31.241000     60.039000
  H      45.143000     32.025000     60.024000
  C      45.421000     29.819000     59.936000
  H      44.584000     29.690000     60.639000
  O      44.995000     29.548000     58.605000
  H      44.053000     29.223000     58.622000
  C      49.719000     31.014000     60.223000
  O      50.644000     30.161000     60.228000
  O      49.908000     32.253000     60.331000
24
Coordinates from ORCA-job neb_MEP.QMRegion E -1076.319004901732
  C      47.872904     29.499325     63.258842
  H      48.628364     28.751994     63.016343
  H      48.106171     30.282175     63.979120
  C      46.659729     29.468746     62.700824
  C      45.566207     30.445506     63.111612
  O      45.912104     31.548354     63.607266
  O      44.379796     30.078105     62.946302
  O      46.333308     28.488141     61.781255
  C      46.496579     28.801471     60.347145
  H      46.283444     27.846579     59.847837
  C      47.917880     29.239300     60.129865
  H      48.719407     28.495510     60.111398
  C      48.248868     30.548228     60.145777
  C      47.184831     31.558970     60.157432
  H      47.497778     32.598985     60.250198
  C      45.886274     31.229779     60.035513
  H      45.122464     32.010011     60.020139
  C      45.408128     29.808342     59.899597
  H      44.581296     29.659703     60.610107
  O      44.964476     29.566449     58.570534
  H      44.021950     29.239168     58.594203
  C      49.701985     31.011075     60.233016
  O      50.625406     30.155871     60.240552
  O      49.894278     32.249324     60.335996
24
Coordinates from ORCA-job neb_MEP.QMRegion E -1076.319221463777
  C      47.912613     29.565928     63.124059
  H      48.669948     28.829995     62.857972
  H      48.175626     30.385001     63.790356
  C      46.669137     29.484268     62.642790
  C      45.575147     30.444784     63.091526
  O      45.922029     31.547692     63.588195
  O      44.388000     30.069924     62.951793
  O      46.329623     28.489726     61.742201
  C      46.490078     28.790266     60.295556
  H      46.276640     27.831759     59.802559
  C      47.906555     29.234121     60.075951
  H      48.709598     28.493874     60.023859
  C      48.232685     30.543157     60.148339
  C      47.164760     31.549006     60.184332
  H      47.470815     32.587521     60.309912
  C      45.869630     31.218636     60.030932
  H      45.103236     31.996197     60.015227
  C      45.396329     29.799124     59.864689
  H      44.580316     29.630447     60.582815
  O      44.935651     29.585260     58.537762
  H      43.992819     29.254748     58.567667
  C      49.684839     31.007331     60.242753
  O      50.607009     30.150209     60.252024
  O      49.880389     32.245108     60.342620
24
Coordinates from ORCA-job neb_MEP.QMRegion E -1076.318854210082
  C      47.950931     29.636412     62.984586
  H      48.707007     28.909876     62.694760
  H      48.244825     30.492734     63.586757
  C      46.680830     29.498185     62.590264
  C      45.586629     30.444029     63.073865
  O      45.933064     31.549108     63.568159
  O      44.399295     30.062288     62.957574
  O      46.331091     28.490137     61.708023
  C      46.485626     28.779770     60.236477
  H      46.270870     27.815553     59.753124
  C      47.894199     29.230380     60.015716
  H      48.698572     28.495064     59.933166
  C      48.214820     30.536853     60.153903
  C      47.143143     31.537690     60.212090
  H      47.442299     32.573531     60.371777
  C      45.852444     31.207355     60.024730
  H      45.083342     31.982191     60.009569
  C      45.384924     29.790288     59.826728
  H      44.582820     29.598335     60.553578
  O      44.904076     29.606854     58.503367
  H      43.961332     29.271287     58.540428
  C      49.665969     31.002522     60.254968
  O      50.587186     30.143776     60.263913
  O      49.864674     32.239926     60.349746
24
Coordinates from ORCA-job neb_MEP.QMRegion E -1076.314998908281
  C      47.986592     29.707495     62.852420
  H      48.735778     28.979156     62.552335
  H      48.306348     30.593321     63.394136
  C      46.693454     29.505791     62.557314
  C      45.598626     30.444633     63.062289
  O      45.943064     31.554763     63.549745
  O      44.411614     30.057883     62.962709
  O      46.336340     28.483296     61.710665
  C      46.487911     28.775067     60.148670
  H      46.266774     27.796121     59.699379
  C      47.880853     29.228012     59.952029
  H      48.687003     28.497879     59.852502
  C      48.195542     30.528856     60.173403
  C      47.122256     31.527090     60.238207
  H      47.415944     32.559625     60.426906
  C      45.837006     31.198142     60.016793
  H      45.065153     31.969954     60.003296
  C      45.375768     29.784227     59.787300
  H      44.591601     29.565716     60.525223
  O      44.871261     29.630637     58.469451
  H      43.930076     29.286505     58.515626
  C      49.647826     30.996455     60.272265
  O      50.568010     30.137332     60.273255
  O      49.848416     32.234378     60.355107
24
Coordinates from ORCA-job neb_MEP.QMRegion E -1076.305554511236
  C      48.014472     29.764682     62.749151
  H      48.753503     29.020833     62.464189
  H      48.346257     30.661638     63.261193
  C      46.700546     29.504118     62.547593
  C      45.606333     30.447584     63.057335
  O      45.949738     31.561403     63.537123
  O      44.419732     30.056839     62.966329
  O      46.340702     28.468132     61.781678
  C      46.500220     28.783047     60.021197
  H      46.264879     27.779432     59.653979
  C      47.866608     29.223995     59.901411
  H      48.677325     28.499745     59.801608
  C      48.178643     30.520714     60.209491
  C      47.107480     31.520529     60.255826
  H      47.398011     32.550452     60.461611
  C      45.826818     31.192639     60.009265
  H      45.053094     31.961989     59.997886
  C      45.371509     29.781799     59.756137
  H      44.602382     29.541178     60.504190
  O      44.845074     29.650041     58.443703
  H      43.907137     29.296504     58.498755
  C      49.634753     30.991887     60.290124
  O      50.554380     30.132524     60.277394
  O      49.836041     32.229817     60.356394
24
Coordinates from ORCA-job neb_MEP.QMRegion E -1076.301260904394
  C      48.046541     29.830854     62.617303
  H      48.771140     29.055138     62.388545
  H      48.381019     30.722866     63.133507
  C      46.703966     29.500505     62.536913
  C      45.611050     30.452238     63.053178
  O      45.958043     31.567307     63.525673
  O      44.427823     30.055278     62.971115
  O      46.349665     28.449574     61.892286
  C      46.517148     28.796494     59.864047
  H      46.264537     27.768814     59.605833
  C      47.846202     29.214357     59.856338
  H      48.666508     28.500650     59.757498
  C      48.160730     30.509958     60.276115
  C      47.093197     31.515120     60.272175
  H      47.380329     32.542741     60.492468
  C      45.818028     31.187069     60.000844
  H      45.042112     31.954255     59.992887
  C      45.369608     29.778248     59.726392
  H      44.612045     29.518007     60.482479
  O      44.818956     29.669317     58.419521
  H      43.885839     29.305645     58.483230
  C      49.621924     30.987105     60.310088
  O      50.541573     30.128454     60.280098
  O      49.824535     32.225602     60.356430
24
Coordinates from ORCA-job neb_MEP.QMRegion E -1076.310902945997
  C      48.076455     29.917782     62.412936
  H      48.776319     29.082841     62.364770
  H      48.387101     30.757920     63.035200
  C      46.700534     29.495720     62.523319
  C      45.609479     30.449899     63.063691
  O      45.964824     31.568206     63.516691
  O      44.432682     30.041568     62.998292
  O      46.361572     28.417924     62.019382
  C      46.542730     28.810097     59.732719
  H      46.279947     27.777169     59.509469
  C      47.836639     29.199687     59.848175
  H      48.666365     28.496686     59.743709
  C      48.153695     30.484371     60.442198
  C      47.088458     31.510123     60.298426
  H      47.372811     32.541363     60.506422
  C      45.825685     31.184281     59.984405
  H      45.050046     31.953220     59.961285
  C      45.378878     29.774897     59.699237
  H      44.635944     29.497869     60.466329
  O      44.794044     29.687202     58.404241
  H      43.864887     29.319036     58.480283
  C      49.617694     30.985509     60.339163
  O      50.539705     30.130566     60.280593
  O      49.817183     32.224770     60.349297
24
Coordinates from ORCA-job neb_MEP.QMRegion E -1076.339715427899
  C      48.087571     30.001001     62.203451
  H      48.774363     29.150882     62.324254
  H      48.372576     30.817719     62.881407
  C      46.707054     29.497499     62.508373
  C      45.615591     30.443118     63.084636
  O      45.970577     31.573300     63.501523
  O      44.448626     30.008738     63.061795
  O      46.402484     28.365788     62.187509
  C      46.579667     28.834258     59.590329
  H      46.323581     27.818765     59.292945
  C      47.844981     29.192842     59.846715
  H      48.679279     28.496674     59.727112
  C      48.153561     30.458581     60.590489
  C      47.088961     31.500049     60.330573
  H      47.364603     32.536048     60.529681
  C      45.844410     31.180915     59.951967
  H      45.075398     31.955571     59.891419
  C      45.399921     29.773556     59.645069
  H      44.695043     29.460222     60.437457
  O      44.751877     29.716036     58.380059
  H      43.824830     29.351459     58.483802
  C      49.614628     30.987194     60.364916
  O      50.541146     30.137994     60.285598
  O      49.805690     32.226491     60.339043
24
Coordinates from ORCA-job neb_MEP.QMRegion E -1076.348810185383
  C      48.075000     30.045000     62.119000
  H      48.791000     29.232000     62.283000
  H      48.340000     30.915000     62.726000
  C      46.728000     29.493000     62.535000
  C      45.626000     30.430000     63.109000
  O      45.970000     31.583000     63.470000
  O      44.475000     29.959000     63.157000
  O      46.487000     28.309000     62.405000
  C      46.627000     28.870000     59.417000
  H      46.396000     27.907000     58.968000
  C      47.864000     29.193000     59.807000
  H      48.704000     28.502000     59.701000
  C      48.146000     30.450000     60.589000
  C      47.089000     31.493000     60.324000
  H      47.356000     32.524000     60.554000
  C      45.863000     31.180000     59.893000
  H      45.108000     31.960000     59.791000
  C      45.431000     29.776000     59.555000
  H      44.795000     29.406000     60.383000
  O      44.695000     29.748000     58.343000
  H      43.767000     29.406000     58.494000
  C      49.609000     30.990000     60.365000
  O      50.542000     30.147000     60.298000
  O      49.791000     32.229000     60.333000
