25
frame 55446 R + sphere q=-1 at closest LJ-allowed approach to H8 (2.530 A)
C      41.47900000    20.23000000    44.95600000
H      42.26400000    19.67500000    44.44400000
H      41.65300000    21.27100000    45.22000000
C      40.30400000    19.66900000    45.26600000
C      39.20000000    20.41500000    46.00700000
O      39.35500000    21.63900000    46.21700000
O      38.19700000    19.74400000    46.36400000
O      40.03900000    18.34300000    44.99900000
C      39.59600000    17.94800000    43.65500000
H      39.41700000    16.86800000    43.75200000
C      40.72200000    18.22900000    42.71600000
H      41.60700000    17.59500000    42.75600000
C      40.75100000    19.36000000    41.98600000
C      39.58900000    20.25600000    41.99000000
H      39.70900000    21.22000000    41.49200000
C      38.43400000    19.92100000    42.59500000
H      37.58600000    20.61300000    42.57700000
C      38.24200000    18.59600000    43.29000000
H      37.71600000    18.76200000    44.24600000
O      37.48700000    17.74100000    42.44900000
H      36.99500000    17.06300000    43.02200000
C      42.02300000    19.76100000    41.25800000
O      42.97000000    18.93700000    41.20400000
O      42.04700000    20.92400000    40.77100000
N      35.78582642    15.35419316    44.44303775
