25
Coordinates from ORCA-job job
  C          41.86912810680374     19.89217398335681     45.10580918293081
  H          42.47748313164307     19.35917253931957     44.37201177325720
  H          42.22430396535468     20.83185221272086     45.53337121736889
  C          40.64514767369404     19.47850215828517     45.48128183579760
  C          39.78334824692264     20.34239192985929     46.46239899727128
  O          40.42017936859833     21.18206648979703     47.14769229037831
  O          38.55097990071283     20.12817049403707     46.44802135062923
  O          40.11370343815651     18.27458334479616     45.09123361261528
  C          39.64908607521088     17.98424236349397     43.73855912763516
  H          39.41426431451235     16.90992849629253     43.80130451355793
  C          40.72199999999999     18.22900000000000     42.71600000000000
  H          41.58009662667929     17.55275769891651     42.65500932063460
  C          40.75099999999999     19.36000000000000     41.98599999999999
  C          39.58899999999999     20.25600000000000     41.99000000000000
  H          39.70389727706117     21.16738305593275     41.39707923127679
  C          38.43399999999999     19.92100000000000     42.59500000000000
  H          37.55019375057284     20.56860941240615     42.52833882223070
  C          38.28871196773417     18.68817894770880     43.45928051170368
  H          37.95222522814064     19.02460107856984     44.46099137987552
  O          37.34111318996036     17.81078114252796     42.85291166980789
  H          36.99834123932991     17.16568980056988     43.50722605647962
  C          41.94407441219471     19.68893686579506     41.04236706979331
  O          42.92602529794762     18.90851221407744     41.08746475149557
  O          41.80582397421296     20.71219667429288     40.32196983514150
  N          35.78582641999999     15.35419316000000     44.44303775000000
