25
Coordinates from ORCA-job job E -836.021328251406
  C      41.479000     20.230000     44.956000
  H      42.264000     19.675000     44.444000
  H      41.653000     21.271000     45.220000
  C      40.304000     19.669000     45.266000
  C      39.200000     20.415000     46.007000
  O      39.355000     21.639000     46.217000
  O      38.197000     19.744000     46.364000
  O      40.039000     18.343000     44.999000
  C      39.596000     17.948000     43.655000
  H      39.417000     16.868000     43.752000
  C      40.722000     18.229000     42.716000
  H      41.607000     17.595000     42.756000
  C      40.751000     19.360000     41.986000
  C      39.589000     20.256000     41.990000
  H      39.709000     21.220000     41.492000
  C      38.434000     19.921000     42.595000
  H      37.586000     20.613000     42.577000
  C      38.242000     18.596000     43.290000
  H      37.716000     18.762000     44.246000
  O      37.487000     17.741000     42.449000
  H      36.995000     17.063000     43.022000
  C      42.023000     19.761000     41.258000
  O      42.970000     18.937000     41.204000
  O      42.047000     20.924000     40.771000
  N      35.785826     15.354193     44.443038
25
Coordinates from ORCA-job job E -836.028786922622
  C      41.684500     20.113838     45.147404
  H      42.443097     19.499833     44.657474
  H      41.932500     21.132144     45.450661
  C      40.437921     19.667561     45.363976
  C      39.387814     20.532559     46.095120
  O      39.747639     21.695068     46.414191
  O      38.300346     19.975286     46.389217
  O      40.082587     18.368921     45.053641
  C      39.622085     17.985187     43.709158
  H      39.424867     16.908924     43.826816
  C      40.722000     18.229000     42.716000
  H      41.601501     17.580425     42.726051
  C      40.751000     19.360000     41.986000
  C      39.589000     20.256000     41.990000
  H      39.708266     21.206001     41.463770
  C      38.434000     19.921000     42.595000
  H      37.578262     20.606019     42.568002
  C      38.259412     18.620601     43.345211
  H      37.754864     18.819038     44.307671
  O      37.484724     17.732271     42.539387
  H      37.018581     17.085115     43.108820
  C      42.001894     19.742999     41.179100
  O      42.932150     18.898542     41.108370
  O      41.976198     20.877008     40.624151
  N      35.785826     15.354193     44.443038
25
Coordinates from ORCA-job job E -836.029856609156
  C      41.766627     20.078940     45.181440
  H      42.501920     19.430627     44.694172
  H      42.045836     21.090876     45.483130
  C      40.494541     19.692286     45.378920
  C      39.478595     20.637855     46.098521
  O      39.912966     21.797284     46.338694
  O      38.316377     20.196563     46.251979
  O      40.106360     18.404634     45.072393
  C      39.640540     18.009650     43.743273
  H      39.433137     16.937393     43.885651
  C      40.722000     18.229000     42.716000
  H      41.597839     17.572219     42.701864
  C      40.751000     19.360000     41.986000
  C      39.589000     20.256000     41.990000
  H      39.710780     21.192283     41.439119
  C      38.434000     19.921000     42.595000
  H      37.569898     20.597110     42.560079
  C      38.273690     18.640214     43.384123
  H      37.791685     18.867875     44.352537
  O      37.477783     17.727638     42.615559
  H      37.032214     17.100442     43.195549
  C      41.978300     19.728776     41.106981
  O      42.920329     18.896263     41.074526
  O      41.937842     20.867873     40.565410
  N      35.785826     15.354193     44.443038
25
Coordinates from ORCA-job job E -836.031916668780
  C      41.807019     20.087179     45.101681
  H      42.509723     19.418124     44.591034
  H      42.100778     21.102652     45.373180
  C      40.529973     19.731325     45.334078
  C      39.536675     20.739069     46.039050
  O      40.084625     21.802443     46.435018
  O      38.365867     20.341949     46.196132
  O      40.130622     18.445241     45.068347
  C      39.659245     18.027447     43.768937
  H      39.446800     16.959611     43.936832
  C      40.722000     18.229000     42.716000
  H      41.586896     17.558874     42.666095
  C      40.751000     19.360000     41.986000
  C      39.589000     20.256000     41.990000
  H      39.712562     21.173123     41.407747
  C      38.434000     19.921000     42.595000
  H      37.558839     20.582511     42.546718
  C      38.290122     18.663405     43.427758
  H      37.848575     18.933476     44.404727
  O      37.455949     17.729125     42.722442
  H      37.031530     17.106916     43.337792
  C      41.930991     19.690565     41.004839
  O      42.841319     18.830907     40.933161
  O      41.818285     20.772494     40.372534
  N      35.785826     15.354193     44.443038
25
Coordinates from ORCA-job job E -836.033084042627
  C      41.807458     20.045476     45.191849
  H      42.520314     19.404085     44.667720
  H      42.097802     21.045488     45.517243
  C      40.532714     19.668867     45.394684
  C      39.522997     20.616360     46.135826
  O      40.029165     21.664110     46.610293
  O      38.334011     20.235913     46.187148
  O      40.127629     18.391720     45.077409
  C      39.652493     18.011550     43.753153
  H      39.439026     16.939208     43.883178
  C      40.722000     18.229000     42.716000
  H      41.579845     17.552186     42.660916
  C      40.751000     19.360000     41.986000
  C      39.589000     20.256000     41.990000
  H      39.710386     21.178232     41.416148
  C      38.434000     19.921000     42.595000
  H      37.560279     20.582289     42.544009
  C      38.284375     18.659081     43.417873
  H      37.848918     18.929344     44.396709
  O      37.439972     17.741397     42.712780
  H      37.016717     17.106950     43.336038
  C      41.936689     19.682538     41.024356
  O      42.863959     18.839032     40.975906
  O      41.819936     20.739230     40.351522
  N      35.785826     15.354193     44.443038
25
Coordinates from ORCA-job job E -836.030603701484
  C      41.824173     20.015933     45.184955
  H      42.511552     19.405442     44.598015
  H      42.131788     20.996420     45.551492
  C      40.564688     19.619332     45.432551
  C      39.585092     20.516168     46.255907
  O      40.104386     21.505852     46.824932
  O      38.396497     20.130206     46.332939
  O      40.137147     18.355276     45.082592
  C      39.649626     18.002517     43.743557
  H      39.435984     16.927802     43.847707
  C      40.722000     18.229000     42.716000
  H      41.574401     17.546832     42.654875
  C      40.751000     19.360000     41.986000
  C      39.589000     20.256000     41.990000
  H      39.708114     21.179501     41.417777
  C      38.434000     19.921000     42.595000
  H      37.558988     20.579195     42.538990
  C      38.281005     18.659811     43.416213
  H      37.861005     18.941703     44.398395
  O      37.419096     17.754822     42.723633
  H      37.008107     17.116676     43.356834
  C      41.937306     19.673251     41.033223
  O      42.934660     18.915373     41.109117
  O      41.876380     20.780112     40.437157
  N      35.785826     15.354193     44.443038
25
Coordinates from ORCA-job job E -836.033726117496
  C      41.828209     20.022932     45.108217
  H      42.487215     19.411734     44.486804
  H      42.149874     21.004326     45.461137
  C      40.579739     19.628452     45.411897
  C      39.634187     20.543162     46.263738
  O      40.184677     21.547716     46.778254
  O      38.434865     20.196574     46.340559
  O      40.142274     18.366147     45.078940
  C      39.652548     18.006662     43.749319
  H      39.437249     16.932971     43.862768
  C      40.722000     18.229000     42.716000
  H      41.576288     17.548344     42.652776
  C      40.751000     19.360000     41.986000
  C      39.589000     20.256000     41.990000
  H      39.709486     21.175798     41.411482
  C      38.434000     19.921000     42.595000
  H      37.555987     20.576216     42.536698
  C      38.284080     18.665416     43.427047
  H      37.876445     18.959695     44.411843
  O      37.411813     17.755333     42.750397
  H      37.012535     17.124535     43.386299
  C      41.934335     19.676727     41.023013
  O      42.891722     18.865309     41.019615
  O      41.820666     20.730899     40.344172
  N      35.785826     15.354193     44.443038
25
Coordinates from ORCA-job job E -836.033966970998
  C      41.828821     20.004909     45.142586
  H      42.499890     19.395972     44.532082
  H      42.140586     20.987516     45.500638
  C      40.574539     19.609563     45.424525
  C      39.608179     20.530901     46.245274
  O      40.159675     21.499510     46.825225
  O      38.397034     20.220228     46.235036
  O      40.131750     18.352940     45.081768
  C      39.652758     18.003047     43.748728
  H      39.434021     16.929263     43.855955
  C      40.722000     18.229000     42.716000
  H      41.577858     17.550253     42.652102
  C      40.751000     19.360000     41.986000
  C      39.589000     20.256000     41.990000
  H      39.709474     21.173124     41.407194
  C      38.434000     19.921000     42.595000
  H      37.553630     20.573362     42.534018
  C      38.286365     18.670965     43.437587
  H      37.897130     18.978125     44.427611
  O      37.396156     17.763477     42.783001
  H      37.010476     17.131599     43.427283
  C      41.936451     19.681670     41.026755
  O      42.899119     18.876949     41.035193
  O      41.805774     20.718948     40.325625
  N      35.785826     15.354193     44.443038
25
Coordinates from ORCA-job job E -836.034203199007
  C      41.833942     19.986845     45.101006
  H      42.469421     19.409345     44.425767
  H      42.163429     20.954650     45.482742
  C      40.600251     19.573248     45.442213
  C      39.678875     20.463210     46.341840
  O      40.265717     21.383875     46.964159
  O      38.459217     20.185621     46.338568
  O      40.133392     18.330114     45.084974
  C      39.652779     17.998495     43.746265
  H      39.430439     16.924201     43.840932
  C      40.722000     18.229000     42.716000
  H      41.578470     17.551077     42.651216
  C      40.751000     19.360000     41.986000
  C      39.589000     20.256000     41.990000
  H      39.708133     21.170500     41.402760
  C      38.434000     19.921000     42.595000
  H      37.551085     20.569782     42.530543
  C      38.287696     18.677538     43.447202
  H      37.921033     19.001548     44.441422
  O      37.376142     17.777434     42.815751
  H      37.008918     17.143490     43.469205
  C      41.937894     19.682603     41.031345
  O      42.908935     18.888140     41.055086
  O      41.798704     20.707182     40.313030
  N      35.785826     15.354193     44.443038
25
Coordinates from ORCA-job job E -836.034315570955
  C      41.855110     19.940241     45.088072
  H      42.465549     19.384805     44.372702
  H      42.204392     20.891972     45.492290
  C      40.630476     19.525033     45.459792
  C      39.747633     20.399049     46.408756
  O      40.367063     21.266282     47.075800
  O      38.518164     20.167030     46.393724
  O      40.127232     18.301612     45.087870
  C      39.651085     17.991539     43.741591
  H      39.423441     16.917049     43.821454
  C      40.722000     18.229000     42.716000
  H      41.580729     17.553694     42.654345
  C      40.751000     19.360000     41.986000
  C      39.589000     20.256000     41.990000
  H      39.706492     21.169025     41.400124
  C      38.434000     19.921000     42.595000
  H      37.549813     20.568140     42.529325
  C      38.288459     18.683648     43.454053
  H      37.941165     19.019215     44.452327
  O      37.357181     17.795320     42.839400
  H      37.007273     17.157749     43.497115
  C      41.943417     19.688028     41.042410
  O      42.925907     18.908117     41.087092
  O      41.803886     20.709029     40.318510
  N      35.785826     15.354193     44.443038
25
Coordinates from ORCA-job job E -836.034347491309
  C      41.858322     19.915468     45.105126
  H      42.465775     19.379309     44.372812
  H      42.210144     20.857925     45.528794
  C      40.636254     19.494303     45.479284
  C      39.765870     20.352578     46.454472
  O      40.395862     21.194527     47.144091
  O      38.534221     20.133453     46.434717
  O      40.119729     18.282340     45.091066
  C      39.650133     17.987072     43.739603
  H      39.417951     16.912663     43.809246
  C      40.722000     18.229000     42.716000
  H      41.581287     17.554242     42.655187
  C      40.751000     19.360000     41.986000
  C      39.589000     20.256000     41.990000
  H      39.705224     21.167782     41.397942
  C      38.434000     19.921000     42.595000
  H      37.549813     20.568214     42.529681
  C      38.289265     18.687095     43.458368
  H      37.951504     19.026603     44.458698
  O      37.346987     17.804977     42.851974
  H      37.004801     17.163866     43.510185
  C      41.944671     19.689665     41.044378
  O      42.929941     18.913557     41.095336
  O      41.804944     20.710287     40.320132
  N      35.785826     15.354193     44.443038
25
Coordinates from ORCA-job job E -836.034360570612
  C      41.876933     19.888304     45.103483
  H      42.481512     19.350670     44.369862
  H      42.236471     20.827196     45.528906
  C      40.651671     19.478733     45.479955
  C      39.792767     20.346152     46.458637
  O      40.432630     21.180408     47.148271
  O      38.558951     20.140236     46.439660
  O      40.117011     18.275492     45.091499
  C      39.649799     17.985052     43.739049
  H      39.415098     16.910854     43.804216
  C      40.722000     18.229000     42.716000
  H      41.581250     17.554109     42.656013
  C      40.751000     19.360000     41.986000
  C      39.589000     20.256000     41.990000
  H      39.704087     21.167159     41.396749
  C      38.434000     19.921000     42.595000
  H      37.550081     20.568539     42.529398
  C      38.289552     18.688946     43.460447
  H      37.954531     19.028130     44.461835
  O      37.342153     17.810646     42.856093
  H      37.001875     17.166659     43.512673
  C      41.944723     19.689851     41.044191
  O      42.929004     18.912472     41.093669
  O      41.806020     20.712056     40.322272
  N      35.785826     15.354193     44.443038
25
Coordinates from ORCA-job job E -836.034365051319
  C      41.868121     19.892126     45.106378
  H      42.476067     19.360769     44.370984
  H      42.222753     20.831804     45.534366
  C      40.644981     19.476581     45.482744
  C      39.783158     20.338622     46.465038
  O      40.419587     21.177508     47.151884
  O      38.550870     20.123768     46.450305
  O      40.113639     18.273080     45.091414
  C      39.649072     17.983900     43.738354
  H      39.413839     16.909648     43.800968
  C      40.722000     18.229000     42.716000
  H      41.580524     17.553240     42.655498
  C      40.751000     19.360000     41.986000
  C      39.589000     20.256000     41.990000
  H      39.703797     21.167226     41.396806
  C      38.434000     19.921000     42.595000
  H      37.550275     20.568772     42.528915
  C      38.288984     18.688633     43.459725
  H      37.953374     19.025860     44.461491
  O      37.340640     17.811778     42.854067
  H      36.999312     17.166809     43.508753
  C      41.944171     19.689121     41.042687
  O      42.926422     18.909051     41.088497
  O      41.806082     20.712527     40.322485
  N      35.785826     15.354193     44.443038
25
Coordinates from ORCA-job job E -836.034366221573
  C      41.869128     19.892174     45.105809
  H      42.477483     19.359173     44.372012
  H      42.224304     20.831852     45.533371
  C      40.645148     19.478502     45.481282
  C      39.783348     20.342392     46.462399
  O      40.420179     21.182066     47.147692
  O      38.550980     20.128170     46.448021
  O      40.113703     18.274583     45.091234
  C      39.649086     17.984242     43.738559
  H      39.414264     16.909928     43.801305
  C      40.722000     18.229000     42.716000
  H      41.580097     17.552758     42.655009
  C      40.751000     19.360000     41.986000
  C      39.589000     20.256000     41.990000
  H      39.703897     21.167383     41.397079
  C      38.434000     19.921000     42.595000
  H      37.550194     20.568609     42.528339
  C      38.288712     18.688179     43.459281
  H      37.952225     19.024601     44.460991
  O      37.341113     17.810781     42.852912
  H      36.998341     17.165690     43.507226
  C      41.944074     19.688937     41.042367
  O      42.926025     18.908512     41.087465
  O      41.805824     20.712197     40.321970
  N      35.785826     15.354193     44.443038
