24
frame 49592 P, aligned onto 20000 on 8 atoms
C      48.20564571    28.43363580    56.03777635
H      49.07290431    27.79761371    56.25535255
H      48.31761177    29.39678880    56.55213896
C      46.96774202    27.71546233    56.52541898
C      45.76959570    28.49131209    57.10778186
O      46.07427291    29.41936468    57.88095014
O      44.61914755    28.08414003    56.81303287
O      46.89106819    26.49700379    56.48852840
C      46.65204144    27.00492596    53.33856407
H      46.50680231    26.03663359    52.85527380
C      47.86210243    27.38523847    53.75861619
H      48.73235490    26.74086913    53.62548545
C      48.11586125    28.68557741    54.47498488
C      46.96667819    29.64568793    54.28573351
H      47.16392074    30.68272952    54.55589662
C      45.75175605    29.25691386    53.89077663
H      44.92985564    29.97621080    53.87447868
C      45.41440771    27.85490943    53.45595175
H      44.74657475    27.41784610    54.22180734
O      44.74942320    27.88813065    52.20051560
H      43.83113557    27.48439722    52.26793323
C      49.48445022    29.31551741    54.02701858
O      50.44663410    28.54419379    53.76986676
O      49.54165664    30.56144405    53.95794443
