24
frame 49592 R, aligned onto 20000 on 8 atoms
C      47.99561979    27.99878585    56.88273826
H      48.89136264    27.52310546    56.48422990
H      48.10664891    28.79721228    57.61453657
C      46.76579421    27.64344419    56.49238156
C      45.52548804    28.30925926    57.07570042
O      45.70193361    29.39981934    57.67232985
O      44.42093574    27.72681325    56.94177932
O      46.56254253    26.62350818    55.58084314
C      46.55162734    26.95922088    54.13190703
H      46.35402295    25.99323901    53.65021051
C      47.90539566    27.48822978    53.78252196
H      48.73504922    26.79137177    53.65020839
C      48.14623765    28.81410187    53.80845151
C      47.03786006    29.75793553    53.99403740
H      47.30647485    30.80661995    54.11582448
C      45.75786667    29.34964622    54.01985943
H      44.94620402    30.06755738    54.16375283
C      45.38267588    27.90691336    53.78799796
H      44.55506932    27.64210575    54.46187875
O      45.00233939    27.73381720    52.42863565
H      44.06351204    27.39043007    52.37809378
C      49.56385129    29.36444585    53.75019286
O      50.53121868    28.56615327    53.61649065
O      49.67187365    30.60939557    53.86197994
