24
frame 49592 TS, aligned onto 20000 on 8 atoms
C      48.11859906    28.27025614    56.54496527
H      49.01737534    27.72485643    56.27447355
H      48.22224350    29.23652165    57.03546918
C      46.87933388    27.64889290    56.49098440
C      45.63625867    28.35340351    57.06081789
O      45.82085515    29.43376743    57.67199307
O      44.52182115    27.79535763    56.90522358
O      46.70337346    26.53131230    55.88598347
C      46.59391919    26.91274779    53.73306607
H      46.42161517    25.86318561    53.48546239
C      47.87874537    27.43225189    53.69014325
H      48.74336439    26.78583039    53.54277341
C      48.10091379    28.76417520    54.03452579
C      46.96461799    29.67969659    54.14076990
H      47.19234643    30.72447473    54.35268225
C      45.70341171    29.24315305    53.98740940
H      44.85999664    29.92905029    54.08570433
C      45.37892980    27.81226731    53.65695713
H      44.63132969    27.45424787    54.37988648
O      44.87529315    27.73546157    52.32474653
H      43.93117276    27.38552808    52.32365172
C      49.50986316    29.34609771    53.90716699
O      50.48007906    28.55965653    53.73114671
O      49.59680762    30.59417639    53.92558796
