24
frame 41786 P, aligned onto 20000 on 8 atoms
C      48.19082120    27.99977578    55.92922450
H      49.00791218    27.26730032    55.96128732
H      48.38421968    28.81126493    56.63620357
C      46.91296934    27.32198601    56.34484168
C      45.82021049    28.14609549    57.08168812
O      46.20209757    29.08853361    57.80880203
O      44.63738955    27.76656265    56.89667070
O      46.70872702    26.15188191    56.08232603
C      46.63844854    26.98752855    53.12842325
H      46.50110938    26.07996315    52.54002203
C      47.85333382    27.36387988    53.53990647
H      48.73488418    26.76066817    53.31133570
C      48.07061617    28.54678711    54.44700341
C      46.89519425    29.49063274    54.39078298
H      47.06985413    30.50107131    54.75218139
C      45.68492898    29.11763044    53.97078861
H      44.85243897    29.82672147    54.00446801
C      45.37387879    27.74640847    53.43333900
H      44.80796235    27.19750113    54.20869396
O      44.58645820    27.85727284    52.26209740
H      43.74982788    27.29180033    52.33000583
C      49.40936146    29.28870721    54.11211597
O      50.47740061    28.63020398    54.14877487
O      49.34065260    30.52363960    53.88880661
