24
frame 46990 P, aligned onto 20000 on 8 atoms
C      48.16836429    28.15270477    56.06831669
H      49.00739062    27.46020375    56.22192378
H      48.31262419    29.04854853    56.68042292
C      46.90719292    27.43730882    56.47777414
C      45.71273894    28.15384098    57.17471846
O      45.97213572    29.07856526    57.97363855
O      44.57649161    27.68194909    56.91674745
O      46.79409865    26.25384824    56.23354325
C      46.69443153    26.90627091    53.26888659
H      46.57585194    25.98830745    52.69007059
C      47.89881156    27.29401825    53.69702995
H      48.79632390    26.71120469    53.48441300
C      48.10809115    28.53277997    54.52657287
C      46.94926766    29.48789578    54.36946490
H      47.12627763    30.52160458    54.66251367
C      45.73712761    29.08755411    53.97450535
H      44.90431341    29.79578076    53.97176281
C      45.42661341    27.68270006    53.52293583
H      44.84876757    27.19480395    54.33065457
O      44.65097745    27.73670786    52.33878127
H      43.83650682    27.16332853    52.39062480
C      49.49444800    29.19707760    54.20191256
O      50.43168389    28.45037113    53.84356589
O      49.58501204    30.43731376    54.38250444
