24
frame 46990 R, aligned onto 20000 on 8 atoms
C      48.01481107    27.98194959    56.86098880
H      48.89637326    27.55627014    56.38659434
H      48.12816638    28.72745236    57.64603286
C      46.77844299    27.59909127    56.51985614
C      45.54690710    28.16369008    57.21501478
O      45.71718637    29.06995354    58.06347546
O      44.43103152    27.66340494    56.90353849
O      46.54729522    26.62479500    55.57203470
C      46.55431851    26.97336981    54.13864177
H      46.35579279    26.01251298    53.64298090
C      47.91466554    27.49680046    53.79487689
H      48.74956516    26.79958175    53.70476752
C      48.15454996    28.82319955    53.81020422
C      47.03651691    29.76171422    53.96148325
H      47.30782045    30.81351854    54.06810435
C      45.75479623    29.35572868    53.98971122
H      44.95367593    30.08764241    54.12577941
C      45.36941465    27.90830101    53.81119181
H      44.57902077    27.65908167    54.53587604
O      44.91252219    27.70063258    52.48184042
H      44.08222590    27.15399673    52.47690954
C      49.57996157    29.36781806    53.87084591
O      50.53889777    28.57074230    53.73375256
O      49.68052144    30.59668530    54.13076516
