24
frame 46990 TS, aligned onto 20000 on 8 atoms
C      48.12911860    28.06906074    56.49208497
H      48.98251683    27.47412431    56.17708226
H      48.30265190    28.96986035    57.07693406
C      46.85595602    27.50208497    56.47085804
C      45.65651822    28.17998601    57.16848682
O      45.88399106    29.08528495    58.00454255
O      44.51568362    27.72069715    56.88292272
O      46.61467332    26.44974090    55.79994376
C      46.54328442    26.88971587    53.67815677
H      46.35656199    25.85588197    53.37910339
C      47.83111726    27.38889449    53.66062716
H      48.68938829    26.74422129    53.46876817
C      48.06795677    28.68746852    54.12578143
C      46.93688854    29.61231399    54.23389286
H      47.17314614    30.64684725    54.48351528
C      45.67216146    29.20388438    54.03958880
H      44.84599133    29.91161993    54.14237468
C      45.32263617    27.78316962    53.69070852
H      44.61961640    27.41270581    54.45223046
O      44.73093677    27.74044164    52.39821517
H      43.91044235    27.16534503    52.39719929
C      49.49514399    29.24207694    54.10125902
O      50.42835278    28.44411000    53.85286050
O      49.62597071    30.47286549    54.33142364
