24
frame 23268 P, aligned onto 20000 on 8 atoms
C      48.24075584    28.36082037    56.05473714
H      49.13147469    27.74647330    56.21939013
H      48.32567978    29.29495632    56.62238751
C      47.04140249    27.57817732    56.52801231
C      45.86200574    28.32931808    57.20677947
O      46.17324304    29.27517420    57.95711509
O      44.70432268    27.91042679    56.95551463
O      46.98789736    26.37024908    56.34607121
C      46.67037951    26.99468536    53.31097142
H      46.54491983    26.01986409    52.83846073
C      47.86506761    27.38431113    53.76323914
H      48.74328028    26.74128222    53.66278848
C      48.08875027    28.67282989    54.50682940
C      46.89370510    29.58915054    54.39098676
H      47.01448621    30.60393894    54.76874651
C      45.69646291    29.18430088    53.96080320
H      44.83817950    29.85532717    54.02059710
C      45.42219568    27.82472549    53.38910289
H      44.70184927    27.31652385    54.05547977
O      44.86020746    27.94113393    52.08413227
H      43.87207660    27.75339882    52.11891616
C      49.41024631    29.35699010    54.00234051
O      50.45010352    28.65214267    53.86651317
O      49.34452949    30.58217559    53.76204315
