24
frame 23268 R, aligned onto 20000 on 8 atoms
C      48.01935765    27.93576380    56.87625449
H      48.89876629    27.46912850    56.43820663
H      48.15357879    28.71530935    57.62631810
C      46.77584463    27.60113975    56.51380847
C      45.56812509    28.28268296    57.14992589
O      45.78560429    29.32709197    57.81684839
O      44.43832306    27.76142203    56.97866169
O      46.53199220    26.60266634    55.57818470
C      46.55672589    26.97067685    54.14696511
H      46.36444873    26.02198504    53.62727737
C      47.91904740    27.49975546    53.81872598
H      48.75956199    26.80582843    53.75159553
C      48.14784538    28.82706798    53.77811863
C      47.03202895    29.76971372    53.94569758
H      47.29001294    30.82446995    54.03596135
C      45.75720196    29.35585387    54.02378207
H      44.94670313    30.06181855    54.21126679
C      45.38931359    27.91612602    53.79271745
H      44.56030408    27.65175991    54.46165675
O      45.02411041    27.73097228    52.42836752
H      44.02911867    27.64664750    52.35011942
C      49.54669713    29.41504178    53.68393483
O      50.55991905    28.65793835    53.71575853
O      49.57841248    30.66534591    53.61435955
