24
frame 23268 TS, aligned onto 20000 on 8 atoms
C      48.14244950    28.17075182    56.47480900
H      49.01966525    27.61479211    56.16522078
H      48.27694848    29.11418601    57.00076304
C      46.88960357    27.57198880    56.45077101
C      45.69270118    28.29822441    57.09627640
O      45.93310145    29.33936884    57.75890899
O      44.55141364    27.79772131    56.93947033
O      46.67903470    26.48033843    55.80364171
C      46.60403624    26.90457661    53.72819265
H      46.44501627    25.86173148    53.45214170
C      47.88118626    27.44363647    53.68827486
H      48.76125370    26.81429846    53.55035282
C      48.07991898    28.76593877    54.07379038
C      46.92238681    29.65817352    54.21036875
H      47.11328855    30.69760211    54.47134464
C      45.67186025    29.20517389    54.03985674
H      44.81295246    29.86255897    54.18181888
C      45.38113744    27.79000582    53.63327391
H      44.60696802    27.39682655    54.30528201
O      44.94267389    27.75256485    52.27460869
H      43.94332478    27.62844006    52.24305045
C      49.46039294    29.39387972    53.89083560
O      50.48961007    28.66339714    53.83029375
O      49.44964656    30.63774366    53.74606978
