38
-2 1 -837.3763048414586
C       53.75018325    32.57590813    57.72672403
H       53.33803162    32.11149688    56.82807539
H       53.82100627    33.66270996    57.78256653
C       54.14939307    31.83541649    58.76863172
C       54.71611132    32.43147272    60.03951343
O       55.04559115    33.64938706    60.03692611
O       54.88905034    31.63181841    61.00585166
O       54.00602974    30.47396988    58.78737035
C       55.13574065    29.61437443    58.49182186
H       54.95109510    28.71367584    59.10899182
C       56.54326931    30.08989927    58.75515036
H       56.80588772    30.84370701    59.52496003
C       57.58803820    29.45083664    58.18881010
C       57.35377607    28.41266562    57.17696084
H       58.21207923    27.82000377    56.85896329
C       56.13543309    28.27199621    56.62778420
H       55.94314893    27.56284043    55.81820414
C       55.01499544    29.19336213    57.02251117
H       55.11966636    30.12073533    56.41048420
O       53.76824850    28.58271380    56.79423767
H       53.09765448    29.20245566    57.12093396
C       59.03879276    29.69552192    58.62777881
O       59.28216695    30.75381975    59.31667867
O       59.87162302    28.85368184    58.31147045
C       57.49940000    32.31300000    60.99950000
N       57.64997700    32.69822000    59.73544600
H       57.33946000    33.36072200    60.43170000
H       57.84614600    31.74318200    59.99911300
N       57.09050100    33.18540400    61.91634900
H       57.28667000    32.23036600    62.18001600
H       57.20484900    33.47794000    60.95642800
N       57.75772100    31.05537600    61.34670500
H       57.87207000    31.34791100    60.38678400
H       57.44720400    31.71787800    62.04295900
C       63.00440000    29.11630000    52.22560000
O       64.18822500    29.17807600    51.82906300
O       62.29311600    28.08891700    52.25815900
H       62.54642100    30.05215000    52.57836100
38
-2 1 -837.3717342155601
C       53.73745230    32.64802466    57.73535228
H       53.31059676    32.21851762    56.82629204
H       53.82785660    33.73098868    57.82464910
C       54.12542291    31.86576525    58.75300739
C       54.71560854    32.42490307    60.03068498
O       55.05047820    33.64191096    60.05508991
O       54.89917766    31.60250181    60.97638533
O       53.94070059    30.51571221    58.73139075
C       55.15806184    29.58808522    58.48636063
H       54.92507845    28.73732358    59.15033374
C       56.54871556    30.08382062    58.74550929
H       56.80042382    30.83250199    59.52088544
C       57.59663558    29.44884709    58.17750572
C       57.37351341    28.41168472    57.16265682
H       58.24039143    27.83757377    56.83413895
C       56.15281866    28.24833415    56.62506194
H       55.96612578    27.54217620    55.81156908
C       55.01832907    29.14797076    57.03274994
H       55.10229169    30.07247484    56.41269219
O       53.77944704    28.51772263    56.82530210
H       53.10678499    29.14287372    57.13809320
C       59.04353683    29.69360167    58.63078742
O       59.28121571    30.75427116    59.31679089
O       59.87634924    28.84688282    58.32811174
C       57.49940000    32.31300000    60.99950000
N       57.64997700    32.69822000    59.73544600
H       57.33946000    33.36072200    60.43170000
H       57.84614600    31.74318200    59.99911300
N       57.09050100    33.18540400    61.91634900
H       57.28667000    32.23036600    62.18001600
H       57.20484900    33.47794000    60.95642800
N       57.75772100    31.05537600    61.34670500
H       57.87207000    31.34791100    60.38678400
H       57.44720400    31.71787800    62.04295900
C       63.00440000    29.11630000    52.22560000
O       64.18822500    29.17807600    51.82906300
O       62.29311600    28.08891700    52.25815900
H       62.54642100    30.05215000    52.57836100
38
-2 1 -837.36342049785
C       53.71570255    32.72373069    57.74649226
H       53.27443085    32.33083838    56.82784298
H       53.81932886    33.80160292    57.87325537
C       54.09750007    31.89881575    58.73533335
C       54.71322353    32.41900435    60.01871052
O       55.05625327    33.63361231    60.06969492
O       54.90800252    31.57311062    60.94159591
O       53.88225564    30.56239383    58.66957183
C       55.18220488    29.56298462    58.48568818
H       54.89474141    28.77147126    59.19562418
C       56.55819685    30.07359749    58.73781096
H       56.80232669    30.81628119    59.51911205
C       57.60877183    29.44305690    58.16623391
C       57.39518106    28.40823853    57.14793323
H       58.26935390    27.85283914    56.80680651
C       56.17154152    28.22306067    56.62412793
H       55.98861422    27.52132575    55.80588392
C       55.02418739    29.10067773    57.04731078
H       55.08799104    30.02100563    56.41823493
O       53.79323762    28.45197949    56.86050035
H       53.11577343    29.08800358    57.13955047
C       59.05166810    29.68804154    58.63351001
O       59.28160951    30.75168693    59.31635779
O       59.88491597    28.83710995    58.34421859
C       57.49940000    32.31300000    60.99950000
N       57.64997700    32.69822000    59.73544600
H       57.33946000    33.36072200    60.43170000
H       57.84614600    31.74318200    59.99911300
N       57.09050100    33.18540400    61.91634900
H       57.28667000    32.23036600    62.18001600
H       57.20484900    33.47794000    60.95642800
N       57.75772100    31.05537600    61.34670500
H       57.87207000    31.34791100    60.38678400
H       57.44720400    31.71787800    62.04295900
C       63.00440000    29.11630000    52.22560000
O       64.18822500    29.17807600    51.82906300
O       62.29311600    28.08891700    52.25815900
H       62.54642100    30.05215000    52.57836100
38
-2 1 -837.3539592820775
C       53.68727912    32.80384880    57.76014368
H       53.23283278    32.45023204    56.83202751
H       53.79988262    33.87486332    57.92876125
C       54.06650191    31.93448012    58.71501130
C       54.70747046    32.41266677    60.00470586
O       55.05948237    33.62375961    60.08439190
O       54.91528442    31.54117795    60.90086550
O       53.83124989    30.61353316    58.60093288
C       55.20843944    29.53993852    58.48585252
H       54.86147968    28.81860657    59.23890605
C       56.57051216    30.05982246    58.72965995
H       56.80897194    30.79584206    59.51710083
C       57.62382456    29.43473870    58.15293180
C       57.41873055    28.40315726    57.13124769
H       58.29868968    27.86603011    56.77590710
C       56.19160045    28.19587200    56.62330217
H       56.01057032    27.49934412    55.80004884
C       55.03265055    29.05151476    57.06377984
H       55.07723035    29.96511330    56.42295177
O       53.80868102    28.38656630    56.89915807
H       53.12665966    29.03135556    57.14556449
C       59.06141551    29.68045450    58.63716866
O       59.28305278    30.74782924    59.31590128
O       59.89452057    28.82372204    58.36508007
C       57.49940000    32.31300000    60.99950000
N       57.64997700    32.69822000    59.73544600
H       57.33946000    33.36072200    60.43170000
H       57.84614600    31.74318200    59.99911300
N       57.09050100    33.18540400    61.91634900
H       57.28667000    32.23036600    62.18001600
H       57.20484900    33.47794000    60.95642800
N       57.75772100    31.05537600    61.34670500
H       57.87207000    31.34791100    60.38678400
H       57.44720400    31.71787800    62.04295900
C       63.00440000    29.11630000    52.22560000
O       64.18822500    29.17807600    51.82906300
O       62.29311600    28.08891700    52.25815900
H       62.54642100    30.05215000    52.57836100
38
-2 1 -837.3450855905932
C       53.64389076    32.90870053    57.78513694
H       53.17486809    32.60969302    56.84516474
H       53.75518146    33.96751505    58.01803782
C       54.03320035    31.98134905    58.68471568
C       54.69994287    32.40462848    59.98446806
O       55.05910103    33.61076149    60.10402394
O       54.92172812    31.50171532    60.84558789
O       53.79466954    30.67948593    58.49897160
C       55.23752634    29.52171206    58.48400784
H       54.81720395    28.90023469    59.28350947
C       56.58724616    30.04072043    58.71846509
H       56.82129613    30.76869219    59.51286583
C       57.64433020    29.42111728    58.13661876
C       57.44824879    28.39229828    57.11351688
H       58.33343134    27.87482735    56.74206117
C       56.21692854    28.15777582    56.62616180
H       56.03765141    27.46516358    55.79901135
C       55.04550309    28.98771256    57.08494300
H       55.06612528    29.88735697    56.42318549
O       53.83040516    28.30220931    56.95013366
H       53.13959223    28.95519732    57.14503058
C       59.07479614    29.66852000    58.64140547
O       59.28546287    30.74090140    59.31483016
O       59.90868298    28.80618122    58.38954785
C       57.49940000    32.31300000    60.99950000
N       57.64997700    32.69822000    59.73544600
H       57.33946000    33.36072200    60.43170000
H       57.84614600    31.74318200    59.99911300
N       57.09050100    33.18540400    61.91634900
H       57.28667000    32.23036600    62.18001600
H       57.20484900    33.47794000    60.95642800
N       57.75772100    31.05537600    61.34670500
H       57.87207000    31.34791100    60.38678400
H       57.44720400    31.71787800    62.04295900
C       63.00440000    29.11630000    52.22560000
O       64.18822500    29.17807600    51.82906300
O       62.29311600    28.08891700    52.25815900
H       62.54642100    30.05215000    52.57836100
38
-2 1 -837.3375381299431
C       53.60089691    33.01176256    57.81136520
H       53.11793934    32.76708309    56.86273388
H       53.71129917    34.05475435    58.10702600
C       54.00020864    32.03057073    58.65347330
C       54.69134704    32.40232597    59.96134175
O       55.05947611    33.60177709    60.11831223
O       54.92658720    31.47082383    60.78797583
O       53.76832078    30.74903976    58.40120908
C       55.26545756    29.50231353    58.48339900
H       54.76804228    28.99741365    59.31604440
C       56.60308576    30.01292250    58.71345723
H       56.83167662    30.73287813    59.51491855
C       57.66584261    29.40480084    58.12128085
C       57.47846433    28.38522474    57.09240812
H       58.36734676    27.88800626    56.70213317
C       56.24313813    28.12581889    56.62476958
H       56.06554512    27.44094927    55.79066673
C       55.05852480    28.92262609    57.10907698
H       55.04922863    29.80885148    56.42846375
O       53.85644279    28.21109644    57.00410545
H       53.15148337    28.86200564    57.14768844
C       59.08805128    29.65405325    58.64716636
O       59.28716483    30.73311586    59.31248959
O       59.92144288    28.78425541    58.41989565
C       57.49940000    32.31300000    60.99950000
N       57.64997700    32.69822000    59.73544600
H       57.33946000    33.36072200    60.43170000
H       57.84614600    31.74318200    59.99911300
N       57.09050100    33.18540400    61.91634900
H       57.28667000    32.23036600    62.18001600
H       57.20484900    33.47794000    60.95642800
N       57.75772100    31.05537600    61.34670500
H       57.87207000    31.34791100    60.38678400
H       57.44720400    31.71787800    62.04295900
C       63.00440000    29.11630000    52.22560000
O       64.18822500    29.17807600    51.82906300
O       62.29311600    28.08891700    52.25815900
H       62.54642100    30.05215000    52.57836100
38
-2 1 -837.3311805855305
C       53.54350545    33.13049226    57.84871070
H       53.04324246    32.94796076    56.89497914
H       53.64553242    34.15012309    58.21879311
C       53.96975547    32.09231869    58.61259340
C       54.68353775    32.40483442    59.92972226
O       55.06068701    33.59498391    60.13234656
O       54.93036591    31.44120847    60.71563798
O       53.76637910    30.83495864    58.27924838
C       55.29485599    29.48384137    58.48109121
H       54.71030714    29.13064780    59.33053021
C       56.62192645    29.97263793    58.71352369
H       56.84391726    30.68631761    59.51995685
C       57.69213914    29.37965316    58.10814486
C       57.51188429    28.37479095    57.07105732
H       58.40240224    27.89720591    56.65976747
C       56.27193103    28.09206723    56.62302175
H       56.09568377    27.41636274    55.78105654
C       55.07463692    28.84811930    57.13806599
H       55.02597975    29.71753996    56.43644179
O       53.89073537    28.10292034    57.06892232
H       53.16585176    28.74255174    57.14780641
C       59.10437144    29.63377911    58.65505651
O       59.28883735    30.72151399    59.30970760
O       59.93854753    28.75763998    58.45521912
C       57.49940000    32.31300000    60.99950000
N       57.64997700    32.69822000    59.73544600
H       57.33946000    33.36072200    60.43170000
H       57.84614600    31.74318200    59.99911300
N       57.09050100    33.18540400    61.91634900
H       57.28667000    32.23036600    62.18001600
H       57.20484900    33.47794000    60.95642800
N       57.75772100    31.05537600    61.34670500
H       57.87207000    31.34791100    60.38678400
H       57.44720400    31.71787800    62.04295900
C       63.00440000    29.11630000    52.22560000
O       64.18822500    29.17807600    51.82906300
O       62.29311600    28.08891700    52.25815900
H       62.54642100    30.05215000    52.57836100
38
-2 1 -837.3262296254516
C       53.50390938    33.21896858    57.87412596
H       52.98780098    33.07659839    56.92184512
H       53.60936338    34.22195033    58.28593956
C       53.94332075    32.14522466    58.58644406
C       54.67782090    32.42158848    59.90630358
O       55.06626820    33.60363120    60.13475120
O       54.93208256    31.43921357    60.66764845
O       53.75848664    30.90639074    58.20885256
C       55.31719028    29.45164459    58.48572186
H       54.66069429    29.23532686    59.32458951
C       56.63261354    29.92325504    58.72645010
H       56.84497938    30.63481967    59.53479970
C       57.71196890    29.35429772    58.10140446
C       57.53827242    28.37318285    57.04891993
H       58.42964614    27.91510060    56.61707145
C       56.29463323    28.07609757    56.61208770
H       56.12063286    27.41454861    55.75850532
C       55.08763158    28.78633366    57.16359544
H       55.00269785    29.65267144    56.45887753
O       53.92405398    28.00912826    57.11243071
H       53.17892400    28.62852295    57.15032396
C       59.11584964    29.61675045    58.66127651
O       59.28631054    30.71184684    59.30619732
O       59.95186162    28.73737636    58.48323930
C       57.49940000    32.31300000    60.99950000
N       57.64997700    32.69822000    59.73544600
H       57.33946000    33.36072200    60.43170000
H       57.84614600    31.74318200    59.99911300
N       57.09050100    33.18540400    61.91634900
H       57.28667000    32.23036600    62.18001600
H       57.20484900    33.47794000    60.95642800
N       57.75772100    31.05537600    61.34670500
H       57.87207000    31.34791100    60.38678400
H       57.44720400    31.71787800    62.04295900
C       63.00440000    29.11630000    52.22560000
O       64.18822500    29.17807600    51.82906300
O       62.29311600    28.08891700    52.25815900
H       62.54642100    30.05215000    52.57836100
38
-2 1 -837.3226101302313
C       53.47834718    33.29736280    57.89522839
H       52.94710418    33.18218650    56.94741835
H       53.59646918    34.28919102    58.32989936
C       53.92073704    32.19881639    58.57378367
C       54.67542500    32.45032134    59.89192329
O       55.07800149    33.62499322    60.13548312
O       54.93368359    31.45495768    60.63672443
O       53.74156120    30.97305718    58.17594059
C       55.33286276    29.41344918    58.48880190
H       54.61635013    29.32270493    59.29825412
C       56.63627573    29.87309763    58.74300092
H       56.83490914    30.58561502    59.55203640
C       57.72609980    29.33048771    58.09926390
C       57.56058630    28.37803715    57.02716853
H       58.45354619    27.94086454    56.57665591
C       56.31517128    28.06999568    56.59436535
H       56.14618418    27.42396055    55.72810351
C       55.09846999    28.72746627    57.18232071
H       54.96557228    29.59480227    56.48320467
O       53.96459302    27.90596303    57.14815201
H       53.19199428    28.49114455    57.14450326
C       59.12246434    29.60174231    58.66792242
O       59.28029981    30.70405854    59.30215813
O       59.96030503    28.72019399    58.50908841
C       57.49940000    32.31300000    60.99950000
N       57.64997700    32.69822000    59.73544600
H       57.33946000    33.36072200    60.43170000
H       57.84614600    31.74318200    59.99911300
N       57.09050100    33.18540400    61.91634900
H       57.28667000    32.23036600    62.18001600
H       57.20484900    33.47794000    60.95642800
N       57.75772100    31.05537600    61.34670500
H       57.87207000    31.34791100    60.38678400
H       57.44720400    31.71787800    62.04295900
C       63.00440000    29.11630000    52.22560000
O       64.18822500    29.17807600    51.82906300
O       62.29311600    28.08891700    52.25815900
H       62.54642100    30.05215000    52.57836100
38
-2 1 -837.3200410574456
C       53.43943808    33.34971218    57.91781396
H       52.88326709    33.24651831    56.98279740
H       53.58460781    34.33870985    58.35087614
C       53.88215583    32.23778053    58.58050578
C       54.67363102    32.47871405    59.88223434
O       55.09565278    33.64734062    60.12419155
O       54.94078644    31.47638898    60.61658276
O       53.68972181    31.01773657    58.19039801
C       55.34851236    29.37947730    58.48534155
H       54.58350472    29.40043961    59.25212116
C       56.64230083    29.82815970    58.75277264
H       56.82982076    30.54353429    59.56019974
C       57.74187406    29.30146683    58.09910926
C       57.58235235    28.36619352    57.01759911
H       58.47584529    27.93697785    56.55998711
C       56.33526062    28.05406425    56.58288220
H       56.17016746    27.41357612    55.71179503
C       55.11667768    28.68796462    57.18563976
H       54.97911097    29.56430175    56.49416728
O       53.98968859    27.85953603    57.13997603
H       53.21009388    28.43541896    57.14855378
C       59.13190297    29.58629118    58.67235749
O       59.27454280    30.69594923    59.29623083
O       59.97609701    28.70821715    58.52726851
C       57.49940000    32.31300000    60.99950000
N       57.64997700    32.69822000    59.73544600
H       57.33946000    33.36072200    60.43170000
H       57.84614600    31.74318200    59.99911300
N       57.09050100    33.18540400    61.91634900
H       57.28667000    32.23036600    62.18001600
H       57.20484900    33.47794000    60.95642800
N       57.75772100    31.05537600    61.34670500
H       57.87207000    31.34791100    60.38678400
H       57.44720400    31.71787800    62.04295900
C       63.00440000    29.11630000    52.22560000
O       64.18822500    29.17807600    51.82906300
O       62.29311600    28.08891700    52.25815900
H       62.54642100    30.05215000    52.57836100
38
-2 1 -837.3184531821397
C       53.41210168    33.37871829    57.93846316
H       52.82788266    33.27294597    57.02087227
H       53.61013903    34.37288860    58.33760212
C       53.82634901    32.26367371    58.62073818
C       54.66800877    32.50702722    59.89154325
O       55.11223879    33.67173773    60.11564148
O       54.95116444    31.50333259    60.61950534
O       53.58602292    31.04428203    58.27578599
C       55.35939775    29.36445298    58.46511914
H       54.55344375    29.49525138    59.17783340
C       56.64606456    29.80009596    58.74832166
H       56.82595529    30.51978443    59.55291130
C       57.75621218    29.27573343    58.09803751
C       57.60387460    28.34689928    57.01544767
H       58.49871041    27.91740293    56.56020474
C       56.35662703    28.03255002    56.57401647
H       56.19765627    27.39003952    55.70320484
C       55.13658872    28.66002276    57.17399288
H       55.00880193    29.53725460    56.47724046
O       54.01042530    27.83284414    57.11715734
H       53.22809335    28.40481206    57.13970177
C       59.14023548    29.57318205    58.67608561
O       59.26912963    30.68928699    59.29046512
O       59.99188972    28.70025087    58.54150980
C       57.49940000    32.31300000    60.99950000
N       57.64997700    32.69822000    59.73544600
H       57.33946000    33.36072200    60.43170000
H       57.84614600    31.74318200    59.99911300
N       57.09050100    33.18540400    61.91634900
H       57.28667000    32.23036600    62.18001600
H       57.20484900    33.47794000    60.95642800
N       57.75772100    31.05537600    61.34670500
H       57.87207000    31.34791100    60.38678400
H       57.44720400    31.71787800    62.04295900
C       63.00440000    29.11630000    52.22560000
O       64.18822500    29.17807600    51.82906300
O       62.29311600    28.08891700    52.25815900
H       62.54642100    30.05215000    52.57836100
38
-2 1 -837.3181056393088
C       53.34332972    33.39442924    57.99008044
H       52.71652689    33.28201023    57.10174328
H       53.61317406    34.39257432    58.33350609
C       53.74355377    32.28407233    58.69282059
C       54.65850185    32.53319892    59.90949257
O       55.12982990    33.69271177    60.10397197
O       54.96790789    31.52785748    60.62637986
O       53.45331192    31.06374242    58.40373892
C       55.37518095    29.38771440    58.40776659
H       54.52352546    29.68708086    59.01951244
C       56.65944560    29.78926723    58.71571889
H       56.83937461    30.52287841    59.50763763
C       57.77982846    29.23293308    58.09713218
C       57.63208524    28.28548221    57.03688840
H       58.52599152    27.83055222    56.60471283
C       56.38376844    27.97406411    56.58320403
H       56.22942885    27.30567042    55.73104696
C       55.17152383    28.63956452    57.14336639
H       55.10853123    29.50797487    56.41800509
O       54.01912486    27.85690925    57.06015791
H       53.25470556    28.44966743    57.13149449
C       59.15788260    29.54966583    58.67870030
O       59.26652727    30.67439634    59.28283215
O       60.02395284    28.69005168    58.55149158
C       57.49940000    32.31300000    60.99950000
N       57.64997700    32.69822000    59.73544600
H       57.33946000    33.36072200    60.43170000
H       57.84614600    31.74318200    59.99911300
N       57.09050100    33.18540400    61.91634900
H       57.28667000    32.23036600    62.18001600
H       57.20484900    33.47794000    60.95642800
N       57.75772100    31.05537600    61.34670500
H       57.87207000    31.34791100    60.38678400
H       57.44720400    31.71787800    62.04295900
C       63.00440000    29.11630000    52.22560000
O       64.18822500    29.17807600    51.82906300
O       62.29311600    28.08891700    52.25815900
H       62.54642100    30.05215000    52.57836100
38
-2 1 -837.3188247167949
C       53.24603788    33.45721293    58.08174590
H       52.56930189    33.35642600    57.22939201
H       53.56243284    34.45007485    58.40005316
C       53.67354753    32.33794027    58.75622086
C       54.65970649    32.57157099    59.91609756
O       55.15609199    33.72365763    60.09551052
O       54.99012109    31.55552906    60.60919299
O       53.35941069    31.12097233    58.48358297
C       55.38763386    29.42316015    58.32204461
H       54.50934814    29.86302808    58.82617708
C       56.66960765    29.78588023    58.66708498
H       56.84565843    30.53732980    59.44283452
C       57.80073094    29.18688527    58.09846118
C       57.66486716    28.20964402    57.06986805
H       58.56022645    27.72716158    56.67162817
C       56.41899094    27.89269239    56.60289867
H       56.27371341    27.18420127    55.78187231
C       55.21070403    28.59865245    57.10452101
H       55.19974359    29.43705651    56.33469568
O       54.04571818    27.83921734    57.01381216
H       53.28700376    28.43848569    57.09218236
C       59.17235979    29.52387558    58.68620304
O       59.26292184    30.65823923    59.27589050
O       60.05113484    28.67557599    58.56943135
C       57.49940000    32.31300000    60.99950000
N       57.64997700    32.69822000    59.73544600
H       57.33946000    33.36072200    60.43170000
H       57.84614600    31.74318200    59.99911300
N       57.09050100    33.18540400    61.91634900
H       57.28667000    32.23036600    62.18001600
H       57.20484900    33.47794000    60.95642800
N       57.75772100    31.05537600    61.34670500
H       57.87207000    31.34791100    60.38678400
H       57.44720400    31.71787800    62.04295900
C       63.00440000    29.11630000    52.22560000
O       64.18822500    29.17807600    51.82906300
O       62.29311600    28.08891700    52.25815900
H       62.54642100    30.05215000    52.57836100
38
-2 1 -837.3194291724575
C       53.15483832    33.54753640    58.18091285
H       52.43321022    33.47184392    57.36346791
H       53.49262266    34.53083815    58.50741447
C       53.62462357    32.40726441    58.79260099
C       54.66476942    32.61237246    59.90845211
O       55.18454219    33.75526713    60.08384542
O       55.00418746    31.58208701    60.57633561
O       53.30283612    31.19868866    58.50261184
C       55.40077930    29.44038882    58.24009736
H       54.51343075    29.94281564    58.67854994
C       56.67576774    29.78190486    58.62174101
H       56.84153545    30.54543671    59.38675403
C       57.81614070    29.15229565    58.09812827
C       57.69439737    28.14360926    57.10162879
H       58.59357096    27.64081455    56.73875060
C       56.45414403    27.81426260    56.62364731
H       56.31913397    27.06687195    55.83592230
C       55.24453582    28.55192362    57.06507141
H       55.26010440    29.35076582    56.25194204
O       54.07713926    27.79513645    56.98689817
H       53.31720487    28.39563078    57.03755570
C       59.18108698    29.50800855    58.69206962
O       59.25603217    30.64983316    59.26972228
O       60.07037972    28.66887311    58.58728169
C       57.49940000    32.31300000    60.99950000
N       57.64997700    32.69822000    59.73544600
H       57.33946000    33.36072200    60.43170000
H       57.84614600    31.74318200    59.99911300
N       57.09050100    33.18540400    61.91634900
H       57.28667000    32.23036600    62.18001600
H       57.20484900    33.47794000    60.95642800
N       57.75772100    31.05537600    61.34670500
H       57.87207000    31.34791100    60.38678400
H       57.44720400    31.71787800    62.04295900
C       63.00440000    29.11630000    52.22560000
O       64.18822500    29.17807600    51.82906300
O       62.29311600    28.08891700    52.25815900
H       62.54642100    30.05215000    52.57836100
38
-2 1 -837.3195325326202
C       53.11357976    33.60747805    58.23249988
H       52.36575323    33.55024450    57.43730666
H       53.47978853    34.58229793    58.55379975
C       53.58555956    32.45224275    58.81808161
C       54.66261292    32.63430898    59.90302938
O       55.19639574    33.77081356    60.07915112
O       55.01131997    31.59213343    60.54755188
O       53.23767908    31.25339787    58.52903585
C       55.40986557    29.43844826    58.19755313
H       54.52022226    29.95862842    58.61100233
C       56.67825392    29.77557931    58.59892240
H       56.83471272    30.54524659    59.35867045
C       57.82523999    29.13563338    58.09695484
C       57.71265854    28.11227015    57.11626086
H       58.61521939    27.60272812    56.77183385
C       56.47642212    27.77336549    56.63239217
H       56.34888535    27.00652368    55.86233303
C       55.26347290    28.52149908    57.04258725
H       55.28785284    29.29942049    56.20882635
O       54.09796174    27.76142893    56.97231008
H       53.33514585    28.35937437    57.00535608
C       59.18558115    29.50289759    58.69434213
O       59.25060921    30.64762090    59.26744812
O       60.08222119    28.67088785    58.59415257
C       57.49940000    32.31300000    60.99950000
N       57.64997700    32.69822000    59.73544600
H       57.33946000    33.36072200    60.43170000
H       57.84614600    31.74318200    59.99911300
N       57.09050100    33.18540400    61.91634900
H       57.28667000    32.23036600    62.18001600
H       57.20484900    33.47794000    60.95642800
N       57.75772100    31.05537600    61.34670500
H       57.87207000    31.34791100    60.38678400
H       57.44720400    31.71787800    62.04295900
C       63.00440000    29.11630000    52.22560000
O       64.18822500    29.17807600    51.82906300
O       62.29311600    28.08891700    52.25815900
H       62.54642100    30.05215000    52.57836100
38
-2 1 -837.3191999975107
C       53.08227748    33.66952165    58.27640915
H       52.31354463    33.62974772    57.50016372
H       53.47035001    34.63613278    58.59659870
C       53.55387007    32.50028870    58.83848370
C       54.65954898    32.65873225    59.89972244
O       55.20641092    33.78874345    60.07817492
O       55.01422435    31.60573505    60.52309999
O       53.18182148    31.31212682    58.54662547
C       55.41690003    29.42486355    58.16559743
H       54.52502714    29.95034524    58.56264880
C       56.67819990    29.76535624    58.58156642
H       56.82384733    30.54049254    59.33700202
C       57.83226580    29.12227986    58.09473939
C       57.73032679    28.08937337    57.12413708
H       58.63740357    27.57929490    56.79277186
C       56.49880760    27.73917229    56.63535662
H       56.38012923    26.95936698    55.87703832
C       55.27955868    28.48871262    57.02339960
H       55.29971399    29.24883394    56.17393239
O       54.12044219    27.71683359    56.96559923
H       53.35164273    28.30777960    56.97441290
C       59.18739139    29.49993158    58.69622570
O       59.24336444    30.64743167    59.26455092
O       60.08994489    28.67337334    58.60314510
C       57.49940000    32.31300000    60.99950000
N       57.64997700    32.69822000    59.73544600
H       57.33946000    33.36072200    60.43170000
H       57.84614600    31.74318200    59.99911300
N       57.09050100    33.18540400    61.91634900
H       57.28667000    32.23036600    62.18001600
H       57.20484900    33.47794000    60.95642800
N       57.75772100    31.05537600    61.34670500
H       57.87207000    31.34791100    60.38678400
H       57.44720400    31.71787800    62.04295900
C       63.00440000    29.11630000    52.22560000
O       64.18822500    29.17807600    51.82906300
O       62.29311600    28.08891700    52.25815900
H       62.54642100    30.05215000    52.57836100
38
-2 1 -837.318910754288
C       53.06267591    33.70202200    58.30109103
H       52.28239295    33.67237684    57.53594654
H       53.46148775    34.66386852    58.62242101
C       53.53669007    32.52466184    58.84607689
C       54.65836218    32.66920518    59.89293764
O       55.21230832    33.79534201    60.07425500
O       55.01685451    31.60892186    60.50168011
O       53.15412949    31.34201368    58.55018541
C       55.42158467    29.41867833    58.15085670
H       54.52989459    29.94893806    58.53957083
C       56.67978963    29.75935831    58.57401376
H       56.82106109    30.53710307    59.32721490
C       57.83669427    29.11419058    58.09463306
C       57.73924858    28.07646093    57.12928540
H       58.64779987    27.56501209    56.80419213
C       56.50962702    27.72196704    56.63823939
H       56.39437923    26.93528780    55.88653029
C       55.28799245    28.47330311    57.01506012
H       55.30759673    29.22508597    56.15841936
O       54.13128299    27.69715357    56.96233864
H       53.36023872    28.28514306    56.95887141
C       59.18926194    29.49733379    58.69769971
O       59.24033743    30.64687076    59.26233439
O       60.09532329    28.67417135    58.60754819
C       57.49940000    32.31300000    60.99950000
N       57.64997700    32.69822000    59.73544600
H       57.33946000    33.36072200    60.43170000
H       57.84614600    31.74318200    59.99911300
N       57.09050100    33.18540400    61.91634900
H       57.28667000    32.23036600    62.18001600
H       57.20484900    33.47794000    60.95642800
N       57.75772100    31.05537600    61.34670500
H       57.87207000    31.34791100    60.38678400
H       57.44720400    31.71787800    62.04295900
C       63.00440000    29.11630000    52.22560000
O       64.18822500    29.17807600    51.82906300
O       62.29311600    28.08891700    52.25815900
H       62.54642100    30.05215000    52.57836100
