24
Coordinates from ORCA-job neb_MEP.QMRegion E -1076.293184671505
  C      52.516000     31.217000     62.859000
  H      52.971000     30.263000     63.125000
  H      53.147000     32.103000     62.809000
  C      51.212000     31.323000     62.581000
  C      50.536000     32.655000     62.297000
  O      51.258000     33.649000     61.991000
  O      49.288000     32.685000     62.384000
  O      50.351000     30.238000     62.620000
  C      50.321000     29.335000     61.472000
  H      49.452000     28.689000     61.661000
  C      51.573000     28.512000     61.478000
  H      51.666000     27.715000     62.218000
  C      52.600000     28.790000     60.653000
  C      52.455000     29.879000     59.677000
  H      53.358000     30.181000     59.144000
  C      51.284000     30.500000     59.450000
  H      51.212000     31.299000     58.703000
  C      50.016000     30.085000     60.151000
  H      49.430000     30.976000     60.438000
  O      49.267000     29.275000     59.257000
  H      48.282000     29.425000     59.373000
  C      53.896000     27.987000     60.691000
  O      54.092000     27.196000     61.658000
  O      54.676000     28.151000     59.718000
24
Coordinates from ORCA-job neb_MEP.QMRegion E -1076.296303732683
  C      52.529585     31.183858     62.830388
  H      52.977726     30.224400     63.088064
  H      53.171509     32.060333     62.757794
  C      51.221901     31.302902     62.577393
  C      50.548984     32.638283     62.302421
  O      51.269385     33.630189     61.985356
  O      49.303458     32.674440     62.409254
  O      50.353507     30.224299     62.627908
  C      50.306548     29.322919     61.476778
  H      49.435904     28.681860     61.673540
  C      51.557153     28.499188     61.471117
  H      51.650364     27.695131     62.202454
  C      52.585678     28.794725     60.655487
  C      52.436199     29.893155     59.688983
  H      53.337275     30.211099     59.163330
  C      51.260332     30.504642     59.462582
  H      51.181263     31.306800     58.720014
  C      49.994850     30.079572     60.162213
  H      49.407019     30.967763     60.453601
  O      49.246268     29.270848     59.264522
  H      48.262383     29.425275     59.377819
  C      53.889251     28.003225     60.697947
  O      54.089320     27.211972     61.662710
  O      54.671602     28.172424     59.727496
24
Coordinates from ORCA-job neb_MEP.QMRegion E -1076.298700076298
  C      52.541707     31.149305     62.802222
  H      52.982038     30.184962     63.054737
  H      53.194751     32.015405     62.705996
  C      51.230817     31.281340     62.572373
  C      50.563162     32.620533     62.305211
  O      51.283196     33.610307     61.980416
  O      49.319323     32.663149     62.426340
  O      50.354358     30.209350     62.633876
  C      50.290663     29.310431     61.480562
  H      49.419198     28.673106     61.684018
  C      51.540238     28.486858     61.463695
  H      51.635890     27.675449     62.186160
  C      52.571338     28.800338     60.658117
  C      52.417299     29.907499     59.701145
  H      53.318186     30.242291     59.184946
  C      51.236241     30.509075     59.473785
  H      51.150727     31.313940     58.734421
  C      49.973018     30.073231     60.171423
  H      49.383523     30.958036     60.470067
  O      49.225544     29.268373     59.269879
  H      48.241184     29.426525     59.379630
  C      53.882118     28.020069     60.704147
  O      54.085756     27.227960     61.667739
  O      54.665827     28.197909     59.736591
24
Coordinates from ORCA-job neb_MEP.QMRegion E -1076.301686007749
  C      52.554084     31.112401     62.773739
  H      52.986030     30.143324     63.022619
  H      53.218253     31.966950     62.652034
  C      51.240523     31.258495     62.567611
  C      50.578467     32.601383     62.307411
  O      51.298359     33.589001     61.975493
  O      49.336533     32.650594     62.443794
  O      50.355842     30.193682     62.640612
  C      50.274143     29.297589     61.484246
  H      49.401762     28.663982     61.695058
  C      51.522706     28.474024     61.454919
  H      51.621242     27.655453     62.168797
  C      52.556080     28.806193     60.659893
  C      52.396869     29.922152     59.712984
  H      53.297259     30.274632     59.207355
  C      51.210765     30.513864     59.485042
  H      51.118286     31.321587     58.749372
  C      49.950046     30.067018     60.180672
  H      49.358869     30.948174     60.487366
  O      49.203464     29.265432     59.275782
  H      48.218680     29.428069     59.381911
  C      53.874214     28.038257     60.710846
  O      54.081442     27.246121     61.673891
  O      54.659647     28.225089     59.746699
24
Coordinates from ORCA-job neb_MEP.QMRegion E -1076.304150761684
  C      52.588242     31.022645     62.716844
  H      53.010620     30.057510     62.997580
  H      53.275477     31.841520     62.501994
  C      51.269231     31.196625     62.557327
  C      50.620896     32.549039     62.305740
  O      51.340915     33.533755     61.966851
  O      49.382466     32.613919     62.470421
  O      50.365081     30.148565     62.654208
  C      50.237627     29.261919     61.481129
  H      49.365648     28.630689     61.705029
  C      51.487686     28.451923     61.434412
  H      51.597028     27.622906     62.133977
  C      52.529866     28.844691     60.681089
  C      52.355883     29.968558     59.744716
  H      53.252867     30.357845     59.260072
  C      51.154319     30.519426     59.495971
  H      51.042009     31.311618     58.746151
  C      49.900011     30.050232     60.188248
  H      49.311019     30.922732     60.521470
  O      49.147691     29.269201     59.269729
  H      48.162162     29.444459     59.369111
  C      53.858046     28.102310     60.746439
  O      54.073082     27.312936     61.710046
  O      54.640277     28.296837     59.782240
24
Coordinates from ORCA-job neb_MEP.QMRegion E -1076.292123094262
  C      52.639187     30.916744     62.656407
  H      53.055604     29.978939     63.027179
  H      53.345577     31.670426     62.297975
  C      51.310813     31.122963     62.558833
  C      50.677094     32.485298     62.297464
  O      51.396183     33.467982     61.954743
  O      49.439973     32.568019     62.477475
  O      50.393703     30.098249     62.691721
  C      50.193376     29.195318     61.444441
  H      49.322741     28.572432     61.699360
  C      51.450099     28.433114     61.407211
  H      51.577454     27.597750     62.093883
  C      52.505730     28.926075     60.734103
  C      52.312322     30.039371     59.787504
  H      53.204509     30.467132     59.325117
  C      51.091278     30.517038     59.489572
  H      50.953401     31.266173     58.700546
  C      49.844520     30.023810     60.176967
  H      49.267482     30.883973     60.555808
  O      49.075820     29.292018     59.230993
  H      48.089509     29.480103     59.329723
  C      53.840157     28.206306     60.814477
  O      54.062680     27.421387     61.778446
  O      54.607638     28.390958     59.837812
24
Coordinates from ORCA-job neb_MEP.QMRegion E -1076.275094861438
  C      52.664168     30.904562     62.628577
  H      53.069395     29.993287     63.068512
  H      53.370836     31.638643     62.238989
  C      51.319715     31.137295     62.614641
  C      50.682036     32.499719     62.305460
  O      51.398723     33.479516     61.948925
  O      49.441696     32.577971     62.466141
  O      50.446269     30.152540     62.833610
  C      50.170268     29.099208     61.343452
  H      49.295720     28.531186     61.682643
  C      51.432503     28.437181     61.404810
  H      51.569281     27.607545     62.095373
  C      52.513074     28.988673     60.786168
  C      52.316183     30.064171     59.800930
  H      53.209442     30.478678     59.329544
  C      51.091453     30.512738     59.477010
  H      50.952765     31.258745     58.686955
  C      49.844076     30.005052     60.149536
  H      49.278838     30.855045     60.565749
  O      49.065851     29.313691     59.180939
  H      48.077871     29.484343     59.309513
  C      53.837433     28.235731     60.840683
  O      54.055421     27.429916     61.786199
  O      54.586138     28.401333     59.845802
24
Coordinates from ORCA-job neb_MEP.QMRegion E -1076.269031447784
  C      52.690580     30.855001     62.561911
  H      53.088943     30.004033     63.111712
  H      53.390338     31.600213     62.179469
  C      51.322902     31.140737     62.660782
  C      50.684557     32.512065     62.314404
  O      51.402650     33.485260     61.946679
  O      49.445383     32.585858     62.468274
  O      50.496551     30.233294     62.998407
  C      50.150967     28.986538     61.222485
  H      49.279177     28.491890     61.652850
  C      51.407224     28.450911     61.413354
  H      51.559956     27.623189     62.104057
  C      52.527305     29.069801     60.853128
  C      52.319943     30.084698     59.810910
  H      53.213314     30.488890     59.332782
  C      51.092128     30.506305     59.467639
  H      50.952485     31.251705     58.678137
  C      49.845738     29.983954     60.127956
  H      49.287682     30.828252     60.572699
  O      49.057237     29.335141     59.137101
  H      48.070506     29.487125     59.294613
  C      53.836903     28.263700     60.864376
  O      54.048270     27.436234     61.791030
  O      54.566714     28.409883     59.852550
24
Coordinates from ORCA-job neb_MEP.QMRegion E -1076.286713260153
  C      52.702896     30.616146     62.330448
  H      53.093386     30.026472     63.168411
  H      53.383746     31.444140     62.066714
  C      51.319842     31.098406     62.643873
  C      50.697570     32.509255     62.316646
  O      51.423516     33.472402     61.951372
  O      49.463686     32.582542     62.481887
  O      50.530372     30.303203     63.134709
  C      50.149649     28.906771     61.141297
  H      49.278433     28.427534     61.591096
  C      51.390586     28.494212     61.442456
  H      51.560831     27.655633     62.119113
  C      52.571253     29.300177     61.052708
  C      52.324462     30.135934     59.835812
  H      53.213371     30.513707     59.328896
  C      51.092900     30.503482     59.465714
  H      50.945315     31.216701     58.647500
  C      49.843348     29.968861     60.117804
  H      49.289878     30.808307     60.582035
  O      49.051961     29.366357     59.101282
  H      48.068202     29.493489     59.284875
  C      53.835127     28.340499     60.920489
  O      54.035104     27.470801     61.809294
  O      54.517658     28.444475     59.871308
24
Coordinates from ORCA-job neb_MEP.QMRegion E -1076.309957815657
  C      52.737000     30.513000     62.266000
  H      53.203000     30.023000     63.135000
  H      53.399000     31.305000     61.887000
  C      51.399000     31.055000     62.741000
  C      50.765000     32.443000     62.355000
  O      51.490000     33.394000     61.976000
  O      49.526000     32.512000     62.492000
  O      50.712000     30.344000     63.445000
  C      50.104000     28.765000     60.988000
  H      49.261000     28.132000     61.276000
  C      51.327000     28.531000     61.469000
  H      51.509000     27.712000     62.166000
  C      52.511000     29.405000     61.137000
  C      52.258000     30.196000     59.878000
  H      53.136000     30.650000     59.416000
  C      51.032000     30.439000     59.405000
  H      50.889000     31.074000     58.523000
  C      49.779000     29.879000     60.026000
  H      49.263000     30.699000     60.571000
  O      48.940000     29.401000     58.990000
  H      47.969000     29.566000     59.196000
  C      53.773000     28.451000     60.989000
  O      54.004000     27.619000     61.904000
  O      54.437000     28.544000     59.929000
