24
Coordinates from ORCA-job neb_initial_path.QMRegion E   0.000000000000
  C      52.516000     31.217000     62.859000
  H      52.971000     30.263000     63.125000
  H      53.147000     32.103000     62.809000
  C      51.212000     31.323000     62.581000
  C      50.536000     32.655000     62.297000
  O      51.258000     33.649000     61.991000
  O      49.288000     32.685000     62.384000
  O      50.351000     30.238000     62.620000
  C      50.321000     29.335000     61.472000
  H      49.452000     28.689000     61.661000
  C      51.573000     28.512000     61.478000
  H      51.666000     27.715000     62.218000
  C      52.600000     28.790000     60.653000
  C      52.455000     29.879000     59.677000
  H      53.358000     30.181000     59.144000
  C      51.284000     30.500000     59.450000
  H      51.212000     31.299000     58.703000
  C      50.016000     30.085000     60.151000
  H      49.430000     30.976000     60.438000
  O      49.267000     29.275000     59.257000
  H      48.282000     29.425000     59.373000
  C      53.896000     27.987000     60.691000
  O      54.092000     27.196000     61.658000
  O      54.676000     28.151000     59.718000
24
Coordinates from ORCA-job neb_initial_path.QMRegion E   0.000000000000
  C      52.532000     31.160333     62.806000
  H      52.978333     30.212500     63.097000
  H      53.175000     32.031500     62.721333
  C      51.224000     31.295333     62.579167
  C      50.555667     32.633500     62.297500
  O      51.277500     33.625500     61.984833
  O      49.309333     32.672167     62.399000
  O      50.356000     30.228667     62.647833
  C      50.300500     29.306167     61.459667
  H      49.430500     28.672167     61.669667
  C      51.554667     28.504333     61.471333
  H      51.652833     27.697667     62.198500
  C      52.591167     28.828667     60.683667
  C      52.437167     29.910500     59.700333
  H      53.338667     30.224167     59.172667
  C      51.258167     30.506333     59.459500
  H      51.176333     31.296333     58.705000
  C      49.993000     30.078167     60.156667
  H      49.406333     30.963333     60.458000
  O      49.244500     29.278500     59.253333
  H      48.258833     29.429000     59.369333
  C      53.888333     28.023667     60.713667
  O      54.086500     27.224500     61.672667
  O      54.661000     28.187167     59.735333
24
Coordinates from ORCA-job neb_initial_path.QMRegion E   0.000000000000
  C      52.548000     31.103667     62.753000
  H      52.985667     30.162000     63.069000
  H      53.203000     31.960000     62.633667
  C      51.236000     31.267667     62.577333
  C      50.575333     32.612000     62.298000
  O      51.297000     33.602000     61.978667
  O      49.330667     32.659333     62.414000
  O      50.361000     30.219333     62.675667
  C      50.280000     29.277333     61.447333
  H      49.409000     28.655333     61.678333
  C      51.536333     28.496667     61.464667
  H      51.639667     27.680333     62.179000
  C      52.582333     28.867333     60.714333
  C      52.419333     29.942000     59.723667
  H      53.319333     30.267333     59.201333
  C      51.232333     30.512667     59.469000
  H      51.140667     31.293667     58.707000
  C      49.970000     30.071333     60.162333
  H      49.382667     30.950667     60.478000
  O      49.222000     29.282000     59.249667
  H      48.235667     29.433000     59.365667
  C      53.880667     28.060333     60.736333
  O      54.081000     27.253000     61.687333
  O      54.646000     28.223333     59.752667
24
Coordinates from ORCA-job neb_initial_path.QMRegion E   0.000000000000
  C      52.564000     31.047000     62.700000
  H      52.993000     30.111500     63.041000
  H      53.231000     31.888500     62.546000
  C      51.248000     31.240000     62.575500
  C      50.595000     32.590500     62.298500
  O      51.316500     33.578500     61.972500
  O      49.352000     32.646500     62.429000
  O      50.366000     30.210000     62.703500
  C      50.259500     29.248500     61.435000
  H      49.387500     28.638500     61.687000
  C      51.518000     28.489000     61.458000
  H      51.626500     27.663000     62.159500
  C      52.573500     28.906000     60.745000
  C      52.401500     29.973500     59.747000
  H      53.300000     30.310500     59.230000
  C      51.206500     30.519000     59.478500
  H      51.105000     31.291000     58.709000
  C      49.947000     30.064500     60.168000
  H      49.359000     30.938000     60.498000
  O      49.199500     29.285500     59.246000
  H      48.212500     29.437000     59.362000
  C      53.873000     28.097000     60.759000
  O      54.075500     27.281500     61.702000
  O      54.631000     28.259500     59.770000
24
Coordinates from ORCA-job neb_initial_path.QMRegion E   0.000000000000
  C      52.580000     30.990333     62.647000
  H      53.000333     30.061000     63.013000
  H      53.259000     31.817000     62.458333
  C      51.260000     31.212333     62.573667
  C      50.614667     32.569000     62.299000
  O      51.336000     33.555000     61.966333
  O      49.373333     32.633667     62.444000
  O      50.371000     30.200667     62.731333
  C      50.239000     29.219667     61.422667
  H      49.366000     28.621667     61.695667
  C      51.499667     28.481333     61.451333
  H      51.613333     27.645667     62.140000
  C      52.564667     28.944667     60.775667
  C      52.383667     30.005000     59.770333
  H      53.280667     30.353667     59.258667
  C      51.180667     30.525333     59.488000
  H      51.069333     31.288333     58.711000
  C      49.924000     30.057667     60.173667
  H      49.335333     30.925333     60.518000
  O      49.177000     29.289000     59.242333
  H      48.189333     29.441000     59.358333
  C      53.865333     28.133667     60.781667
  O      54.070000     27.310000     61.716667
  O      54.616000     28.295667     59.787333
24
Coordinates from ORCA-job neb_initial_path.QMRegion E   0.000000000000
  C      52.596000     30.933667     62.594000
  H      53.007667     30.010500     62.985000
  H      53.287000     31.745500     62.370667
  C      51.272000     31.184667     62.571833
  C      50.634333     32.547500     62.299500
  O      51.355500     33.531500     61.960167
  O      49.394667     32.620833     62.459000
  O      50.376000     30.191333     62.759167
  C      50.218500     29.190833     61.410333
  H      49.344500     28.604833     61.704333
  C      51.481333     28.473667     61.444667
  H      51.600167     27.628333     62.120500
  C      52.555833     28.983333     60.806333
  C      52.365833     30.036500     59.793667
  H      53.261333     30.396833     59.287333
  C      51.154833     30.531667     59.497500
  H      51.033667     31.285667     58.713000
  C      49.901000     30.050833     60.179333
  H      49.311667     30.912667     60.538000
  O      49.154500     29.292500     59.238667
  H      48.166167     29.445000     59.354667
  C      53.857667     28.170333     60.804333
  O      54.064500     27.338500     61.731333
  O      54.601000     28.331833     59.804667
24
Coordinates from ORCA-job neb_initial_path.QMRegion E   0.000000000000
  C      52.612000     30.877000     62.541000
  H      53.015000     29.960000     62.957000
  H      53.315000     31.674000     62.283000
  C      51.284000     31.157000     62.570000
  C      50.654000     32.526000     62.300000
  O      51.375000     33.508000     61.954000
  O      49.416000     32.608000     62.474000
  O      50.381000     30.182000     62.787000
  C      50.198000     29.162000     61.398000
  H      49.323000     28.588000     61.713000
  C      51.463000     28.466000     61.438000
  H      51.587000     27.611000     62.101000
  C      52.547000     29.022000     60.837000
  C      52.348000     30.068000     59.817000
  H      53.242000     30.440000     59.316000
  C      51.129000     30.538000     59.507000
  H      50.998000     31.283000     58.715000
  C      49.878000     30.044000     60.185000
  H      49.288000     30.900000     60.558000
  O      49.132000     29.296000     59.235000
  H      48.143000     29.449000     59.351000
  C      53.850000     28.207000     60.827000
  O      54.059000     27.367000     61.746000
  O      54.586000     28.368000     59.822000
24
Coordinates from ORCA-job neb_initial_path.QMRegion E   0.000000000000
  C      52.653667     30.755667     62.449333
  H      53.077667     29.981000     63.016333
  H      53.343000     31.551000     62.151000
  C      51.322333     31.123000     62.627000
  C      50.691000     32.498333     62.318333
  O      51.413333     33.470000     61.961333
  O      49.452667     32.576000     62.480000
  O      50.491333     30.236000     63.006333
  C      50.166667     29.029667     61.261333
  H      49.302333     28.436000     61.567333
  C      51.417667     28.487667     61.448333
  H      51.561000     27.644667     62.122667
  C      52.535000     29.149667     60.937000
  C      52.318000     30.110667     59.837333
  H      53.206667     30.510000     59.349333
  C      51.096667     30.505000     59.473000
  H      50.961667     31.213333     58.651000
  C      49.845000     29.989000     60.132000
  H      49.279667     30.833000     60.562333
  O      49.068000     29.331000     59.153333
  H      48.085000     29.488000     59.299333
  C      53.824333     28.288333     60.881000
  O      54.040667     27.451000     61.798667
  O      54.536333     28.426667     59.857667
24
Coordinates from ORCA-job neb_initial_path.QMRegion E   0.000000000000
  C      52.695333     30.634333     62.357667
  H      53.140333     30.002000     63.075667
  H      53.371000     31.428000     62.019000
  C      51.360667     31.089000     62.684000
  C      50.728000     32.470667     62.336667
  O      51.451667     33.432000     61.968667
  O      49.489333     32.544000     62.486000
  O      50.601667     30.290000     63.225667
  C      50.135333     28.897333     61.124667
  H      49.281667     28.284000     61.421667
  C      51.372333     28.509333     61.458667
  H      51.535000     27.678333     62.144333
  C      52.523000     29.277333     61.037000
  C      52.288000     30.153333     59.857667
  H      53.171333     30.580000     59.382667
  C      51.064333     30.472000     59.439000
  H      50.925333     31.143667     58.587000
  C      49.812000     29.934000     60.079000
  H      49.271333     30.766000     60.566667
  O      49.004000     29.366000     59.071667
  H      48.027000     29.527000     59.247667
  C      53.798667     28.369667     60.935000
  O      54.022333     27.535000     61.851333
  O      54.486667     28.485333     59.893333
24
Coordinates from ORCA-job neb_initial_path.QMRegion E   0.000000000000
  C      52.737000     30.513000     62.266000
  H      53.203000     30.023000     63.135000
  H      53.399000     31.305000     61.887000
  C      51.399000     31.055000     62.741000
  C      50.765000     32.443000     62.355000
  O      51.490000     33.394000     61.976000
  O      49.526000     32.512000     62.492000
  O      50.712000     30.344000     63.445000
  C      50.104000     28.765000     60.988000
  H      49.261000     28.132000     61.276000
  C      51.327000     28.531000     61.469000
  H      51.509000     27.712000     62.166000
  C      52.511000     29.405000     61.137000
  C      52.258000     30.196000     59.878000
  H      53.136000     30.650000     59.416000
  C      51.032000     30.439000     59.405000
  H      50.889000     31.074000     58.523000
  C      49.779000     29.879000     60.026000
  H      49.263000     30.699000     60.571000
  O      48.940000     29.401000     58.990000
  H      47.969000     29.566000     59.196000
  C      53.773000     28.451000     60.989000
  O      54.004000     27.619000     61.904000
  O      54.437000     28.544000     59.929000
