24
frame 36665 P, aligned onto 20000 on 8 atoms
C      48.15631350    28.34434916    56.06577833
H      49.01780898    27.69705424    56.28179645
H      48.26024883    29.30173466    56.59291442
C      46.91321547    27.60711839    56.50261021
C      45.69803254    28.37078363    57.11265270
O      45.89071091    29.53273797    57.54500344
O      44.61299609    27.75539265    57.12913995
O      46.82866591    26.40797033    56.31796653
C      46.67400513    26.95041576    53.30512087
H      46.55489714    25.99093276    52.80250805
C      47.86931838    27.35152763    53.74680006
H      48.76036029    26.73856675    53.59142865
C      48.07895671    28.63012043    54.50512600
C      46.90606110    29.56742479    54.33500425
H      47.07287234    30.59140241    54.67234806
C      45.70480777    29.15985297    53.91870190
H      44.85379198    29.84357925    53.94422660
C      45.41463271    27.76303897    53.43782972
H      44.74800697    27.28326584    54.17905159
O      44.76690902    27.80114551    52.17185819
H      43.81789069    27.46434491    52.23817986
C      49.42960738    29.31712888    54.10803261
O      50.36621821    28.61025169    53.65459376
O      49.47954769    30.55166539    54.28554482
