24
frame 36665 R, aligned onto 20000 on 8 atoms
C      48.04142746    27.93595149    56.87775219
H      48.90131469    27.37343106    56.51698811
H      48.19405373    28.73945786    57.59956084
C      46.79537920    27.66159230    56.47750629
C      45.58931032    28.39926079    57.04472236
O      45.78790196    29.50970607    57.60559100
O      44.47167155    27.83938366    56.93723663
O      46.53487949    26.64341082    55.57696902
C      46.55189866    26.95853414    54.13430668
H      46.35932199    25.98840758    53.65497623
C      47.90844966    27.48532386    53.77772434
H      48.73946912    26.79205586    53.63152197
C      48.14710226    28.81129106    53.81296533
C      47.03256240    29.74599578    54.02345999
H      47.30744532    30.78825498    54.19206940
C      45.75281711    29.33718823    54.02808339
H      44.93835164    30.04379660    54.20165363
C      45.38691122    27.89966380    53.76698496
H      44.54704212    27.63024989    54.42170401
O      45.03118588    27.72974246    52.39744043
H      44.08928007    27.38927758    52.33295696
C      49.55699833    29.38668497    53.77213754
O      50.53363641    28.63156497    53.51198980
O      49.62593802    30.60927948    54.04511918
