24
frame 36665 TS, aligned onto 20000 on 8 atoms
C      48.13141079    28.16894546    56.50625880
H      48.98717519    27.54645090    56.26163217
H      48.29721486    29.12059482    57.01013601
C      46.85187763    27.63017331    56.44985318
C      45.65235463    28.40063542    57.03283301
O      45.85723125    29.52978982    57.55410117
O      44.53490248    27.83783523    56.96927981
O      46.61032384    26.54249820    55.81926156
C      46.56385448    26.92330888    53.72265626
H      46.37770964    25.88113205    53.45712527
C      47.85252257    27.43079900    53.66807267
H      48.71327586    26.78772721    53.47870156
C      48.08577668    28.74106465    54.08107969
C      46.95435452    29.66112534    54.22283253
H      47.19635854    30.68469602    54.51106683
C      45.69167999    29.24997075    54.02723876
H      44.85167895    29.93521780    54.15442209
C      45.35944264    27.83650788    53.64144280
H      44.58364124    27.47036630    54.32805406
O      44.89074949    27.79745847    52.29275050
H      43.94903734    27.43349887    52.26599893
C      49.48790550    29.33916884    53.98642336
O      50.44044244    28.60774489    53.60406452
O      49.56778063    30.55796475    54.25551581
