24
frame 44388 P, aligned onto 20000 on 8 atoms
C      48.04942654    28.07323756    56.04783023
H      48.94417469    27.44887739    56.17684618
H      48.04328491    28.90970679    56.74592442
C      46.84556187    27.28149695    56.44845807
C      45.61075724    28.02201602    57.06436474
O      45.75450381    29.21250004    57.44157256
O      44.56859213    27.33614077    57.14872722
O      46.81395843    26.07227844    56.34099260
C      46.54879315    26.94001063    53.32589688
H      46.37509679    25.98764780    52.82195976
C      47.77201615    27.29764105    53.71841946
H      48.63424935    26.64484058    53.58203961
C      48.01781148    28.54490085    54.52963254
C      46.90962924    29.54453069    54.34692704
H      47.14238032    30.57838871    54.60080402
C      45.68834156    29.19653793    53.93681554
H      44.88669437    29.93830791    53.87413318
C      45.32400901    27.78622617    53.55144749
H      44.72991893    27.34369889    54.37834989
O      44.54212671    27.82053170    52.37010325
H      43.74401390    27.22041248    52.45678576
C      49.41545647    29.15154530    54.15425540
O      50.41552485    28.41191280    54.28570883
O      49.47908263    30.35972874    53.79773545
