24
frame 44388 R, aligned onto 20000 on 8 atoms
C      47.99999499    27.96596122    56.87087355
H      48.89941043    27.51988429    56.44216708
H      48.10307702    28.76576486    57.60302397
C      46.77394221    27.59645342    56.49307918
C      45.51721524    28.18894995    57.09994504
O      45.58433782    29.35046390    57.58776254
O      44.49322281    27.46408731    57.07841259
O      46.57006947    26.59166461    55.56736143
C      46.54639304    26.96984318    54.14504171
H      46.34478593    26.02063272    53.62918603
C      47.90606698    27.49863029    53.82641345
H      48.73946168    26.79653873    53.80301028
C      48.14962997    28.82352110    53.82318534
C      47.03827472    29.77321961    53.93155165
H      47.30286016    30.82941675    54.00872113
C      45.75609823    29.36985176    53.97953965
H      44.94888177    30.09908398    54.08641786
C      45.36952539    27.91981604    53.83182760
H      44.57104817    27.67648790    54.55339433
O      44.91068597    27.70917110    52.50075506
H      44.08011860    27.14910361    52.51973557
C      49.57793753    29.33123618    53.89285515
O      50.46898670    28.50747073    54.20676256
O      49.77435976    30.56715977    53.72897655
