24
frame 44388 TS, aligned onto 20000 on 8 atoms
C      48.08035055    27.99475125    56.54619337
H      48.97070303    27.42753995    56.28067240
H      48.16795982    28.86403434    57.18828999
C      46.82301331    27.39535747    56.49056320
C      45.58852841    28.10667818    57.08595575
O      45.70068243    29.29364535    57.49891933
O      44.53903670    27.42225279    57.12468571
O      46.62963210    26.31733442    55.86214433
C      46.54766270    26.86282831    53.66245864
H      46.37043826    25.83210089    53.35166014
C      47.82797671    27.34861476    53.74755745
H      48.68920008    26.69273082    53.62905475
C      48.05600895    28.65988830    54.20866918
C      46.93205811    29.59616189    54.23847262
H      47.16171158    30.63940613    54.45563126
C      45.67417959    29.18682056    54.00883729
H      44.84351081    29.89632661    54.03818252
C      45.32994616    27.75677675    53.69393477
H      44.65018322    27.38198827    54.47938298
O      44.68742902    27.70450719    52.42478693
H      43.85161798    27.14989351    52.48385290
C      49.47478867    29.21374504    54.08494635
O      50.43387368    28.43147664    54.26099277
O      49.59920504    30.44159066    53.81749401
