88
Image 0. Energy: -22847.183048098876 
C  62.52631098090906 34.88653383690518 62.17302541253804
H  62.23246208997529 35.27374405641907 61.19475278126908
H  63.44256694850283 35.24764234621767 62.64066954551684
C  61.781463954909654 33.94897873845402 62.77337932006426
C  62.170936243290775 33.321304858756164 64.09756067547593
O  63.36691811932024 33.483643997348416 64.49810996611507
O  61.324521405602155 32.632900938984335 64.7232513433787
O  60.60598402604004 33.5214018848865 62.199823905871646
C  60.6343764194568 32.289776983234916 61.45172975047463
H  59.63642999560154 32.25949649324071 60.97207430986545
C  60.79392341299691 31.09371185229915 62.35102539820469
H  60.50632236144527 31.23422610327273 63.39004010865806
C  61.223861978466765 29.908219569287937 61.87646030330236
C  61.5678406837165 29.775054403211865 60.451774600712305
H  61.725176537118855 28.783492078599366 60.020876553382735
C  61.74696806716595 30.883684919438338 59.70848792100399
H  62.06977677049917 30.817898330931854 58.66367265842039
C  61.65953464961827 32.27102349450619 60.318409087617965
H  62.6652191632561 32.47365283945108 60.752587777501915
O  61.29818798722222 33.281892303020015 59.41140126226993
H  61.93094054541942 33.293995492712654 58.67459515898755
C  61.25280098497299 28.727669750639105 62.81248051385899
O  61.86128317967929 28.829611610554895 63.91622977260421
O  60.620740004820334 27.699324927614448 62.42969072289857
C  55.3465 24.9889 48.8173
O  56.530325 25.050676 48.420763
O  54.635216 23.961517 48.849859
H  54.888521 25.92475 49.170061
C  49.6104 27.3954 60.4376
N  49.760977 27.78062 59.173546
H  49.45046 28.443122 59.8698
H  49.957146 26.825582 59.437213
N  49.201501 28.267804 61.354449
H  49.39767 27.312766 61.618116
H  49.315849 28.56034 60.394528
N  49.868721 26.137776 60.784805
H  49.98307 26.430311 59.824884
H  49.558204 26.800278 61.481059
C  63.9112 25.5724 47.1474
O  65.095025 25.634176 46.750863
O  63.199916 24.545017 47.179959
H  63.453221 26.50825 47.500161
C  58.03 43.7996 62.7024
N  58.180577 44.18482 61.438346
H  57.87006 44.847322 62.1346
H  58.376746 43.229782 61.702013
N  57.621101 44.672004 63.619249
H  57.81727 43.716966 63.882916
H  57.735449 44.96454 62.659328
N  58.288321 42.541976 63.049605
H  58.40267 42.834511 62.089684
H  57.977804 43.204478 63.745859
C  62.442 33.8593 44.2451
O  63.625825 33.921076 43.848563
O  61.730716 32.831917 44.277659
H  61.984021 34.79515 44.597861
C  69.8819 27.171 54.6899
O  71.065725 27.232776 54.293363
O  69.170616 26.143617 54.722459
H  69.423921 28.10685 55.042661
C  70.796 30.775 57.7266
O  71.979825 30.836776 57.330063
O  70.084716 29.747617 57.759159
H  70.338021 31.71085 58.079361
C  66.1877 39.1486 49.2798
O  67.371525 39.210376 48.883263
O  65.476416 38.121217 49.312359
H  65.729721 40.08445 49.632561
C  59.9493 24.8723 62.844
N  60.099877 25.25752 61.579946
H  59.78936 25.920022 62.2762
H  60.296046 24.302482 61.843613
N  59.540401 25.744704 63.760849
H  59.73657 24.789666 64.024516
H  59.654749 26.03724 62.800928
N  60.207621 23.614676 63.191205
H  60.32197 23.907211 62.231284
H  59.897104 24.277178 63.887459
C  63.7885 30.5653 65.2994
N  63.939077 30.95052 64.035346
H  63.62856 31.613022 64.7316
H  64.135246 29.995482 64.299013
N  63.379601 31.437704 66.216249
H  63.57577 30.482666 66.479916
H  63.493949 31.73024 65.256328
N  64.046821 29.307676 65.646605
H  64.16117 29.600211 64.686684
H  63.736304 29.970178 66.342859
88
Image 1. Energy: -22846.92397425472 
C  62.59093546462637 34.43852236288436 61.880768866173774
H  62.34217943685158 34.755816065066895 60.865132358381274
H  63.54602951932534 34.74985627458717 62.30351360321479
C  61.74561577074239 33.68499583168283 62.59912961472521
C  62.059918158363004 33.23366180379279 64.01669433713546
O  63.24141205183478 33.44199142257782 64.45037645006026
O  61.17670614372069 32.643692217807924 64.68078278180168
O  60.51460115204586 33.3298773572859 62.09462730132473
C  60.370666116930025 32.03704828429378 61.46627677784066
H  59.291451190932044 32.00242645202413 61.2421982765854
C  60.667195453002776 30.912990193191362 62.4119490360126
H  60.18040286284177 30.97389202603141 63.38344208223147
C  61.45928975626023 29.862705902136284 62.10316278588504
C  62.18924415553342 29.822596101916716 60.82812195506429
H  62.89968636328811 29.013037614513603 60.637985968391355
C  62.04269235253145 30.806644363286054 59.92114623736527
H  62.63451553843712 30.805908244984007 58.99874203187772
C  61.04425613986159 31.92964994094596 60.07386017038152
H  61.556275987244774 32.88438402227053 59.86158393754639
O  59.9681339972031 31.737842557871698 59.154398811727965
H  60.32058925040108 31.766662325322496 58.24918644148823
C  61.51091456237051 28.72139278015521 63.10230850032804
O  61.710222852145314 29.015172288333115 64.31801475097721
O  61.300817633516715 27.546447597024198 62.684488323464414
C  55.3465 24.9889 48.8173
O  56.530325 25.050676 48.420763
O  54.635216 23.961517 48.849859
H  54.888521 25.92475 49.170061
C  49.6104 27.3954 60.4376
N  49.760977 27.78062 59.173546
H  49.45046 28.443122 59.8698
H  49.957146 26.825582 59.437213
N  49.201501 28.267804 61.354449
H  49.39767 27.312766 61.618116
H  49.315849 28.56034 60.394528
N  49.868721 26.137776 60.784805
H  49.98307 26.430311 59.824884
H  49.558204 26.800278 61.481059
C  63.9112 25.5724 47.1474
O  65.095025 25.634176 46.750863
O  63.199916 24.545017 47.179959
H  63.453221 26.50825 47.500161
C  58.03 43.7996 62.7024
N  58.180577 44.18482 61.438346
H  57.87006 44.847322 62.1346
H  58.376746 43.229782 61.702013
N  57.621101 44.672004 63.619249
H  57.81727 43.716966 63.882916
H  57.735449 44.96454 62.659328
N  58.288321 42.541976 63.049605
H  58.40267 42.834511 62.089684
H  57.977804 43.204478 63.745859
C  62.442 33.8593 44.2451
O  63.625825 33.921076 43.848563
O  61.730716 32.831917 44.277659
H  61.984021 34.79515 44.597861
C  69.8819 27.171 54.6899
O  71.065725 27.232776 54.293363
O  69.170616 26.143617 54.722459
H  69.423921 28.10685 55.042661
C  70.796 30.775 57.7266
O  71.979825 30.836776 57.330063
O  70.084716 29.747617 57.759159
H  70.338021 31.71085 58.079361
C  66.1877 39.1486 49.2798
O  67.371525 39.210376 48.883263
O  65.476416 38.121217 49.312359
H  65.729721 40.08445 49.632561
C  59.9493 24.8723 62.844
N  60.099877 25.25752 61.579946
H  59.78936 25.920022 62.2762
H  60.296046 24.302482 61.843613
N  59.540401 25.744704 63.760849
H  59.73657 24.789666 64.024516
H  59.654749 26.03724 62.800928
N  60.207621 23.614676 63.191205
H  60.32197 23.907211 62.231284
H  59.897104 24.277178 63.887459
C  63.7885 30.5653 65.2994
N  63.939077 30.95052 64.035346
H  63.62856 31.613022 64.7316
H  64.135246 29.995482 64.299013
N  63.379601 31.437704 66.216249
H  63.57577 30.482666 66.479916
H  63.493949 31.73024 65.256328
N  64.046821 29.307676 65.646605
H  64.16117 29.600211 64.686684
H  63.736304 29.970178 66.342859
88
Image 2. Energy: -22846.52742435954 
C  62.41098003345296 34.06354065953936 61.72800628715044
H  62.18385602384823 34.28231309491365 60.68185378277812
H  63.36555947835655 34.39862719307192 62.132524733646015
C  61.5432870432388 33.40379391691245 62.508322284197305
C  61.832541595036616 33.097350894447345 63.973753072764254
O  63.00618253443822 33.36321970653887 64.40382842763012
O  60.94020965408272 32.5733743719653 64.67370725046283
O  60.30739616704692 33.02264095896736 62.02553852536898
C  60.171343473082345 31.711486177990995 61.4373771356333
H  59.085914970703854 31.634740201549654 61.258770578808615
C  60.57403776498596 30.652789590972663 62.41577806607826
H  60.10154950300653 30.69820427848111 63.394886221911804
C  61.52814712466686 29.72754817741628 62.171272214223016
C  62.2430964531966 29.710796797051607 60.886964088157626
H  63.05388174679121 28.99352778484876 60.734687204892126
C  61.94265309770037 30.597520721712968 59.91852184870301
H  62.50657039479481 30.60729055388979 58.978808641908635
C  60.795142137896875 31.57378724578865 60.024706546350714
H  61.13946391827284 32.572271500945725 59.70529519946547
O  59.72413914077002 31.13741438299316 59.18287473915402
H  60.02833970670752 31.16052699802584 58.259899176704266
C  61.80643571857272 28.701309903655737 63.26086336479075
O  61.61035956696465 29.06312835386852 64.46634021718573
O  62.18187009238335 27.54834277444749 62.929094342031945
C  55.3465 24.9889 48.8173
O  56.530325 25.050676 48.420763
O  54.635216 23.961517 48.849859
H  54.888521 25.92475 49.170061
C  49.6104 27.3954 60.4376
N  49.760977 27.78062 59.173546
H  49.45046 28.443122 59.8698
H  49.957146 26.825582 59.437213
N  49.201501 28.267804 61.354449
H  49.39767 27.312766 61.618116
H  49.315849 28.56034 60.394528
N  49.868721 26.137776 60.784805
H  49.98307 26.430311 59.824884
H  49.558204 26.800278 61.481059
C  63.9112 25.5724 47.1474
O  65.095025 25.634176 46.750863
O  63.199916 24.545017 47.179959
H  63.453221 26.50825 47.500161
C  58.03 43.7996 62.7024
N  58.180577 44.18482 61.438346
H  57.87006 44.847322 62.1346
H  58.376746 43.229782 61.702013
N  57.621101 44.672004 63.619249
H  57.81727 43.716966 63.882916
H  57.735449 44.96454 62.659328
N  58.288321 42.541976 63.049605
H  58.40267 42.834511 62.089684
H  57.977804 43.204478 63.745859
C  62.442 33.8593 44.2451
O  63.625825 33.921076 43.848563
O  61.730716 32.831917 44.277659
H  61.984021 34.79515 44.597861
C  69.8819 27.171 54.6899
O  71.065725 27.232776 54.293363
O  69.170616 26.143617 54.722459
H  69.423921 28.10685 55.042661
C  70.796 30.775 57.7266
O  71.979825 30.836776 57.330063
O  70.084716 29.747617 57.759159
H  70.338021 31.71085 58.079361
C  66.1877 39.1486 49.2798
O  67.371525 39.210376 48.883263
O  65.476416 38.121217 49.312359
H  65.729721 40.08445 49.632561
C  59.9493 24.8723 62.844
N  60.099877 25.25752 61.579946
H  59.78936 25.920022 62.2762
H  60.296046 24.302482 61.843613
N  59.540401 25.744704 63.760849
H  59.73657 24.789666 64.024516
H  59.654749 26.03724 62.800928
N  60.207621 23.614676 63.191205
H  60.32197 23.907211 62.231284
H  59.897104 24.277178 63.887459
C  63.7885 30.5653 65.2994
N  63.939077 30.95052 64.035346
H  63.62856 31.613022 64.7316
H  64.135246 29.995482 64.299013
N  63.379601 31.437704 66.216249
H  63.57577 30.482666 66.479916
H  63.493949 31.73024 65.256328
N  64.046821 29.307676 65.646605
H  64.16117 29.600211 64.686684
H  63.736304 29.970178 66.342859
88
Image 3. Energy: -22846.301038361373 
C  62.243321935378425 33.77412824117587 61.67682252219514
H  62.025828967274634 33.95863822303549 60.62259689510998
H  63.19056503834487 34.13024458243569 62.080797240129364
C  61.37811527144414 33.132500554494165 62.47523106912774
C  61.67880397727397 32.888224158735945 63.94981336916519
O  62.82066854206454 33.27283796419435 64.377510245686
O  60.836074460917885 32.299016494888804 64.65933414636348
O  60.14641085145968 32.717904003305556 62.00957573712498
C  60.022115892232726 31.404016072057473 61.420064231495495
H  58.93672034686201 31.31637944530851 61.248002549143536
C  60.45599637895399 30.365103318289 62.40780449969566
H  60.00099340377707 30.416995346516572 63.394702056275165
C  61.464346293578394 29.494226583569066 62.18047821767599
C  62.15699658766066 29.474180568493185 60.883524809924616
H  62.98540567993336 28.776906301910593 60.7406239259569
C  61.807237573571506 30.32109105558143 59.89699777066145
H  62.35060121765595 30.320178277201936 58.945163269747404
C  60.6417583755568 31.27426694094459 60.00484888257413
H  60.9671206227966 32.278016707844664 59.68178348209159
O  59.57552328745256 30.817743370241462 59.167452334459675
H  59.87621540307735 30.848334714179014 58.243466716882025
C  61.94628703217264 28.612397936010723 63.3310149486005
O  61.466535764561264 28.829401716444384 64.48999175224385
O  62.8285198859983 27.751145873139986 63.091855857678354
C  55.3465 24.9889 48.8173
O  56.530325 25.050676 48.420763
O  54.635216 23.961517 48.849859
H  54.888521 25.92475 49.170061
C  49.6104 27.3954 60.4376
N  49.760977 27.78062 59.173546
H  49.45046 28.443122 59.8698
H  49.957146 26.825582 59.437213
N  49.201501 28.267804 61.354449
H  49.39767 27.312766 61.618116
H  49.315849 28.56034 60.394528
N  49.868721 26.137776 60.784805
H  49.98307 26.430311 59.824884
H  49.558204 26.800278 61.481059
C  63.9112 25.5724 47.1474
O  65.095025 25.634176 46.750863
O  63.199916 24.545017 47.179959
H  63.453221 26.50825 47.500161
C  58.03 43.7996 62.7024
N  58.180577 44.18482 61.438346
H  57.87006 44.847322 62.1346
H  58.376746 43.229782 61.702013
N  57.621101 44.672004 63.619249
H  57.81727 43.716966 63.882916
H  57.735449 44.96454 62.659328
N  58.288321 42.541976 63.049605
H  58.40267 42.834511 62.089684
H  57.977804 43.204478 63.745859
C  62.442 33.8593 44.2451
O  63.625825 33.921076 43.848563
O  61.730716 32.831917 44.277659
H  61.984021 34.79515 44.597861
C  69.8819 27.171 54.6899
O  71.065725 27.232776 54.293363
O  69.170616 26.143617 54.722459
H  69.423921 28.10685 55.042661
C  70.796 30.775 57.7266
O  71.979825 30.836776 57.330063
O  70.084716 29.747617 57.759159
H  70.338021 31.71085 58.079361
C  66.1877 39.1486 49.2798
O  67.371525 39.210376 48.883263
O  65.476416 38.121217 49.312359
H  65.729721 40.08445 49.632561
C  59.9493 24.8723 62.844
N  60.099877 25.25752 61.579946
H  59.78936 25.920022 62.2762
H  60.296046 24.302482 61.843613
N  59.540401 25.744704 63.760849
H  59.73657 24.789666 64.024516
H  59.654749 26.03724 62.800928
N  60.207621 23.614676 63.191205
H  60.32197 23.907211 62.231284
H  59.897104 24.277178 63.887459
C  63.7885 30.5653 65.2994
N  63.939077 30.95052 64.035346
H  63.62856 31.613022 64.7316
H  64.135246 29.995482 64.299013
N  63.379601 31.437704 66.216249
H  63.57577 30.482666 66.479916
H  63.493949 31.73024 65.256328
N  64.046821 29.307676 65.646605
H  64.16117 29.600211 64.686684
H  63.736304 29.970178 66.342859
88
Image 4. Energy: -22846.49525239477 
C  62.086351025145746 33.548743243132414 61.67207629699829
H  61.86698997776411 33.72476635972706 60.617261492605245
H  63.024150209953184 33.929282937698076 62.07625236534486
C  61.242916019292146 32.88226924554634 62.47452877118992
C  61.58731610718013 32.63951253295516 63.93663755330445
O  62.65444873717592 33.18881849419971 64.3720078746308
O  60.87499520513837 31.87378935624107 64.62820553983951
O  60.02080639674662 32.428209392514624 62.02736754441373
C  59.909431349306985 31.122913568760016 61.41397609428539
H  58.82556409486611 31.038112446206984 61.23471900851958
C  60.33694546497437 30.06482471572018 62.383026003213594
H  59.868111575922335 30.09184179194401 63.36457494580419
C  61.372287925141826 29.226020415155357 62.154898812181955
C  62.087426230218476 29.24372987194634 60.872319347032345
H  62.93254329031464 28.565951541370126 60.73198389942927
C  61.718252172943316 30.08186399693286 59.88696983952366
H  62.25858862019385 30.089528048110886 58.933900298846865
C  60.53533498711653 31.012547719290218 60.00027948076356
H  60.84391971716945 32.02304372702723 59.68168913626297
O  59.47706545486262 30.538935017837453 59.16279732315368
H  59.78036538340468 30.565110406837043 58.23966104586238
C  61.916984634301826 28.43659931727815 63.33331600494789
O  61.147250270173465 28.152106988716756 64.2929728430523
O  63.15332336070461 28.183689554865477 63.31381754878908
C  55.3465 24.9889 48.8173
O  56.530325 25.050676 48.420763
O  54.635216 23.961517 48.849859
H  54.888521 25.92475 49.170061
C  49.6104 27.3954 60.4376
N  49.760977 27.78062 59.173546
H  49.45046 28.443122 59.8698
H  49.957146 26.825582 59.437213
N  49.201501 28.267804 61.354449
H  49.39767 27.312766 61.618116
H  49.315849 28.56034 60.394528
N  49.868721 26.137776 60.784805
H  49.98307 26.430311 59.824884
H  49.558204 26.800278 61.481059
C  63.9112 25.5724 47.1474
O  65.095025 25.634176 46.750863
O  63.199916 24.545017 47.179959
H  63.453221 26.50825 47.500161
C  58.03 43.7996 62.7024
N  58.180577 44.18482 61.438346
H  57.87006 44.847322 62.1346
H  58.376746 43.229782 61.702013
N  57.621101 44.672004 63.619249
H  57.81727 43.716966 63.882916
H  57.735449 44.96454 62.659328
N  58.288321 42.541976 63.049605
H  58.40267 42.834511 62.089684
H  57.977804 43.204478 63.745859
C  62.442 33.8593 44.2451
O  63.625825 33.921076 43.848563
O  61.730716 32.831917 44.277659
H  61.984021 34.79515 44.597861
C  69.8819 27.171 54.6899
O  71.065725 27.232776 54.293363
O  69.170616 26.143617 54.722459
H  69.423921 28.10685 55.042661
C  70.796 30.775 57.7266
O  71.979825 30.836776 57.330063
O  70.084716 29.747617 57.759159
H  70.338021 31.71085 58.079361
C  66.1877 39.1486 49.2798
O  67.371525 39.210376 48.883263
O  65.476416 38.121217 49.312359
H  65.729721 40.08445 49.632561
C  59.9493 24.8723 62.844
N  60.099877 25.25752 61.579946
H  59.78936 25.920022 62.2762
H  60.296046 24.302482 61.843613
N  59.540401 25.744704 63.760849
H  59.73657 24.789666 64.024516
H  59.654749 26.03724 62.800928
N  60.207621 23.614676 63.191205
H  60.32197 23.907211 62.231284
H  59.897104 24.277178 63.887459
C  63.7885 30.5653 65.2994
N  63.939077 30.95052 64.035346
H  63.62856 31.613022 64.7316
H  64.135246 29.995482 64.299013
N  63.379601 31.437704 66.216249
H  63.57577 30.482666 66.479916
H  63.493949 31.73024 65.256328
N  64.046821 29.307676 65.646605
H  64.16117 29.600211 64.686684
H  63.736304 29.970178 66.342859
88
Image 5. Energy: -22846.667032602298 
C  62.00039668226201 32.97800963269655 61.66741099562957
H  61.84393911836839 32.99917706765932 60.589890979618836
H  62.958616182746994 33.33214683342356 62.044410116423435
C  61.094916985898244 32.50886210935657 62.53902559792909
C  61.46280312629849 32.39501353577303 64.0059698271734
O  62.44326488193484 33.10416505562008 64.40738309365129
O  60.88657252197451 31.53224949948546 64.71730154400394
O  59.841509271444295 32.06173034780221 62.18362290672778
C  59.70702078266397 30.796992661964335 61.49272050294515
H  58.615848764372515 30.69545289880089 61.38081826562944
C  60.25653744078036 29.711459758290765 62.3736584037491
H  59.807204366620596 29.624010022333938 63.365047232764375
C  61.407538365374855 29.064368026964143 62.078107466735304
C  62.06075847873004 29.238590432605257 60.77701622583365
H  62.98810145039216 28.694147017450952 60.58561638207751
C  61.525532554325 30.031349648139663 59.8320242185553
H  62.00712772700846 30.123026053487038 58.853068741716
C  60.2565498844908 30.81881230334268 60.045223186619715
H  60.455501969344134 31.874222517448896 59.79603490983854
O  59.20866536553035 30.329783105431044 59.21117529626725
H  59.45112646696019 30.515619452915608 58.28822613246475
C  62.12644632248557 28.306499812437416 63.17475494717364
O  61.45955541942855 27.61538830845418 63.990437338691905
O  63.375039490552325 28.47946678811296 63.23207730776113
C  55.3465 24.9889 48.8173
O  56.530325 25.050676 48.420763
O  54.635216 23.961517 48.849859
H  54.888521 25.92475 49.170061
C  49.6104 27.3954 60.4376
N  49.760977 27.78062 59.173546
H  49.45046 28.443122 59.8698
H  49.957146 26.825582 59.437213
N  49.201501 28.267804 61.354449
H  49.39767 27.312766 61.618116
H  49.315849 28.56034 60.394528
N  49.868721 26.137776 60.784805
H  49.98307 26.430311 59.824884
H  49.558204 26.800278 61.481059
C  63.9112 25.5724 47.1474
O  65.095025 25.634176 46.750863
O  63.199916 24.545017 47.179959
H  63.453221 26.50825 47.500161
C  58.03 43.7996 62.7024
N  58.180577 44.18482 61.438346
H  57.87006 44.847322 62.1346
H  58.376746 43.229782 61.702013
N  57.621101 44.672004 63.619249
H  57.81727 43.716966 63.882916
H  57.735449 44.96454 62.659328
N  58.288321 42.541976 63.049605
H  58.40267 42.834511 62.089684
H  57.977804 43.204478 63.745859
C  62.442 33.8593 44.2451
O  63.625825 33.921076 43.848563
O  61.730716 32.831917 44.277659
H  61.984021 34.79515 44.597861
C  69.8819 27.171 54.6899
O  71.065725 27.232776 54.293363
O  69.170616 26.143617 54.722459
H  69.423921 28.10685 55.042661
C  70.796 30.775 57.7266
O  71.979825 30.836776 57.330063
O  70.084716 29.747617 57.759159
H  70.338021 31.71085 58.079361
C  66.1877 39.1486 49.2798
O  67.371525 39.210376 48.883263
O  65.476416 38.121217 49.312359
H  65.729721 40.08445 49.632561
C  59.9493 24.8723 62.844
N  60.099877 25.25752 61.579946
H  59.78936 25.920022 62.2762
H  60.296046 24.302482 61.843613
N  59.540401 25.744704 63.760849
H  59.73657 24.789666 64.024516
H  59.654749 26.03724 62.800928
N  60.207621 23.614676 63.191205
H  60.32197 23.907211 62.231284
H  59.897104 24.277178 63.887459
C  63.7885 30.5653 65.2994
N  63.939077 30.95052 64.035346
H  63.62856 31.613022 64.7316
H  64.135246 29.995482 64.299013
N  63.379601 31.437704 66.216249
H  63.57577 30.482666 66.479916
H  63.493949 31.73024 65.256328
N  64.046821 29.307676 65.646605
H  64.16117 29.600211 64.686684
H  63.736304 29.970178 66.342859
88
Image 6. Energy: -22846.279346687585 
C  61.866694926870856 32.509533298453206 61.619428870555055
H  61.95586617331051 32.16396551476245 60.597412682396055
H  62.72184070021668 33.07804726167617 61.958751722974306
C  60.93028477326401 32.18963870742723 62.529500061385036
C  61.34966083008511 32.23669608602196 63.995400415372366
O  62.261413529589966 33.04745574790687 64.34394967777814
O  60.897899960055064 31.32514820384198 64.74337798739607
O  59.68505995988528 31.66345256663907 62.28558627850626
C  59.53354464136764 30.42505493499018 61.485401244187564
H  58.44104726501086 30.35366407485871 61.3871520326934
C  60.125993069574285 29.342402217005265 62.33592936332335
H  59.68739563107557 29.239323225208466 63.332492905012565
C  61.3448157426453 28.81967746722443 62.05715289165962
C  61.950170451471095 29.01584881398142 60.73524987837477
H  62.89958512663637 28.518872846535157 60.52329398290968
C  61.343710842349694 29.76230740997816 59.792786161033824
H  61.79087944556404 29.858419285973326 58.797749066843615
C  60.114923167685546 30.596625239732585 60.06279015558028
H  60.441530552499216 31.68566929951108 60.042441029600155
O  59.07616652782459 30.371760759921386 59.12962563196412
H  59.43146495918757 30.54088506240263 58.239935639875966
C  62.157976627728125 28.214624473317897 63.188675302834326
O  61.57328559864288 27.52714306431743 64.0679848458876
O  63.37856853745586 28.522659518316516 63.204736361860036
C  55.3465 24.9889 48.8173
O  56.530325 25.050676 48.420763
O  54.635216 23.961517 48.849859
H  54.888521 25.92475 49.170061
C  49.6104 27.3954 60.4376
N  49.760977 27.78062 59.173546
H  49.45046 28.443122 59.8698
H  49.957146 26.825582 59.437213
N  49.201501 28.267804 61.354449
H  49.39767 27.312766 61.618116
H  49.315849 28.56034 60.394528
N  49.868721 26.137776 60.784805
H  49.98307 26.430311 59.824884
H  49.558204 26.800278 61.481059
C  63.9112 25.5724 47.1474
O  65.095025 25.634176 46.750863
O  63.199916 24.545017 47.179959
H  63.453221 26.50825 47.500161
C  58.03 43.7996 62.7024
N  58.180577 44.18482 61.438346
H  57.87006 44.847322 62.1346
H  58.376746 43.229782 61.702013
N  57.621101 44.672004 63.619249
H  57.81727 43.716966 63.882916
H  57.735449 44.96454 62.659328
N  58.288321 42.541976 63.049605
H  58.40267 42.834511 62.089684
H  57.977804 43.204478 63.745859
C  62.442 33.8593 44.2451
O  63.625825 33.921076 43.848563
O  61.730716 32.831917 44.277659
H  61.984021 34.79515 44.597861
C  69.8819 27.171 54.6899
O  71.065725 27.232776 54.293363
O  69.170616 26.143617 54.722459
H  69.423921 28.10685 55.042661
C  70.796 30.775 57.7266
O  71.979825 30.836776 57.330063
O  70.084716 29.747617 57.759159
H  70.338021 31.71085 58.079361
C  66.1877 39.1486 49.2798
O  67.371525 39.210376 48.883263
O  65.476416 38.121217 49.312359
H  65.729721 40.08445 49.632561
C  59.9493 24.8723 62.844
N  60.099877 25.25752 61.579946
H  59.78936 25.920022 62.2762
H  60.296046 24.302482 61.843613
N  59.540401 25.744704 63.760849
H  59.73657 24.789666 64.024516
H  59.654749 26.03724 62.800928
N  60.207621 23.614676 63.191205
H  60.32197 23.907211 62.231284
H  59.897104 24.277178 63.887459
C  63.7885 30.5653 65.2994
N  63.939077 30.95052 64.035346
H  63.62856 31.613022 64.7316
H  64.135246 29.995482 64.299013
N  63.379601 31.437704 66.216249
H  63.57577 30.482666 66.479916
H  63.493949 31.73024 65.256328
N  64.046821 29.307676 65.646605
H  64.16117 29.600211 64.686684
H  63.736304 29.970178 66.342859
88
Image 7. Energy: -22846.299813893595 
C  61.53548047830897 32.23918392388353 61.347193652354655
H  62.10502455616897 31.552183210082504 60.7534441526797
H  62.36179317618543 32.943931288729914 61.690070399219174
C  60.740270537377405 31.92689747338637 62.55022287291151
C  61.286420280464576 31.96430150077929 63.984980298373955
O  62.149188361426674 32.840263474820915 64.29601118424954
O  60.85495560543643 31.067049827117067 64.75031914755343
O  59.549566417184344 31.690434180374247 62.44723976508415
C  59.35698167557876 29.822751926347706 61.32133527679051
H  58.31959149010161 30.12272794959085 61.40935221403761
C  60.00574575201589 29.066841307018997 62.29420614535736
H  59.58236585682645 28.98899799336205 63.302103303272574
C  61.29111122989291 28.560972684819085 62.042301441717015
C  61.864999537121484 28.761518903992705 60.76699805834442
H  62.82711664240739 28.303209293197767 60.5308419625262
C  61.20702162539111 29.478990752855847 59.7722364831312
H  61.67042514297671 29.593963607826907 58.7855642277366
C  59.91394779063187 29.97599296966499 60.03742100388771
H  60.70126679069483 32.00877040448981 60.413001314232915
O  59.01073611043455 30.301666044510426 59.09435845961612
H  59.38703686110584 30.30452412131909 58.20044409649506
C  62.10473577140207 28.009946422581947 63.1872069901364
O  61.53321745557218 27.32070441682239 64.07737882441866
O  63.31998531529357 28.341383632428098 63.22835545585661
C  55.3465 24.9889 48.8173
O  56.530325 25.050676 48.420763
O  54.635216 23.961517 48.849859
H  54.888521 25.92475 49.170061
C  49.6104 27.3954 60.4376
N  49.760977 27.78062 59.173546
H  49.45046 28.443122 59.8698
H  49.957146 26.825582 59.437213
N  49.201501 28.267804 61.354449
H  49.39767 27.312766 61.618116
H  49.315849 28.56034 60.394528
N  49.868721 26.137776 60.784805
H  49.98307 26.430311 59.824884
H  49.558204 26.800278 61.481059
C  63.9112 25.5724 47.1474
O  65.095025 25.634176 46.750863
O  63.199916 24.545017 47.179959
H  63.453221 26.50825 47.500161
C  58.03 43.7996 62.7024
N  58.180577 44.18482 61.438346
H  57.87006 44.847322 62.1346
H  58.376746 43.229782 61.702013
N  57.621101 44.672004 63.619249
H  57.81727 43.716966 63.882916
H  57.735449 44.96454 62.659328
N  58.288321 42.541976 63.049605
H  58.40267 42.834511 62.089684
H  57.977804 43.204478 63.745859
C  62.442 33.8593 44.2451
O  63.625825 33.921076 43.848563
O  61.730716 32.831917 44.277659
H  61.984021 34.79515 44.597861
C  69.8819 27.171 54.6899
O  71.065725 27.232776 54.293363
O  69.170616 26.143617 54.722459
H  69.423921 28.10685 55.042661
C  70.796 30.775 57.7266
O  71.979825 30.836776 57.330063
O  70.084716 29.747617 57.759159
H  70.338021 31.71085 58.079361
C  66.1877 39.1486 49.2798
O  67.371525 39.210376 48.883263
O  65.476416 38.121217 49.312359
H  65.729721 40.08445 49.632561
C  59.9493 24.8723 62.844
N  60.099877 25.25752 61.579946
H  59.78936 25.920022 62.2762
H  60.296046 24.302482 61.843613
N  59.540401 25.744704 63.760849
H  59.73657 24.789666 64.024516
H  59.654749 26.03724 62.800928
N  60.207621 23.614676 63.191205
H  60.32197 23.907211 62.231284
H  59.897104 24.277178 63.887459
C  63.7885 30.5653 65.2994
N  63.939077 30.95052 64.035346
H  63.62856 31.613022 64.7316
H  64.135246 29.995482 64.299013
N  63.379601 31.437704 66.216249
H  63.57577 30.482666 66.479916
H  63.493949 31.73024 65.256328
N  64.046821 29.307676 65.646605
H  64.16117 29.600211 64.686684
H  63.736304 29.970178 66.342859
88
Image 8. Energy: -22848.09765077063 
C  61.421630897333806 31.95957773323019 61.31194406611908
H  62.059936729443415 31.187349208045692 60.874877452694975
H  62.156141534708084 32.754599997749075 61.56507183174329
C  60.61504482021543 31.694655325765698 62.546473684802166
C  61.192578162313936 31.713563859054016 63.96978722373178
O  62.009032419479084 32.63762954982298 64.26443082695484
O  60.808805856812384 30.80444254356394 64.7458424916899
O  59.40316393172859 31.542671032538994 62.47744093177637
C  59.20978030322442 29.446995448040337 61.27215206155072
H  58.21082862734665 29.855602475489114 61.41316082672875
C  59.900575143667886 28.77634844331642 62.275712853994065
H  59.48224450252322 28.73817291528717 63.286436777729236
C  61.206043524273234 28.2994810272928 62.0397146541905
C  61.765228565283174 28.494042200515004 60.75898297661295
H  62.74804633467037 28.077146813456253 60.53319111671016
C  61.08493494698303 29.172815352236363 59.751755827807486
H  61.55657298079202 29.323451256297638 58.774737997164216
C  59.77063334002815 29.61465549766276 59.99935330245273
H  60.68034135248558 31.96493865965108 60.46984512902047
O  58.93618814781859 30.104215746684048 59.068622352325896
H  59.314498839609996 30.062846386162825 58.17585891498225
C  62.06300018236523 27.8153165898006 63.19589032345806
O  61.54038292110925 27.13890734784243 64.1193917200505
O  63.2625558357587 28.186114110500625 63.21769393571705
C  55.3465 24.9889 48.8173
O  56.530325 25.050676 48.420763
O  54.635216 23.961517 48.849859
H  54.888521 25.92475 49.170061
C  49.6104 27.3954 60.4376
N  49.760977 27.78062 59.173546
H  49.45046 28.443122 59.8698
H  49.957146 26.825582 59.437213
N  49.201501 28.267804 61.354449
H  49.39767 27.312766 61.618116
H  49.315849 28.56034 60.394528
N  49.868721 26.137776 60.784805
H  49.98307 26.430311 59.824884
H  49.558204 26.800278 61.481059
C  63.9112 25.5724 47.1474
O  65.095025 25.634176 46.750863
O  63.199916 24.545017 47.179959
H  63.453221 26.50825 47.500161
C  58.03 43.7996 62.7024
N  58.180577 44.18482 61.438346
H  57.87006 44.847322 62.1346
H  58.376746 43.229782 61.702013
N  57.621101 44.672004 63.619249
H  57.81727 43.716966 63.882916
H  57.735449 44.96454 62.659328
N  58.288321 42.541976 63.049605
H  58.40267 42.834511 62.089684
H  57.977804 43.204478 63.745859
C  62.442 33.8593 44.2451
O  63.625825 33.921076 43.848563
O  61.730716 32.831917 44.277659
H  61.984021 34.79515 44.597861
C  69.8819 27.171 54.6899
O  71.065725 27.232776 54.293363
O  69.170616 26.143617 54.722459
H  69.423921 28.10685 55.042661
C  70.796 30.775 57.7266
O  71.979825 30.836776 57.330063
O  70.084716 29.747617 57.759159
H  70.338021 31.71085 58.079361
C  66.1877 39.1486 49.2798
O  67.371525 39.210376 48.883263
O  65.476416 38.121217 49.312359
H  65.729721 40.08445 49.632561
C  59.9493 24.8723 62.844
N  60.099877 25.25752 61.579946
H  59.78936 25.920022 62.2762
H  60.296046 24.302482 61.843613
N  59.540401 25.744704 63.760849
H  59.73657 24.789666 64.024516
H  59.654749 26.03724 62.800928
N  60.207621 23.614676 63.191205
H  60.32197 23.907211 62.231284
H  59.897104 24.277178 63.887459
C  63.7885 30.5653 65.2994
N  63.939077 30.95052 64.035346
H  63.62856 31.613022 64.7316
H  64.135246 29.995482 64.299013
N  63.379601 31.437704 66.216249
H  63.57577 30.482666 66.479916
H  63.493949 31.73024 65.256328
N  64.046821 29.307676 65.646605
H  64.16117 29.600211 64.686684
H  63.736304 29.970178 66.342859
88
Image 9. Energy: -22848.737120149122 
C  60.681649048440214 31.577360695348744 61.65130031831383
H  61.75799777949669 31.840495694305794 61.73202917787226
H  60.12254244374302 32.18373085361155 60.90627751067971
C  60.07889377329777 31.600911828753997 63.03410269882052
C  61.0696548153357 31.654717522871103 64.21514130270351
O  61.76575632007972 32.68865340475982 64.37066500440591
O  61.13550973268079 30.605122705863444 64.92439512699289
O  58.887662504357706 31.510744541909833 63.27546073971256
C  59.25921512922555 28.638720490435194 61.269198862329006
H  58.21206850768952 28.68593513898663 61.59098408390827
C  60.30910027820974 28.528850328128602 62.18395957729634
H  60.10890863651776 28.568063717288595 63.261952894052506
C  61.65651585361322 28.597390626123214 61.76546970191815
C  61.93738788472643 28.805211031973617 60.403899100994074
H  62.976851034700594 28.90279970165339 60.063212126341796
C  60.891078885317526 28.846164335680974 59.468551768682794
H  61.10884993325535 28.88454324703243 58.39440081624243
C  59.54748518359455 28.79970359977605 59.8938717572214
H  60.502015319682855 30.57625860520566 61.210665844625524
O  58.49482402274141 28.904013554253893 59.05991104614915
H  58.77390750222131 29.128831075962736 58.153513200332505
C  62.69511941185156 28.154497488656894 62.775283765206005
O  62.36311867221482 27.10301412248481 63.39299489347129
O  63.78128264703248 28.75813741892956 62.93691051171211
C  55.3465 24.9889 48.8173
O  56.530325 25.050676 48.420763
O  54.635216 23.961517 48.849859
H  54.888521 25.92475 49.170061
C  49.6104 27.3954 60.4376
N  49.760977 27.78062 59.173546
H  49.45046 28.443122 59.8698
H  49.957146 26.825582 59.437213
N  49.201501 28.267804 61.354449
H  49.39767 27.312766 61.618116
H  49.315849 28.56034 60.394528
N  49.868721 26.137776 60.784805
H  49.98307 26.430311 59.824884
H  49.558204 26.800278 61.481059
C  63.9112 25.5724 47.1474
O  65.095025 25.634176 46.750863
O  63.199916 24.545017 47.179959
H  63.453221 26.50825 47.500161
C  58.03 43.7996 62.7024
N  58.180577 44.18482 61.438346
H  57.87006 44.847322 62.1346
H  58.376746 43.229782 61.702013
N  57.621101 44.672004 63.619249
H  57.81727 43.716966 63.882916
H  57.735449 44.96454 62.659328
N  58.288321 42.541976 63.049605
H  58.40267 42.834511 62.089684
H  57.977804 43.204478 63.745859
C  62.442 33.8593 44.2451
O  63.625825 33.921076 43.848563
O  61.730716 32.831917 44.277659
H  61.984021 34.79515 44.597861
C  69.8819 27.171 54.6899
O  71.065725 27.232776 54.293363
O  69.170616 26.143617 54.722459
H  69.423921 28.10685 55.042661
C  70.796 30.775 57.7266
O  71.979825 30.836776 57.330063
O  70.084716 29.747617 57.759159
H  70.338021 31.71085 58.079361
C  66.1877 39.1486 49.2798
O  67.371525 39.210376 48.883263
O  65.476416 38.121217 49.312359
H  65.729721 40.08445 49.632561
C  59.9493 24.8723 62.844
N  60.099877 25.25752 61.579946
H  59.78936 25.920022 62.2762
H  60.296046 24.302482 61.843613
N  59.540401 25.744704 63.760849
H  59.73657 24.789666 64.024516
H  59.654749 26.03724 62.800928
N  60.207621 23.614676 63.191205
H  60.32197 23.907211 62.231284
H  59.897104 24.277178 63.887459
C  63.7885 30.5653 65.2994
N  63.939077 30.95052 64.035346
H  63.62856 31.613022 64.7316
H  64.135246 29.995482 64.299013
N  63.379601 31.437704 66.216249
H  63.57577 30.482666 66.479916
H  63.493949 31.73024 65.256328
N  64.046821 29.307676 65.646605
H  64.16117 29.600211 64.686684
H  63.736304 29.970178 66.342859
88
Image 10. Energy: -22846.924571623975 
C  60.91409443270779 31.157943047216957 61.599671499487904
H  62.02284895614542 31.26990060280441 61.72214346521757
H  60.5651697437684 31.78955795450036 60.79862666428577
C  60.20474449009351 31.218849686587628 62.883204276028515
C  61.03397374997327 31.347335030023313 64.1934127781003
O  61.65271993193438 32.430363474834 64.37665979041647
O  61.05983894793235 30.356398685651058 64.98222430643456
O  58.984493998229915 31.101082923907914 62.98833119335558
C  59.05442727214036 28.581060520952455 61.26413033787411
H  57.994902848308456 28.67714846791555 61.5203769192392
C  60.02319311633946 28.363394454320478 62.23337458155935
H  59.74693599626073 28.380905994510684 63.29528989386364
C  61.39189378770221 28.403051627314294 61.87856893064718
C  61.77064220949513 28.4234937049527 60.52067734506221
H  62.82226924126358 28.298658289022626 60.24103407833765
C  60.80499646185676 28.56987430889062 59.5358449146232
H  61.081011693568406 28.531746519989575 58.476078629339874
C  59.451917381199046 28.818069007354673 59.91632460929858
H  60.09034613000963 30.300224287389035 60.624582512200554
O  58.44988090694187 28.96471563995242 59.02782168048784
H  58.77419750069258 29.17932471113848 58.13536950439125
C  62.39834320259547 27.993502602146457 62.926532278632166
O  62.11596861706994 26.89599683812404 63.47992115243457
O  63.42779011376695 28.669605580493332 63.139733038681385
C  55.3465 24.9889 48.8173
O  56.530325 25.050676 48.420763
O  54.635216 23.961517 48.849859
H  54.888521 25.92475 49.170061
C  49.6104 27.3954 60.4376
N  49.760977 27.78062 59.173546
H  49.45046 28.443122 59.8698
H  49.957146 26.825582 59.437213
N  49.201501 28.267804 61.354449
H  49.39767 27.312766 61.618116
H  49.315849 28.56034 60.394528
N  49.868721 26.137776 60.784805
H  49.98307 26.430311 59.824884
H  49.558204 26.800278 61.481059
C  63.9112 25.5724 47.1474
O  65.095025 25.634176 46.750863
O  63.199916 24.545017 47.179959
H  63.453221 26.50825 47.500161
C  58.03 43.7996 62.7024
N  58.180577 44.18482 61.438346
H  57.87006 44.847322 62.1346
H  58.376746 43.229782 61.702013
N  57.621101 44.672004 63.619249
H  57.81727 43.716966 63.882916
H  57.735449 44.96454 62.659328
N  58.288321 42.541976 63.049605
H  58.40267 42.834511 62.089684
H  57.977804 43.204478 63.745859
C  62.442 33.8593 44.2451
O  63.625825 33.921076 43.848563
O  61.730716 32.831917 44.277659
H  61.984021 34.79515 44.597861
C  69.8819 27.171 54.6899
O  71.065725 27.232776 54.293363
O  69.170616 26.143617 54.722459
H  69.423921 28.10685 55.042661
C  70.796 30.775 57.7266
O  71.979825 30.836776 57.330063
O  70.084716 29.747617 57.759159
H  70.338021 31.71085 58.079361
C  66.1877 39.1486 49.2798
O  67.371525 39.210376 48.883263
O  65.476416 38.121217 49.312359
H  65.729721 40.08445 49.632561
C  59.9493 24.8723 62.844
N  60.099877 25.25752 61.579946
H  59.78936 25.920022 62.2762
H  60.296046 24.302482 61.843613
N  59.540401 25.744704 63.760849
H  59.73657 24.789666 64.024516
H  59.654749 26.03724 62.800928
N  60.207621 23.614676 63.191205
H  60.32197 23.907211 62.231284
H  59.897104 24.277178 63.887459
C  63.7885 30.5653 65.2994
N  63.939077 30.95052 64.035346
H  63.62856 31.613022 64.7316
H  64.135246 29.995482 64.299013
N  63.379601 31.437704 66.216249
H  63.57577 30.482666 66.479916
H  63.493949 31.73024 65.256328
N  64.046821 29.307676 65.646605
H  64.16117 29.600211 64.686684
H  63.736304 29.970178 66.342859
88
Image 11. Energy: -22846.32464241726 
C  60.95693649283789 31.017024386483943 61.75060704714175
H  62.038533295792426 31.137300562534367 61.81656799695452
H  60.50186889988453 31.27349627117581 60.78909357759104
C  60.15697514152796 30.97589464513696 62.91810890972936
C  60.94391365473124 31.095715460231094 64.22961089356974
O  61.55104546387383 32.19138564977113 64.40147650824885
O  60.99340310801577 30.10966059412694 65.02007123917726
O  58.91552664535325 30.819718405006952 62.94201106056652
C  58.94989600076251 28.329173703949056 61.28398298675416
H  57.88494471029511 28.402490476200455 61.52148332831723
C  59.90839549862518 28.139455534250335 62.233895365378274
H  59.642444111128974 28.13882778799541 63.29804714702621
C  61.29959246874211 28.27753962238876 61.877766651803526
C  61.68431943271965 28.19188696011189 60.495801487182035
H  62.73433089922402 28.03514237711083 60.23375776037918
C  60.7346780438014 28.304809272707995 59.527455464327396
H  60.98612586684629 28.25214531961148 58.46254665372246
C  59.369858740347695 28.74323445102702 59.92745782334229
H  59.61867810339821 29.837986801789334 60.21131368913679
O  58.33911517656154 28.657467307435724 59.005971363088086
H  58.65326478361009 28.938766481577726 58.129838036333204
C  62.31842354479037 27.825337247540574 62.92153901445609
O  62.048358844490615 26.692084264766446 63.41121228734339
O  63.32517723262513 28.51399258706888 63.17610066843797
C  55.3465 24.9889 48.8173
O  56.530325 25.050676 48.420763
O  54.635216 23.961517 48.849859
H  54.888521 25.92475 49.170061
C  49.6104 27.3954 60.4376
N  49.760977 27.78062 59.173546
H  49.45046 28.443122 59.8698
H  49.957146 26.825582 59.437213
N  49.201501 28.267804 61.354449
H  49.39767 27.312766 61.618116
H  49.315849 28.56034 60.394528
N  49.868721 26.137776 60.784805
H  49.98307 26.430311 59.824884
H  49.558204 26.800278 61.481059
C  63.9112 25.5724 47.1474
O  65.095025 25.634176 46.750863
O  63.199916 24.545017 47.179959
H  63.453221 26.50825 47.500161
C  58.03 43.7996 62.7024
N  58.180577 44.18482 61.438346
H  57.87006 44.847322 62.1346
H  58.376746 43.229782 61.702013
N  57.621101 44.672004 63.619249
H  57.81727 43.716966 63.882916
H  57.735449 44.96454 62.659328
N  58.288321 42.541976 63.049605
H  58.40267 42.834511 62.089684
H  57.977804 43.204478 63.745859
C  62.442 33.8593 44.2451
O  63.625825 33.921076 43.848563
O  61.730716 32.831917 44.277659
H  61.984021 34.79515 44.597861
C  69.8819 27.171 54.6899
O  71.065725 27.232776 54.293363
O  69.170616 26.143617 54.722459
H  69.423921 28.10685 55.042661
C  70.796 30.775 57.7266
O  71.979825 30.836776 57.330063
O  70.084716 29.747617 57.759159
H  70.338021 31.71085 58.079361
C  66.1877 39.1486 49.2798
O  67.371525 39.210376 48.883263
O  65.476416 38.121217 49.312359
H  65.729721 40.08445 49.632561
C  59.9493 24.8723 62.844
N  60.099877 25.25752 61.579946
H  59.78936 25.920022 62.2762
H  60.296046 24.302482 61.843613
N  59.540401 25.744704 63.760849
H  59.73657 24.789666 64.024516
H  59.654749 26.03724 62.800928
N  60.207621 23.614676 63.191205
H  60.32197 23.907211 62.231284
H  59.897104 24.277178 63.887459
C  63.7885 30.5653 65.2994
N  63.939077 30.95052 64.035346
H  63.62856 31.613022 64.7316
H  64.135246 29.995482 64.299013
N  63.379601 31.437704 66.216249
H  63.57577 30.482666 66.479916
H  63.493949 31.73024 65.256328
N  64.046821 29.307676 65.646605
H  64.16117 29.600211 64.686684
H  63.736304 29.970178 66.342859
88
Image 12. Energy: -22846.9883585994 
C  60.96486762254956 30.37977224831507 61.8007302722364
H  61.97693791657939 30.791751445099464 61.86846438037219
H  60.500094308961465 30.759688019291804 60.86382426672586
C  60.09117788629229 30.663380838570273 62.95730230159451
C  60.85507598074534 30.85435820432178 64.2610678034288
O  61.43317169861878 31.965497633289363 64.39909764953646
O  60.93060982441983 29.87274748469634 65.04589350142848
O  58.86408062047184 30.631053082370443 62.9199496877718
C  58.839913954957154 28.084678915667812 61.264002873276844
H  57.76814537849521 28.0812464718115 61.48883245020126
C  59.78891313419815 27.97496465397311 62.21686015033506
H  59.52238325812643 27.926855387531464 63.282775293549804
C  61.18325068809598 28.377162138088423 61.877982071064544
C  61.56891575042178 28.013657403852307 60.47609408509927
H  62.61626331930585 27.795956566870306 60.241062848349465
C  60.63116595019477 28.057251596859516 59.51850871144091
H  60.869052179843614 27.931707442690715 58.45690125387255
C  59.250251635946626 28.52479142025121 59.89909242312718
H  59.41735473300942 29.61172028548473 60.11418525782797
O  58.22426670232625 28.339277461809 58.974070047502664
H  58.52616242163776 28.664165309752278 58.109593747022146
C  62.225701542725524 27.768864479865904 62.89100539956329
O  61.986420413894436 26.58833686990714 63.2815885947547
O  63.24083465817753 28.419983029634228 63.202614419912834
C  55.3465 24.9889 48.8173
O  56.530325 25.050676 48.420763
O  54.635216 23.961517 48.849859
H  54.888521 25.92475 49.170061
C  49.6104 27.3954 60.4376
N  49.760977 27.78062 59.173546
H  49.45046 28.443122 59.8698
H  49.957146 26.825582 59.437213
N  49.201501 28.267804 61.354449
H  49.39767 27.312766 61.618116
H  49.315849 28.56034 60.394528
N  49.868721 26.137776 60.784805
H  49.98307 26.430311 59.824884
H  49.558204 26.800278 61.481059
C  63.9112 25.5724 47.1474
O  65.095025 25.634176 46.750863
O  63.199916 24.545017 47.179959
H  63.453221 26.50825 47.500161
C  58.03 43.7996 62.7024
N  58.180577 44.18482 61.438346
H  57.87006 44.847322 62.1346
H  58.376746 43.229782 61.702013
N  57.621101 44.672004 63.619249
H  57.81727 43.716966 63.882916
H  57.735449 44.96454 62.659328
N  58.288321 42.541976 63.049605
H  58.40267 42.834511 62.089684
H  57.977804 43.204478 63.745859
C  62.442 33.8593 44.2451
O  63.625825 33.921076 43.848563
O  61.730716 32.831917 44.277659
H  61.984021 34.79515 44.597861
C  69.8819 27.171 54.6899
O  71.065725 27.232776 54.293363
O  69.170616 26.143617 54.722459
H  69.423921 28.10685 55.042661
C  70.796 30.775 57.7266
O  71.979825 30.836776 57.330063
O  70.084716 29.747617 57.759159
H  70.338021 31.71085 58.079361
C  66.1877 39.1486 49.2798
O  67.371525 39.210376 48.883263
O  65.476416 38.121217 49.312359
H  65.729721 40.08445 49.632561
C  59.9493 24.8723 62.844
N  60.099877 25.25752 61.579946
H  59.78936 25.920022 62.2762
H  60.296046 24.302482 61.843613
N  59.540401 25.744704 63.760849
H  59.73657 24.789666 64.024516
H  59.654749 26.03724 62.800928
N  60.207621 23.614676 63.191205
H  60.32197 23.907211 62.231284
H  59.897104 24.277178 63.887459
C  63.7885 30.5653 65.2994
N  63.939077 30.95052 64.035346
H  63.62856 31.613022 64.7316
H  64.135246 29.995482 64.299013
N  63.379601 31.437704 66.216249
H  63.57577 30.482666 66.479916
H  63.493949 31.73024 65.256328
N  64.046821 29.307676 65.646605
H  64.16117 29.600211 64.686684
H  63.736304 29.970178 66.342859
88
Image 13. Energy: -22848.51119640677 
C  60.96656241985897 30.14456878372861 61.88367694190201
H  62.00204990338482 30.510968577779334 61.90951670432364
H  60.48327949481752 30.48941855499788 60.95879914836016
C  60.15864148601544 30.694756880372758 63.04433753105244
C  60.92309046164988 30.957614467091528 64.33008232324937
O  61.470755563069076 32.087544255833485 64.4086177063248
O  61.01049420208858 30.014267601321176 65.16142800849887
O  58.958515889886655 30.900495973976934 62.9719635471946
C  58.70705614604161 27.758592271910466 61.261672219725625
H  57.66726707252155 27.535358722333793 61.53565028491201
C  59.622914904749926 28.07994691662025 62.194661563045315
H  59.3190200648757 28.18217649983057 63.244799393305456
C  61.008001427461274 28.576825864317517 61.84775787399812
C  61.39210454293797 28.154488757688803 60.437776409075404
H  62.448999182331825 28.244488319403672 60.16657915419864
C  60.49788234354502 27.766188018749546 59.52230088209778
H  60.822233255097785 27.52856266397457 58.50289678617133
C  59.014606045401635 27.703040968038508 59.79060338918751
H  58.544413377043234 28.59836175573737 59.32553635877417
O  58.39590987147697 26.51890542343427 59.30077353239528
H  58.53176019247421 26.477888169287812 58.339049090206046
C  62.07933965009462 27.953519755831692 62.80983232332089
O  61.90948533635486 26.74313863054738 63.12105287401775
O  63.05983416682373 28.636082757194714 63.16791800463617
C  55.3465 24.9889 48.8173
O  56.530325 25.050676 48.420763
O  54.635216 23.961517 48.849859
H  54.888521 25.92475 49.170061
C  49.6104 27.3954 60.4376
N  49.760977 27.78062 59.173546
H  49.45046 28.443122 59.8698
H  49.957146 26.825582 59.437213
N  49.201501 28.267804 61.354449
H  49.39767 27.312766 61.618116
H  49.315849 28.56034 60.394528
N  49.868721 26.137776 60.784805
H  49.98307 26.430311 59.824884
H  49.558204 26.800278 61.481059
C  63.9112 25.5724 47.1474
O  65.095025 25.634176 46.750863
O  63.199916 24.545017 47.179959
H  63.453221 26.50825 47.500161
C  58.03 43.7996 62.7024
N  58.180577 44.18482 61.438346
H  57.87006 44.847322 62.1346
H  58.376746 43.229782 61.702013
N  57.621101 44.672004 63.619249
H  57.81727 43.716966 63.882916
H  57.735449 44.96454 62.659328
N  58.288321 42.541976 63.049605
H  58.40267 42.834511 62.089684
H  57.977804 43.204478 63.745859
C  62.442 33.8593 44.2451
O  63.625825 33.921076 43.848563
O  61.730716 32.831917 44.277659
H  61.984021 34.79515 44.597861
C  69.8819 27.171 54.6899
O  71.065725 27.232776 54.293363
O  69.170616 26.143617 54.722459
H  69.423921 28.10685 55.042661
C  70.796 30.775 57.7266
O  71.979825 30.836776 57.330063
O  70.084716 29.747617 57.759159
H  70.338021 31.71085 58.079361
C  66.1877 39.1486 49.2798
O  67.371525 39.210376 48.883263
O  65.476416 38.121217 49.312359
H  65.729721 40.08445 49.632561
C  59.9493 24.8723 62.844
N  60.099877 25.25752 61.579946
H  59.78936 25.920022 62.2762
H  60.296046 24.302482 61.843613
N  59.540401 25.744704 63.760849
H  59.73657 24.789666 64.024516
H  59.654749 26.03724 62.800928
N  60.207621 23.614676 63.191205
H  60.32197 23.907211 62.231284
H  59.897104 24.277178 63.887459
C  63.7885 30.5653 65.2994
N  63.939077 30.95052 64.035346
H  63.62856 31.613022 64.7316
H  64.135246 29.995482 64.299013
N  63.379601 31.437704 66.216249
H  63.57577 30.482666 66.479916
H  63.493949 31.73024 65.256328
N  64.046821 29.307676 65.646605
H  64.16117 29.600211 64.686684
H  63.736304 29.970178 66.342859
