88
-2 1 -839.6672953325666
C       60.96668979    30.14455016    61.88282921
H       62.00224498    30.51186876    61.90635712
H       60.47990644    30.48889058    60.95933198
C       60.15969695    30.69460238    63.04445645
C       60.92449675    30.96177286    64.32942581
O       61.47029127    32.09235008    64.40665345
O       61.01325401    30.01952040    65.16251279
O       58.95854325    30.89553704    62.97468834
C       58.70721857    27.75841887    61.26213918
H       57.66737350    27.53416597    61.53568563
C       59.62335836    28.07967451    62.19485940
H       59.31912357    28.18194549    63.24493433
C       61.00824882    28.57653052    61.84733140
C       61.39187511    28.15347346    60.43756719
H       62.44894301    28.24122646    60.16659025
C       60.49728417    27.76656017    59.52195134
H       60.82097510    27.52655207    58.50335414
C       59.01409655    27.70335754    59.79097764
H       58.54310262    28.59886056    59.32709779
O       58.39579904    26.51923283    59.30173292
H       58.53110276    26.47689992    58.33971593
C       62.07992082    27.95293879    62.80921447
O       61.91072452    26.74213720    63.12073211
O       63.05994704    28.63613397    63.16714318
C       55.34650000    24.98890000    48.81730000
O       56.53032500    25.05067600    48.42076300
O       54.63521600    23.96151700    48.84985900
H       54.88852100    25.92475000    49.17006100
C       49.61040000    27.39540000    60.43760000
N       49.76097700    27.78062000    59.17354600
H       49.45046000    28.44312200    59.86980000
H       49.95714600    26.82558200    59.43721300
N       49.20150100    28.26780400    61.35444900
H       49.39767000    27.31276600    61.61811600
H       49.31584900    28.56034000    60.39452800
N       49.86872100    26.13777600    60.78480500
H       49.98307000    26.43031100    59.82488400
H       49.55820400    26.80027800    61.48105900
C       63.91120000    25.57240000    47.14740000
O       65.09502500    25.63417600    46.75086300
O       63.19991600    24.54501700    47.17995900
H       63.45322100    26.50825000    47.50016100
C       58.03000000    43.79960000    62.70240000
N       58.18057700    44.18482000    61.43834600
H       57.87006000    44.84732200    62.13460000
H       58.37674600    43.22978200    61.70201300
N       57.62110100    44.67200400    63.61924900
H       57.81727000    43.71696600    63.88291600
H       57.73544900    44.96454000    62.65932800
N       58.28832100    42.54197600    63.04960500
H       58.40267000    42.83451100    62.08968400
H       57.97780400    43.20447800    63.74585900
C       62.44200000    33.85930000    44.24510000
O       63.62582500    33.92107600    43.84856300
O       61.73071600    32.83191700    44.27765900
H       61.98402100    34.79515000    44.59786100
C       69.88190000    27.17100000    54.68990000
O       71.06572500    27.23277600    54.29336300
O       69.17061600    26.14361700    54.72245900
H       69.42392100    28.10685000    55.04266100
C       70.79600000    30.77500000    57.72660000
O       71.97982500    30.83677600    57.33006300
O       70.08471600    29.74761700    57.75915900
H       70.33802100    31.71085000    58.07936100
C       66.18770000    39.14860000    49.27980000
O       67.37152500    39.21037600    48.88326300
O       65.47641600    38.12121700    49.31235900
H       65.72972100    40.08445000    49.63256100
C       59.94930000    24.87230000    62.84400000
N       60.09987700    25.25752000    61.57994600
H       59.78936000    25.92002200    62.27620000
H       60.29604600    24.30248200    61.84361300
N       59.54040100    25.74470400    63.76084900
H       59.73657000    24.78966600    64.02451600
H       59.65474900    26.03724000    62.80092800
N       60.20762100    23.61467600    63.19120500
H       60.32197000    23.90721100    62.23128400
H       59.89710400    24.27717800    63.88745900
C       63.78850000    30.56530000    65.29940000
N       63.93907700    30.95052000    64.03534600
H       63.62856000    31.61302200    64.73160000
H       64.13524600    29.99548200    64.29901300
N       63.37960100    31.43770400    66.21624900
H       63.57577000    30.48266600    66.47991600
H       63.49394900    31.73024000    65.25632800
N       64.04682100    29.30767600    65.64660500
H       64.16117000    29.60021100    64.68668400
H       63.73630400    29.97017800    66.34285900
