25
Coordinates from ORCA-job job
  C          44.52457949182948     22.15692004487803     41.02832240305604
  H          44.93240468255370     22.25952696631303     40.02048592318103
  H          44.97819443313328     22.71501922347659     41.84931871055868
  C          43.45554687786430     21.39386847840210     41.29756570502295
  C          42.81021259241974     21.34893874251900     42.69208316477074
  O          43.52843344257791     21.45340555850690     43.68900004823996
  O          41.53194123942008     21.21235899924458     42.67898695558078
  O          42.79750933381094     20.60254141993149     40.38565443116490
  C          42.28660556398672     21.17496166583743     39.15750793413953
  H          41.59905055423711     20.38035863389628     38.79533704171404
  C          43.29951831599899     21.45756886931524     38.08052786079445
  H          44.24593157710154     20.91129671864315     38.03537388433475
  C          42.97633968800714     22.26834160454040     37.05131323432796
  C          41.67110816308958     22.94586866720343     37.06063829335768
  H          41.40176077270562     23.44332803689762     36.12529566255695
  C          40.90142237123985     22.98019521240107     38.16575912018568
  H          39.95878158122646     23.53673586433401     38.21179760223377
  C          41.39457181446719     22.37973553973098     39.46014516704582
  H          42.03554601365270     23.14913883512219     39.95029997438797
  O          40.33333909067697     22.01694909534046     40.32060214711463
  H          40.75082566805564     21.77729131348325     41.18479495449258
  C          43.91176023290426     22.44157729719738     35.81588837422128
  O          45.03275127067668     21.90065351720277     35.90597047343862
  O          43.40586522836286     23.09341969558197     34.87233093407804
  N          40.83200000000000     18.75000000000000     42.55100000000000
