25
Coordinates from ORCA-job job E -836.340705524819
  C      44.842000     22.068000     40.142000
  H      45.265000     21.440000     39.358000
  H      45.368000     22.976000     40.435000
  C      43.689000     21.758000     40.746000
  C      43.115000     22.623000     41.859000
  O      43.577000     23.785000     42.012000
  O      42.221000     22.117000     42.579000
  O      42.985000     20.610000     40.433000
  C      42.079000     20.646000     39.270000
  H      41.683000     19.622000     39.219000
  C      42.892000     20.975000     38.054000
  H      43.551000     20.209000     37.638000
  C      42.969000     22.244000     37.605000
  C      42.118000     23.281000     38.202000
  H      42.307000     24.301000     37.867000
  C      41.188000     23.002000     39.130000
  H      40.598000     23.809000     39.575000
  C      40.887000     21.588000     39.553000
  H      40.742000     21.566000     40.644000
  O      39.715000     21.144000     38.884000
  H      39.068000     20.737000     39.535000
  C      44.024000     22.694000     36.600000
  O      44.937000     21.905000     36.259000
  O      43.944000     23.900000     36.236000
  N      40.832000     18.750000     42.551000
25
Coordinates from ORCA-job job E -836.359811189461
  C      44.804874     22.239328     40.292929
  H      45.275116     21.756308     39.434354
  H      45.249649     23.148891     40.698950
  C      43.675328     21.772987     40.843528
  C      43.004360     22.422651     42.055991
  O      43.372499     23.574730     42.378107
  O      42.137100     21.711377     42.648148
  O      43.033355     20.622765     40.414039
  C      42.137530     20.685373     39.250483
  H      41.723717     19.661249     39.221817
  C      42.891427     20.975507     37.988320
  H      43.510818     20.186226     37.554970
  C      42.965158     22.220265     37.481695
  C      42.172895     23.293621     38.089601
  H      42.361219     24.295088     37.698978
  C      41.292741     23.063882     39.081917
  H      40.740683     23.894187     39.533103
  C      40.985221     21.667127     39.562177
  H      40.897425     21.673873     40.664518
  O      39.758718     21.224818     38.970171
  H      39.175106     20.870703     39.661135
  C      43.958324     22.580784     36.370770
  O      44.779494     21.703065     36.015274
  O      43.861242     23.755196     35.924024
  N      40.832000     18.750000     42.551000
25
Coordinates from ORCA-job job E -836.371332678073
  C      44.690641     22.424465     40.369849
  H      45.148685     22.100749     39.431219
  H      45.062167     23.327094     40.860379
  C      43.644119     21.788519     40.915229
  C      42.956803     22.190740     42.239534
  O      43.220542     23.311484     42.703447
  O      42.185733     21.292784     42.730049
  O      43.077391     20.637920     40.399117
  C      42.186770     20.726137     39.249078
  H      41.757133     19.705913     39.240866
  C      42.909675     20.975566     37.962864
  H      43.501117     20.164586     37.529100
  C      42.979746     22.192902     37.393870
  C      42.225995     23.301549     37.983699
  H      42.411345     24.280113     37.533562
  C      41.382199     23.125663     39.019608
  H      40.854779     23.979372     39.457496
  C      41.068142     21.751616     39.562891
  H      41.015980     21.791518     40.667072
  O      39.797898     21.316501     39.038544
  H      39.262549     21.020026     39.776233
  C      43.919154     22.462008     36.197731
  O      44.686131     21.525295     35.881069
  O      43.819309     23.607480     35.692493
  N      40.832000     18.750000     42.551000
25
Coordinates from ORCA-job job E -836.379620584735
  C      44.602283     22.580162     40.598028
  H      45.064725     22.440699     39.617126
  H      44.891732     23.440798     41.207260
  C      43.627028     21.782175     41.053438
  C      42.919527     21.910238     42.438881
  O      43.115908     22.948188     43.078724
  O      42.151231     20.921352     42.738230
  O      43.153210     20.671153     40.384076
  C      42.272175     20.801711     39.242388
  H      41.810686     19.795664     39.254492
  C      42.967108     20.996377     37.930316
  H      43.535961     20.162918     37.507851
  C      42.989610     22.168824     37.267913
  C      42.250115     23.309893     37.812046
  H      42.395013     24.251020     37.273501
  C      41.464297     23.202692     38.900317
  H      40.944094     24.077904     39.304062
  C      41.182928     21.867375     39.544719
  H      41.174931     21.962023     40.644089
  O      39.874131     21.413207     39.129533
  H      39.399356     21.189338     39.938661
  C      43.822196     22.337014     35.963379
  O      44.527191     21.354391     35.649599
  O      43.628563     23.414884     35.356371
  N      40.832000     18.750000     42.551000
25
Coordinates from ORCA-job job E -836.380820482496
  C      44.485721     22.646155     40.709778
  H      44.896488     22.609208     39.698166
  H      44.757770     23.473763     41.368751
  C      43.577794     21.764713     41.144609
  C      42.959154     21.791999     42.578577
  O      43.379681     22.664466     43.346583
  O      42.231435     20.784799     42.880518
  O      43.157094     20.685764     40.387361
  C      42.292793     20.851536     39.233444
  H      41.780168     19.869205     39.234490
  C      43.017679     21.008572     37.927452
  H      43.593635     20.165612     37.533936
  C      43.004659     22.147295     37.205183
  C      42.242415     23.299834     37.692498
  H      42.356369     24.211077     37.098710
  C      41.461475     23.234539     38.784917
  H      40.915173     24.114316     39.141565
  C      41.213434     21.935560     39.499947
  H      41.215838     22.083723     40.591331
  O      39.900542     21.446923     39.133827
  H      39.441026     21.279103     39.964478
  C      43.752738     22.257629     35.841429
  O      44.525277     21.313760     35.572478
  O      43.605642     23.360448     35.264972
  N      40.832000     18.750000     42.551000
25
Coordinates from ORCA-job job E -836.382699150757
  C      44.402334     22.582541     40.656099
  H      44.717755     22.546963     39.611343
  H      44.724023     23.407709     41.291032
  C      43.551849     21.688275     41.165834
  C      43.107217     21.789504     42.649166
  O      43.592498     22.717369     43.313724
  O      42.216006     20.990434     43.042391
  O      43.126331     20.616642     40.395649
  C      42.274603     20.840913     39.233600
  H      41.704383     19.891488     39.167898
  C      43.079079     21.016493     37.971879
  H      43.682288     20.185773     37.592813
  C      43.070731     22.166269     37.262855
  C      42.270784     23.304385     37.726742
  H      42.391599     24.221286     37.145069
  C      41.437475     23.218977     38.775279
  H      40.851869     24.082280     39.109022
  C      41.192382     21.922677     39.478012
  H      41.160224     22.076386     40.566899
  O      39.899730     21.412985     39.063779
  H      39.401034     21.251136     39.866636
  C      43.812066     22.316444     35.902508
  O      44.507477     21.347791     35.531061
  O      43.590263     23.405280     35.315708
  N      40.832000     18.750000     42.551000
25
Coordinates from ORCA-job job E -836.388487134878
  C      44.496279     22.567595     40.699263
  H      44.899041     22.502804     39.684914
  H      44.794750     23.391613     41.349681
  C      43.590284     21.693694     41.159584
  C      42.975317     21.794876     42.583382
  O      43.446605     22.655915     43.333201
  O      42.009301     20.999687     42.825682
  O      43.148874     20.625994     40.400821
  C      42.318852     20.858967     39.241203
  H      41.765006     19.901783     39.167422
  C      43.104004     21.052438     37.973858
  H      43.727569     20.235833     37.597216
  C      43.050092     22.182344     37.239244
  C      42.232629     23.309094     37.697435
  H      42.323809     24.216262     37.093893
  C      41.428351     23.225355     38.771380
  H      40.831512     24.081118     39.106186
  C      41.231991     21.935080     39.507585
  H      41.240079     22.103312     40.597499
  O      39.920901     21.401992     39.169853
  H      39.472892     21.270157     40.007657
  C      43.781954     22.309830     35.865590
  O      44.454555     21.318448     35.518937
  O      43.519351     23.365808     35.243515
  N      40.832000     18.750000     42.551000
25
Coordinates from ORCA-job job E -836.388148735650
  C      44.515039     22.562293     40.712117
  H      44.932446     22.503303     39.703632
  H      44.810387     23.377441     41.375484
  C      43.602288     21.683528     41.154599
  C      42.950488     21.767654     42.558265
  O      43.407227     22.613385     43.334133
  O      41.906587     21.044859     42.710240
  O      43.154738     20.617603     40.398645
  C      42.331437     20.862444     39.237665
  H      41.768283     19.911733     39.156942
  C      43.103100     21.057843     37.963173
  H      43.734821     20.245965     37.590189
  C      43.023191     22.174127     37.212719
  C      42.195971     23.295610     37.664311
  H      42.269171     24.194648     37.046255
  C      41.412335     23.219171     38.755280
  H      40.813122     24.073473     39.089617
  C      41.253686     21.942385     39.526552
  H      41.307029     22.134038     40.611865
  O      39.928566     21.393895     39.267399
  H      39.518563     21.301837     40.131996
  C      43.748061     22.290628     35.833009
  O      44.516548     21.349029     35.552431
  O      43.560915     23.383108     35.248480
  N      40.832000     18.750000     42.551000
25
Coordinates from ORCA-job job E -836.391403205176
  C      44.465649     22.568744     40.713774
  H      44.853537     22.530866     39.693360
  H      44.774652     23.370940     41.385826
  C      43.577122     21.670038     41.164349
  C      42.954220     21.737848     42.575290
  O      43.536721     22.430059     43.418787
  O      41.898506     21.035944     42.733985
  O      43.128323     20.607172     40.407290
  C      42.331435     20.882380     39.231583
  H      41.746280     19.949943     39.116735
  C      43.134175     21.080500     37.976744
  H      43.797631     20.280151     37.634884
  C      43.035657     22.177283     37.200418
  C      42.164632     23.282709     37.606838
  H      42.224802     24.168161     36.968490
  C      41.370121     23.213793     38.690582
  H      40.746390     24.060812     38.997460
  C      41.258325     21.968169     39.518425
  H      41.350202     22.208551     40.588927
  O      39.928307     21.392455     39.350648
  H      39.547029     21.376149     40.240991
  C      43.799911     22.297009     35.841577
  O      44.566478     21.352140     35.564334
  O      43.573895     23.358184     35.213702
  N      40.832000     18.750000     42.551000
25
Coordinates from ORCA-job job E -836.392911552393
  C      44.500482     22.508673     40.737723
  H      44.894187     22.462645     39.719142
  H      44.826308     23.299748     41.414973
  C      43.583936     21.635396     41.179119
  C      42.945094     21.732779     42.584948
  O      43.561065     22.370774     43.444745
  O      41.815156     21.150657     42.710420
  O      43.113747     20.592096     40.408390
  C      42.339734     20.899459     39.226165
  H      41.754229     19.970696     39.082550
  C      43.166441     21.116199     37.990105
  H      43.860476     20.333741     37.667024
  C      43.040165     22.197654     37.194801
  C      42.119332     23.274791     37.566909
  H      42.149770     24.146446     36.907267
  C      41.319629     23.199758     38.645778
  H      40.662587     24.029439     38.930826
  C      41.258688     21.978895     39.512099
  H      41.376351     22.257329     40.568889
  O      39.933515     21.371219     39.418858
  H      39.588381     21.408742     40.316417
  C      43.824124     22.327958     35.847629
  O      44.590096     21.382015     35.575300
  O      43.540508     23.352891     35.184927
  N      40.832000     18.750000     42.551000
25
Coordinates from ORCA-job job E -836.395133674060
  C      44.436520     22.513785     40.796313
  H      44.798559     22.538536     39.765135
  H      44.761796     23.273201     41.508846
  C      43.565850     21.584987     41.213536
  C      42.955249     21.605818     42.635187
  O      43.561945     22.234340     43.509720
  O      41.819281     21.038582     42.752628
  O      43.105346     20.576566     40.393092
  C      42.353792     20.934626     39.206333
  H      41.747227     20.024380     39.035164
  C      43.204391     21.149138     37.985849
  H      43.923781     20.376956     37.694474
  C      43.046408     22.197485     37.151325
  C      42.075725     23.248419     37.470781
  H      42.069221     24.088271     36.770477
  C      41.283237     23.192449     38.555356
  H      40.599093     24.011220     38.807789
  C      41.293413     22.032097     39.500511
  H      41.485172     22.388725     40.519887
  O      39.971942     21.414499     39.581217
  H      39.705606     21.566235     40.491151
  C      43.848545     22.321382     35.815901
  O      44.627957     21.381438     35.561611
  O      43.523944     23.306865     35.112718
  N      40.832000     18.750000     42.551000
25
Coordinates from ORCA-job job E -836.400581328367
  C      44.447863     22.448625     40.835633
  H      44.823078     22.485649     39.809647
  H      44.788214     23.179783     41.570362
  C      43.548924     21.533221     41.221684
  C      42.897690     21.557940     42.619526
  O      43.535666     22.061798     43.551796
  O      41.699305     21.119635     42.664978
  O      43.065168     20.550831     40.386610
  C      42.361749     20.963457     39.185196
  H      41.742399     20.071660     38.970898
  C      43.240494     21.199111     37.990591
  H      44.008608     20.459576     37.742391
  C      43.031977     22.203944     37.114103
  C      41.974807     23.188922     37.369313
  H      41.909086     23.985920     36.623572
  C      41.191194     23.137065     38.462110
  H      40.457708     23.923213     38.678432
  C      41.324351     22.070155     39.503692
  H      41.625278     22.535068     40.450192
  O      40.046023     21.446031     39.840994
  H      39.896781     21.743743     40.746366
  C      43.874476     22.350940     35.806981
  O      44.741827     21.474571     35.615148
  O      43.531332     23.309144     35.074787
  N      40.832000     18.750000     42.551000
25
Coordinates from ORCA-job job E -836.403455220460
  C      44.538367     22.318081     40.889326
  H      44.998926     22.299745     39.898354
  H      44.885478     23.031231     41.639192
  C      43.528412     21.497240     41.212737
  C      42.754708     21.616027     42.535328
  O      43.356100     22.007260     43.544007
  O      41.510994     21.320352     42.442866
  O      43.009134     20.535772     40.378628
  C      42.359155     20.982083     39.156814
  H      41.739770     20.096194     38.914001
  C      43.255686     21.249013     37.985261
  H      44.067977     20.547770     37.771683
  C      42.995192     22.214667     37.080684
  C      41.854805     23.116425     37.293259
  H      41.720221     23.868793     36.511497
  C      41.091490     23.056932     38.402288
  H      40.309375     23.801304     38.596389
  C      41.363509     22.091476     39.519277
  H      41.791250     22.661742     40.359728
  O      40.188096     21.474726     40.119764
  H      40.216734     21.827401     41.028476
  C      43.863035     22.396878     35.797961
  O      44.844115     21.631459     35.690339
  O      43.521472     23.357429     35.067140
  N      40.832000     18.750000     42.551000
25
Coordinates from ORCA-job job E -836.407340950428
  C      44.491865     22.331091     40.895730
  H      44.867281     22.380626     39.870396
  H      44.901644     22.995389     41.658939
  C      43.508408     21.488636     41.248465
  C      42.877721     21.505007     42.654666
  O      43.596836     21.804387     43.615401
  O      41.631622     21.204987     42.684896
  O      42.938612     20.565330     40.398565
  C      42.324610     21.029946     39.159024
  H      41.708983     20.147517     38.892421
  C      43.258967     21.292697     38.015892
  H      44.095587     20.607683     37.849170
  C      43.003428     22.223452     37.073454
  C      41.832220     23.099591     37.220522
  H      41.695840     23.814428     36.404504
  C      41.037405     23.055674     38.308432
  H      40.224028     23.777656     38.452624
  C      41.316836     22.144894     39.467752
  H      41.740744     22.761934     40.279200
  O      40.142824     21.544401     40.083478
  H      40.195940     21.891868     40.990453
  C      43.904047     22.382686     35.809392
  O      44.904239     21.636467     35.761218
  O      43.564313     23.313653     35.040405
  N      40.832000     18.750000     42.551000
25
Coordinates from ORCA-job job E -836.411299208157
  C      44.431143     22.310624     40.872049
  H      44.774816     22.377667     39.836936
  H      44.855724     22.971160     41.629492
  C      43.472592     21.448226     41.244705
  C      42.878938     21.462861     42.663115
  O      43.624590     21.756727     43.606568
  O      41.632657     21.187625     42.731468
  O      42.881516     20.540832     40.394164
  C      42.306408     21.039681     39.149290
  H      41.672963     20.182302     38.848989
  C      43.275248     21.309506     38.037490
  H      44.133154     20.643647     37.904286
  C      43.014486     22.224709     37.079564
  C      41.812308     23.066990     37.191504
  H      41.660707     23.755683     36.356307
  C      41.008954     23.028332     38.274295
  H      40.172633     23.727623     38.394951
  C      41.330623     22.176060     39.465311
  H      41.818473     22.833133     40.209348
  O      40.186718     21.629908     40.172921
  H      40.348954     21.922278     41.088869
  C      43.941489     22.412311     35.841626
  O      44.955247     21.683865     35.798636
  O      43.573657     23.308249     35.043116
  N      40.832000     18.750000     42.551000
25
Coordinates from ORCA-job job E -836.415059454808
  C      44.413314     22.279798     40.807450
  H      44.775544     22.295428     39.777685
  H      44.838575     22.972126     41.534666
  C      43.434481     21.452128     41.210381
  C      42.833783     21.554430     42.619783
  O      43.580013     21.920682     43.536811
  O      41.595851     21.266138     42.713436
  O      42.817839     20.532219     40.394205
  C      42.268937     21.016674     39.137630
  H      41.619772     20.175032     38.822387
  C      43.266411     21.292437     38.050348
  H      44.128426     20.630717     37.926625
  C      43.023521     22.231843     37.113918
  C      41.831350     23.085605     37.235126
  H      41.684238     23.783957     36.407770
  C      41.022250     23.046377     38.312188
  H      40.188474     23.747356     38.430826
  C      41.348282     22.170128     39.490882
  H      41.923562     22.811580     40.200791
  O      40.204940     21.640912     40.174294
  H      40.455623     21.626225     41.124995
  C      43.958873     22.436965     35.891284
  O      44.962609     21.696274     35.825835
  O      43.587331     23.334969     35.095685
  N      40.832000     18.750000     42.551000
25
Coordinates from ORCA-job job E -836.420203386260
  C      44.467158     22.189516     40.915751
  H      44.856923     22.237905     39.897474
  H      44.915815     22.813795     41.689225
  C      43.431262     21.405938     41.255481
  C      42.798696     21.480659     42.655741
  O      43.532145     21.766334     43.605812
  O      41.539582     21.265710     42.701889
  O      42.771798     20.557285     40.399061
  C      42.272107     21.078940     39.131518
  H      41.621674     20.248276     38.788201
  C      43.287888     21.368768     38.064882
  H      44.187520     20.752097     37.979840
  C      42.998806     22.251948     37.084165
  C      41.739312     23.016273     37.143081
  H      41.543722     23.640871     36.267661
  C      40.931710     22.991498     38.222547
  H      40.046364     23.631968     38.302738
  C      41.361189     22.251024     39.458535
  H      41.987228     22.970156     40.033218
  O      40.306098     21.797835     40.301895
  H      40.716173     21.737210     41.194865
  C      43.941680     22.466104     35.865722
  O      44.991868     21.790760     35.857053
  O      43.517283     23.289132     35.018643
  N      40.832000     18.750000     42.551000
25
Coordinates from ORCA-job job E -836.421746240967
  C      44.532841     22.151172     40.955122
  H      44.927805     22.210771     39.938904
  H      44.996202     22.742734     41.745865
  C      43.470490     21.397365     41.273544
  C      42.835727     21.444306     42.672371
  O      43.549054     21.737386     43.635031
  O      41.579986     21.188022     42.697064
  O      42.779971     20.584675     40.408073
  C      42.267531     21.120422     39.149348
  H      41.624175     20.285302     38.805561
  C      43.284070     21.405195     38.081322
  H      44.194228     20.803120     38.005936
  C      42.987913     22.265608     37.082831
  C      41.712393     22.999632     37.109923
  H      41.504243     23.582424     36.208828
  C      40.898192     22.990264     38.184600
  H      39.987362     23.597420     38.231977
  C      41.329947     22.302565     39.449900
  H      41.938459     23.049641     40.003583
  O      40.251914     21.891042     40.285550
  H      40.665563     21.722784     41.167505
  C      43.937630     22.463709     35.862859
  O      45.011157     21.827151     35.900428
  O      43.497147     23.237290     34.978876
  N      40.832000     18.750000     42.551000
25
Coordinates from ORCA-job job E -836.422571689617
  C      44.538923     22.133957     40.999898
  H      44.956424     22.204320     39.993437
  H      44.998028     22.700615     41.811475
  C      43.456533     21.396253     41.286066
  C      42.811912     21.418376     42.685205
  O      43.527916     21.634282     43.664480
  O      41.541067     21.229399     42.690561
  O      42.776664     20.597110     40.400677
  C      42.278929     21.146664     39.149716
  H      41.620684     20.327294     38.789345
  C      43.297960     21.439770     38.084760
  H      44.226209     20.865648     38.018034
  C      42.980043     22.275781     37.072812
  C      41.686622     22.976024     37.089020
  H      41.449197     23.515936     36.168496
  C      40.886857     22.980062     38.174104
  H      39.953420     23.551996     38.215037
  C      41.363612     22.339617     39.450383
  H      42.000578     23.103992     39.953946
  O      40.306303     21.955734     40.306633
  H      40.736476     21.704616     41.164508
  C      43.917679     22.461262     35.839391
  O      45.003716     21.848715     35.890934
  O      43.448249     23.192575     34.936083
  N      40.832000     18.750000     42.551000
25
Coordinates from ORCA-job job E -836.422834081614
  C      44.535889     22.142342     41.034852
  H      44.961210     22.233669     40.033274
  H      44.985198     22.693769     41.862585
  C      43.452889     21.397165     41.296897
  C      42.803517     21.377760     42.695399
  O      43.516462     21.538079     43.687089
  O      41.527785     21.212326     42.686313
  O      42.792311     20.604202     40.390703
  C      42.293296     21.164168     39.151740
  H      41.623357     20.354562     38.785965
  C      43.306228     21.457550     38.079190
  H      44.243595     20.898484     38.012461
  C      42.975568     22.276216     37.057846
  C      41.674665     22.959807     37.071469
  H      41.418818     23.473774     36.140954
  C      40.891448     22.978225     38.167731
  H      39.949211     23.535187     38.211066
  C      41.386355     22.359607     39.449788
  H      42.023594     23.130481     39.944889
  O      40.332272     21.982269     40.309488
  H      40.753671     21.776613     41.180010
  C      43.903160     22.448313     35.812897
  O      45.000486     21.858352     35.876287
  O      43.413015     23.147079     34.896107
  N      40.832000     18.750000     42.551000
25
Coordinates from ORCA-job job E -836.422974529758
  C      44.524184     22.146940     41.020407
  H      44.935246     22.241591     40.013128
  H      44.976946     22.705060     41.841773
  C      43.448596     21.394379     41.293616
  C      42.811768     21.367768     42.694091
  O      43.533149     21.509352     43.684547
  O      41.536506     21.203284     42.692017
  O      42.784449     20.601284     40.389243
  C      42.283584     21.167889     39.154692
  H      41.604945     20.367090     38.788966
  C      43.299425     21.453351     38.082187
  H      44.240124     20.898532     38.024238
  C      42.975100     22.269159     37.056903
  C      41.672543     22.949969     37.065423
  H      41.413003     23.455871     36.131745
  C      40.895545     22.977750     38.166431
  H      39.953096     23.534171     38.209563
  C      41.389539     22.370359     39.456034
  H      42.033329     23.140201     39.944347
  O      40.333504     22.007703     40.322949
  H      40.755772     21.770411     41.184664
  C      43.913285     22.447090     35.821400
  O      45.028285     21.892630     35.905407
  O      43.422077     23.128162     34.891228
  N      40.832000     18.750000     42.551000
25
Coordinates from ORCA-job job E -836.423014430729
  C      44.530180     22.150159     41.023326
  H      44.940873     22.246644     40.016123
  H      44.978207     22.713170     41.844014
  C      43.458520     21.391228     41.294789
  C      42.810472     21.362441     42.688247
  O      43.524320     21.487899     43.686038
  O      41.532934     21.218274     42.672539
  O      42.800027     20.597421     40.385928
  C      42.286354     21.169029     39.158894
  H      41.601029     20.374036     38.794260
  C      43.297348     21.451703     38.079692
  H      44.242818     20.904265     38.024134
  C      42.974062     22.267955     37.054712
  C      41.671620     22.948856     37.065157
  H      41.407037     23.451088     36.130899
  C      40.901135     22.980916     38.169982
  H      39.959093     23.538045     38.216380
  C      41.393208     22.373726     39.461882
  H      42.033038     23.140528     39.956001
  O      40.327741     22.010132     40.318094
  H      40.737195     21.768288     41.184012
  C      43.913432     22.447741     35.821170
  O      45.031610     21.900172     35.908318
  O      43.411745     23.106285     34.880407
  N      40.832000     18.750000     42.551000
25
Coordinates from ORCA-job job E -836.423042535593
  C      44.525656     22.152055     41.024046
  H      44.934170     22.251252     40.016198
  H      44.977542     22.711205     41.845257
  C      43.454793     21.392000     41.295696
  C      42.811009     21.356587     42.691105
  O      43.528969     21.476557     43.686371
  O      41.533501     21.211872     42.680274
  O      42.795169     20.599545     40.386245
  C      42.285295     21.171714     39.157777
  H      41.599723     20.376655     38.792930
  C      43.298506     21.455002     38.081026
  H      44.244912     20.909039     38.029827
  C      42.975151     22.268353     37.053788
  C      41.670961     22.946982     37.062477
  H      41.404784     23.446157     36.127065
  C      40.900041     22.979512     38.167019
  H      39.957194     23.535539     38.212814
  C      41.393631     22.376771     39.460086
  H      42.035111     23.145328     39.950662
  O      40.332061     22.014601     40.320954
  H      40.748073     21.773917     41.185264
  C      43.913467     22.445328     35.819981
  O      45.032221     21.899354     35.908672
  O      43.412059     23.104676     34.879465
  N      40.832000     18.750000     42.551000
25
Coordinates from ORCA-job job E -836.423047152357
  C      44.525268     22.153695     41.025834
  H      44.933615     22.253986     40.018034
  H      44.978296     22.711848     41.847100
  C      43.454827     21.392853     41.296499
  C      42.810397     21.353450     42.691547
  O      43.528650     21.467364     43.687308
  O      41.532584     21.211676     42.680048
  O      42.795657     20.600896     40.385989
  C      42.285577     21.173181     39.157518
  H      41.599241     20.378212     38.793846
  C      43.298832     21.456355     38.080832
  H      44.245684     20.911065     38.032381
  C      42.975586     22.268401     37.052601
  C      41.670674     22.946239     37.061360
  H      41.402973     23.444340     36.125854
  C      40.900413     22.979440     38.166205
  H      39.957601     23.535644     38.212298
  C      41.393993     22.378172     39.459973
  H      42.035348     23.147202     39.950150
  O      40.333027     22.015684     40.321187
  H      40.750672     21.776000     41.185328
  C      43.912771     22.443720     35.818369
  O      45.032614     21.900257     35.908050
  O      43.409701     23.100322     34.876689
  N      40.832000     18.750000     42.551000
25
Coordinates from ORCA-job job E -836.423049124987
  C      44.524871     22.155734     41.027491
  H      44.932861     22.257453     40.019656
  H      44.978507     22.713645     41.848602
  C      43.455298     21.393543     41.297240
  C      42.810288     21.350298     42.691946
  O      43.528674     21.457933     43.688353
  O      41.532166     21.211995     42.679582
  O      42.796820     20.602026     40.385734
  C      42.286158     21.174467     39.157484
  H      41.598981     20.379747     38.794880
  C      43.299274     21.457361     38.080702
  H      44.246083     20.911843     38.034662
  C      42.976136     22.268410     37.051682
  C      41.670863     22.945907     37.060724
  H      41.401942     23.443428     36.125286
  C      40.901060     22.979859     38.165766
  H      39.958358     23.536305     38.211926
  C      41.394278     22.379324     39.460046
  H      42.035315     23.148624     39.950264
  O      40.333111     22.016590     40.320701
  H      40.750887     21.777132     41.184895
  C      43.912140     22.442230     35.816771
  O      45.032833     21.900676     35.906884
  O      43.407097     23.095471     34.873722
  N      40.832000     18.750000     42.551000
25
Coordinates from ORCA-job job E -836.423049648071
  C      44.524579     22.156920     41.028322
  H      44.932405     22.259527     40.020486
  H      44.978194     22.715019     41.849319
  C      43.455547     21.393868     41.297566
  C      42.810213     21.348939     42.692083
  O      43.528433     21.453406     43.689000
  O      41.531941     21.212359     42.678987
  O      42.797509     20.602541     40.385654
  C      42.286606     21.174962     39.157508
  H      41.599051     20.380359     38.795337
  C      43.299518     21.457569     38.080528
  H      44.245932     20.911297     38.035374
  C      42.976340     22.268342     37.051313
  C      41.671108     22.945869     37.060638
  H      41.401761     23.443328     36.125296
  C      40.901422     22.980195     38.165759
  H      39.958782     23.536736     38.211798
  C      41.394572     22.379736     39.460145
  H      42.035546     23.149139     39.950300
  O      40.333339     22.016949     40.320602
  H      40.750826     21.777291     41.184795
  C      43.911760     22.441577     35.815888
  O      45.032751     21.900654     35.905970
  O      43.405865     23.093420     34.872331
  N      40.832000     18.750000     42.551000
