24
Coordinates from ORCA-job neb_MEP.QMRegion E -1077.142343015905
  C      43.964000     18.839000     35.243000
  H      44.196000     18.212000     34.380000
  H      44.680000     19.599000     35.553000
  C      42.809000     18.738000     35.905000
  C      42.486000     19.584000     37.121000
  O      43.054000     20.705000     37.232000
  O      41.673000     19.093000     37.941000
  O      41.855000     17.799000     35.564000
  C      40.866000     18.173000     34.540000
  H      40.218000     17.288000     34.472000
  C      41.631000     18.401000     33.278000
  H      42.074000     17.538000     32.781000
  C      41.987000     19.644000     32.900000
  C      41.454000     20.808000     33.614000
  H      41.843000     21.784000     33.318000
  C      40.564000     20.686000     34.615000
  H      40.203000     21.570000     35.147000
  C      39.984000     19.351000     35.009000
  H      39.931000     19.283000     36.109000
  O      38.681000     19.242000     34.446000
  H      38.052000     18.871000     35.132000
  C      43.076000     19.837000     31.861000
  O      43.784000     18.843000     31.575000
  O      43.271000     21.003000     31.419000
24
Coordinates from ORCA-job neb_MEP.QMRegion E -1077.151896019948
  C      43.960670     18.846737     35.241195
  H      44.192039     18.226910     34.374257
  H      44.674763     19.607081     35.554682
  C      42.808619     18.738063     35.906153
  C      42.483652     19.582331     37.123148
  O      43.048398     20.704477     37.233409
  O      41.674180     19.088636     37.945125
  O      41.856738     17.796859     35.564922
  C      40.866938     18.169149     34.542298
  H      40.219155     17.284409     34.474816
  C      41.631675     18.396788     33.279855
  H      42.076873     17.533088     32.784700
  C      41.984422     19.640058     32.899522
  C      41.449931     20.804746     33.611942
  H      41.838151     21.780875     33.314506
  C      40.562519     20.683107     34.614520
  H      40.203916     21.568036     35.146893
  C      39.984590     19.347702     35.010541
  H      39.932898     19.280092     36.110079
  O      38.681128     19.234952     34.449586
  H      38.053593     18.863466     35.136652
  C      43.075204     19.834321     31.862300
  O      43.786753     18.840938     31.578556
  O      43.270747     21.000005     31.420200
24
Coordinates from ORCA-job neb_MEP.QMRegion E -1077.155738217969
  C      43.930247     18.736113     35.176597
  H      44.137674     18.096900     34.317703
  H      44.650963     19.505314     35.448746
  C      42.795244     18.641227     35.873270
  C      42.495796     19.510360     37.080370
  O      43.059228     20.634807     37.159407
  O      41.707128     19.030522     37.931813
  O      41.835082     17.695779     35.566038
  C      40.823458     18.056014     34.552130
  H      40.191033     17.159749     34.482711
  C      41.576680     18.312852     33.287769
  H      42.013125     17.460722     32.765611
  C      41.943365     19.564933     32.950211
  C      41.411616     20.708835     33.699569
  H      41.805131     21.692506     33.437303
  C      40.516581     20.561244     34.692248
  H      40.155686     21.431573     35.247178
  C      39.934876     19.217459     35.051395
  H      39.892575     19.117901     36.148760
  O      38.626680     19.118964     34.497703
  H      37.985276     18.827249     35.207677
  C      43.032108     19.794649     31.916401
  O      43.762202     18.823010     31.603844
  O      43.203549     20.972479     31.497189
24
Coordinates from ORCA-job neb_MEP.QMRegion E -1077.138104481058
  C      43.845200     18.773958     35.072458
  H      44.094821     18.122643     34.234469
  H      44.486425     19.626792     35.285055
  C      42.770644     18.576039     35.858760
  C      42.497649     19.485629     37.057545
  O      43.061524     20.614095     37.107555
  O      41.722571     19.032326     37.936713
  O      41.839095     17.616293     35.591093
  C      40.691867     18.025692     34.434784
  H      40.087360     17.108795     34.369503
  C      41.526960     18.291094     33.273737
  H      41.907657     17.455052     32.690090
  C      42.064405     19.524477     33.114601
  C      41.550324     20.660447     33.885705
  H      42.026852     21.628698     33.725811
  C      40.518327     20.524387     34.734718
  H      40.096040     21.393653     35.245372
  C      39.868384     19.195810     35.010764
  H      39.880277     19.015103     36.095166
  O      38.529374     19.223075     34.533121
  H      37.903240     18.903352     35.251160
  C      43.096155     19.758066     32.030392
  O      43.788032     18.788166     31.642724
  O      43.218714     20.936441     31.594984
24
Coordinates from ORCA-job neb_MEP.QMRegion E -1077.124957241079
  C      43.829286     18.808091     35.026792
  H      44.105401     18.115332     34.233080
  H      44.467419     19.657391     35.246316
  C      42.796199     18.547626     35.884306
  C      42.506497     19.487667     37.065493
  O      43.060292     20.621851     37.102304
  O      41.726023     19.040306     37.941389
  O      41.964857     17.564215     35.688995
  C      40.580352     18.050726     34.309821
  H      40.047088     17.097009     34.332047
  C      41.508174     18.281863     33.282772
  H      41.901212     17.451962     32.698347
  C      42.114027     19.516219     33.179472
  C      41.563563     20.659638     33.905646
  H      42.035772     21.628435     33.740508
  C      40.510003     20.525214     34.727901
  H      40.081733     21.394165     35.233281
  C      39.849788     19.199178     34.986676
  H      39.886031     18.993975     36.068595
  O      38.499226     19.256413     34.541864
  H      37.885876     18.912241     35.260098
  C      43.112539     19.751342     32.057150
  O      43.787839     18.782016     31.645827
  O      43.208701     20.927350     31.608383
24
Coordinates from ORCA-job neb_MEP.QMRegion E -1077.122004384675
  C      43.787717     18.849944     34.957505
  H      44.113856     18.106561     34.232265
  H      44.438328     19.681087     35.205542
  C      42.810882     18.531070     35.899512
  C      42.511993     19.488460     37.073603
  O      43.060000     20.624744     37.097165
  O      41.731265     19.042413     37.947032
  O      42.068200     17.518400     35.767743
  C      40.502281     18.067955     34.222173
  H      40.007073     17.098205     34.291140
  C      41.499309     18.270946     33.301757
  H      41.899101     17.447154     32.712295
  C      42.178555     19.504127     33.257604
  C      41.578285     20.657649     33.928293
  H      42.043019     21.628464     33.755672
  C      40.503089     20.524540     34.721254
  H      40.067311     21.394209     35.219293
  C      39.833719     19.200020     34.966768
  H      39.887818     18.978383     36.047242
  O      38.474659     19.284800     34.551962
  H      37.871899     18.920259     35.268521
  C      43.128049     19.744160     32.084639
  O      43.788381     18.776213     31.648954
  O      43.198367     20.917507     31.623200
24
Coordinates from ORCA-job neb_MEP.QMRegion E -1077.124038623621
  C      43.722367     18.890446     34.874280
  H      44.111716     18.101129     34.231523
  H      44.401129     19.688581     35.166967
  C      42.806429     18.529022     35.895780
  C      42.514896     19.489084     37.075498
  O      43.064643     20.623130     37.092887
  O      41.737828     19.040883     37.948865
  O      42.119816     17.497046     35.806042
  C      40.475993     18.076570     34.183886
  H      39.987163     17.104248     34.262768
  C      41.503421     18.264878     33.316975
  H      41.901675     17.444994     32.720109
  C      42.251171     19.489595     33.332485
  C      41.595152     20.655561     33.947644
  H      42.049405     21.629509     33.764237
  C      40.504280     20.523896     34.715858
  H      40.058975     21.395593     35.202990
  C      39.830706     19.199764     34.958816
  H      39.888579     18.972439     36.038843
  O      38.468729     19.297878     34.555813
  H      37.869635     18.924463     35.269964
  C      43.142641     19.739450     32.103637
  O      43.791516     18.773473     31.647895
  O      43.190606     20.910327     31.632912
24
Coordinates from ORCA-job neb_MEP.QMRegion E -1077.130223864422
  C      43.647432     18.928111     34.788564
  H      44.102250     18.100218     34.235247
  H      44.356962     19.691073     35.127977
  C      42.795368     18.529875     35.889857
  C      42.515669     19.489266     37.078492
  O      43.068865     20.620184     37.091342
  O      41.742461     19.037777     37.951397
  O      42.163458     17.478316     35.841476
  C      40.457680     18.082774     34.156108
  H      39.968599     17.109973     34.237369
  C      41.508484     18.258912     33.331943
  H      41.903163     17.441969     32.727874
  C      42.325903     19.472814     33.408473
  C      41.611098     20.651267     33.967688
  H      42.053652     21.628938     33.773204
  C      40.505621     20.521541     34.712087
  H      40.050423     21.395490     35.187710
  C      39.827920     19.198005     34.954269
  H      39.887682     18.966470     36.034165
  O      38.464076     19.307549     34.560507
  H      37.867264     18.927458     35.271986
  C      43.154127     19.734788     32.121246
  O      43.792235     18.770749     31.647706
  O      43.180933     20.903404     31.642629
24
Coordinates from ORCA-job neb_MEP.QMRegion E -1077.143589015056
  C      43.554166     18.962831     34.693593
  H      44.077467     18.108923     34.239284
  H      44.279102     19.697697     35.069201
  C      42.780424     18.532761     35.878086
  C      42.520204     19.488965     37.080783
  O      43.077971     20.615472     37.088975
  O      41.749804     19.036073     37.954598
  O      42.233189     17.446547     35.889185
  C      40.438506     18.093449     34.122628
  H      39.935794     17.126522     34.188720
  C      41.521760     18.252435     33.352746
  H      41.909600     17.436477     32.742222
  C      42.409574     19.452125     33.492208
  C      41.640275     20.641840     33.998282
  H      42.066807     21.624976     33.793140
  C      40.513080     20.515301     34.707302
  H      40.039678     21.392753     35.157982
  C      39.825750     19.196091     34.946176
  H      39.887202     18.954774     36.024145
  O      38.459061     19.322772     34.568542
  H      37.862955     18.933253     35.275151
  C      43.168745     19.728025     32.147638
  O      43.795531     18.767864     31.649871
  O      43.165877     20.892608     31.660510
24
Coordinates from ORCA-job neb_MEP.QMRegion E -1077.157804401857
  C      43.418000     18.933000     34.623000
  H      44.024000     18.133000     34.176000
  H      44.041000     19.752000     34.981000
  C      42.779000     18.415000     35.872000
  C      42.499000     19.401000     37.056000
  O      43.043000     20.534000     37.032000
  O      41.756000     18.952000     37.956000
  O      42.503000     17.240000     36.006000
  C      40.271000     18.143000     33.977000
  H      39.650000     17.249000     33.898000
  C      41.433000     18.233000     33.329000
  H      41.821000     17.412000     32.726000
  C      42.368000     19.400000     33.524000
  C      41.634000     20.612000     34.027000
  H      42.126000     21.573000     33.879000
  C      40.462000     20.531000     34.660000
  H      39.984000     21.426000     35.069000
  C      39.731000     19.230000     34.868000
  H      39.863000     18.924000     35.927000
  O      38.354000     19.429000     34.599000
  H      37.790000     19.012000     35.315000
  C      43.129000     19.696000     32.184000
  O      43.791000     18.761000     31.682000
  O      43.091000     20.863000     31.707000
