24
Coordinates from ORCA-job neb_initial_path.QMRegion E   0.000000000000
  C      43.964000     18.839000     35.243000
  H      44.196000     18.212000     34.380000
  H      44.680000     19.599000     35.553000
  C      42.809000     18.738000     35.905000
  C      42.486000     19.584000     37.121000
  O      43.054000     20.705000     37.232000
  O      41.673000     19.093000     37.941000
  O      41.855000     17.799000     35.564000
  C      40.866000     18.173000     34.540000
  H      40.218000     17.288000     34.472000
  C      41.631000     18.401000     33.278000
  H      42.074000     17.538000     32.781000
  C      41.987000     19.644000     32.900000
  C      41.454000     20.808000     33.614000
  H      41.843000     21.784000     33.318000
  C      40.564000     20.686000     34.615000
  H      40.203000     21.570000     35.147000
  C      39.984000     19.351000     35.009000
  H      39.931000     19.283000     36.109000
  O      38.681000     19.242000     34.446000
  H      38.052000     18.871000     35.132000
  C      43.076000     19.837000     31.861000
  O      43.784000     18.843000     31.575000
  O      43.271000     21.003000     31.419000
24
Coordinates from ORCA-job neb_initial_path.QMRegion E   0.000000000000
  C      43.897667     18.869333     35.167333
  H      44.143000     18.225667     34.324000
  H      44.601333     19.643667     35.465333
  C      42.793667     18.715333     35.900333
  C      42.485333     19.576333     37.113000
  O      43.056000     20.697667     37.214333
  O      41.679667     19.092667     37.945000
  O      41.870000     17.762333     35.601333
  C      40.801333     18.158667     34.495000
  H      40.183667     17.256000     34.459000
  C      41.605000     18.383000     33.286000
  H      42.025000     17.527000     32.761333
  C      42.044667     19.618000     32.991667
  C      41.501333     20.784000     33.695000
  H      41.912000     21.756667     33.423333
  C      40.564667     20.665667     34.646333
  H      40.183667     21.549333     35.163000
  C      39.959333     19.335333     35.009333
  H      39.917667     19.238000     36.106667
  O      38.650000     19.266667     34.460333
  H      38.021667     18.885000     35.143333
  C      43.097333     19.817000     31.917000
  O      43.788000     18.824333     31.594667
  O      43.267333     20.983000     31.465333
24
Coordinates from ORCA-job neb_initial_path.QMRegion E   0.000000000000
  C      43.831333     18.899667     35.091667
  H      44.090000     18.239333     34.268000
  H      44.522667     19.688333     35.377667
  C      42.778333     18.692667     35.895667
  C      42.484667     19.568667     37.105000
  O      43.058000     20.690333     37.196667
  O      41.686333     19.092333     37.949000
  O      41.885000     17.725667     35.638667
  C      40.736667     18.144333     34.450000
  H      40.149333     17.224000     34.446000
  C      41.579000     18.365000     33.294000
  H      41.976000     17.516000     32.741667
  C      42.102333     19.592000     33.083333
  C      41.548667     20.760000     33.776000
  H      41.981000     21.729333     33.528667
  C      40.565333     20.645333     34.677667
  H      40.164333     21.528667     35.179000
  C      39.934667     19.319667     35.009667
  H      39.904333     19.193000     36.104333
  O      38.619000     19.291333     34.474667
  H      37.991333     18.899000     35.154667
  C      43.118667     19.797000     31.973000
  O      43.792000     18.805667     31.614333
  O      43.263667     20.963000     31.511667
24
Coordinates from ORCA-job neb_initial_path.QMRegion E   0.000000000000
  C      43.765000     18.930000     35.016000
  H      44.037000     18.253000     34.212000
  H      44.444000     19.733000     35.290000
  C      42.763000     18.670000     35.891000
  C      42.484000     19.561000     37.097000
  O      43.060000     20.683000     37.179000
  O      41.693000     19.092000     37.953000
  O      41.900000     17.689000     35.676000
  C      40.672000     18.130000     34.405000
  H      40.115000     17.192000     34.433000
  C      41.553000     18.347000     33.302000
  H      41.927000     17.505000     32.722000
  C      42.160000     19.566000     33.175000
  C      41.596000     20.736000     33.857000
  H      42.050000     21.702000     33.634000
  C      40.566000     20.625000     34.709000
  H      40.145000     21.508000     35.195000
  C      39.910000     19.304000     35.010000
  H      39.891000     19.148000     36.102000
  O      38.588000     19.316000     34.489000
  H      37.961000     18.913000     35.166000
  C      43.140000     19.777000     32.029000
  O      43.796000     18.787000     31.634000
  O      43.260000     20.943000     31.558000
24
Coordinates from ORCA-job neb_initial_path.QMRegion E   0.000000000000
  C      43.707167     18.930500     34.950500
  H      44.034833     18.233000     34.206000
  H      44.376833     19.736167     35.238500
  C      42.765667     18.627500     35.887833
  C      42.486500     19.534333     37.090167
  O      43.057167     20.658167     37.154500
  O      41.703500     19.068667     37.953500
  O      42.000500     17.614167     35.731000
  C      40.605167     18.132167     34.333667
  H      40.037500     17.201500     34.343833
  C      41.533000     18.328000     33.306500
  H      41.909333     17.489500     32.722667
  C      42.194667     19.538333     33.233167
  C      41.602333     20.715333     33.885333
  H      42.062667     21.680500     33.674833
  C      40.548667     20.609333     34.700833
  H      40.118167     21.494333     35.174000
  C      39.880167     19.291667     34.986333
  H      39.886333     19.110667     36.072833
  O      38.549000     19.334833     34.507333
  H      37.932500     18.929500     35.190833
  C      43.138167     19.763500     32.054833
  O      43.795167     18.782667     31.642000
  O      43.231833     20.929667     31.582833
24
Coordinates from ORCA-job neb_initial_path.QMRegion E   0.000000000000
  C      43.649333     18.931000     34.885000
  H      44.032667     18.213000     34.200000
  H      44.309667     19.739333     35.187000
  C      42.768333     18.585000     35.884667
  C      42.489000     19.507667     37.083333
  O      43.054333     20.633333     37.130000
  O      41.714000     19.045333     37.954000
  O      42.101000     17.539333     35.786000
  C      40.538333     18.134333     34.262333
  H      39.960000     17.211000     34.254667
  C      41.513000     18.309000     33.311000
  H      41.891667     17.474000     32.723333
  C      42.229333     19.510667     33.291333
  C      41.608667     20.694667     33.913667
  H      42.075333     21.659000     33.715667
  C      40.531333     20.593667     34.692667
  H      40.091333     21.480667     35.153000
  C      39.850333     19.279333     34.962667
  H      39.881667     19.073333     36.043667
  O      38.510000     19.353667     34.525667
  H      37.904000     18.946000     35.215667
  C      43.136333     19.750000     32.080667
  O      43.794333     18.778333     31.650000
  O      43.203667     20.916333     31.607667
24
Coordinates from ORCA-job neb_initial_path.QMRegion E   0.000000000000
  C      43.591500     18.931500     34.819500
  H      44.030500     18.193000     34.194000
  H      44.242500     19.742500     35.135500
  C      42.771000     18.542500     35.881500
  C      42.491500     19.481000     37.076500
  O      43.051500     20.608500     37.105500
  O      41.724500     19.022000     37.954500
  O      42.201500     17.464500     35.841000
  C      40.471500     18.136500     34.191000
  H      39.882500     17.220500     34.165500
  C      41.493000     18.290000     33.315500
  H      41.874000     17.458500     32.724000
  C      42.264000     19.483000     33.349500
  C      41.615000     20.674000     33.942000
  H      42.088000     21.637500     33.756500
  C      40.514000     20.578000     34.684500
  H      40.064500     21.467000     35.132000
  C      39.820500     19.267000     34.939000
  H      39.877000     19.036000     36.014500
  O      38.471000     19.372500     34.544000
  H      37.875500     18.962500     35.240500
  C      43.134500     19.736500     32.106500
  O      43.793500     18.774000     31.658000
  O      43.175500     20.903000     31.632500
24
Coordinates from ORCA-job neb_initial_path.QMRegion E   0.000000000000
  C      43.533667     18.932000     34.754000
  H      44.028333     18.173000     34.188000
  H      44.175333     19.745667     35.084000
  C      42.773667     18.500000     35.878333
  C      42.494000     19.454333     37.069667
  O      43.048667     20.583667     37.081000
  O      41.735000     18.998667     37.955000
  O      42.302000     17.389667     35.896000
  C      40.404667     18.138667     34.119667
  H      39.805000     17.230000     34.076333
  C      41.473000     18.271000     33.320000
  H      41.856333     17.443000     32.724667
  C      42.298667     19.455333     33.407667
  C      41.621333     20.653333     33.970333
  H      42.100667     21.616000     33.797333
  C      40.496667     20.562333     34.676333
  H      40.037667     21.453333     35.111000
  C      39.790667     19.254667     34.915333
  H      39.872333     18.998667     35.985333
  O      38.432000     19.391333     34.562333
  H      37.847000     18.979000     35.265333
  C      43.132667     19.723000     32.132333
  O      43.792667     18.769667     31.666000
  O      43.147333     20.889667     31.657333
24
Coordinates from ORCA-job neb_initial_path.QMRegion E   0.000000000000
  C      43.475833     18.932500     34.688500
  H      44.026167     18.153000     34.182000
  H      44.108167     19.748833     35.032500
  C      42.776333     18.457500     35.875167
  C      42.496500     19.427667     37.062833
  O      43.045833     20.558833     37.056500
  O      41.745500     18.975333     37.955500
  O      42.402500     17.314833     35.951000
  C      40.337833     18.140833     34.048333
  H      39.727500     17.239500     33.987167
  C      41.453000     18.252000     33.324500
  H      41.838667     17.427500     32.725333
  C      42.333333     19.427667     33.465833
  C      41.627667     20.632667     33.998667
  H      42.113333     21.594500     33.838167
  C      40.479333     20.546667     34.668167
  H      40.010833     21.439667     35.090000
  C      39.760833     19.242333     34.891667
  H      39.867667     18.961333     35.956167
  O      38.393000     19.410167     34.580667
  H      37.818500     18.995500     35.290167
  C      43.130833     19.709500     32.158167
  O      43.791833     18.765333     31.674000
  O      43.119167     20.876333     31.682167
24
Coordinates from ORCA-job neb_initial_path.QMRegion E   0.000000000000
  C      43.418000     18.933000     34.623000
  H      44.024000     18.133000     34.176000
  H      44.041000     19.752000     34.981000
  C      42.779000     18.415000     35.872000
  C      42.499000     19.401000     37.056000
  O      43.043000     20.534000     37.032000
  O      41.756000     18.952000     37.956000
  O      42.503000     17.240000     36.006000
  C      40.271000     18.143000     33.977000
  H      39.650000     17.249000     33.898000
  C      41.433000     18.233000     33.329000
  H      41.821000     17.412000     32.726000
  C      42.368000     19.400000     33.524000
  C      41.634000     20.612000     34.027000
  H      42.126000     21.573000     33.879000
  C      40.462000     20.531000     34.660000
  H      39.984000     21.426000     35.069000
  C      39.731000     19.230000     34.868000
  H      39.863000     18.924000     35.927000
  O      38.354000     19.429000     34.599000
  H      37.790000     19.012000     35.315000
  C      43.129000     19.696000     32.184000
  O      43.791000     18.761000     31.682000
  O      43.091000     20.863000     31.707000
