24
frame 40485 P, aligned onto 20000 on 8 atoms
C      47.98582216    28.09734647    55.96627158
H      48.87085321    27.47438633    56.15822137
H      47.98045489    28.97331590    56.62293416
C      46.75088346    27.30867839    56.33405693
C      45.58399845    27.98839537    57.11618876
O      45.89016735    28.90769464    57.90740520
O      44.43862132    27.51265496    56.92281014
O      46.66430263    26.13142928    56.05075089
C      46.64578368    26.89680547    53.17784690
H      46.51546433    25.97974646    52.60000554
C      47.85231730    27.30114251    53.58193253
H      48.75370601    26.72226696    53.36697326
C      48.03220435    28.53353896    54.44100216
C      46.90180613    29.50204653    54.21702232
H      47.10492145    30.55074107    54.44130769
C      45.68942347    29.09437354    53.83112075
H      44.87043972    29.81238622    53.75154431
C      45.37538601    27.65665874    53.48010135
H      44.87292975    27.19278810    54.35315504
O      44.51280959    27.62064999    52.36256375
H      43.74210031    26.99973167    52.50074714
C      49.45856480    29.14329838    54.15520098
O      50.41393893    28.36873775    54.37584122
O      49.56932543    30.34564703    53.78272172
