24
frame 40485 R, aligned onto 20000 on 8 atoms
C      48.00924031    27.90226398    56.90578604
H      48.89423913    27.50715617    56.40690638
H      48.10232259    28.60118449    57.73937335
C      46.77204846    27.53186783    56.54920924
C      45.54400988    28.08752255    57.27560242
O      45.74127777    29.01261135    58.09411454
O      44.42327027    27.57652398    57.00306034
O      46.54128118    26.59444005    55.57621559
C      46.55681515    26.98413767    54.15743849
H      46.36128973    26.03687419    53.63546177
C      47.91416199    27.51744628    53.82122505
H      48.75084166    26.82001375    53.73319090
C      48.16146326    28.84327460    53.79028412
C      47.04188656    29.78332299    53.90838171
H      47.29591962    30.84457407    53.96602160
C      45.75963149    29.37153519    53.94447530
H      44.95271710    30.10439598    54.02878560
C      45.36271190    27.91697538    53.85077050
H      44.61572523    27.70469803    54.63413200
O      44.81700335    27.65085975    52.57032930
H      44.04636509    27.01979699    52.63727306
C      49.60540878    29.35467341    53.72889541
O      50.51282209    28.49966132    53.80430369
O      49.79567751    30.60554883    53.67135839
