24
frame 40485 TS, aligned onto 20000 on 8 atoms
C      48.05224414    28.02185452    56.44737000
H      48.96368316    27.51118039    56.14460156
H      48.09983930    28.87065362    57.12890092
C      46.80929467    27.37635653    56.42596780
C      45.60140202    28.03527431    57.14931486
O      45.83767840    28.95810669    57.96189090
O      44.45973709    27.56470533    56.89383723
O      46.61525655    26.32290128    55.76163694
C      46.55984943    26.86967515    53.57898521
H      46.38908032    25.84223147    53.24921614
C      47.83285321    27.38326050    53.63038665
H      48.70403605    26.74968918    53.45668517
C      48.05174667    28.69204227    54.11284874
C      46.91005252    29.60737257    54.14717119
H      47.12815036    30.65961882    54.34013950
C      45.65452830    29.17171553    53.94208438
H      44.81628400    29.87030421    53.98530206
C      45.31944166    27.72938871    53.66308877
H      44.69956645    27.36093905    54.49854927
O      44.61020533    27.63102566    52.43989170
H      43.83476927    26.99664748    52.51992842
C      49.48752144    29.23983720    54.02740324
O      50.40992380    28.41829220    54.21542517
O      49.64620807    30.46981577    53.77462744
