76
Image 0. Energy: -22784.822264021142 
C  48.27709357513492 33.593372296451314 70.5401748573971
H  47.82884652382609 34.510680308795806 70.15305104299162
H  47.92223857078105 33.17241038774218 71.4816796757704
C  49.232882002718576 32.951581332708585 69.85782718454456
C  49.828656895184466 31.626735930472307 70.31922049452572
O  49.62307928182285 31.252047773823055 71.48307998994368
O  50.53784423206521 30.99404832363881 69.45818438639711
O  49.68196599644582 33.405139504243174 68.62823437210776
C  50.63314669347144 34.44005005824407 68.56787871716286
H  50.82081859924095 34.57816983206609 67.4829349726022
C  51.96510132141285 34.12652441148082 69.20517456244129
H  52.17614307337118 33.05651615800848 69.42794055464705
C  52.9110110501969 35.048446184631736 69.45782539388422
C  52.580410800309316 36.458011973571836 69.19365177450806
H  53.38993346817427 37.18867245533871 69.18430698205385
C  51.296310457862894 36.81279674164539 69.00813847438015
H  51.00894876545258 37.85578523732687 68.84711631007798
C  50.167568124104584 35.804799511078436 69.12321201512526
H  49.96263425922969 35.682202032006956 70.20453609275938
O  48.960383807537575 36.22258779877625 68.5585866303393
H  49.067400250911874 36.34288544257378 67.60134209736518
C  54.260418415007614 34.68191297025513 70.02239280324623
O  54.5703775917519 33.439291595536965 70.14256361795601
O  55.035933613985584 35.59847178958551 70.36071498777139
C  53.0681 31.0417 70.0496
N  53.218677 31.42692 68.785546
H  52.90816 32.089422 69.4818
H  53.414846 30.471882 69.049213
N  52.659201 31.914104 70.966449
H  52.85537 30.959066 71.230116
H  52.773549 32.20664 70.006528
N  53.326421 29.784076 70.396805
H  53.44077 30.076611 69.436884
H  53.015904 30.446578 71.093059
C  70.7898 28.2267 44.2897
O  71.973625 28.288476 43.893163
O  70.078516 27.199317 44.322259
H  70.331821 29.16255 44.642461
C  66.509 26.1099 42.3022
O  67.692825 26.171676 41.905663
O  65.797716 25.082517 42.334759
H  66.051021 27.04575 42.654961
C  57.0418 33.5972 71.3342
N  57.192377 33.98242 70.070146
H  56.88186 34.644922 70.7664
H  57.388546 33.027382 70.333813
N  56.632901 34.469604 72.251049
H  56.82907 33.514566 72.514716
H  56.747249 34.76214 71.291128
N  57.300121 32.339576 71.681405
H  57.41447 32.632111 70.721484
H  56.989604 33.002078 72.377659
C  70.7069 24.3799 47.1044
O  71.890725 24.441676 46.707863
O  69.995616 23.352517 47.136959
H  70.248921 25.31575 47.457161
C  73.6912 27.1499 50.1012
O  74.875025 27.211676 49.704663
O  72.979916 26.122517 50.133759
H  73.233221 28.08575 50.453961
C  67.7517 30.8406 41.4114
O  68.935525 30.902376 41.014863
O  67.040416 29.813217 41.443959
H  67.293721 31.77645 41.764161
C  65.1713 21.7088 45.5135
O  66.355125 21.770576 45.116963
O  64.460016 20.681417 45.546059
H  64.713321 22.64465 45.866261
C  68.4989 20.9406 50.243
O  69.682725 21.002376 49.846463
O  67.787616 19.913217 50.275559
H  68.040921 21.87645 50.595761
C  61.6671 26.3249 41.1324
O  62.850925 26.386676 40.735863
O  60.955816 25.297517 41.164959
H  61.209121 27.26075 41.485161
76
Image 1. Energy: -22783.4903002905 
C  48.92523523503302 34.26132124678203 70.85488760957551
H  48.69427243084023 35.18212174585356 70.33326674285654
H  48.48547904195747 34.10028769429714 71.83732551452725
C  49.6993766968252 33.27413905635314 70.39184791098292
C  49.94685488048531 32.03964347604367 71.34322397434919
O  50.01351928231763 32.28645244779086 72.55951358807255
O  50.1399778326881 30.915946326595236 70.79440694393816
O  50.27109519189826 33.16558099405819 69.13074770031552
C  50.79612136972904 34.23272640454976 68.20899550822968
H  50.57710314064729 33.8467310452904 67.20243316059975
C  52.25303890144743 34.15054388459852 68.53557702056324
H  52.78276185574245 33.27006140117905 68.14652177839555
C  52.85848749664974 35.04244090428413 69.35296703637461
C  52.20712749264637 36.34040898548501 69.59907318206825
H  52.74171424053643 37.073370857254666 70.20694042769101
C  51.01917463296878 36.651682033042 69.04224871726183
H  50.60282378334901 37.65938638694561 69.1494415046729
C  50.22999393540847 35.69114183041039 68.19041224414238
H  49.19158746864525 35.656905139732054 68.54544993528795
O  50.117454549248066 36.16983647153495 66.85651270927258
H  50.90551146533256 36.666307464841296 66.58334726649387
C  54.19669568412114 34.70456858299527 69.98079311349721
O  54.532470047495686 33.46007821842862 70.0488585628085
O  54.922951183956535 35.607251041655 70.4415989080202
C  53.0681 31.0417 70.0496
N  53.218677 31.42692 68.785546
H  52.90816 32.089422 69.4818
H  53.414846 30.471882 69.049213
N  52.659201 31.914104 70.966449
H  52.85537 30.959066 71.230116
H  52.773549 32.20664 70.006528
N  53.326421 29.784076 70.396805
H  53.44077 30.076611 69.436884
H  53.015904 30.446578 71.093059
C  70.7898 28.2267 44.2897
O  71.973625 28.288476 43.893163
O  70.078516 27.199317 44.322259
H  70.331821 29.16255 44.642461
C  66.509 26.1099 42.3022
O  67.692825 26.171676 41.905663
O  65.797716 25.082517 42.334759
H  66.051021 27.04575 42.654961
C  57.0418 33.5972 71.3342
N  57.192377 33.98242 70.070146
H  56.88186 34.644922 70.7664
H  57.388546 33.027382 70.333813
N  56.632901 34.469604 72.251049
H  56.82907 33.514566 72.514716
H  56.747249 34.76214 71.291128
N  57.300121 32.339576 71.681405
H  57.41447 32.632111 70.721484
H  56.989604 33.002078 72.377659
C  70.7069 24.3799 47.1044
O  71.890725 24.441676 46.707863
O  69.995616 23.352517 47.136959
H  70.248921 25.31575 47.457161
C  73.6912 27.1499 50.1012
O  74.875025 27.211676 49.704663
O  72.979916 26.122517 50.133759
H  73.233221 28.08575 50.453961
C  67.7517 30.8406 41.4114
O  68.935525 30.902376 41.014863
O  67.040416 29.813217 41.443959
H  67.293721 31.77645 41.764161
C  65.1713 21.7088 45.5135
O  66.355125 21.770576 45.116963
O  64.460016 20.681417 45.546059
H  64.713321 22.64465 45.866261
C  68.4989 20.9406 50.243
O  69.682725 21.002376 49.846463
O  67.787616 19.913217 50.275559
H  68.040921 21.87645 50.595761
C  61.6671 26.3249 41.1324
O  62.850925 26.386676 40.735863
O  60.955816 25.297517 41.164959
H  61.209121 27.26075 41.485161
76
Image 2. Energy: -22782.960816307594 
C  49.302272815306516 34.184282404894944 70.72401333183743
H  49.63344083773048 35.21826534272119 70.76549659255097
H  48.39527130255309 33.854377074031355 71.23612088629088
C  49.91206657848887 33.31486615579873 69.96970869788811
C  50.01354132170261 31.86979571384229 73.05477345897333
O  51.03310484290327 32.09894389569065 73.56659837077319
O  49.02888181166896 31.60734592869487 72.50683022971357
O  50.4104741667204 32.43556854592869 69.36205852952571
C  51.357024111204275 34.82933354372637 67.33735193240065
H  51.06896132324215 34.30153045051314 66.42313090796462
C  52.39406003773513 34.37714233201731 68.0978424977326
H  52.894465003262404 33.45319342993308 67.77010070522559
C  52.91244332000611 35.060294407596615 69.266439166018
C  52.2968461661589 36.36100592601986 69.4834042765865
H  52.69797848231 36.99548222468648 70.27985132555948
C  51.22747158801931 36.82543861976936 68.77938614384031
H  50.812177263801125 37.81858334692771 68.9821281981865
C  50.56299185714073 36.06946534342238 67.655503332025
H  49.52023779855027 35.800224375650345 67.93067694561365
O  50.32953613647943 36.88406069707322 66.49536929279174
H  51.18714313083199 37.15104269727801 66.1311313300232
C  54.124149027843444 34.6579249703457 69.96507791806687
O  54.52906392714674 33.3895175725032 69.97385952664412
O  54.83890548919349 35.49704230094216 70.60616057378135
C  53.0681 31.0417 70.0496
N  53.218677 31.42692 68.785546
H  52.90816 32.089422 69.4818
H  53.414846 30.471882 69.049213
N  52.659201 31.914104 70.966449
H  52.85537 30.959066 71.230116
H  52.773549 32.20664 70.006528
N  53.326421 29.784076 70.396805
H  53.44077 30.076611 69.436884
H  53.015904 30.446578 71.093059
C  70.7898 28.2267 44.2897
O  71.973625 28.288476 43.893163
O  70.078516 27.199317 44.322259
H  70.331821 29.16255 44.642461
C  66.509 26.1099 42.3022
O  67.692825 26.171676 41.905663
O  65.797716 25.082517 42.334759
H  66.051021 27.04575 42.654961
C  57.0418 33.5972 71.3342
N  57.192377 33.98242 70.070146
H  56.88186 34.644922 70.7664
H  57.388546 33.027382 70.333813
N  56.632901 34.469604 72.251049
H  56.82907 33.514566 72.514716
H  56.747249 34.76214 71.291128
N  57.300121 32.339576 71.681405
H  57.41447 32.632111 70.721484
H  56.989604 33.002078 72.377659
C  70.7069 24.3799 47.1044
O  71.890725 24.441676 46.707863
O  69.995616 23.352517 47.136959
H  70.248921 25.31575 47.457161
C  73.6912 27.1499 50.1012
O  74.875025 27.211676 49.704663
O  72.979916 26.122517 50.133759
H  73.233221 28.08575 50.453961
C  67.7517 30.8406 41.4114
O  68.935525 30.902376 41.014863
O  67.040416 29.813217 41.443959
H  67.293721 31.77645 41.764161
C  65.1713 21.7088 45.5135
O  66.355125 21.770576 45.116963
O  64.460016 20.681417 45.546059
H  64.713321 22.64465 45.866261
C  68.4989 20.9406 50.243
O  69.682725 21.002376 49.846463
O  67.787616 19.913217 50.275559
H  68.040921 21.87645 50.595761
C  61.6671 26.3249 41.1324
O  62.850925 26.386676 40.735863
O  60.955816 25.297517 41.164959
H  61.209121 27.26075 41.485161
76
Image 3. Energy: -22782.19276388623 
C  50.09916739035195 34.391738499206774 70.67841444558921
H  50.176866556538144 35.34020076051665 71.21253175486362
H  49.15613668286997 33.82818200328798 70.7648264949429
C  51.0291503926059 33.8611827386332 69.85050172901767
C  50.33899375791001 32.42447238110021 73.46544363484942
O  50.76930327242299 31.76375609216729 74.33531862087519
O  49.878034708072406 33.14818545703575 72.64288878428268
O  50.91294967712263 32.70516427207519 69.25432786364246
C  51.60452178860235 34.96496260663749 67.00605564872346
H  51.48025531765547 34.583929306906505 65.98440389089396
C  52.37044694253791 34.337153294296144 67.90407759901164
H  52.842582204615006 33.38246324714424 67.64850417721901
C  52.33492297494374 34.735825807173455 69.38346521799805
C  52.049183836552594 36.20639134504066 69.50381813791496
H  52.40608233556462 36.68792240311386 70.41363201281068
C  51.344630874541295 36.86640571390973 68.58214075230954
H  51.13426534348087 37.932798662645496 68.68770927133465
C  50.7797321653889 36.17766019752659 67.36678468491289
H  49.75350177448517 35.834736388875015 67.63157150017821
O  50.60131594627995 37.045079439525765 66.26571034878408
H  51.46995798668605 37.24741088473985 65.88633094287682
C  53.71571684380424 34.47183285973886 70.1258481320481
O  54.41058707063048 33.39286539993923 69.91194875351636
O  54.19588298633621 35.33020111874995 70.88338278137859
C  53.0681 31.0417 70.0496
N  53.218677 31.42692 68.785546
H  52.90816 32.089422 69.4818
H  53.414846 30.471882 69.049213
N  52.659201 31.914104 70.966449
H  52.85537 30.959066 71.230116
H  52.773549 32.20664 70.006528
N  53.326421 29.784076 70.396805
H  53.44077 30.076611 69.436884
H  53.015904 30.446578 71.093059
C  70.7898 28.2267 44.2897
O  71.973625 28.288476 43.893163
O  70.078516 27.199317 44.322259
H  70.331821 29.16255 44.642461
C  66.509 26.1099 42.3022
O  67.692825 26.171676 41.905663
O  65.797716 25.082517 42.334759
H  66.051021 27.04575 42.654961
C  57.0418 33.5972 71.3342
N  57.192377 33.98242 70.070146
H  56.88186 34.644922 70.7664
H  57.388546 33.027382 70.333813
N  56.632901 34.469604 72.251049
H  56.82907 33.514566 72.514716
H  56.747249 34.76214 71.291128
N  57.300121 32.339576 71.681405
H  57.41447 32.632111 70.721484
H  56.989604 33.002078 72.377659
C  70.7069 24.3799 47.1044
O  71.890725 24.441676 46.707863
O  69.995616 23.352517 47.136959
H  70.248921 25.31575 47.457161
C  73.6912 27.1499 50.1012
O  74.875025 27.211676 49.704663
O  72.979916 26.122517 50.133759
H  73.233221 28.08575 50.453961
C  67.7517 30.8406 41.4114
O  68.935525 30.902376 41.014863
O  67.040416 29.813217 41.443959
H  67.293721 31.77645 41.764161
C  65.1713 21.7088 45.5135
O  66.355125 21.770576 45.116963
O  64.460016 20.681417 45.546059
H  64.713321 22.64465 45.866261
C  68.4989 20.9406 50.243
O  69.682725 21.002376 49.846463
O  67.787616 19.913217 50.275559
H  68.040921 21.87645 50.595761
C  61.6671 26.3249 41.1324
O  62.850925 26.386676 40.735863
O  60.955816 25.297517 41.164959
H  61.209121 27.26075 41.485161
76
Image 4. Energy: -22779.65525149486 
C  50.349419939054876 34.25902678434162 71.1153209933462
H  50.33563642862985 35.350619547861896 71.3577407890585
H  49.32150063392892 34.01089681995571 70.8482920756585
C  51.17339385089846 33.9473939624849 69.90460411066071
C  50.444209761553296 33.33832316020304 73.33863141840857
O  50.55041255625145 32.161738337735386 73.83730155779041
O  50.68234442637215 33.117681155871914 72.04011640413029
O  50.87768570269194 32.926927388475434 69.27666053148076
C  51.79182862992491 35.02918213638906 66.98688965902355
H  51.717768257272816 34.67713251997636 65.94692067346064
C  52.509393575902266 34.37175243594534 67.90778673106969
H  53.018761308919565 33.43966781466884 67.63662723610993
C  52.43859926216847 34.76979207709651 69.39986123930044
C  52.20492164210874 36.259666408609235 69.50056341302066
H  52.60800674609806 36.76110759810011 70.38004687048986
C  51.56108259865713 36.94533766080816 68.54831716486268
H  51.38792158834848 38.02642430912501 68.62964926385855
C  50.98940294729721 36.2702747986676 67.31957389229436
H  49.95198019891799 35.939180630976 67.56486545180809
O  50.84507006990662 37.135397933323524 66.21731555175863
H  51.71817861344422 37.333303090237024 65.84315086504746
C  53.85653985412578 34.474002630147496 70.13356197934131
O  54.399504310020745 33.30975555639004 70.04875786141444
O  54.492306407502255 35.411729762609774 70.63370452662075
C  53.0681 31.0417 70.0496
N  53.218677 31.42692 68.785546
H  52.90816 32.089422 69.4818
H  53.414846 30.471882 69.049213
N  52.659201 31.914104 70.966449
H  52.85537 30.959066 71.230116
H  52.773549 32.20664 70.006528
N  53.326421 29.784076 70.396805
H  53.44077 30.076611 69.436884
H  53.015904 30.446578 71.093059
C  70.7898 28.2267 44.2897
O  71.973625 28.288476 43.893163
O  70.078516 27.199317 44.322259
H  70.331821 29.16255 44.642461
C  66.509 26.1099 42.3022
O  67.692825 26.171676 41.905663
O  65.797716 25.082517 42.334759
H  66.051021 27.04575 42.654961
C  57.0418 33.5972 71.3342
N  57.192377 33.98242 70.070146
H  56.88186 34.644922 70.7664
H  57.388546 33.027382 70.333813
N  56.632901 34.469604 72.251049
H  56.82907 33.514566 72.514716
H  56.747249 34.76214 71.291128
N  57.300121 32.339576 71.681405
H  57.41447 32.632111 70.721484
H  56.989604 33.002078 72.377659
C  70.7069 24.3799 47.1044
O  71.890725 24.441676 46.707863
O  69.995616 23.352517 47.136959
H  70.248921 25.31575 47.457161
C  73.6912 27.1499 50.1012
O  74.875025 27.211676 49.704663
O  72.979916 26.122517 50.133759
H  73.233221 28.08575 50.453961
C  67.7517 30.8406 41.4114
O  68.935525 30.902376 41.014863
O  67.040416 29.813217 41.443959
H  67.293721 31.77645 41.764161
C  65.1713 21.7088 45.5135
O  66.355125 21.770576 45.116963
O  64.460016 20.681417 45.546059
H  64.713321 22.64465 45.866261
C  68.4989 20.9406 50.243
O  69.682725 21.002376 49.846463
O  67.787616 19.913217 50.275559
H  68.040921 21.87645 50.595761
C  61.6671 26.3249 41.1324
O  62.850925 26.386676 40.735863
O  60.955816 25.297517 41.164959
H  61.209121 27.26075 41.485161
76
Image 5. Energy: -22777.156978033778 
C  50.52927499855056 34.52928838894348 71.08327119564427
H  50.44667698146614 35.62178488297615 71.14747639195016
H  49.53375037614482 34.096165203241455 70.88256230079772
C  51.35765977760979 34.09438483328472 69.91791538146043
C  50.725781347404805 33.985952957475625 72.60934068545902
O  50.77866808840541 31.92018556153778 73.80389741930968
O  50.841340529144524 32.72149323659886 72.6253492320174
O  51.047442003690556 33.06129984662293 69.30465458335078
C  51.97521619108167 35.14380630709808 66.95081321796667
H  51.91000552620432 34.7987828037535 65.91089393185953
C  52.684685193874536 34.48349474153035 67.87433902505526
H  53.19659193302571 33.553600418924674 67.60320459863162
C  52.62859731150931 34.891968362441325 69.35969082618047
C  52.395435865840575 36.38105728720818 69.45787524216132
H  52.80380204121507 36.880812447978855 70.3347292850476
C  51.74831617554842 37.061783955371126 68.50664738822599
H  51.58519192285977 38.14174523179201 68.5859355192257
C  51.18001400218218 36.38768804035359 67.27832285406922
H  50.14329881931718 36.066381783947676 67.52583076512029
O  51.03348220433145 37.25215199572978 66.1761653292804
H  51.90591150636642 37.45130942517924 65.80263764893695
C  54.00694327204742 34.54763179149401 70.07612412496792
O  54.448243748874674 33.3289383597176 70.07323642458842
O  54.69121997329615 35.47040026679589 70.5519699587085
C  53.0681 31.0417 70.0496
N  53.218677 31.42692 68.785546
H  52.90816 32.089422 69.4818
H  53.414846 30.471882 69.049213
N  52.659201 31.914104 70.966449
H  52.85537 30.959066 71.230116
H  52.773549 32.20664 70.006528
N  53.326421 29.784076 70.396805
H  53.44077 30.076611 69.436884
H  53.015904 30.446578 71.093059
C  70.7898 28.2267 44.2897
O  71.973625 28.288476 43.893163
O  70.078516 27.199317 44.322259
H  70.331821 29.16255 44.642461
C  66.509 26.1099 42.3022
O  67.692825 26.171676 41.905663
O  65.797716 25.082517 42.334759
H  66.051021 27.04575 42.654961
C  57.0418 33.5972 71.3342
N  57.192377 33.98242 70.070146
H  56.88186 34.644922 70.7664
H  57.388546 33.027382 70.333813
N  56.632901 34.469604 72.251049
H  56.82907 33.514566 72.514716
H  56.747249 34.76214 71.291128
N  57.300121 32.339576 71.681405
H  57.41447 32.632111 70.721484
H  56.989604 33.002078 72.377659
C  70.7069 24.3799 47.1044
O  71.890725 24.441676 46.707863
O  69.995616 23.352517 47.136959
H  70.248921 25.31575 47.457161
C  73.6912 27.1499 50.1012
O  74.875025 27.211676 49.704663
O  72.979916 26.122517 50.133759
H  73.233221 28.08575 50.453961
C  67.7517 30.8406 41.4114
O  68.935525 30.902376 41.014863
O  67.040416 29.813217 41.443959
H  67.293721 31.77645 41.764161
C  65.1713 21.7088 45.5135
O  66.355125 21.770576 45.116963
O  64.460016 20.681417 45.546059
H  64.713321 22.64465 45.866261
C  68.4989 20.9406 50.243
O  69.682725 21.002376 49.846463
O  67.787616 19.913217 50.275559
H  68.040921 21.87645 50.595761
C  61.6671 26.3249 41.1324
O  62.850925 26.386676 40.735863
O  60.955816 25.297517 41.164959
H  61.209121 27.26075 41.485161
76
Image 6. Energy: -22781.014025059925 
C  50.632784078367536 34.72548446403243 70.77846446844947
H  50.65417008583906 35.73713337872522 71.16074588397494
H  49.68908417159288 34.17981871919516 70.84499813891385
C  51.496172038644794 34.22776247346868 69.8319694147078
C  50.79778500326483 33.21911042039557 73.02410457461413
O  50.44839002732883 32.24593580796439 73.65327500000348
O  51.79785551687869 33.532775218497896 72.59531259773728
O  51.25804330387096 33.11012706446662 69.23041521586123
C  52.16435910605622 35.25578560875744 66.90145992751228
H  52.0945423143299 34.90817443395416 65.86161486998053
C  52.86707347784828 34.59517251423393 67.82870725033189
H  53.38119550798024 33.665341569466 67.55810686234837
C  52.800440645663194 35.00239458838149 69.31328695282535
C  52.5945731143479 36.49276381887121 69.40274174661937
H  52.989895301371334 36.99078745294251 70.28708112712177
C  51.939105694947614 37.174474664801515 68.45878901297252
H  51.7686005932566 38.25204756517485 68.53966981397586
C  51.36597569934129 36.49762083819095 67.23451007834095
H  50.329301870357014 36.17478191536424 67.48037675141218
O  51.21712551398235 37.363667495842925 66.12834534405631
H  52.09163407380604 37.55836706923071 65.75784410244404
C  54.16022333816162 34.632337811737486 70.03023331928836
O  54.5546039148072 33.38953411295775 70.0619201960219
O  54.87629587798495 35.54650275336255 70.5055337405282
C  53.0681 31.0417 70.0496
N  53.218677 31.42692 68.785546
H  52.90816 32.089422 69.4818
H  53.414846 30.471882 69.049213
N  52.659201 31.914104 70.966449
H  52.85537 30.959066 71.230116
H  52.773549 32.20664 70.006528
N  53.326421 29.784076 70.396805
H  53.44077 30.076611 69.436884
H  53.015904 30.446578 71.093059
C  70.7898 28.2267 44.2897
O  71.973625 28.288476 43.893163
O  70.078516 27.199317 44.322259
H  70.331821 29.16255 44.642461
C  66.509 26.1099 42.3022
O  67.692825 26.171676 41.905663
O  65.797716 25.082517 42.334759
H  66.051021 27.04575 42.654961
C  57.0418 33.5972 71.3342
N  57.192377 33.98242 70.070146
H  56.88186 34.644922 70.7664
H  57.388546 33.027382 70.333813
N  56.632901 34.469604 72.251049
H  56.82907 33.514566 72.514716
H  56.747249 34.76214 71.291128
N  57.300121 32.339576 71.681405
H  57.41447 32.632111 70.721484
H  56.989604 33.002078 72.377659
C  70.7069 24.3799 47.1044
O  71.890725 24.441676 46.707863
O  69.995616 23.352517 47.136959
H  70.248921 25.31575 47.457161
C  73.6912 27.1499 50.1012
O  74.875025 27.211676 49.704663
O  72.979916 26.122517 50.133759
H  73.233221 28.08575 50.453961
C  67.7517 30.8406 41.4114
O  68.935525 30.902376 41.014863
O  67.040416 29.813217 41.443959
H  67.293721 31.77645 41.764161
C  65.1713 21.7088 45.5135
O  66.355125 21.770576 45.116963
O  64.460016 20.681417 45.546059
H  64.713321 22.64465 45.866261
C  68.4989 20.9406 50.243
O  69.682725 21.002376 49.846463
O  67.787616 19.913217 50.275559
H  68.040921 21.87645 50.595761
C  61.6671 26.3249 41.1324
O  62.850925 26.386676 40.735863
O  60.955816 25.297517 41.164959
H  61.209121 27.26075 41.485161
76
Image 7. Energy: -22782.44982161474 
C  50.972240117323345 34.72368182486992 70.87892395129116
H  51.09988585618811 35.68145026757697 71.37683763451477
H  50.1325234844748 34.081242450957944 71.179548325512
C  51.681225409563254 34.31984125608226 69.78967149005135
C  51.59409552339235 33.021284534094754 73.5551959943752
O  50.93808896297842 32.09780995819685 73.33162140796559
O  52.30815801966638 33.9194754965022 73.79883305458294
O  51.426154995522865 33.1987535931155 69.174864212447
C  52.19394161240377 35.44755484880734 66.73249021847408
H  52.160333246109126 35.11238297399282 65.6927487578504
C  52.80648247446476 34.73344101687019 67.66379552023399
H  53.30970965492677 33.80033550426728 67.43195389896653
C  52.830078259223676 35.13807013521253 69.11777023584894
C  52.64420738401839 36.62289506230212 69.29852550107474
H  53.01080374554919 37.07189187497326 70.22772001617963
C  52.01790335800164 37.34014089205869 68.36127039934505
H  51.84148165330989 38.41408133190828 68.48002828312822
C  51.46879620908556 36.71337690644074 67.09401645150821
H  50.41267523614756 36.437898577778824 67.30065624857295
O  51.43222284611716 37.62427522263698 66.01666752141226
H  52.344190288482984 37.73910887862216 65.70953169417773
C  54.2107454809466 34.72225940201259 69.63527349535542
O  54.97313452231884 34.16510257696216 68.81413953020248
O  54.53183240977446 34.95734079378024 70.83404562691753
C  53.0681 31.0417 70.0496
N  53.218677 31.42692 68.785546
H  52.90816 32.089422 69.4818
H  53.414846 30.471882 69.049213
N  52.659201 31.914104 70.966449
H  52.85537 30.959066 71.230116
H  52.773549 32.20664 70.006528
N  53.326421 29.784076 70.396805
H  53.44077 30.076611 69.436884
H  53.015904 30.446578 71.093059
C  70.7898 28.2267 44.2897
O  71.973625 28.288476 43.893163
O  70.078516 27.199317 44.322259
H  70.331821 29.16255 44.642461
C  66.509 26.1099 42.3022
O  67.692825 26.171676 41.905663
O  65.797716 25.082517 42.334759
H  66.051021 27.04575 42.654961
C  57.0418 33.5972 71.3342
N  57.192377 33.98242 70.070146
H  56.88186 34.644922 70.7664
H  57.388546 33.027382 70.333813
N  56.632901 34.469604 72.251049
H  56.82907 33.514566 72.514716
H  56.747249 34.76214 71.291128
N  57.300121 32.339576 71.681405
H  57.41447 32.632111 70.721484
H  56.989604 33.002078 72.377659
C  70.7069 24.3799 47.1044
O  71.890725 24.441676 46.707863
O  69.995616 23.352517 47.136959
H  70.248921 25.31575 47.457161
C  73.6912 27.1499 50.1012
O  74.875025 27.211676 49.704663
O  72.979916 26.122517 50.133759
H  73.233221 28.08575 50.453961
C  67.7517 30.8406 41.4114
O  68.935525 30.902376 41.014863
O  67.040416 29.813217 41.443959
H  67.293721 31.77645 41.764161
C  65.1713 21.7088 45.5135
O  66.355125 21.770576 45.116963
O  64.460016 20.681417 45.546059
H  64.713321 22.64465 45.866261
C  68.4989 20.9406 50.243
O  69.682725 21.002376 49.846463
O  67.787616 19.913217 50.275559
H  68.040921 21.87645 50.595761
C  61.6671 26.3249 41.1324
O  62.850925 26.386676 40.735863
O  60.955816 25.297517 41.164959
H  61.209121 27.26075 41.485161
76
Image 8. Energy: -22782.198763675708 
C  50.93799861554082 34.95814391759906 70.7890283490374
H  51.12878548247798 35.89614370281962 71.31847344396769
H  50.0551907788261 34.37452558700976 71.0680033162825
C  51.68583225005775 34.4932562477811 69.7352914229344
C  52.475423237894816 32.62773937416081 73.48442479511243
O  52.67540629469226 31.320529822325444 73.32995391240466
O  52.66814234611074 33.766352711668446 73.63180640581876
O  51.487156379743034 33.35573363036087 69.15011716208248
C  52.440364976003266 35.57186827599505 66.68402065496568
H  52.51287007834091 35.21519154612386 65.64996970878884
C  53.03895658226839 34.930224183401116 67.69178324227173
H  53.614620763529174 34.02134384116398 67.48017336580479
C  52.86731197931275 35.34340465260111 69.15696775849109
C  52.52723568738991 36.818903174597814 69.2217465888025
H  52.70963946246296 37.334068594952925 70.16885121564049
C  51.919051089146016 37.461304229600856 68.21737974711058
H  51.61589884014388 38.5090731911866 68.31287009660801
C  51.61504913953636 36.8173575970915 66.88728442472105
H  50.54085489735448 36.536537292468005 66.86865228748665
O  51.76883971196573 37.72681829215033 65.81250067847414
H  52.71205945781551 37.93612520507296 65.73082652921545
C  54.218233770542504 35.00385050718446 69.87476330055914
O  55.162021656287266 35.82702262913428 69.77849929049819
O  54.33564775257906 33.84397076353521 70.47936484294114
C  53.0681 31.0417 70.0496
N  53.218677 31.42692 68.785546
H  52.90816 32.089422 69.4818
H  53.414846 30.471882 69.049213
N  52.659201 31.914104 70.966449
H  52.85537 30.959066 71.230116
H  52.773549 32.20664 70.006528
N  53.326421 29.784076 70.396805
H  53.44077 30.076611 69.436884
H  53.015904 30.446578 71.093059
C  70.7898 28.2267 44.2897
O  71.973625 28.288476 43.893163
O  70.078516 27.199317 44.322259
H  70.331821 29.16255 44.642461
C  66.509 26.1099 42.3022
O  67.692825 26.171676 41.905663
O  65.797716 25.082517 42.334759
H  66.051021 27.04575 42.654961
C  57.0418 33.5972 71.3342
N  57.192377 33.98242 70.070146
H  56.88186 34.644922 70.7664
H  57.388546 33.027382 70.333813
N  56.632901 34.469604 72.251049
H  56.82907 33.514566 72.514716
H  56.747249 34.76214 71.291128
N  57.300121 32.339576 71.681405
H  57.41447 32.632111 70.721484
H  56.989604 33.002078 72.377659
C  70.7069 24.3799 47.1044
O  71.890725 24.441676 46.707863
O  69.995616 23.352517 47.136959
H  70.248921 25.31575 47.457161
C  73.6912 27.1499 50.1012
O  74.875025 27.211676 49.704663
O  72.979916 26.122517 50.133759
H  73.233221 28.08575 50.453961
C  67.7517 30.8406 41.4114
O  68.935525 30.902376 41.014863
O  67.040416 29.813217 41.443959
H  67.293721 31.77645 41.764161
C  65.1713 21.7088 45.5135
O  66.355125 21.770576 45.116963
O  64.460016 20.681417 45.546059
H  64.713321 22.64465 45.866261
C  68.4989 20.9406 50.243
O  69.682725 21.002376 49.846463
O  67.787616 19.913217 50.275559
H  68.040921 21.87645 50.595761
C  61.6671 26.3249 41.1324
O  62.850925 26.386676 40.735863
O  60.955816 25.297517 41.164959
H  61.209121 27.26075 41.485161
76
Image 9. Energy: -22777.990959757713 
C  51.10816327089092 35.085764362758034 70.76744548914489
H  51.33180662536871 35.99505937923162 71.32413293385429
H  50.233014132619054 34.49151107962989 71.0414083606176
C  51.892319079318035 34.61865407585605 69.6929598486087
C  52.07635225269156 33.60882622560085 73.29551409556312
O  53.27117418292346 30.421535464847835 72.88173680187612
O  53.066100958049624 34.03839252584502 73.62751013507936
O  51.63832304842571 33.50315251307208 69.1586619629952
C  52.62439386646018 35.67579305504339 66.66509589439833
H  52.702012096164495 35.31895000976228 65.63303942589127
C  53.22997439806315 35.03330169574963 67.66802573206672
H  53.80813112905751 34.12706663173606 67.46361848428319
C  53.056988406274264 35.45013512436484 69.12756288960516
C  52.700273453135026 36.9178823991234 69.21232394430827
H  52.89738097228152 37.437160169631234 70.15344696153812
C  52.095186687034136 37.56215546743242 68.19998598933607
H  51.806321120932196 38.61353281175605 68.29375661280544
C  51.799539497715934 36.92096521883031 66.86766355361313
H  50.727530844367834 36.63847537447746 66.85091083102827
O  51.95853297027232 37.829896490741916 65.80155729847012
H  52.90158440095391 38.03913756585174 65.71439479592011
C  54.3873186817645 35.100926149143596 69.867118603559
O  55.32409991850033 35.92637340037499 69.77359165215208
O  54.44774975673531 33.94063539915181 70.46791333334532
C  53.0681 31.0417 70.0496
N  53.218677 31.42692 68.785546
H  52.90816 32.089422 69.4818
H  53.414846 30.471882 69.049213
N  52.659201 31.914104 70.966449
H  52.85537 30.959066 71.230116
H  52.773549 32.20664 70.006528
N  53.326421 29.784076 70.396805
H  53.44077 30.076611 69.436884
H  53.015904 30.446578 71.093059
C  70.7898 28.2267 44.2897
O  71.973625 28.288476 43.893163
O  70.078516 27.199317 44.322259
H  70.331821 29.16255 44.642461
C  66.509 26.1099 42.3022
O  67.692825 26.171676 41.905663
O  65.797716 25.082517 42.334759
H  66.051021 27.04575 42.654961
C  57.0418 33.5972 71.3342
N  57.192377 33.98242 70.070146
H  56.88186 34.644922 70.7664
H  57.388546 33.027382 70.333813
N  56.632901 34.469604 72.251049
H  56.82907 33.514566 72.514716
H  56.747249 34.76214 71.291128
N  57.300121 32.339576 71.681405
H  57.41447 32.632111 70.721484
H  56.989604 33.002078 72.377659
C  70.7069 24.3799 47.1044
O  71.890725 24.441676 46.707863
O  69.995616 23.352517 47.136959
H  70.248921 25.31575 47.457161
C  73.6912 27.1499 50.1012
O  74.875025 27.211676 49.704663
O  72.979916 26.122517 50.133759
H  73.233221 28.08575 50.453961
C  67.7517 30.8406 41.4114
O  68.935525 30.902376 41.014863
O  67.040416 29.813217 41.443959
H  67.293721 31.77645 41.764161
C  65.1713 21.7088 45.5135
O  66.355125 21.770576 45.116963
O  64.460016 20.681417 45.546059
H  64.713321 22.64465 45.866261
C  68.4989 20.9406 50.243
O  69.682725 21.002376 49.846463
O  67.787616 19.913217 50.275559
H  68.040921 21.87645 50.595761
C  61.6671 26.3249 41.1324
O  62.850925 26.386676 40.735863
O  60.955816 25.297517 41.164959
H  61.209121 27.26075 41.485161
76
Image 10. Energy: -22781.43625695583 
C  51.3007386438874 35.17952395423906 70.70695949813631
H  51.501101304499926 36.11044158041788 71.23973641289702
H  50.42106477362412 34.591181129452934 70.98755974364015
C  52.0562251135611 34.715772158376325 69.65078120807313
C  52.799477406490226 32.864526163595436 73.36805948690707
O  53.15739225573932 31.554006850971696 73.26209729290092
O  53.10123360024122 33.97820202284306 73.55042057015261
O  51.84018653555112 33.57531210981409 69.09681279691962
C  52.806404416217575 35.788701503567594 66.59839835415312
H  52.8844297802361 35.43290765472173 65.56588102597323
C  53.403476364732 35.145283570292555 67.60470245346828
H  53.985115293856175 34.24022558007553 67.39911218919008
C  53.22398831092948 35.56147530252333 69.06459768076539
C  52.88571835250091 37.035652010303 69.1378262993998
H  53.07922711667436 37.550634568175596 70.08310631102387
C  52.284374990066866 37.67936614612913 68.13158234858075
H  51.98645424159012 38.72779487602455 68.22590956950997
C  51.98390186419462 37.03495485064823 66.80138839543909
H  50.911106090667595 36.75301033807526 66.78339529302801
O  52.13892850011906 37.9429587766958 65.7281368094674
H  53.08220381569774 38.15173988955085 65.64705433970752
C  54.54172931483458 35.21254950298355 69.80436119596465
O  55.49595009208092 36.02664578756749 69.7208085684045
O  54.5855240319983 34.04820990295522 70.41731082629992
C  53.0681 31.0417 70.0496
N  53.218677 31.42692 68.785546
H  52.90816 32.089422 69.4818
H  53.414846 30.471882 69.049213
N  52.659201 31.914104 70.966449
H  52.85537 30.959066 71.230116
H  52.773549 32.20664 70.006528
N  53.326421 29.784076 70.396805
H  53.44077 30.076611 69.436884
H  53.015904 30.446578 71.093059
C  70.7898 28.2267 44.2897
O  71.973625 28.288476 43.893163
O  70.078516 27.199317 44.322259
H  70.331821 29.16255 44.642461
C  66.509 26.1099 42.3022
O  67.692825 26.171676 41.905663
O  65.797716 25.082517 42.334759
H  66.051021 27.04575 42.654961
C  57.0418 33.5972 71.3342
N  57.192377 33.98242 70.070146
H  56.88186 34.644922 70.7664
H  57.388546 33.027382 70.333813
N  56.632901 34.469604 72.251049
H  56.82907 33.514566 72.514716
H  56.747249 34.76214 71.291128
N  57.300121 32.339576 71.681405
H  57.41447 32.632111 70.721484
H  56.989604 33.002078 72.377659
C  70.7069 24.3799 47.1044
O  71.890725 24.441676 46.707863
O  69.995616 23.352517 47.136959
H  70.248921 25.31575 47.457161
C  73.6912 27.1499 50.1012
O  74.875025 27.211676 49.704663
O  72.979916 26.122517 50.133759
H  73.233221 28.08575 50.453961
C  67.7517 30.8406 41.4114
O  68.935525 30.902376 41.014863
O  67.040416 29.813217 41.443959
H  67.293721 31.77645 41.764161
C  65.1713 21.7088 45.5135
O  66.355125 21.770576 45.116963
O  64.460016 20.681417 45.546059
H  64.713321 22.64465 45.866261
C  68.4989 20.9406 50.243
O  69.682725 21.002376 49.846463
O  67.787616 19.913217 50.275559
H  68.040921 21.87645 50.595761
C  61.6671 26.3249 41.1324
O  62.850925 26.386676 40.735863
O  60.955816 25.297517 41.164959
H  61.209121 27.26075 41.485161
76
Image 11. Energy: -22782.112454040373 
C  51.50745629750686 35.06893213809606 70.51472575317123
H  51.11376288025031 36.05379832828739 70.77949036588221
H  51.01108919676735 34.17531113132482 70.93363984259445
C  52.59530245377839 34.87106048133846 69.71798915744095
C  53.19217775190603 32.86182295305655 73.73663216295742
O  53.475290636790234 31.72093486774134 73.67893272236658
O  52.93994263885334 33.98697133235961 73.73587279229768
O  53.12178264598014 33.73330020594226 69.42516931462788
C  52.821139848471994 35.778053269723785 66.55917157141874
H  52.836691188094015 35.31514159921818 65.56751665475038
C  53.5483728455914 35.29482163831916 67.55765372774047
H  54.164502774984705 34.40210059404986 67.42958988415899
C  53.46450661045811 35.86244647891978 68.96234875458356
C  52.950264884334786 37.25121825283359 69.02493108598775
H  53.10764494073796 37.771182223666635 69.97635060165192
C  52.24162727284132 37.75829527134213 68.01768994211926
H  51.80913023266615 38.75656335852419 68.09174062956208
C  51.99784607306088 37.02434165488634 66.71761762668626
H  50.927462690789866 36.74873182883286 66.6714187023066
O  52.23255900745926 37.88459132450949 65.61503870227425
H  53.19218736131349 38.02556782105096 65.5897867454699
C  54.85285747436725 35.7588675354245 69.58793150616448
O  55.85713747737127 36.07521406291724 68.9299231508608
O  54.86689752560131 35.3276014976369 70.78146033296683
C  53.0681 31.0417 70.0496
N  53.218677 31.42692 68.785546
H  52.90816 32.089422 69.4818
H  53.414846 30.471882 69.049213
N  52.659201 31.914104 70.966449
H  52.85537 30.959066 71.230116
H  52.773549 32.20664 70.006528
N  53.326421 29.784076 70.396805
H  53.44077 30.076611 69.436884
H  53.015904 30.446578 71.093059
C  70.7898 28.2267 44.2897
O  71.973625 28.288476 43.893163
O  70.078516 27.199317 44.322259
H  70.331821 29.16255 44.642461
C  66.509 26.1099 42.3022
O  67.692825 26.171676 41.905663
O  65.797716 25.082517 42.334759
H  66.051021 27.04575 42.654961
C  57.0418 33.5972 71.3342
N  57.192377 33.98242 70.070146
H  56.88186 34.644922 70.7664
H  57.388546 33.027382 70.333813
N  56.632901 34.469604 72.251049
H  56.82907 33.514566 72.514716
H  56.747249 34.76214 71.291128
N  57.300121 32.339576 71.681405
H  57.41447 32.632111 70.721484
H  56.989604 33.002078 72.377659
C  70.7069 24.3799 47.1044
O  71.890725 24.441676 46.707863
O  69.995616 23.352517 47.136959
H  70.248921 25.31575 47.457161
C  73.6912 27.1499 50.1012
O  74.875025 27.211676 49.704663
O  72.979916 26.122517 50.133759
H  73.233221 28.08575 50.453961
C  67.7517 30.8406 41.4114
O  68.935525 30.902376 41.014863
O  67.040416 29.813217 41.443959
H  67.293721 31.77645 41.764161
C  65.1713 21.7088 45.5135
O  66.355125 21.770576 45.116963
O  64.460016 20.681417 45.546059
H  64.713321 22.64465 45.866261
C  68.4989 20.9406 50.243
O  69.682725 21.002376 49.846463
O  67.787616 19.913217 50.275559
H  68.040921 21.87645 50.595761
C  61.6671 26.3249 41.1324
O  62.850925 26.386676 40.735863
O  60.955816 25.297517 41.164959
H  61.209121 27.26075 41.485161
76
Image 12. Energy: -22782.62932912462 
C  52.40026649118833 35.131595933148894 70.28808969434593
H  51.855868345610375 35.89906196200958 70.88061243613825
H  51.60898585927584 34.368994108469124 70.09525214542033
C  53.61810936339832 34.418875671839345 70.92022537818507
C  53.58926377331173 33.7659326858344 72.64375747224413
O  54.312206271744316 32.7278213420689 72.8645649967692
O  52.864801955221246 34.35732893085165 73.4268206018391
O  54.1469763942257 33.58129748092753 69.99824061261441
C  52.78498502107149 35.790966162771966 66.61012167103983
H  52.911553664321225 35.35777556286304 65.60984945591915
C  53.32799271438756 35.21888727202833 67.6895132577824
H  53.97239986302594 34.34139945639294 67.56821487040875
C  53.242093986088236 35.83480029237434 69.07575901925615
C  52.830631377614225 37.27759638659721 69.02368569495809
H  53.02061003594132 37.844277647682844 69.94072817079596
C  52.2403813641772 37.82437455903166 67.96346058820471
H  51.89695763179951 38.85979441970959 67.99600899939487
C  52.01674682986949 37.08438785550638 66.66840678312309
H  50.93994821111903 36.848434313546846 66.57673853015775
O  52.32293611390816 37.90461985927007 65.55802724819475
H  53.275269106334854 38.08834765816698 65.58334178656656
C  54.67053858016063 35.86780744773441 69.63725174192787
O  55.68935538333341 36.19152844378611 69.07150467371527
O  54.66043483288396 35.52675802741773 70.9390690009964
C  53.0681 31.0417 70.0496
N  53.218677 31.42692 68.785546
H  52.90816 32.089422 69.4818
H  53.414846 30.471882 69.049213
N  52.659201 31.914104 70.966449
H  52.85537 30.959066 71.230116
H  52.773549 32.20664 70.006528
N  53.326421 29.784076 70.396805
H  53.44077 30.076611 69.436884
H  53.015904 30.446578 71.093059
C  70.7898 28.2267 44.2897
O  71.973625 28.288476 43.893163
O  70.078516 27.199317 44.322259
H  70.331821 29.16255 44.642461
C  66.509 26.1099 42.3022
O  67.692825 26.171676 41.905663
O  65.797716 25.082517 42.334759
H  66.051021 27.04575 42.654961
C  57.0418 33.5972 71.3342
N  57.192377 33.98242 70.070146
H  56.88186 34.644922 70.7664
H  57.388546 33.027382 70.333813
N  56.632901 34.469604 72.251049
H  56.82907 33.514566 72.514716
H  56.747249 34.76214 71.291128
N  57.300121 32.339576 71.681405
H  57.41447 32.632111 70.721484
H  56.989604 33.002078 72.377659
C  70.7069 24.3799 47.1044
O  71.890725 24.441676 46.707863
O  69.995616 23.352517 47.136959
H  70.248921 25.31575 47.457161
C  73.6912 27.1499 50.1012
O  74.875025 27.211676 49.704663
O  72.979916 26.122517 50.133759
H  73.233221 28.08575 50.453961
C  67.7517 30.8406 41.4114
O  68.935525 30.902376 41.014863
O  67.040416 29.813217 41.443959
H  67.293721 31.77645 41.764161
C  65.1713 21.7088 45.5135
O  66.355125 21.770576 45.116963
O  64.460016 20.681417 45.546059
H  64.713321 22.64465 45.866261
C  68.4989 20.9406 50.243
O  69.682725 21.002376 49.846463
O  67.787616 19.913217 50.275559
H  68.040921 21.87645 50.595761
C  61.6671 26.3249 41.1324
O  62.850925 26.386676 40.735863
O  60.955816 25.297517 41.164959
H  61.209121 27.26075 41.485161
76
Image 13. Energy: -22784.430254133436 
C  52.68115061576634 34.916944265522275 70.14478434033062
H  52.080869101200456 35.38683864921761 70.93381207457652
H  52.10578104911355 34.06878776716275 69.72155781671172
C  53.996646824561445 34.360170023261986 70.72299288026767
C  53.894362056774355 34.026296993446316 72.29316752493848
O  54.536577621862406 32.97068153431846 72.66049192582182
O  53.193075356827535 34.75397013932386 72.99342197991886
O  54.56176223366629 33.388830539647266 70.00690308683075
C  53.173497998479014 35.97296231946499 66.57075333870584
H  53.425445484387595 35.5139505954067 65.60961758899045
C  53.36813889866235 35.30650771150369 67.71312795832813
H  53.80929618863431 34.30654376251145 67.72779614514047
C  53.09143598560074 35.93313056265259 69.06972899536639
C  52.17591092869762 37.130102605265655 68.96662475020898
H  51.71513375622925 37.47586659663488 69.8971749060529
C  51.98583514748683 37.78342559321176 67.81605408212219
H  51.353506844670086 38.675538219988404 67.784300329142
C  52.699167639774615 37.404846007075555 66.54354789982989
H  52.033563147990506 37.55694947018878 65.67978840319303
O  53.804887081327664 38.27917625054617 66.32125701263772
H  54.38758596311912 38.19912815282275 67.09515754431709
C  54.469790034613915 36.39815750296096 69.59422690545574
O  55.14743406245566 37.30221793023025 69.1810242226325
O  54.880139638099806 35.607433887636894 70.60855617848598
C  53.0681 31.0417 70.0496
N  53.218677 31.42692 68.785546
H  52.90816 32.089422 69.4818
H  53.414846 30.471882 69.049213
N  52.659201 31.914104 70.966449
H  52.85537 30.959066 71.230116
H  52.773549 32.20664 70.006528
N  53.326421 29.784076 70.396805
H  53.44077 30.076611 69.436884
H  53.015904 30.446578 71.093059
C  70.7898 28.2267 44.2897
O  71.973625 28.288476 43.893163
O  70.078516 27.199317 44.322259
H  70.331821 29.16255 44.642461
C  66.509 26.1099 42.3022
O  67.692825 26.171676 41.905663
O  65.797716 25.082517 42.334759
H  66.051021 27.04575 42.654961
C  57.0418 33.5972 71.3342
N  57.192377 33.98242 70.070146
H  56.88186 34.644922 70.7664
H  57.388546 33.027382 70.333813
N  56.632901 34.469604 72.251049
H  56.82907 33.514566 72.514716
H  56.747249 34.76214 71.291128
N  57.300121 32.339576 71.681405
H  57.41447 32.632111 70.721484
H  56.989604 33.002078 72.377659
C  70.7069 24.3799 47.1044
O  71.890725 24.441676 46.707863
O  69.995616 23.352517 47.136959
H  70.248921 25.31575 47.457161
C  73.6912 27.1499 50.1012
O  74.875025 27.211676 49.704663
O  72.979916 26.122517 50.133759
H  73.233221 28.08575 50.453961
C  67.7517 30.8406 41.4114
O  68.935525 30.902376 41.014863
O  67.040416 29.813217 41.443959
H  67.293721 31.77645 41.764161
C  65.1713 21.7088 45.5135
O  66.355125 21.770576 45.116963
O  64.460016 20.681417 45.546059
H  64.713321 22.64465 45.866261
C  68.4989 20.9406 50.243
O  69.682725 21.002376 49.846463
O  67.787616 19.913217 50.275559
H  68.040921 21.87645 50.595761
C  61.6671 26.3249 41.1324
O  62.850925 26.386676 40.735863
O  60.955816 25.297517 41.164959
H  61.209121 27.26075 41.485161
