76
-2 1 -837.3266160971617
C       48.28295433    33.59954141    70.55943384
H       47.84945082    34.51483826    70.15310160
H       47.90810108    33.19561518    71.49959803
C       49.23475464    32.95275753    69.87713155
C       49.82828879    31.61874286    70.31218461
O       49.61120150    31.21586950    71.46312297
O       50.54142833    31.00586027    69.44026326
O       49.66531375    33.41435970    68.64299902
C       50.62848323    34.43767871    68.57306749
H       50.81727412    34.56351065    67.48640100
C       51.96059976    34.12428918    69.20997144
H       52.17369136    33.05422217    69.43203341
C       52.91002475    35.04578660    69.45320871
C       52.58282407    36.45567829    69.18948447
H       53.39356906    37.18457878    69.18891482
C       51.29978628    36.81426822    69.00443312
H       51.01466105    37.85884247    68.85234351
C       50.16946654    35.80944159    69.11814806
H       49.96306700    35.69261036    70.19939574
O       48.96419467    36.22724740    68.55021398
H       49.07492993    36.34372896    67.59260169
C       54.25994878    34.67951395    70.01706454
O       54.57143333    33.43742346    70.13821756
O       55.03370020    35.59673455    70.35643357
C       53.06810000    31.04170000    70.04960000
N       53.21867700    31.42692000    68.78554600
H       52.90816000    32.08942200    69.48180000
H       53.41484600    30.47188200    69.04921300
N       52.65920100    31.91410400    70.96644900
H       52.85537000    30.95906600    71.23011600
H       52.77354900    32.20664000    70.00652800
N       53.32642100    29.78407600    70.39680500
H       53.44077000    30.07661100    69.43688400
H       53.01590400    30.44657800    71.09305900
C       70.78980000    28.22670000    44.28970000
O       71.97362500    28.28847600    43.89316300
O       70.07851600    27.19931700    44.32225900
H       70.33182100    29.16255000    44.64246100
C       66.50900000    26.10990000    42.30220000
O       67.69282500    26.17167600    41.90566300
O       65.79771600    25.08251700    42.33475900
H       66.05102100    27.04575000    42.65496100
C       57.04180000    33.59720000    71.33420000
N       57.19237700    33.98242000    70.07014600
H       56.88186000    34.64492200    70.76640000
H       57.38854600    33.02738200    70.33381300
N       56.63290100    34.46960400    72.25104900
H       56.82907000    33.51456600    72.51471600
H       56.74724900    34.76214000    71.29112800
N       57.30012100    32.33957600    71.68140500
H       57.41447000    32.63211100    70.72148400
H       56.98960400    33.00207800    72.37765900
C       70.70690000    24.37990000    47.10440000
O       71.89072500    24.44167600    46.70786300
O       69.99561600    23.35251700    47.13695900
H       70.24892100    25.31575000    47.45716100
C       73.69120000    27.14990000    50.10120000
O       74.87502500    27.21167600    49.70466300
O       72.97991600    26.12251700    50.13375900
H       73.23322100    28.08575000    50.45396100
C       67.75170000    30.84060000    41.41140000
O       68.93552500    30.90237600    41.01486300
O       67.04041600    29.81321700    41.44395900
H       67.29372100    31.77645000    41.76416100
C       65.17130000    21.70880000    45.51350000
O       66.35512500    21.77057600    45.11696300
O       64.46001600    20.68141700    45.54605900
H       64.71332100    22.64465000    45.86626100
C       68.49890000    20.94060000    50.24300000
O       69.68272500    21.00237600    49.84646300
O       67.78761600    19.91321700    50.27555900
H       68.04092100    21.87645000    50.59576100
C       61.66710000    26.32490000    41.13240000
O       62.85092500    26.38667600    40.73586300
O       60.95581600    25.29751700    41.16495900
H       61.20912100    27.26075000    41.48516100
