76
-2 1 -837.3122213223849
C       52.67989224    34.91777502    70.14623443
H       52.07684780    35.41292539    70.91454589
H       52.10957991    34.05398397    69.74301491
C       53.99306846    34.36643111    70.73387415
C       53.88847444    34.03379929    72.30217010
O       54.52984669    32.97826519    72.67161200
O       53.18703464    34.76431476    72.99983650
O       54.56091253    33.39519487    70.01759645
C       53.18060853    35.97136449    66.56565329
H       53.43361534    35.51596716    65.60288446
C       53.37174858    35.30061759    67.70654105
H       53.81238870    34.30076046    67.72012908
C       53.09418811    35.92452844    69.06340995
C       52.17805341    37.12253061    68.96275997
H       51.71324876    37.46675684    69.89226606
C       51.98790758    37.77749921    67.81315617
H       51.35394306    38.66862309    67.78048735
C       52.70247231    37.40233794    66.54066284
H       52.03622026    37.55227997    65.67720309
O       53.80289772    38.28399745    66.31975764
H       54.37814064    38.21288801    67.10028107
C       54.47226010    36.39199631    69.59166889
O       55.15515332    37.28777929    69.16859827
O       54.87249053    35.61584062    70.62152428
C       53.06810000    31.04170000    70.04960000
N       53.21867700    31.42692000    68.78554600
H       52.90816000    32.08942200    69.48180000
H       53.41484600    30.47188200    69.04921300
N       52.65920100    31.91410400    70.96644900
H       52.85537000    30.95906600    71.23011600
H       52.77354900    32.20664000    70.00652800
N       53.32642100    29.78407600    70.39680500
H       53.44077000    30.07661100    69.43688400
H       53.01590400    30.44657800    71.09305900
C       70.78980000    28.22670000    44.28970000
O       71.97362500    28.28847600    43.89316300
O       70.07851600    27.19931700    44.32225900
H       70.33182100    29.16255000    44.64246100
C       66.50900000    26.10990000    42.30220000
O       67.69282500    26.17167600    41.90566300
O       65.79771600    25.08251700    42.33475900
H       66.05102100    27.04575000    42.65496100
C       57.04180000    33.59720000    71.33420000
N       57.19237700    33.98242000    70.07014600
H       56.88186000    34.64492200    70.76640000
H       57.38854600    33.02738200    70.33381300
N       56.63290100    34.46960400    72.25104900
H       56.82907000    33.51456600    72.51471600
H       56.74724900    34.76214000    71.29112800
N       57.30012100    32.33957600    71.68140500
H       57.41447000    32.63211100    70.72148400
H       56.98960400    33.00207800    72.37765900
C       70.70690000    24.37990000    47.10440000
O       71.89072500    24.44167600    46.70786300
O       69.99561600    23.35251700    47.13695900
H       70.24892100    25.31575000    47.45716100
C       73.69120000    27.14990000    50.10120000
O       74.87502500    27.21167600    49.70466300
O       72.97991600    26.12251700    50.13375900
H       73.23322100    28.08575000    50.45396100
C       67.75170000    30.84060000    41.41140000
O       68.93552500    30.90237600    41.01486300
O       67.04041600    29.81321700    41.44395900
H       67.29372100    31.77645000    41.76416100
C       65.17130000    21.70880000    45.51350000
O       66.35512500    21.77057600    45.11696300
O       64.46001600    20.68141700    45.54605900
H       64.71332100    22.64465000    45.86626100
C       68.49890000    20.94060000    50.24300000
O       69.68272500    21.00237600    49.84646300
O       67.78761600    19.91321700    50.27555900
H       68.04092100    21.87645000    50.59576100
C       61.66710000    26.32490000    41.13240000
O       62.85092500    26.38667600    40.73586300
O       60.95581600    25.29751700    41.16495900
H       61.20912100    27.26075000    41.48516100
