24
Coordinates from ORCA-job neb_MEP.QMRegion E -1075.549743135452
  C      47.813000     26.378000     68.235000
  H      48.270000     25.394000     68.343000
  H      48.308000     27.226000     68.696000
  C      46.670000     26.535000     67.559000
  C      45.961000     27.873000     67.389000
  O      46.595000     28.935000     67.608000
  O      44.755000     27.822000     67.035000
  O      46.034000     25.439000     67.010000
  C      46.437000     24.998000     65.665000
  H      45.852000     24.082000     65.514000
  C      47.909000     24.707000     65.681000
  H      48.267000     23.810000     66.188000
  C      48.803000     25.615000     65.243000
  C      48.326000     26.851000     64.614000
  H      49.099000     27.588000     64.388000
  C      47.028000     27.056000     64.322000
  H      46.704000     27.980000     63.832000
  C      45.970000     26.017000     64.598000
  H      45.090000     26.517000     65.033000
  O      45.624000     25.376000     63.382000
  H      44.622000     25.243000     63.347000
  C      50.298000     25.450000     65.499000
  O      50.717000     24.406000     66.055000
  O      51.030000     26.423000     65.168000
24
Coordinates from ORCA-job neb_MEP.QMRegion E -1075.554154258112
  C      47.814230     26.374647     68.229288
  H      48.269958     25.390067     68.337473
  H      48.307589     27.221986     68.695562
  C      46.673439     26.530852     67.549937
  C      45.963334     27.869544     67.378153
  O      46.596036     28.931373     67.603645
  O      44.760748     27.817351     67.015467
  O      46.038743     25.434637     66.999709
  C      46.446198     24.994400     65.655226
  H      45.863608     24.076036     65.502567
  C      47.917447     24.706788     65.674875
  H      48.277158     23.810852     66.183000
  C      48.810916     25.615006     65.236323
  C      48.333907     26.850210     64.604979
  H      49.107922     27.587064     64.381566
  C      47.036752     27.052819     64.310910
  H      46.713201     27.974971     63.818759
  C      45.981127     26.011451     64.585531
  H      45.098243     26.510042     65.017340
  O      45.639849     25.367497     63.370040
  H      44.636741     25.238424     63.330965
  C      50.305782     25.451558     65.494952
  O      50.726239     24.410506     66.055214
  O      51.036479     26.425297     65.162478
24
Coordinates from ORCA-job neb_MEP.QMRegion E -1075.557935047635
  C      47.817382     26.371394     68.219582
  H      48.273562     25.387106     68.327450
  H      48.309753     27.218912     68.686278
  C      46.676616     26.527700     67.539888
  C      45.966498     27.866514     67.369707
  O      46.597272     28.927812     67.600764
  O      44.765195     27.813942     67.002870
  O      46.041965     25.432162     66.988483
  C      46.449714     24.991991     65.643786
  H      45.866853     24.073850     65.490652
  C      47.920626     24.704567     65.664803
  H      48.280395     23.808373     66.172554
  C      48.814248     25.614632     65.229795
  C      48.337611     26.850084     64.599195
  H      49.111315     27.587928     64.378273
  C      47.040876     27.051805     64.302122
  H      46.717648     27.974017     63.809899
  C      45.985719     26.009379     64.573960
  H      45.101902     26.507318     65.004598
  O      45.646988     25.365791     63.357547
  H      44.643965     25.235651     63.317375
  C      50.308542     25.452330     65.491810
  O      50.728251     24.412551     66.054740
  O      51.038606     26.425942     65.159116
24
Coordinates from ORCA-job neb_MEP.QMRegion E -1075.562734220123
  C      47.821000     26.367788     68.208381
  H      48.277827     25.383866     68.316047
  H      48.312689     27.215610     68.675146
  C      46.680134     26.524124     67.529186
  C      45.969754     27.862932     67.361010
  O      46.598658     28.924069     67.597883
  O      44.769608     27.810278     66.990382
  O      46.045091     25.429402     66.976757
  C      46.452675     24.989252     65.631564
  H      45.869289     24.071526     65.478137
  C      47.923380     24.701990     65.653790
  H      48.283130     23.805384     66.160538
  C      48.816735     25.613970     65.223124
  C      48.340586     26.850109     64.593315
  H      49.114241     27.588856     64.375411
  C      47.044455     27.050786     64.293080
  H      46.721454     27.973090     63.800878
  C      45.989702     26.007293     64.561915
  H      45.105073     26.504633     64.991564
  O      45.653312     25.364589     63.344367
  H      44.650478     25.232905     63.303461
  C      50.310384     25.453191     65.488544
  O      50.729441     24.414384     66.054288
  O      51.040421     26.426675     65.155964
24
Coordinates from ORCA-job neb_MEP.QMRegion E -1075.567338937613
  C      47.826057     26.363508     68.194594
  H      48.284008     25.379971     68.300991
  H      48.317163     27.211588     68.661538
  C      46.684400     26.519943     67.516781
  C      45.973422     27.858618     67.351302
  O      46.600403     28.919660     67.594769
  O      44.774710     27.805817     66.976763
  O      46.048819     25.425927     66.963433
  C      46.455478     24.985807     65.617519
  H      45.871424     24.068485     65.463899
  C      47.925905     24.698555     65.640483
  H      48.285731     23.801067     66.145924
  C      48.819203     25.613063     65.214994
  C      48.343156     26.850042     64.586901
  H      49.116567     27.590196     64.372838
  C      47.047772     27.049614     64.283235
  H      46.724932     27.972344     63.791643
  C      45.993525     26.004662     64.548243
  H      45.107841     26.500917     64.976838
  O      45.659965     25.362942     63.329432
  H      44.657359     25.229691     63.287523
  C      50.311927     25.453644     65.484971
  O      50.730136     24.416261     66.053634
  O      51.041929     26.427457     65.152749
24
Coordinates from ORCA-job neb_MEP.QMRegion E -1075.570860517341
  C      47.831881     26.358809     68.179080
  H      48.291166     25.375819     68.283822
  H      48.322132     27.207109     68.646379
  C      46.689346     26.515243     67.502759
  C      45.978051     27.853962     67.340500
  O      46.602107     28.914505     67.591156
  O      44.780312     27.800781     66.961096
  O      46.053178     25.422044     66.948500
  C      46.458899     24.981805     65.601664
  H      45.873907     24.065030     65.448105
  C      47.929166     24.694712     65.625409
  H      48.289001     23.796458     66.129412
  C      48.822061     25.611906     65.205780
  C      48.346205     26.849839     64.579342
  H      49.119035     27.591603     64.369740
  C      47.051578     27.048049     64.271787
  H      46.729022     27.971209     63.781001
  C      45.998035     26.001503     64.532714
  H      45.111195     26.496689     64.960112
  O      45.667477     25.360684     63.312624
  H      44.665119     25.225905     63.269784
  C      50.313795     25.454553     65.480625
  O      50.731292     24.418427     66.053014
  O      51.043904     26.428382     65.148976
24
Coordinates from ORCA-job neb_MEP.QMRegion E -1075.573084220237
  C      47.843534     26.352644     68.152777
  H      48.306003     25.370827     68.252726
  H      48.335407     27.201383     68.617390
  C      46.696679     26.508534     67.484274
  C      45.983251     27.846774     67.327558
  O      46.605090     28.907695     67.586256
  O      44.787425     27.793875     66.944931
  O      46.058251     25.416160     66.930823
  C      46.461471     24.975139     65.582290
  H      45.874661     24.059354     65.429615
  C      47.931344     24.687970     65.605644
  H      48.291877     23.787950     66.105500
  C      48.823504     25.609942     65.195289
  C      48.347071     26.849972     64.573655
  H      49.118894     27.594908     64.371910
  C      47.053680     27.046067     64.260757
  H      46.731228     27.970603     63.772421
  C      46.001429     25.996600     64.514910
  H      45.113428     26.489813     64.941842
  O      45.674410     25.358378     63.292589
  H      44.672287     25.222028     63.248747
  C      50.314043     25.454871     65.476776
  O      50.730044     24.420207     66.052363
  O      51.044371     26.429546     65.147375
24
Coordinates from ORCA-job neb_MEP.QMRegion E -1075.569769735265
  C      47.959800     26.341425     67.927958
  H      48.434785     25.365917     68.003847
  H      48.514814     27.202176     68.281946
  C      46.735366     26.480554     67.406387
  C      46.010737     27.818626     67.296302
  O      46.633137     28.879296     67.554671
  O      44.803597     27.769670     66.946782
  O      46.065500     25.380858     66.905957
  C      46.444435     24.926518     65.526758
  H      45.849345     24.014108     65.379634
  C      47.909701     24.647525     65.538925
  H      48.279349     23.729018     65.994743
  C      48.790579     25.615381     65.216434
  C      48.305875     26.869742     64.634658
  H      49.066357     27.637908     64.489118
  C      47.021332     27.041625     64.276982
  H      46.694606     27.967030     63.794700
  C      45.980346     25.971615     64.484488
  H      45.091390     26.443332     64.931704
  O      45.655189     25.377848     63.240911
  H      44.652028     25.235249     63.199865
  C      50.276953     25.460565     65.506555
  O      50.687667     24.413635     66.064659
  O      51.011578     26.436656     65.195184
24
Coordinates from ORCA-job neb_MEP.QMRegion E -1075.570725086691
  C      48.230601     26.269433     67.341318
  H      48.479593     25.397323     67.959807
  H      48.735839     27.150402     67.751394
  C      46.740259     26.465300     67.439086
  C      46.032405     27.847252     67.300413
  O      46.672828     28.897573     67.536798
  O      44.826918     27.784896     66.977102
  O      46.020143     25.493663     67.561692
  C      46.581919     24.701571     65.109195
  H      45.902247     23.851243     65.170542
  C      47.832828     24.623589     65.569247
  H      48.236720     23.716427     66.018242
  C      48.651859     25.853682     65.794799
  C      48.251230     26.960941     64.853867
  H      49.014536     27.720867     64.676631
  C      47.044467     27.009852     64.278209
  H      46.754440     27.862130     63.655942
  C      46.016368     25.916574     64.418417
  H      45.155797     26.323999     64.982273
  O      45.597512     25.525387     63.120812
  H      44.604360     25.309556     63.139418
  C      50.196955     25.549307     65.708390
  O      50.613423     24.441983     66.115109
  O      50.943951     26.452079     65.244413
24
Coordinates from ORCA-job neb_MEP.QMRegion E -1075.581607183806
  C      48.226000     26.288000     67.285000
  H      48.580000     25.496000     67.958000
  H      48.713000     27.233000     67.526000
  C      46.746000     26.443000     67.519000
  C      46.038000     27.813000     67.304000
  O      46.671000     28.869000     67.539000
  O      44.847000     27.742000     66.934000
  O      46.073000     25.491000     67.863000
  C      46.558000     24.656000     64.905000
  H      45.934000     23.766000     64.826000
  C      47.738000     24.617000     65.525000
  H      48.125000     23.703000     65.977000
  C      48.548000     25.854000     65.794000
  C      48.158000     26.976000     64.867000
  H      48.893000     27.779000     64.788000
  C      47.004000     26.996000     64.192000
  H      46.753000     27.838000     63.539000
  C      45.980000     25.896000     64.275000
  H      45.149000     26.263000     64.910000
  O      45.496000     25.603000     62.979000
  H      44.500000     25.420000     63.027000
  C      50.092000     25.549000     65.708000
  O      50.500000     24.442000     66.123000
  O      50.847000     26.451000     65.257000
