24
Coordinates from ORCA-job neb_initial_path.QMRegion E   0.000000000000
  C      47.813000     26.378000     68.235000
  H      48.270000     25.394000     68.343000
  H      48.308000     27.226000     68.696000
  C      46.670000     26.535000     67.559000
  C      45.961000     27.873000     67.389000
  O      46.595000     28.935000     67.608000
  O      44.755000     27.822000     67.035000
  O      46.034000     25.439000     67.010000
  C      46.437000     24.998000     65.665000
  H      45.852000     24.082000     65.514000
  C      47.909000     24.707000     65.681000
  H      48.267000     23.810000     66.188000
  C      48.803000     25.615000     65.243000
  C      48.326000     26.851000     64.614000
  H      49.099000     27.588000     64.388000
  C      47.028000     27.056000     64.322000
  H      46.704000     27.980000     63.832000
  C      45.970000     26.017000     64.598000
  H      45.090000     26.517000     65.033000
  O      45.624000     25.376000     63.382000
  H      44.622000     25.243000     63.347000
  C      50.298000     25.450000     65.499000
  O      50.717000     24.406000     66.055000
  O      51.030000     26.423000     65.168000
24
Coordinates from ORCA-job neb_initial_path.QMRegion E   0.000000000000
  C      47.849286     26.373143     68.162143
  H      48.302000     25.389714     68.281571
  H      48.358143     27.223143     68.598571
  C      46.681571     26.527286     67.537714
  C      45.971714     27.867000     67.374857
  O      46.603857     28.929143     67.598857
  O      44.765143     27.816714     67.022429
  O      46.036000     25.435429     67.015143
  C      46.441286     24.975571     65.625286
  H      45.847143     24.065000     65.495571
  C      47.904286     24.695286     65.657857
  H      48.267143     23.794000     66.152000
  C      48.791143     25.626286     65.268143
  C      48.316143     26.860429     64.634000
  H      49.087143     27.602571     64.421857
  C      47.024286     27.053286     64.317429
  H      46.702000     27.972286     63.818429
  C      45.970143     26.007857     64.578571
  H      45.089143     26.499000     65.020714
  O      45.626000     25.382857     63.354857
  H      44.623857     25.244429     63.320429
  C      50.287571     25.457000     65.515714
  O      50.705429     24.408571     66.063286
  O      51.022143     26.425714     65.179286
24
Coordinates from ORCA-job neb_initial_path.QMRegion E   0.000000000000
  C      47.885571     26.368286     68.089286
  H      48.334000     25.385429     68.220143
  H      48.408286     27.220286     68.501143
  C      46.693143     26.519571     67.516429
  C      45.982429     27.861000     67.360714
  O      46.612714     28.923286     67.589714
  O      44.775286     27.811429     67.009857
  O      46.038000     25.431857     67.020286
  C      46.445571     24.953143     65.585571
  H      45.842286     24.048000     65.477143
  C      47.899571     24.683571     65.634714
  H      48.267286     23.778000     66.116000
  C      48.779286     25.637571     65.293286
  C      48.306286     26.869857     64.654000
  H      49.075286     27.617143     64.455714
  C      47.020571     27.050571     64.312857
  H      46.700000     27.964571     63.804857
  C      45.970286     25.998714     64.559143
  H      45.088286     26.481000     65.008429
  O      45.628000     25.389714     63.327714
  H      44.625714     25.245857     63.293857
  C      50.277143     25.464000     65.532429
  O      50.693857     24.411143     66.071571
  O      51.014286     26.428429     65.190571
24
Coordinates from ORCA-job neb_initial_path.QMRegion E   0.000000000000
  C      47.921857     26.363429     68.016429
  H      48.366000     25.381143     68.158714
  H      48.458429     27.217429     68.403714
  C      46.704714     26.511857     67.495143
  C      45.993143     27.855000     67.346571
  O      46.621571     28.917429     67.580571
  O      44.785429     27.806143     66.997286
  O      46.040000     25.428286     67.025429
  C      46.449857     24.930714     65.545857
  H      45.837429     24.031000     65.458714
  C      47.894857     24.671857     65.611571
  H      48.267429     23.762000     66.080000
  C      48.767429     25.648857     65.318429
  C      48.296429     26.879286     64.674000
  H      49.063429     27.631714     64.489571
  C      47.016857     27.047857     64.308286
  H      46.698000     27.956857     63.791286
  C      45.970429     25.989571     64.539714
  H      45.087429     26.463000     64.996143
  O      45.630000     25.396571     63.300571
  H      44.627571     25.247286     63.267286
  C      50.266714     25.471000     65.549143
  O      50.682286     24.413714     66.079857
  O      51.006429     26.431143     65.201857
24
Coordinates from ORCA-job neb_initial_path.QMRegion E   0.000000000000
  C      47.958143     26.358571     67.943571
  H      48.398000     25.376857     68.097286
  H      48.508571     27.214571     68.306286
  C      46.716286     26.504143     67.473857
  C      46.003857     27.849000     67.332429
  O      46.630429     28.911571     67.571429
  O      44.795571     27.800857     66.984714
  O      46.042000     25.424714     67.030571
  C      46.454143     24.908286     65.506143
  H      45.832571     24.014000     65.440286
  C      47.890143     24.660143     65.588429
  H      48.267571     23.746000     66.044000
  C      48.755571     25.660143     65.343571
  C      48.286571     26.888714     64.694000
  H      49.051571     27.646286     64.523429
  C      47.013143     27.045143     64.303714
  H      46.696000     27.949143     63.777714
  C      45.970571     25.980429     64.520286
  H      45.086571     26.445000     64.983857
  O      45.632000     25.403429     63.273429
  H      44.629429     25.248714     63.240714
  C      50.256286     25.478000     65.565857
  O      50.670714     24.416286     66.088143
  O      50.998571     26.433857     65.213143
24
Coordinates from ORCA-job neb_initial_path.QMRegion E   0.000000000000
  C      47.994429     26.353714     67.870714
  H      48.430000     25.372571     68.035857
  H      48.558714     27.211714     68.208857
  C      46.727857     26.496429     67.452571
  C      46.014571     27.843000     67.318286
  O      46.639286     28.905714     67.562286
  O      44.805714     27.795571     66.972143
  O      46.044000     25.421143     67.035714
  C      46.458429     24.885857     65.466429
  H      45.827714     23.997000     65.421857
  C      47.885429     24.648429     65.565286
  H      48.267714     23.730000     66.008000
  C      48.743714     25.671429     65.368714
  C      48.276714     26.898143     64.714000
  H      49.039714     27.660857     64.557286
  C      47.009429     27.042429     64.299143
  H      46.694000     27.941429     63.764143
  C      45.970714     25.971286     64.500857
  H      45.085714     26.427000     64.971571
  O      45.634000     25.410286     63.246286
  H      44.631286     25.250143     63.214143
  C      50.245857     25.485000     65.582571
  O      50.659143     24.418857     66.096429
  O      50.990714     26.436571     65.224429
24
Coordinates from ORCA-job neb_initial_path.QMRegion E   0.000000000000
  C      48.030714     26.348857     67.797857
  H      48.462000     25.368286     67.974429
  H      48.608857     27.208857     68.111429
  C      46.739429     26.488714     67.431286
  C      46.025286     27.837000     67.304143
  O      46.648143     28.899857     67.553143
  O      44.815857     27.790286     66.959571
  O      46.046000     25.417571     67.040857
  C      46.462714     24.863429     65.426714
  H      45.822857     23.980000     65.403429
  C      47.880714     24.636714     65.542143
  H      48.267857     23.714000     65.972000
  C      48.731857     25.682714     65.393857
  C      48.266857     26.907571     64.734000
  H      49.027857     27.675429     64.591143
  C      47.005714     27.039714     64.294571
  H      46.692000     27.933714     63.750571
  C      45.970857     25.962143     64.481429
  H      45.084857     26.409000     64.959286
  O      45.636000     25.417143     63.219143
  H      44.633143     25.251571     63.187571
  C      50.235429     25.492000     65.599286
  O      50.647571     24.421429     66.104714
  O      50.982857     26.439286     65.235714
24
Coordinates from ORCA-job neb_initial_path.QMRegion E   0.000000000000
  C      48.067000     26.344000     67.725000
  H      48.494000     25.364000     67.913000
  H      48.659000     27.206000     68.014000
  C      46.751000     26.481000     67.410000
  C      46.036000     27.831000     67.290000
  O      46.657000     28.894000     67.544000
  O      44.826000     27.785000     66.947000
  O      46.048000     25.414000     67.046000
  C      46.467000     24.841000     65.387000
  H      45.818000     23.963000     65.385000
  C      47.876000     24.625000     65.519000
  H      48.268000     23.698000     65.936000
  C      48.720000     25.694000     65.419000
  C      48.257000     26.917000     64.754000
  H      49.016000     27.690000     64.625000
  C      47.002000     27.037000     64.290000
  H      46.690000     27.926000     63.737000
  C      45.971000     25.953000     64.462000
  H      45.084000     26.391000     64.947000
  O      45.638000     25.424000     63.192000
  H      44.635000     25.253000     63.161000
  C      50.225000     25.499000     65.616000
  O      50.636000     24.424000     66.113000
  O      50.975000     26.442000     65.247000
24
Coordinates from ORCA-job neb_initial_path.QMRegion E   0.000000000000
  C      48.146500     26.316000     67.505000
  H      48.537000     25.430000     67.935500
  H      48.686000     27.219500     67.770000
  C      46.748500     26.462000     67.464500
  C      46.037000     27.822000     67.297000
  O      46.664000     28.881500     67.541500
  O      44.836500     27.763500     66.940500
  O      46.060500     25.452500     67.454500
  C      46.512500     24.748500     65.146000
  H      45.876000     23.864500     65.105500
  C      47.807000     24.621000     65.522000
  H      48.196500     23.700500     65.956500
  C      48.634000     25.774000     65.606500
  C      48.207500     26.946500     64.810500
  H      48.954500     27.734500     64.706500
  C      47.003000     27.016500     64.241000
  H      46.721500     27.882000     63.638000
  C      45.975500     25.924500     64.368500
  H      45.116500     26.327000     64.928500
  O      45.567000     25.513500     63.085500
  H      44.567500     25.336500     63.094000
  C      50.158500     25.524000     65.662000
  O      50.568000     24.433000     66.118000
  O      50.911000     26.446500     65.252000
24
Coordinates from ORCA-job neb_initial_path.QMRegion E   0.000000000000
  C      48.226000     26.288000     67.285000
  H      48.580000     25.496000     67.958000
  H      48.713000     27.233000     67.526000
  C      46.746000     26.443000     67.519000
  C      46.038000     27.813000     67.304000
  O      46.671000     28.869000     67.539000
  O      44.847000     27.742000     66.934000
  O      46.073000     25.491000     67.863000
  C      46.558000     24.656000     64.905000
  H      45.934000     23.766000     64.826000
  C      47.738000     24.617000     65.525000
  H      48.125000     23.703000     65.977000
  C      48.548000     25.854000     65.794000
  C      48.158000     26.976000     64.867000
  H      48.893000     27.779000     64.788000
  C      47.004000     26.996000     64.192000
  H      46.753000     27.838000     63.539000
  C      45.980000     25.896000     64.275000
  H      45.149000     26.263000     64.910000
  O      45.496000     25.603000     62.979000
  H      44.500000     25.420000     63.027000
  C      50.092000     25.549000     65.708000
  O      50.500000     24.442000     66.123000
  O      50.847000     26.451000     65.257000
