24
Coordinates from ORCA-job neb_initial_path.QMRegion E   0.000000000000
  C      45.950000     19.075000     41.504000
  H      46.429000     18.346000     40.852000
  H      46.460000     20.015000     41.719000
  C      44.759000     18.848000     42.068000
  C      44.130000     19.837000     43.041000
  O      44.549000     21.025000     43.027000
  O      43.246000     19.397000     43.815000
  O      44.070000     17.668000     41.848000
  C      43.145000     17.597000     40.699000
  H      42.771000     16.564000     40.731000
  C      43.922000     17.859000     39.445000
  H      44.525000     17.063000     39.003000
  C      44.022000     19.114000     38.964000
  C      43.222000     20.190000     39.566000
  H      43.457000     21.203000     39.236000
  C      42.272000     19.942000     40.483000
  H      41.698000     20.756000     40.931000
  C      41.940000     18.536000     40.909000
  H      41.729000     18.540000     41.987000
  O      40.813000     18.060000     40.178000
  H      40.074000     17.822000     40.814000
  C      45.036000     19.498000     37.894000
  O      45.684000     18.597000     37.294000
  O      45.164000     20.734000     37.721000
24
Coordinates from ORCA-job neb_initial_path.QMRegion E   0.000000000000
  C      45.909000     19.093333     41.430333
  H      46.404333     18.358667     40.801333
  H      46.398500     20.046667     41.610833
  C      44.758167     18.841333     42.057167
  C      44.135667     19.835333     43.032333
  O      44.553667     21.023667     43.013333
  O      43.257167     19.397000     43.813000
  O      44.095000     17.662333     41.867167
  C      43.112000     17.577833     40.660167
  H      42.757333     16.542667     40.715667
  C      43.907833     17.849000     39.444167
  H      44.506833     17.057333     38.990500
  C      44.052833     19.116500     39.015167
  C      43.239833     20.188833     39.605500
  H      43.483167     21.204333     39.292500
  C      42.268833     19.932667     40.493333
  H      41.684500     20.742500     40.934000
  C      41.927833     18.525167     40.902833
  H      41.726167     18.516500     41.981833
  O      40.789500     18.070500     40.177167
  H      40.053833     17.829000     40.816833
  C      45.054500     19.501000     37.933000
  O      45.683667     18.598833     37.318000
  O      45.181167     20.735833     37.755500
24
Coordinates from ORCA-job neb_initial_path.QMRegion E   0.000000000000
  C      45.868000     19.111667     41.356667
  H      46.379667     18.371333     40.750667
  H      46.337000     20.078333     41.502667
  C      44.757333     18.834667     42.046333
  C      44.141333     19.833667     43.023667
  O      44.558333     21.022333     42.999667
  O      43.268333     19.397000     43.811000
  O      44.120000     17.656667     41.886333
  C      43.079000     17.558667     40.621333
  H      42.743667     16.521333     40.700333
  C      43.893667     17.839000     39.443333
  H      44.488667     17.051667     38.978000
  C      44.083667     19.119000     39.066333
  C      43.257667     20.187667     39.645000
  H      43.509333     21.205667     39.349000
  C      42.265667     19.923333     40.503667
  H      41.671000     20.729000     40.937000
  C      41.915667     18.514333     40.896667
  H      41.723333     18.493000     41.976667
  O      40.766000     18.081000     40.176333
  H      40.033667     17.836000     40.819667
  C      45.073000     19.504000     37.972000
  O      45.683333     18.600667     37.342000
  O      45.198333     20.737667     37.790000
24
Coordinates from ORCA-job neb_initial_path.QMRegion E   0.000000000000
  C      45.827000     19.130000     41.283000
  H      46.355000     18.384000     40.700000
  H      46.275500     20.110000     41.394500
  C      44.756500     18.828000     42.035500
  C      44.147000     19.832000     43.015000
  O      44.563000     21.021000     42.986000
  O      43.279500     19.397000     43.809000
  O      44.145000     17.651000     41.905500
  C      43.046000     17.539500     40.582500
  H      42.730000     16.500000     40.685000
  C      43.879500     17.829000     39.442500
  H      44.470500     17.046000     38.965500
  C      44.114500     19.121500     39.117500
  C      43.275500     20.186500     39.684500
  H      43.535500     21.207000     39.405500
  C      42.262500     19.914000     40.514000
  H      41.657500     20.715500     40.940000
  C      41.903500     18.503500     40.890500
  H      41.720500     18.469500     41.971500
  O      40.742500     18.091500     40.175500
  H      40.013500     17.843000     40.822500
  C      45.091500     19.507000     38.011000
  O      45.683000     18.602500     37.366000
  O      45.215500     20.739500     37.824500
24
Coordinates from ORCA-job neb_initial_path.QMRegion E   0.000000000000
  C      45.786000     19.148333     41.209333
  H      46.330333     18.396667     40.649333
  H      46.214000     20.141667     41.286333
  C      44.755667     18.821333     42.024667
  C      44.152667     19.830333     43.006333
  O      44.567667     21.019667     42.972333
  O      43.290667     19.397000     43.807000
  O      44.170000     17.645333     41.924667
  C      43.013000     17.520333     40.543667
  H      42.716333     16.478667     40.669667
  C      43.865333     17.819000     39.441667
  H      44.452333     17.040333     38.953000
  C      44.145333     19.124000     39.168667
  C      43.293333     20.185333     39.724000
  H      43.561667     21.208333     39.462000
  C      42.259333     19.904667     40.524333
  H      41.644000     20.702000     40.943000
  C      41.891333     18.492667     40.884333
  H      41.717667     18.446000     41.966333
  O      40.719000     18.102000     40.174667
  H      39.993333     17.850000     40.825333
  C      45.110000     19.510000     38.050000
  O      45.682667     18.604333     37.390000
  O      45.232667     20.741333     37.859000
24
Coordinates from ORCA-job neb_initial_path.QMRegion E   0.000000000000
  C      45.745000     19.166667     41.135667
  H      46.305667     18.409333     40.598667
  H      46.152500     20.173333     41.178167
  C      44.754833     18.814667     42.013833
  C      44.158333     19.828667     42.997667
  O      44.572333     21.018333     42.958667
  O      43.301833     19.397000     43.805000
  O      44.195000     17.639667     41.943833
  C      42.980000     17.501167     40.504833
  H      42.702667     16.457333     40.654333
  C      43.851167     17.809000     39.440833
  H      44.434167     17.034667     38.940500
  C      44.176167     19.126500     39.219833
  C      43.311167     20.184167     39.763500
  H      43.587833     21.209667     39.518500
  C      42.256167     19.895333     40.534667
  H      41.630500     20.688500     40.946000
  C      41.879167     18.481833     40.878167
  H      41.714833     18.422500     41.961167
  O      40.695500     18.112500     40.173833
  H      39.973167     17.857000     40.828167
  C      45.128500     19.513000     38.089000
  O      45.682333     18.606167     37.414000
  O      45.249833     20.743167     37.893500
24
Coordinates from ORCA-job neb_initial_path.QMRegion E   0.000000000000
  C      45.704000     19.185000     41.062000
  H      46.281000     18.422000     40.548000
  H      46.091000     20.205000     41.070000
  C      44.754000     18.808000     42.003000
  C      44.164000     19.827000     42.989000
  O      44.577000     21.017000     42.945000
  O      43.313000     19.397000     43.803000
  O      44.220000     17.634000     41.963000
  C      42.947000     17.482000     40.466000
  H      42.689000     16.436000     40.639000
  C      43.837000     17.799000     39.440000
  H      44.416000     17.029000     38.928000
  C      44.207000     19.129000     39.271000
  C      43.329000     20.183000     39.803000
  H      43.614000     21.211000     39.575000
  C      42.253000     19.886000     40.545000
  H      41.617000     20.675000     40.949000
  C      41.867000     18.471000     40.872000
  H      41.712000     18.399000     41.956000
  O      40.672000     18.123000     40.173000
  H      39.953000     17.864000     40.831000
  C      45.147000     19.516000     38.128000
  O      45.682000     18.608000     37.438000
  O      45.267000     20.745000     37.928000
24
Coordinates from ORCA-job neb_initial_path.QMRegion E   0.000000000000
  C      45.633333     19.205000     40.951000
  H      46.302000     18.475667     40.538667
  H      46.003667     20.232667     40.977000
  C      44.792667     18.801667     42.011000
  C      44.195667     19.823000     43.002667
  O      44.580667     21.018000     42.934000
  O      43.369667     19.381333     43.831667
  O      44.408000     17.622667     42.064667
  C      42.869667     17.442000     40.317000
  H      42.586667     16.399000     40.421000
  C      43.852333     17.775000     39.454333
  H      44.450667     17.019000     38.943667
  C      44.278667     19.128000     39.367667
  C      43.331333     20.159667     39.842333
  H      43.608000     21.195333     39.645667
  C      42.228667     19.840333     40.523667
  H      41.573333     20.619000     40.916000
  C      41.832667     18.419667     40.810667
  H      41.727333     18.306667     41.896333
  O      40.601667     18.115333     40.168667
  H      39.901667     17.876000     40.852333
  C      45.150000     19.521333     38.164667
  O      45.670333     18.616000     37.461667
  O      45.247333     20.749000     37.953333
24
Coordinates from ORCA-job neb_initial_path.QMRegion E   0.000000000000
  C      45.562667     19.225000     40.840000
  H      46.323000     18.529333     40.529333
  H      45.916333     20.260333     40.884000
  C      44.831333     18.795333     42.019000
  C      44.227333     19.819000     43.016333
  O      44.584333     21.019000     42.923000
  O      43.426333     19.365667     43.860333
  O      44.596000     17.611333     42.166333
  C      42.792333     17.402000     40.168000
  H      42.484333     16.362000     40.203000
  C      43.867667     17.751000     39.468667
  H      44.485333     17.009000     38.959333
  C      44.350333     19.127000     39.464333
  C      43.333667     20.136333     39.881667
  H      43.602000     21.179667     39.716333
  C      42.204333     19.794667     40.502333
  H      41.529667     20.563000     40.883000
  C      41.798333     18.368333     40.749333
  H      41.742667     18.214333     41.836667
  O      40.531333     18.107667     40.164333
  H      39.850333     17.888000     40.873667
  C      45.153000     19.526667     38.201333
  O      45.658667     18.624000     37.485333
  O      45.227667     20.753000     37.978667
24
Coordinates from ORCA-job neb_initial_path.QMRegion E   0.000000000000
  C      45.492000     19.245000     40.729000
  H      46.344000     18.583000     40.520000
  H      45.829000     20.288000     40.791000
  C      44.870000     18.789000     42.027000
  C      44.259000     19.815000     43.030000
  O      44.588000     21.020000     42.912000
  O      43.483000     19.350000     43.889000
  O      44.784000     17.600000     42.268000
  C      42.715000     17.362000     40.019000
  H      42.382000     16.325000     39.985000
  C      43.883000     17.727000     39.483000
  H      44.520000     16.999000     38.975000
  C      44.422000     19.126000     39.561000
  C      43.336000     20.113000     39.921000
  H      43.596000     21.164000     39.787000
  C      42.180000     19.749000     40.481000
  H      41.486000     20.507000     40.850000
  C      41.764000     18.317000     40.688000
  H      41.758000     18.122000     41.777000
  O      40.461000     18.100000     40.160000
  H      39.799000     17.900000     40.895000
  C      45.156000     19.532000     38.238000
  O      45.647000     18.632000     37.509000
  O      45.208000     20.757000     38.004000
