24
Coordinates from ORCA-job neb_MEP.QMRegion E -1075.855124704461
  C      45.950000     19.075000     41.504000
  H      46.429000     18.346000     40.852000
  H      46.460000     20.015000     41.719000
  C      44.759000     18.848000     42.068000
  C      44.130000     19.837000     43.041000
  O      44.549000     21.025000     43.027000
  O      43.246000     19.397000     43.815000
  O      44.070000     17.668000     41.848000
  C      43.145000     17.597000     40.699000
  H      42.771000     16.564000     40.731000
  C      43.922000     17.859000     39.445000
  H      44.525000     17.063000     39.003000
  C      44.022000     19.114000     38.964000
  C      43.222000     20.190000     39.566000
  H      43.457000     21.203000     39.236000
  C      42.272000     19.942000     40.483000
  H      41.698000     20.756000     40.931000
  C      41.940000     18.536000     40.909000
  H      41.729000     18.540000     41.987000
  O      40.813000     18.060000     40.178000
  H      40.074000     17.822000     40.814000
  C      45.036000     19.498000     37.894000
  O      45.684000     18.597000     37.294000
  O      45.164000     20.734000     37.721000
24
Coordinates from ORCA-job neb_MEP.QMRegion E -1075.859014845352
  C      45.935407     19.079920     41.473832
  H      46.404872     18.356116     40.808622
  H      46.442147     20.023668     41.678674
  C      44.754842     18.845270     42.056873
  C      44.134823     19.832151     43.036605
  O      44.553407     21.020643     43.019339
  O      43.256208     19.393815     43.816874
  O      44.065125     17.664542     41.843497
  C      43.135587     17.588085     40.696250
  H      42.762669     16.555518     40.732581
  C      43.907159     17.851177     39.440839
  H      44.503650     17.054393     38.990180
  C      44.016135     19.109862     38.971954
  C      43.223419     20.186189     39.582740
  H      43.464862     21.201425     39.265676
  C      42.266460     19.935049     40.491291
  H      41.692818     20.747003     40.943014
  C      41.930788     18.527694     40.910786
  H      41.721507     18.527741     41.989498
  O      40.803606     18.056300     40.179024
  H      40.062483     17.822271     40.814469
  C      45.039432     19.493208     37.909963
  O      45.676156     18.591604     37.300791
  O      45.182765     20.729346     37.751247
24
Coordinates from ORCA-job neb_MEP.QMRegion E -1075.862418230612
  C      45.911544     19.091285     41.430171
  H      46.370303     18.375803     40.749517
  H      46.409615     20.042734     41.619172
  C      44.746534     18.844068     42.038942
  C      44.137175     19.827523     43.028564
  O      44.556615     21.015875     43.011495
  O      43.264529     19.388395     43.814940
  O      44.058908     17.660325     41.835069
  C      43.121860     17.576254     40.691440
  H      42.753339     16.542351     40.732792
  C      43.886831     17.841690     39.433409
  H      44.475812     17.045016     38.972931
  C      44.008161     19.105353     38.980843
  C      43.222580     20.180691     39.603190
  H      43.475543     21.198541     39.303851
  C      42.259510     19.925066     40.504109
  H      41.688098     20.734527     40.963146
  C      41.918344     18.515324     40.911477
  H      41.709258     18.508721     41.990123
  O      40.790212     18.050850     40.177318
  H      40.047614     17.821073     40.812622
  C      45.040931     19.490474     37.928991
  O      45.669508     18.589241     37.310691
  O      45.201329     20.726407     37.787474
24
Coordinates from ORCA-job neb_MEP.QMRegion E -1075.864396742760
  C      45.864237     19.114435     41.340408
  H      46.314594     18.407750     40.646773
  H      46.327328     20.091869     41.477082
  C      44.732962     18.840060     42.000768
  C      44.142114     19.820456     43.005374
  O      44.560745     21.009351     42.985941
  O      43.282401     19.381223     43.805760
  O      44.051634     17.648912     41.816469
  C      43.099012     17.550892     40.673968
  H      42.740842     16.513287     40.719583
  C      43.856214     17.827155     39.417577
  H      44.432147     17.034349     38.935184
  C      44.006614     19.102573     39.007998
  C      43.231512     20.172540     39.652987
  H      43.507534     21.195667     39.394380
  C      42.247292     19.903722     40.526748
  H      41.670364     20.705396     40.992298
  C      41.896749     18.489118     40.907705
  H      41.695096     18.466630     41.987056
  O      40.759510     18.044771     40.176333
  H      40.016131     17.825191     40.815349
  C      45.050294     19.493066     37.970670
  O      45.665916     18.593301     37.337032
  O      45.231313     20.727780     37.850350
24
Coordinates from ORCA-job neb_MEP.QMRegion E -1075.854176550036
  C      45.805138     19.158418     41.209191
  H      46.292366     18.440777     40.554148
  H      46.173793     20.185322     41.213085
  C      44.744551     18.826156     41.972387
  C      44.158320     19.817929     42.976870
  O      44.568061     21.010354     42.945524
  O      43.310607     19.383513     43.793423
  O      44.096683     17.624384     41.829408
  C      43.041985     17.500725     40.594162
  H      42.716402     16.451407     40.660099
  C      43.833017     17.808308     39.400175
  H      44.403133     17.027323     38.894024
  C      44.064778     19.108312     39.104667
  C      43.276092     20.164527     39.753290
  H      43.572776     21.193262     39.545281
  C      42.237185     19.872574     40.551550
  H      41.622081     20.659031     40.990677
  C      41.864398     18.454777     40.883839
  H      41.697175     18.386962     41.965155
  O      40.687158     18.079503     40.175615
  H      39.953931     17.853896     40.830792
  C      45.092433     19.508118     38.059789
  O      45.681793     18.608009     37.403161
  O      45.260508     20.740864     37.920829
24
Coordinates from ORCA-job neb_MEP.QMRegion E -1075.844241129673
  C      45.789939     19.176975     41.168191
  H      46.304897     18.439495     40.558863
  H      46.153245     20.205013     41.161905
  C      44.768979     18.814253     41.997908
  C      44.166295     19.823563     42.984036
  O      44.567570     21.018484     42.942586
  O      43.312649     19.392193     43.795668
  O      44.190496     17.623993     41.913812
  C      42.969634     17.476974     40.497185
  H      42.694091     16.425976     40.633433
  C      43.822429     17.797203     39.403798
  H      44.405838     17.025600     38.899541
  C      44.105195     19.114167     39.159075
  C      43.287277     20.166941     39.770650
  H      43.579340     21.196198     39.558160
  C      42.234332     19.869039     40.547822
  H      41.615153     20.654285     40.984606
  C      41.853983     18.450676     40.866953
  H      41.706037     18.371713     41.950936
  O      40.658554     18.098201     40.173255
  H      39.935262     17.859198     40.836607
  C      45.109069     19.512654     38.085206
  O      45.678091     18.609016     37.416000
  O      45.258335     20.744320     37.923418
24
Coordinates from ORCA-job neb_MEP.QMRegion E -1075.841199310438
  C      45.765585     19.192880     41.113506
  H      46.319698     18.436690     40.565045
  H      46.135976     20.217463     41.121215
  C      44.787530     18.804403     42.020785
  C      44.170922     19.828204     42.992360
  O      44.568207     21.023259     42.940460
  O      43.315100     19.396692     43.799111
  O      44.289500     17.625107     42.004719
  C      42.896542     17.455838     40.400367
  H      42.668550     16.408029     40.603846
  C      43.813903     17.784686     39.414721
  H      44.408471     17.022419     38.909016
  C      44.150046     19.122509     39.217199
  C      43.294716     20.168640     39.783543
  H      43.581586     21.198189     39.566574
  C      42.231358     19.864913     40.544247
  H      41.610047     20.649322     40.980157
  C      41.844457     18.446126     40.851570
  H      41.710722     18.358336     41.938662
  O      40.633173     18.113741     40.171510
  H      39.920079     17.862887     40.841265
  C      45.122184     19.515312     38.106656
  O      45.672393     18.608277     37.426168
  O      45.256450     20.745441     37.924972
24
Coordinates from ORCA-job neb_MEP.QMRegion E -1075.843935239628
  C      45.702517     19.204106     41.016834
  H      46.327612     18.434831     40.569762
  H      46.103857     20.218087     41.069764
  C      44.790110     18.798619     42.025616
  C      44.174588     19.830643     42.997433
  O      44.572408     21.023707     42.937070
  O      43.320776     19.397942     43.803234
  O      44.358389     17.623577     42.066568
  C      42.858871     17.444205     40.344593
  H      42.642973     16.398640     40.568818
  C      43.820912     17.777044     39.436444
  H      44.415204     17.020029     38.921610
  C      44.223383     19.133335     39.300567
  C      43.307625     20.172205     39.800912
  H      43.585218     21.202806     39.576728
  C      42.231595     19.862069     40.538087
  H      41.603473     20.645583     40.967036
  C      41.840107     18.442659     40.840520
  H      41.713995     18.348911     41.929189
  O      40.617218     18.128366     40.171503
  H      39.910832     17.867336     40.844070
  C      45.138828     19.519503     38.130544
  O      45.668249     18.609351     37.437741
  O      45.254586     20.747480     37.926138
24
Coordinates from ORCA-job neb_MEP.QMRegion E -1075.854957936464
  C      45.606116     19.208492     40.884531
  H      46.322477     18.441056     40.576746
  H      46.057572     20.204619     41.010317
  C      44.782818     18.793370     42.022357
  C      44.179852     19.832783     43.004230
  O      44.577958     21.022929     42.935213
  O      43.327700     19.397877     43.807969
  O      44.422323     17.622275     42.126120
  C      42.832405     17.435428     40.298590
  H      42.615289     16.390497     40.527407
  C      43.834329     17.770720     39.462274
  H      44.424334     17.016786     38.936330
  C      44.327267     19.146608     39.412386
  C      43.326181     20.174500     39.823834
  H      43.588624     21.207043     39.589004
  C      42.235281     19.857665     40.531753
  H      41.596294     20.640274     40.949314
  C      41.837497     18.437671     40.830761
  H      41.717707     18.338812     41.920692
  O      40.603371     18.142826     40.173187
  H      39.902910     17.871036     40.847177
  C      45.156097     19.523535     38.156123
  O      45.662239     18.610593     37.449954
  O      45.250552     20.748601     37.927809
24
Coordinates from ORCA-job neb_MEP.QMRegion E -1075.886760977301
  C      45.492000     19.245000     40.729000
  H      46.344000     18.583000     40.520000
  H      45.829000     20.288000     40.791000
  C      44.870000     18.789000     42.027000
  C      44.259000     19.815000     43.030000
  O      44.588000     21.020000     42.912000
  O      43.483000     19.350000     43.889000
  O      44.784000     17.600000     42.268000
  C      42.715000     17.362000     40.019000
  H      42.382000     16.325000     39.985000
  C      43.883000     17.727000     39.483000
  H      44.520000     16.999000     38.975000
  C      44.422000     19.126000     39.561000
  C      43.336000     20.113000     39.921000
  H      43.596000     21.164000     39.787000
  C      42.180000     19.749000     40.481000
  H      41.486000     20.507000     40.850000
  C      41.764000     18.317000     40.688000
  H      41.758000     18.122000     41.777000
  O      40.461000     18.100000     40.160000
  H      39.799000     17.900000     40.895000
  C      45.156000     19.532000     38.238000
  O      45.647000     18.632000     37.509000
  O      45.208000     20.757000     38.004000
