88
Image 0. Energy: -22842.888491978072 
C  52.62158161007682 35.620647492494584 62.3564439501266
H  52.77096065249933 34.85715267000392 61.58800602947151
H  52.807153069956634 36.66116142190967 62.07901316613844
C  52.30382331895498 35.307620956477614 63.62292301804148
C  52.12653271850367 36.36532355199694 64.71316909112151
O  51.67565158680223 37.48618209895286 64.36608918153348
O  52.40498539818173 36.02972763373423 65.89722358410172
O  51.99955423554993 34.03620154841281 64.04142760526058
C  53.06045217784754 33.12771639205062 64.36927334556927
H  52.69518281313882 32.57271129223008 65.25934366190793
C  54.342012801639385 33.82170832892507 64.69344114642519
H  54.317067168793145 34.81055643114864 65.15136692267478
C  55.53687374025056 33.243845065568294 64.50836234001325
C  55.60976119360795 31.884816387064355 63.95438754951531
H  56.58227718019935 31.38921587353049 63.96312958608324
C  54.522842700942086 31.32024941224357 63.394718003209924
H  54.591746638437805 30.36502496047079 62.86329199271814
C  53.24953835607495 32.11823316670093 63.24126751151702
H  53.33413150431359 32.68104333813599 62.29278881767134
O  52.05605911044003 31.301004789584653 63.15472936211559
H  51.824278227605795 31.284133652081245 62.2122872046496
C  56.808040267129286 33.994020410323635 64.91320142000501
O  56.6685140469513 35.247862690555905 65.13786389812901
O  57.845108282107496 33.34005055539239 64.99461760200585
C  66.7933 36.5453 46.0673
O  67.977125 36.607076 45.670763
O  66.082016 35.517917 46.099859
H  66.335321 37.48115 46.420061
C  49.2014 36.8333 63.4169
N  49.351977 37.21852 62.152846
H  49.04146 37.881022 62.8491
H  49.548146 36.263482 62.416513
N  48.792501 37.705704 64.333749
H  48.98867 36.750666 64.597416
H  48.906849 37.99824 63.373828
N  49.459721 35.575676 63.764105
H  49.57407 35.868211 62.804184
H  49.149204 36.238178 64.460359
C  62.2919 31.6694 43.3719
O  63.475725 31.731176 42.975363
O  61.580616 30.642017 43.404459
H  61.833921 32.60525 43.724661
C  59.428 22.2845 52.1819
O  60.611825 22.346276 51.785363
O  58.716716 21.257117 52.214459
H  58.970021 23.22035 52.534661
C  64.5064 22.1758 54.0596
O  65.690225 22.237576 53.663063
O  63.795116 21.148417 54.092159
H  64.048421 23.11165 54.412361
C  63.1215 23.5048 48.4664
O  64.305325 23.566576 48.069863
O  62.410216 22.477417 48.498959
H  62.663521 24.44065 48.819161
C  54.8086 36.8323 66.7723
N  54.959177 37.21752 65.508246
H  54.64866 37.880022 66.2045
H  55.155346 36.262482 65.771913
N  54.399701 37.704704 67.689149
H  54.59587 36.749666 67.952816
H  54.514049 37.99724 66.729228
N  55.066921 35.574676 67.119505
H  55.18127 35.867211 66.159584
H  54.756404 36.237178 67.815759
C  51.5859 28.2997 64.0678
N  51.736477 28.68492 62.803746
H  51.42596 29.347422 63.5
H  51.932646 27.729882 63.067413
N  51.177001 29.172104 64.984649
H  51.37317 28.217066 65.248316
H  51.291349 29.46464 64.024728
N  51.844221 27.042076 64.415005
H  51.95857 27.334611 63.455084
H  51.533704 27.704578 65.111259
C  69.4102 30.8431 47.2818
O  70.594025 30.904876 46.885263
O  68.698916 29.815717 47.314359
H  68.952221 31.77895 47.634561
C  63.0871 27.808 64.8886
N  63.237677 28.19322 63.624546
H  62.92716 28.855722 64.3208
H  63.433846 27.238182 63.888213
N  62.678201 28.680404 65.805449
H  62.87437 27.725366 66.069116
H  62.792549 28.97294 64.845528
N  63.345421 26.550376 65.235805
H  63.45977 26.842911 64.275884
H  63.034904 27.212878 65.932059
88
Image 1. Energy: -22842.325996030962 
C  52.54781131310557 35.418760387669685 62.615272432737505
H  52.71204965081428 34.639115140247334 61.86837256846306
H  52.74318510658126 36.44917174713511 62.311928496808456
C  52.227384695627016 35.1408763280576 63.890660801802746
C  52.05898038231164 36.23245936080035 64.94623740090582
O  51.60931439991028 37.34459661279753 64.56839782830171
O  52.37339597915971 35.9384944627691 66.12875672409797
O  51.963459248922355 33.89184751356029 64.37745795305779
C  53.06027403537827 32.96484136796759 64.41177648970009
H  52.750684737358625 32.2332302393347 65.18335213598273
C  54.32874631560306 33.634746662131164 64.79501590590147
H  54.2587254282852 34.47300721881653 65.48808741424907
C  55.521682378866174 33.28581049713268 64.29089819878017
C  55.64545779463554 32.25275549679998 63.25514219833358
H  56.643332674450434 31.939901523638895 62.942408789953156
C  54.546499522928855 31.80814028555749 62.63359029031051
H  54.59891007557938 31.152887144773302 61.75263283442637
C  53.16852093764568 32.18305107091626 63.09896219433391
H  52.606074797003004 32.692391967058924 62.30191427289464
O  52.481968851543904 30.958577305579187 63.34979517023986
H  52.790677798401205 30.388875339136536 62.618363157381374
C  56.773762218908644 33.98630906522289 64.79450112781477
O  56.62709847560206 35.210218911392296 65.12942814025821
O  57.79761602137879 33.30724936150871 64.84710779324969
C  66.7933 36.5453 46.0673
O  67.977125 36.607076 45.670763
O  66.082016 35.517917 46.099859
H  66.335321 37.48115 46.420061
C  49.2014 36.8333 63.4169
N  49.351977 37.21852 62.152846
H  49.04146 37.881022 62.8491
H  49.548146 36.263482 62.416513
N  48.792501 37.705704 64.333749
H  48.98867 36.750666 64.597416
H  48.906849 37.99824 63.373828
N  49.459721 35.575676 63.764105
H  49.57407 35.868211 62.804184
H  49.149204 36.238178 64.460359
C  62.2919 31.6694 43.3719
O  63.475725 31.731176 42.975363
O  61.580616 30.642017 43.404459
H  61.833921 32.60525 43.724661
C  59.428 22.2845 52.1819
O  60.611825 22.346276 51.785363
O  58.716716 21.257117 52.214459
H  58.970021 23.22035 52.534661
C  64.5064 22.1758 54.0596
O  65.690225 22.237576 53.663063
O  63.795116 21.148417 54.092159
H  64.048421 23.11165 54.412361
C  63.1215 23.5048 48.4664
O  64.305325 23.566576 48.069863
O  62.410216 22.477417 48.498959
H  62.663521 24.44065 48.819161
C  54.8086 36.8323 66.7723
N  54.959177 37.21752 65.508246
H  54.64866 37.880022 66.2045
H  55.155346 36.262482 65.771913
N  54.399701 37.704704 67.689149
H  54.59587 36.749666 67.952816
H  54.514049 37.99724 66.729228
N  55.066921 35.574676 67.119505
H  55.18127 35.867211 66.159584
H  54.756404 36.237178 67.815759
C  51.5859 28.2997 64.0678
N  51.736477 28.68492 62.803746
H  51.42596 29.347422 63.5
H  51.932646 27.729882 63.067413
N  51.177001 29.172104 64.984649
H  51.37317 28.217066 65.248316
H  51.291349 29.46464 64.024728
N  51.844221 27.042076 64.415005
H  51.95857 27.334611 63.455084
H  51.533704 27.704578 65.111259
C  69.4102 30.8431 47.2818
O  70.594025 30.904876 46.885263
O  68.698916 29.815717 47.314359
H  68.952221 31.77895 47.634561
C  63.0871 27.808 64.8886
N  63.237677 28.19322 63.624546
H  62.92716 28.855722 64.3208
H  63.433846 27.238182 63.888213
N  62.678201 28.680404 65.805449
H  62.87437 27.725366 66.069116
H  62.792549 28.97294 64.845528
N  63.345421 26.550376 65.235805
H  63.45977 26.842911 64.275884
H  63.034904 27.212878 65.932059
88
Image 2. Energy: -22842.64557617172 
C  52.63122725371127 35.49644234902467 62.45424005839013
H  52.79616219583678 34.75802262656026 61.66412284752054
H  52.84544301896974 36.543813728768974 62.23105045804002
C  52.276733214474 35.117244574224344 63.69080501671003
C  52.11321958948011 36.121375875175175 64.83857103716676
O  51.64705568603953 37.257258303381626 64.55106395033845
O  52.43619951933693 35.75265594870844 65.99762210779285
O  51.93363728120978 33.82047457831923 63.983647324343124
C  52.94954620014954 32.8708181262585 64.38426256595993
H  52.52654977808886 32.363637136784 65.27170691442637
C  54.234704493869465 33.53235061251737 64.73226649145903
H  54.21580047481888 34.25538104138335 65.54704370951723
C  55.3704254383646 33.355873197931 64.03186022989337
C  55.39086173585316 32.53474242725016 62.81428275919899
H  56.31651979608475 32.493183293425865 62.23265611151658
C  54.280968109704894 31.893644437273046 62.39621880039336
H  54.2628835283354 31.323906848838142 61.46351342153361
C  53.10823522326242 31.759886900445863 63.32354707426092
H  52.149183945607916 31.678500625550093 62.768537400513125
O  53.314511987978946 30.519702618895796 64.05376959951879
H  54.24191450249992 30.27215511029561 63.90384226218842
C  56.65513665559207 33.991879760503686 64.55489370506187
O  56.52780161771555 35.127869369734555 65.12056413318723
O  57.692375583011504 33.34760033874625 64.42166666106907
C  66.7933 36.5453 46.0673
O  67.977125 36.607076 45.670763
O  66.082016 35.517917 46.099859
H  66.335321 37.48115 46.420061
C  49.2014 36.8333 63.4169
N  49.351977 37.21852 62.152846
H  49.04146 37.881022 62.8491
H  49.548146 36.263482 62.416513
N  48.792501 37.705704 64.333749
H  48.98867 36.750666 64.597416
H  48.906849 37.99824 63.373828
N  49.459721 35.575676 63.764105
H  49.57407 35.868211 62.804184
H  49.149204 36.238178 64.460359
C  62.2919 31.6694 43.3719
O  63.475725 31.731176 42.975363
O  61.580616 30.642017 43.404459
H  61.833921 32.60525 43.724661
C  59.428 22.2845 52.1819
O  60.611825 22.346276 51.785363
O  58.716716 21.257117 52.214459
H  58.970021 23.22035 52.534661
C  64.5064 22.1758 54.0596
O  65.690225 22.237576 53.663063
O  63.795116 21.148417 54.092159
H  64.048421 23.11165 54.412361
C  63.1215 23.5048 48.4664
O  64.305325 23.566576 48.069863
O  62.410216 22.477417 48.498959
H  62.663521 24.44065 48.819161
C  54.8086 36.8323 66.7723
N  54.959177 37.21752 65.508246
H  54.64866 37.880022 66.2045
H  55.155346 36.262482 65.771913
N  54.399701 37.704704 67.689149
H  54.59587 36.749666 67.952816
H  54.514049 37.99724 66.729228
N  55.066921 35.574676 67.119505
H  55.18127 35.867211 66.159584
H  54.756404 36.237178 67.815759
C  51.5859 28.2997 64.0678
N  51.736477 28.68492 62.803746
H  51.42596 29.347422 63.5
H  51.932646 27.729882 63.067413
N  51.177001 29.172104 64.984649
H  51.37317 28.217066 65.248316
H  51.291349 29.46464 64.024728
N  51.844221 27.042076 64.415005
H  51.95857 27.334611 63.455084
H  51.533704 27.704578 65.111259
C  69.4102 30.8431 47.2818
O  70.594025 30.904876 46.885263
O  68.698916 29.815717 47.314359
H  68.952221 31.77895 47.634561
C  63.0871 27.808 64.8886
N  63.237677 28.19322 63.624546
H  62.92716 28.855722 64.3208
H  63.433846 27.238182 63.888213
N  62.678201 28.680404 65.805449
H  62.87437 27.725366 66.069116
H  62.792549 28.97294 64.845528
N  63.345421 26.550376 65.235805
H  63.45977 26.842911 64.275884
H  63.034904 27.212878 65.932059
88
Image 3. Energy: -22841.919068633073 
C  52.70067882791656 35.402444489701615 62.382488067285976
H  52.85047787291425 34.67589576362654 61.57845899189029
H  52.894706180649415 36.454418984396895 62.16069257136236
C  52.35586695898193 35.01634013285475 63.620999580829796
C  52.17886469000595 36.02192402169307 64.7655254175654
O  51.70126073933096 37.15426105866087 64.47317706992641
O  52.491657960096134 35.66233613254343 65.92974906289436
O  51.99369923794432 33.722679775510954 63.90469339452024
C  52.9371884387162 32.72563299780721 64.38214302029598
H  52.406310971358145 32.23163738796597 65.21536601367572
C  54.230730111395175 33.3010572971269 64.84944729836455
H  54.234495546799295 33.83149114403447 65.80346183101818
C  55.336760324210765 33.27022261423774 64.0743341437942
C  55.34862109139734 32.575889078129364 62.77928765355691
H  56.26074242468107 32.64552757393402 62.18122508108274
C  54.282424492413135 31.8715755264579 62.357407108907125
H  54.27825918015001 31.34271651305912 61.39915283319137
C  53.14372344829219 31.642261419621466 63.308693190744314
H  52.182810972620544 31.512408566950356 62.76577567593162
O  53.42459036911833 30.41555199888692 64.03837236153542
H  54.34950595032787 30.18024610386463 63.85806564344165
C  56.54032105114034 34.161427120475715 64.4021223297739
O  56.79935689973063 34.37766346306754 65.6189994947076
O  57.07552712980379 34.65391552538998 63.41381112369539
C  66.7933 36.5453 46.0673
O  67.977125 36.607076 45.670763
O  66.082016 35.517917 46.099859
H  66.335321 37.48115 46.420061
C  49.2014 36.8333 63.4169
N  49.351977 37.21852 62.152846
H  49.04146 37.881022 62.8491
H  49.548146 36.263482 62.416513
N  48.792501 37.705704 64.333749
H  48.98867 36.750666 64.597416
H  48.906849 37.99824 63.373828
N  49.459721 35.575676 63.764105
H  49.57407 35.868211 62.804184
H  49.149204 36.238178 64.460359
C  62.2919 31.6694 43.3719
O  63.475725 31.731176 42.975363
O  61.580616 30.642017 43.404459
H  61.833921 32.60525 43.724661
C  59.428 22.2845 52.1819
O  60.611825 22.346276 51.785363
O  58.716716 21.257117 52.214459
H  58.970021 23.22035 52.534661
C  64.5064 22.1758 54.0596
O  65.690225 22.237576 53.663063
O  63.795116 21.148417 54.092159
H  64.048421 23.11165 54.412361
C  63.1215 23.5048 48.4664
O  64.305325 23.566576 48.069863
O  62.410216 22.477417 48.498959
H  62.663521 24.44065 48.819161
C  54.8086 36.8323 66.7723
N  54.959177 37.21752 65.508246
H  54.64866 37.880022 66.2045
H  55.155346 36.262482 65.771913
N  54.399701 37.704704 67.689149
H  54.59587 36.749666 67.952816
H  54.514049 37.99724 66.729228
N  55.066921 35.574676 67.119505
H  55.18127 35.867211 66.159584
H  54.756404 36.237178 67.815759
C  51.5859 28.2997 64.0678
N  51.736477 28.68492 62.803746
H  51.42596 29.347422 63.5
H  51.932646 27.729882 63.067413
N  51.177001 29.172104 64.984649
H  51.37317 28.217066 65.248316
H  51.291349 29.46464 64.024728
N  51.844221 27.042076 64.415005
H  51.95857 27.334611 63.455084
H  51.533704 27.704578 65.111259
C  69.4102 30.8431 47.2818
O  70.594025 30.904876 46.885263
O  68.698916 29.815717 47.314359
H  68.952221 31.77895 47.634561
C  63.0871 27.808 64.8886
N  63.237677 28.19322 63.624546
H  62.92716 28.855722 64.3208
H  63.433846 27.238182 63.888213
N  62.678201 28.680404 65.805449
H  62.87437 27.725366 66.069116
H  62.792549 28.97294 64.845528
N  63.345421 26.550376 65.235805
H  63.45977 26.842911 64.275884
H  63.034904 27.212878 65.932059
88
Image 4. Energy: -22842.354463350082 
C  52.713146872508865 35.32634581141076 62.19207963960185
H  52.826505807778354 34.58575629741174 61.39458177128137
H  52.944901811511535 36.36787579898995 61.95732460760725
C  52.37355481525934 34.96583889124137 63.43896898311468
C  52.239758410688786 35.98452684959238 64.57733552030943
O  51.77092717756664 37.12155718057336 64.28659612840667
O  52.55783534335061 35.62663473603773 65.74083704506481
O  51.97812617841288 33.68228422005811 63.74097107744495
C  52.90590645590154 32.67727325840203 64.22431879785323
H  52.34201198248704 32.1533503622362 65.01565817232364
C  54.16175105872721 33.232648157256506 64.77583929354957
H  54.08913214685367 33.759575100835946 65.72525050408866
C  55.331927785718676 33.213981040583924 64.10693598882224
C  55.43995867868649 32.5709359769549 62.786928679182246
H  56.36171830091009 32.651694087176864 62.203235484732204
C  54.39237773022949 31.885861038657914 62.28334073518182
H  54.42635329815872 31.40527509131748 61.30119145773528
C  53.19731643326162 31.621128188690506 63.15320245108352
H  52.28615924119987 31.483810373367966 62.53684711287235
O  53.45991993423923 30.402234256305285 63.90398603922105
H  54.36808746658504 30.135653797528022 63.686443157448686
C  56.420105727457056 33.995274108075336 64.82207046468885
O  57.231305261164174 33.41205150952752 65.53521243689862
O  56.26127697133776 35.24906339777081 64.70598773147923
C  66.7933 36.5453 46.0673
O  67.977125 36.607076 45.670763
O  66.082016 35.517917 46.099859
H  66.335321 37.48115 46.420061
C  49.2014 36.8333 63.4169
N  49.351977 37.21852 62.152846
H  49.04146 37.881022 62.8491
H  49.548146 36.263482 62.416513
N  48.792501 37.705704 64.333749
H  48.98867 36.750666 64.597416
H  48.906849 37.99824 63.373828
N  49.459721 35.575676 63.764105
H  49.57407 35.868211 62.804184
H  49.149204 36.238178 64.460359
C  62.2919 31.6694 43.3719
O  63.475725 31.731176 42.975363
O  61.580616 30.642017 43.404459
H  61.833921 32.60525 43.724661
C  59.428 22.2845 52.1819
O  60.611825 22.346276 51.785363
O  58.716716 21.257117 52.214459
H  58.970021 23.22035 52.534661
C  64.5064 22.1758 54.0596
O  65.690225 22.237576 53.663063
O  63.795116 21.148417 54.092159
H  64.048421 23.11165 54.412361
C  63.1215 23.5048 48.4664
O  64.305325 23.566576 48.069863
O  62.410216 22.477417 48.498959
H  62.663521 24.44065 48.819161
C  54.8086 36.8323 66.7723
N  54.959177 37.21752 65.508246
H  54.64866 37.880022 66.2045
H  55.155346 36.262482 65.771913
N  54.399701 37.704704 67.689149
H  54.59587 36.749666 67.952816
H  54.514049 37.99724 66.729228
N  55.066921 35.574676 67.119505
H  55.18127 35.867211 66.159584
H  54.756404 36.237178 67.815759
C  51.5859 28.2997 64.0678
N  51.736477 28.68492 62.803746
H  51.42596 29.347422 63.5
H  51.932646 27.729882 63.067413
N  51.177001 29.172104 64.984649
H  51.37317 28.217066 65.248316
H  51.291349 29.46464 64.024728
N  51.844221 27.042076 64.415005
H  51.95857 27.334611 63.455084
H  51.533704 27.704578 65.111259
C  69.4102 30.8431 47.2818
O  70.594025 30.904876 46.885263
O  68.698916 29.815717 47.314359
H  68.952221 31.77895 47.634561
C  63.0871 27.808 64.8886
N  63.237677 28.19322 63.624546
H  62.92716 28.855722 64.3208
H  63.433846 27.238182 63.888213
N  62.678201 28.680404 65.805449
H  62.87437 27.725366 66.069116
H  62.792549 28.97294 64.845528
N  63.345421 26.550376 65.235805
H  63.45977 26.842911 64.275884
H  63.034904 27.212878 65.932059
88
Image 5. Energy: -22842.068025885423 
C  53.13024188249635 35.50950556176882 62.258473824476546
H  53.50233800363897 34.884142641065715 61.44726859325775
H  53.32226928103623 36.58372448038394 62.20639777898881
C  52.507936347823566 34.99128273230127 63.32753545237348
C  52.229328313514074 35.96465874217004 64.5032538786386
O  51.75001032866623 37.103365538900825 64.21845423225123
O  52.53534928616646 35.61295126005312 65.67017265654913
O  52.03848406025749 33.677812585498934 63.33636923316614
C  52.73081999229905 32.4700657925547 63.84680886458189
H  51.89404732995099 31.911354685193587 64.31196020539825
C  53.77905227308194 32.895557271033 64.80944452509998
H  53.41908295327567 33.26124610222449 65.7753106808291
C  55.03714487719758 33.093912500585105 64.3516030497238
C  55.42702956537993 32.71203318237024 62.98001817737928
H  56.40126258741696 33.0347025918385 62.60289488394586
C  54.614638439106095 31.976687852639007 62.19907759053532
H  54.89199736968105 31.640130262098253 61.19534064145927
C  53.336709953990024 31.48033475274943 62.800040654533056
H  52.60434327369002 31.164798190191753 62.02766721057579
O  53.64759540572994 30.300543923569663 63.61477693958844
H  54.44809603868927 29.889452676477365 63.240920097846605
C  56.07178915595118 33.798596556413216 65.20183011322794
O  56.62164194998801 33.18561613601567 66.11606555496405
O  56.22034024098076 35.02925838189088 64.88515279059597
C  66.7933 36.5453 46.0673
O  67.977125 36.607076 45.670763
O  66.082016 35.517917 46.099859
H  66.335321 37.48115 46.420061
C  49.2014 36.8333 63.4169
N  49.351977 37.21852 62.152846
H  49.04146 37.881022 62.8491
H  49.548146 36.263482 62.416513
N  48.792501 37.705704 64.333749
H  48.98867 36.750666 64.597416
H  48.906849 37.99824 63.373828
N  49.459721 35.575676 63.764105
H  49.57407 35.868211 62.804184
H  49.149204 36.238178 64.460359
C  62.2919 31.6694 43.3719
O  63.475725 31.731176 42.975363
O  61.580616 30.642017 43.404459
H  61.833921 32.60525 43.724661
C  59.428 22.2845 52.1819
O  60.611825 22.346276 51.785363
O  58.716716 21.257117 52.214459
H  58.970021 23.22035 52.534661
C  64.5064 22.1758 54.0596
O  65.690225 22.237576 53.663063
O  63.795116 21.148417 54.092159
H  64.048421 23.11165 54.412361
C  63.1215 23.5048 48.4664
O  64.305325 23.566576 48.069863
O  62.410216 22.477417 48.498959
H  62.663521 24.44065 48.819161
C  54.8086 36.8323 66.7723
N  54.959177 37.21752 65.508246
H  54.64866 37.880022 66.2045
H  55.155346 36.262482 65.771913
N  54.399701 37.704704 67.689149
H  54.59587 36.749666 67.952816
H  54.514049 37.99724 66.729228
N  55.066921 35.574676 67.119505
H  55.18127 35.867211 66.159584
H  54.756404 36.237178 67.815759
C  51.5859 28.2997 64.0678
N  51.736477 28.68492 62.803746
H  51.42596 29.347422 63.5
H  51.932646 27.729882 63.067413
N  51.177001 29.172104 64.984649
H  51.37317 28.217066 65.248316
H  51.291349 29.46464 64.024728
N  51.844221 27.042076 64.415005
H  51.95857 27.334611 63.455084
H  51.533704 27.704578 65.111259
C  69.4102 30.8431 47.2818
O  70.594025 30.904876 46.885263
O  68.698916 29.815717 47.314359
H  68.952221 31.77895 47.634561
C  63.0871 27.808 64.8886
N  63.237677 28.19322 63.624546
H  62.92716 28.855722 64.3208
H  63.433846 27.238182 63.888213
N  62.678201 28.680404 65.805449
H  62.87437 27.725366 66.069116
H  62.792549 28.97294 64.845528
N  63.345421 26.550376 65.235805
H  63.45977 26.842911 64.275884
H  63.034904 27.212878 65.932059
88
Image 6. Energy: -22840.775876893866 
C  53.191299740795024 35.6282139712091 62.235008917732834
H  53.78791756121465 34.95450829558217 61.616823875437824
H  53.28202112044357 36.6921156003974 61.99739906673619
C  52.383704915213336 35.15688193632574 63.25269524574273
C  52.206724443590744 36.13723186947695 64.45297880101415
O  51.71251740449201 37.28401945401559 64.24696052858361
O  52.57287532588518 35.721002927020116 65.58701004535854
O  51.834827418274365 33.98639684314557 63.33958999678717
C  52.84515925532551 32.02094206031257 63.892169555787085
H  51.81336388656836 31.811214736700492 64.1925512307338
C  53.697878754269304 32.70296841387127 64.73013540798469
H  53.30532489349964 33.18770679934848 65.62564605537358
C  54.97871764808464 33.00209427970493 64.26581341507726
C  55.42307562082542 32.64867172873919 62.9389873610859
H  56.35981685748381 33.07719274011903 62.57827757618456
C  54.68267370950194 31.818304539304833 62.17651529768262
H  54.99551712176706 31.498388688999203 61.17771046044747
C  53.4787207092053 31.175530493373056 62.800789740360024
H  52.75509649612332 30.851427851801233 62.031096540076156
O  53.945053973167184 29.988541388454994 63.540501221904265
H  54.648319635445965 29.58107412502069 63.00372674380154
C  55.9068026246963 33.76259720618916 65.14755974522225
O  56.37826491367936 33.1663213431497 66.11774073146171
O  56.0573589304439 34.97949195773906 64.8108443794483
C  66.7933 36.5453 46.0673
O  67.977125 36.607076 45.670763
O  66.082016 35.517917 46.099859
H  66.335321 37.48115 46.420061
C  49.2014 36.8333 63.4169
N  49.351977 37.21852 62.152846
H  49.04146 37.881022 62.8491
H  49.548146 36.263482 62.416513
N  48.792501 37.705704 64.333749
H  48.98867 36.750666 64.597416
H  48.906849 37.99824 63.373828
N  49.459721 35.575676 63.764105
H  49.57407 35.868211 62.804184
H  49.149204 36.238178 64.460359
C  62.2919 31.6694 43.3719
O  63.475725 31.731176 42.975363
O  61.580616 30.642017 43.404459
H  61.833921 32.60525 43.724661
C  59.428 22.2845 52.1819
O  60.611825 22.346276 51.785363
O  58.716716 21.257117 52.214459
H  58.970021 23.22035 52.534661
C  64.5064 22.1758 54.0596
O  65.690225 22.237576 53.663063
O  63.795116 21.148417 54.092159
H  64.048421 23.11165 54.412361
C  63.1215 23.5048 48.4664
O  64.305325 23.566576 48.069863
O  62.410216 22.477417 48.498959
H  62.663521 24.44065 48.819161
C  54.8086 36.8323 66.7723
N  54.959177 37.21752 65.508246
H  54.64866 37.880022 66.2045
H  55.155346 36.262482 65.771913
N  54.399701 37.704704 67.689149
H  54.59587 36.749666 67.952816
H  54.514049 37.99724 66.729228
N  55.066921 35.574676 67.119505
H  55.18127 35.867211 66.159584
H  54.756404 36.237178 67.815759
C  51.5859 28.2997 64.0678
N  51.736477 28.68492 62.803746
H  51.42596 29.347422 63.5
H  51.932646 27.729882 63.067413
N  51.177001 29.172104 64.984649
H  51.37317 28.217066 65.248316
H  51.291349 29.46464 64.024728
N  51.844221 27.042076 64.415005
H  51.95857 27.334611 63.455084
H  51.533704 27.704578 65.111259
C  69.4102 30.8431 47.2818
O  70.594025 30.904876 46.885263
O  68.698916 29.815717 47.314359
H  68.952221 31.77895 47.634561
C  63.0871 27.808 64.8886
N  63.237677 28.19322 63.624546
H  62.92716 28.855722 64.3208
H  63.433846 27.238182 63.888213
N  62.678201 28.680404 65.805449
H  62.87437 27.725366 66.069116
H  62.792549 28.97294 64.845528
N  63.345421 26.550376 65.235805
H  63.45977 26.842911 64.275884
H  63.034904 27.212878 65.932059
88
Image 7. Energy: -22839.86274226447 
C  53.24691984957345 35.62387041581926 62.1456599428401
H  54.17166099442632 35.099495712225504 61.9063833130954
H  53.0476021973613 36.50860746591041 61.536137925983084
C  52.37931116083513 35.18367917698343 63.18574871173074
C  52.2218799417545 36.142376719154534 64.4083003357491
O  51.704175230181924 37.279898696689635 64.22270876077907
O  52.597219393794504 35.70286116048091 65.52984943161428
O  51.791542361466725 34.07405230826329 63.237640566175074
C  52.86079656814132 31.825841142729214 63.87606700259671
H  51.802530918837505 31.669310175731706 64.12073832802014
C  53.64832486842477 32.60230133701481 64.67387121846367
H  53.21989395530297 33.115831239610074 65.53725770449515
C  54.953740745983986 32.93431445625628 64.2409560748613
C  55.407126719424596 32.6004350666263 62.92808106470333
H  56.334256324795064 33.04713787247985 62.56347460794651
C  54.680598634079374 31.757187016842536 62.15220872184865
H  54.99455936452978 31.467286713806278 61.14516275698808
C  53.52080257885807 31.03733520489789 62.774035907609736
H  52.800200203287325 30.710488651253815 62.00245139176636
O  54.0546276672732 29.844539212660077 63.46178325353308
H  54.73832827189675 29.459577909634206 62.88561021785183
C  55.84660465205294 33.722043016976194 65.13655279026702
O  56.3135924375531 33.144465720284735 66.12180774996482
O  55.9882219301506 34.94100770766718 64.79773850112034
C  66.7933 36.5453 46.0673
O  67.977125 36.607076 45.670763
O  66.082016 35.517917 46.099859
H  66.335321 37.48115 46.420061
C  49.2014 36.8333 63.4169
N  49.351977 37.21852 62.152846
H  49.04146 37.881022 62.8491
H  49.548146 36.263482 62.416513
N  48.792501 37.705704 64.333749
H  48.98867 36.750666 64.597416
H  48.906849 37.99824 63.373828
N  49.459721 35.575676 63.764105
H  49.57407 35.868211 62.804184
H  49.149204 36.238178 64.460359
C  62.2919 31.6694 43.3719
O  63.475725 31.731176 42.975363
O  61.580616 30.642017 43.404459
H  61.833921 32.60525 43.724661
C  59.428 22.2845 52.1819
O  60.611825 22.346276 51.785363
O  58.716716 21.257117 52.214459
H  58.970021 23.22035 52.534661
C  64.5064 22.1758 54.0596
O  65.690225 22.237576 53.663063
O  63.795116 21.148417 54.092159
H  64.048421 23.11165 54.412361
C  63.1215 23.5048 48.4664
O  64.305325 23.566576 48.069863
O  62.410216 22.477417 48.498959
H  62.663521 24.44065 48.819161
C  54.8086 36.8323 66.7723
N  54.959177 37.21752 65.508246
H  54.64866 37.880022 66.2045
H  55.155346 36.262482 65.771913
N  54.399701 37.704704 67.689149
H  54.59587 36.749666 67.952816
H  54.514049 37.99724 66.729228
N  55.066921 35.574676 67.119505
H  55.18127 35.867211 66.159584
H  54.756404 36.237178 67.815759
C  51.5859 28.2997 64.0678
N  51.736477 28.68492 62.803746
H  51.42596 29.347422 63.5
H  51.932646 27.729882 63.067413
N  51.177001 29.172104 64.984649
H  51.37317 28.217066 65.248316
H  51.291349 29.46464 64.024728
N  51.844221 27.042076 64.415005
H  51.95857 27.334611 63.455084
H  51.533704 27.704578 65.111259
C  69.4102 30.8431 47.2818
O  70.594025 30.904876 46.885263
O  68.698916 29.815717 47.314359
H  68.952221 31.77895 47.634561
C  63.0871 27.808 64.8886
N  63.237677 28.19322 63.624546
H  62.92716 28.855722 64.3208
H  63.433846 27.238182 63.888213
N  62.678201 28.680404 65.805449
H  62.87437 27.725366 66.069116
H  62.792549 28.97294 64.845528
N  63.345421 26.550376 65.235805
H  63.45977 26.842911 64.275884
H  63.034904 27.212878 65.932059
88
Image 8. Energy: -22839.23228872343 
C  53.2878746887515 35.54897604656886 62.04893550037237
H  54.36311354544778 35.37681093006248 62.11872203264153
H  52.899792121992824 36.13121125275348 61.20592158543895
C  52.40490708426638 35.15420581163395 63.13631065952541
C  52.28011809186631 36.072369165356676 64.3953307632556
O  51.72817504845465 37.189756744129525 64.19118211239888
O  52.638093701897965 35.63710157737236 65.51690270411423
O  51.66915717220309 34.16996437484624 63.103480813117486
C  52.86466542986247 31.717966300004377 63.83979363754663
H  51.79177809295317 31.601264278302192 64.05310780008314
C  53.630188428152906 32.53332872374185 64.61509020933049
H  53.19970501066389 33.052097257265416 65.47594878421687
C  54.9569598951272 32.870049664510546 64.20137731587575
C  55.40579756255608 32.54944101310013 62.897882629099655
H  56.3333595601852 32.98959302262484 62.524383172196366
C  54.67163106331408 31.708154298934648 62.11012160840968
H  54.98770290730151 31.428157269103497 61.100586379086174
C  53.53453171657842 30.957696559922663 62.73321581108409
H  52.81809927157969 30.62373491950007 61.96016316760892
O  54.09938439778751 29.763104843052563 63.40583118431048
H  54.76778419586711 29.38028408269661 62.81216015672858
C  55.82547158320931 33.67845967938237 65.10465588315462
O  56.299947868909165 33.11555553546039 66.09598770179453
O  55.94776254106719 34.90576556967673 64.77482899862365
C  66.7933 36.5453 46.0673
O  67.977125 36.607076 45.670763
O  66.082016 35.517917 46.099859
H  66.335321 37.48115 46.420061
C  49.2014 36.8333 63.4169
N  49.351977 37.21852 62.152846
H  49.04146 37.881022 62.8491
H  49.548146 36.263482 62.416513
N  48.792501 37.705704 64.333749
H  48.98867 36.750666 64.597416
H  48.906849 37.99824 63.373828
N  49.459721 35.575676 63.764105
H  49.57407 35.868211 62.804184
H  49.149204 36.238178 64.460359
C  62.2919 31.6694 43.3719
O  63.475725 31.731176 42.975363
O  61.580616 30.642017 43.404459
H  61.833921 32.60525 43.724661
C  59.428 22.2845 52.1819
O  60.611825 22.346276 51.785363
O  58.716716 21.257117 52.214459
H  58.970021 23.22035 52.534661
C  64.5064 22.1758 54.0596
O  65.690225 22.237576 53.663063
O  63.795116 21.148417 54.092159
H  64.048421 23.11165 54.412361
C  63.1215 23.5048 48.4664
O  64.305325 23.566576 48.069863
O  62.410216 22.477417 48.498959
H  62.663521 24.44065 48.819161
C  54.8086 36.8323 66.7723
N  54.959177 37.21752 65.508246
H  54.64866 37.880022 66.2045
H  55.155346 36.262482 65.771913
N  54.399701 37.704704 67.689149
H  54.59587 36.749666 67.952816
H  54.514049 37.99724 66.729228
N  55.066921 35.574676 67.119505
H  55.18127 35.867211 66.159584
H  54.756404 36.237178 67.815759
C  51.5859 28.2997 64.0678
N  51.736477 28.68492 62.803746
H  51.42596 29.347422 63.5
H  51.932646 27.729882 63.067413
N  51.177001 29.172104 64.984649
H  51.37317 28.217066 65.248316
H  51.291349 29.46464 64.024728
N  51.844221 27.042076 64.415005
H  51.95857 27.334611 63.455084
H  51.533704 27.704578 65.111259
C  69.4102 30.8431 47.2818
O  70.594025 30.904876 46.885263
O  68.698916 29.815717 47.314359
H  68.952221 31.77895 47.634561
C  63.0871 27.808 64.8886
N  63.237677 28.19322 63.624546
H  62.92716 28.855722 64.3208
H  63.433846 27.238182 63.888213
N  62.678201 28.680404 65.805449
H  62.87437 27.725366 66.069116
H  62.792549 28.97294 64.845528
N  63.345421 26.550376 65.235805
H  63.45977 26.842911 64.275884
H  63.034904 27.212878 65.932059
88
Image 9. Energy: -22839.96765297855 
C  53.30424045081106 35.525231311797526 62.05692249149859
H  54.37479783246109 35.657077117036 62.19657661293265
H  52.91519694208321 35.688740157361146 61.04713824028526
C  52.44923390600313 35.092204796813554 63.09860346314752
C  52.33250852830185 35.96178179360212 64.39400480573356
O  51.75476296514805 37.07294303236787 64.18394913183441
O  52.65370626203373 35.55306667736303 65.53821506671983
O  51.57843439363844 34.19415452485264 62.94444988918954
C  52.86594534375119 31.678675985875774 63.77522458962607
H  51.79949363042368 31.534442705147477 64.00544034138994
C  53.61192868461229 32.516627830984824 64.5402906941093
H  53.18530528313243 33.027132724761074 65.40640580355357
C  54.928248971105845 32.871798467176326 64.11384958608443
C  55.40928296192602 32.49499248572695 62.81984719151716
H  56.340707809106675 32.933612432347786 62.45784718898236
C  54.70517599330697 31.61596487307414 62.0662078686998
H  55.01696853990069 31.326866175778207 61.05865931275405
C  53.54776856086284 30.897448017657887 62.68455991900579
H  52.830196542786936 30.563369096214448 61.91171854372261
O  54.10233510034933 29.713266444319576 63.37515250542325
H  54.763108047918735 29.317891855420662 62.779894358012484
C  55.80550005290731 33.65301152858272 65.0400266097142
O  56.26789553915977 33.043899866807934 66.00891235879111
O  55.944742638273596 34.88195389892504 64.7497183372673
C  66.7933 36.5453 46.0673
O  67.977125 36.607076 45.670763
O  66.082016 35.517917 46.099859
H  66.335321 37.48115 46.420061
C  49.2014 36.8333 63.4169
N  49.351977 37.21852 62.152846
H  49.04146 37.881022 62.8491
H  49.548146 36.263482 62.416513
N  48.792501 37.705704 64.333749
H  48.98867 36.750666 64.597416
H  48.906849 37.99824 63.373828
N  49.459721 35.575676 63.764105
H  49.57407 35.868211 62.804184
H  49.149204 36.238178 64.460359
C  62.2919 31.6694 43.3719
O  63.475725 31.731176 42.975363
O  61.580616 30.642017 43.404459
H  61.833921 32.60525 43.724661
C  59.428 22.2845 52.1819
O  60.611825 22.346276 51.785363
O  58.716716 21.257117 52.214459
H  58.970021 23.22035 52.534661
C  64.5064 22.1758 54.0596
O  65.690225 22.237576 53.663063
O  63.795116 21.148417 54.092159
H  64.048421 23.11165 54.412361
C  63.1215 23.5048 48.4664
O  64.305325 23.566576 48.069863
O  62.410216 22.477417 48.498959
H  62.663521 24.44065 48.819161
C  54.8086 36.8323 66.7723
N  54.959177 37.21752 65.508246
H  54.64866 37.880022 66.2045
H  55.155346 36.262482 65.771913
N  54.399701 37.704704 67.689149
H  54.59587 36.749666 67.952816
H  54.514049 37.99724 66.729228
N  55.066921 35.574676 67.119505
H  55.18127 35.867211 66.159584
H  54.756404 36.237178 67.815759
C  51.5859 28.2997 64.0678
N  51.736477 28.68492 62.803746
H  51.42596 29.347422 63.5
H  51.932646 27.729882 63.067413
N  51.177001 29.172104 64.984649
H  51.37317 28.217066 65.248316
H  51.291349 29.46464 64.024728
N  51.844221 27.042076 64.415005
H  51.95857 27.334611 63.455084
H  51.533704 27.704578 65.111259
C  69.4102 30.8431 47.2818
O  70.594025 30.904876 46.885263
O  68.698916 29.815717 47.314359
H  68.952221 31.77895 47.634561
C  63.0871 27.808 64.8886
N  63.237677 28.19322 63.624546
H  62.92716 28.855722 64.3208
H  63.433846 27.238182 63.888213
N  62.678201 28.680404 65.805449
H  62.87437 27.725366 66.069116
H  62.792549 28.97294 64.845528
N  63.345421 26.550376 65.235805
H  63.45977 26.842911 64.275884
H  63.034904 27.212878 65.932059
88
Image 10. Energy: -22840.703654725403 
C  53.3104249992704 35.414735523983374 62.06647739816463
H  54.22726859732842 35.96925200941441 62.25299327732145
H  53.072058082654095 35.16620835078417 61.027817153122676
C  52.423290343422806 35.02488799122653 63.06272336351857
C  52.34378991341089 35.86917418665464 64.3715520310161
O  51.77819681523472 36.99699536196926 64.2174374093119
O  52.71407979345436 35.43651786151516 65.49553747572666
O  51.52886483583662 34.13114066653021 62.88345997011696
C  52.87101032283671 31.653606749348395 63.690794447112644
H  51.8148135741493 31.47098698676491 63.945607084810625
C  53.591908965549656 32.52904989345322 64.43035368349186
H  53.16220459642558 33.05240998103907 65.28605522839642
C  54.904040089535414 32.89715376167765 63.99709013285666
C  55.42235776322231 32.4660134942293 62.73270986563607
H  56.36388202073395 32.885204444440696 62.374309678731514
C  54.74618713366835 31.5416847110106 62.010921776467946
H  55.09175304300036 31.19210155040411 61.03319139032458
C  53.57285839415766 30.848297706579466 62.62722360243467
H  52.866681304847795 30.49785831323672 61.851726048103544
O  54.115060887081626 29.684894399603767 63.35562674265384
H  54.75244905494831 29.24846566354872 62.76325425985978
C  55.7659763000936 33.65220265967406 64.96104511326506
O  56.18738672085874 32.963343928318544 65.89790778413666
O  55.942425498255986 34.8850724745862 64.74949433340765
C  66.7933 36.5453 46.0673
O  67.977125 36.607076 45.670763
O  66.082016 35.517917 46.099859
H  66.335321 37.48115 46.420061
C  49.2014 36.8333 63.4169
N  49.351977 37.21852 62.152846
H  49.04146 37.881022 62.8491
H  49.548146 36.263482 62.416513
N  48.792501 37.705704 64.333749
H  48.98867 36.750666 64.597416
H  48.906849 37.99824 63.373828
N  49.459721 35.575676 63.764105
H  49.57407 35.868211 62.804184
H  49.149204 36.238178 64.460359
C  62.2919 31.6694 43.3719
O  63.475725 31.731176 42.975363
O  61.580616 30.642017 43.404459
H  61.833921 32.60525 43.724661
C  59.428 22.2845 52.1819
O  60.611825 22.346276 51.785363
O  58.716716 21.257117 52.214459
H  58.970021 23.22035 52.534661
C  64.5064 22.1758 54.0596
O  65.690225 22.237576 53.663063
O  63.795116 21.148417 54.092159
H  64.048421 23.11165 54.412361
C  63.1215 23.5048 48.4664
O  64.305325 23.566576 48.069863
O  62.410216 22.477417 48.498959
H  62.663521 24.44065 48.819161
C  54.8086 36.8323 66.7723
N  54.959177 37.21752 65.508246
H  54.64866 37.880022 66.2045
H  55.155346 36.262482 65.771913
N  54.399701 37.704704 67.689149
H  54.59587 36.749666 67.952816
H  54.514049 37.99724 66.729228
N  55.066921 35.574676 67.119505
H  55.18127 35.867211 66.159584
H  54.756404 36.237178 67.815759
C  51.5859 28.2997 64.0678
N  51.736477 28.68492 62.803746
H  51.42596 29.347422 63.5
H  51.932646 27.729882 63.067413
N  51.177001 29.172104 64.984649
H  51.37317 28.217066 65.248316
H  51.291349 29.46464 64.024728
N  51.844221 27.042076 64.415005
H  51.95857 27.334611 63.455084
H  51.533704 27.704578 65.111259
C  69.4102 30.8431 47.2818
O  70.594025 30.904876 46.885263
O  68.698916 29.815717 47.314359
H  68.952221 31.77895 47.634561
C  63.0871 27.808 64.8886
N  63.237677 28.19322 63.624546
H  62.92716 28.855722 64.3208
H  63.433846 27.238182 63.888213
N  62.678201 28.680404 65.805449
H  62.87437 27.725366 66.069116
H  62.792549 28.97294 64.845528
N  63.345421 26.550376 65.235805
H  63.45977 26.842911 64.275884
H  63.034904 27.212878 65.932059
88
Image 11. Energy: -22841.187870260113 
C  53.46739353988953 35.15523593750523 62.20560890655806
H  54.21178657051916 35.93867293539233 62.3447856863809
H  53.403709897701496 34.68204438309526 61.220157022564905
C  52.412067853483904 34.940292379111796 63.09000606951086
C  52.325116321117434 35.821142881813905 64.36858958672705
O  51.78234902207863 36.959119322245364 64.22087045460489
O  52.72307681496542 35.38313425733354 65.48105421127495
O  51.49294954433817 34.09056321884028 62.87730428392193
C  52.87980481876009 31.585869394652736 63.58428250855021
H  51.845896245535414 31.323182367077525 63.87182780866929
C  53.5065557135458 32.57115247753097 64.25309121523956
H  53.0362030461577 33.10216358584721 65.08168614521384
C  54.787401149603035 33.04093206608318 63.798409193960026
C  55.38059790922035 32.516527001404924 62.59744591501709
H  56.321841867371305 32.93852939403665 62.24118836566946
C  54.79569253196652 31.483333002897524 61.953024234638576
H  55.2165394291795 31.056234772401794 61.03770522735771
C  53.626602542239944 30.77786284429151 62.55912959831639
H  52.942669811438314 30.408780421346396 61.771240643503056
O  54.15354156989091 29.633085021160788 63.31869324312459
H  54.78087759199976 29.17099441819009 62.736438273713645
C  55.64796380506197 33.71404890879252 64.83626047656894
O  55.95546336767571 32.91735964846039 65.73710939093914
O  55.95435207626392 34.928102840496024 64.73109509798236
C  66.7933 36.5453 46.0673
O  67.977125 36.607076 45.670763
O  66.082016 35.517917 46.099859
H  66.335321 37.48115 46.420061
C  49.2014 36.8333 63.4169
N  49.351977 37.21852 62.152846
H  49.04146 37.881022 62.8491
H  49.548146 36.263482 62.416513
N  48.792501 37.705704 64.333749
H  48.98867 36.750666 64.597416
H  48.906849 37.99824 63.373828
N  49.459721 35.575676 63.764105
H  49.57407 35.868211 62.804184
H  49.149204 36.238178 64.460359
C  62.2919 31.6694 43.3719
O  63.475725 31.731176 42.975363
O  61.580616 30.642017 43.404459
H  61.833921 32.60525 43.724661
C  59.428 22.2845 52.1819
O  60.611825 22.346276 51.785363
O  58.716716 21.257117 52.214459
H  58.970021 23.22035 52.534661
C  64.5064 22.1758 54.0596
O  65.690225 22.237576 53.663063
O  63.795116 21.148417 54.092159
H  64.048421 23.11165 54.412361
C  63.1215 23.5048 48.4664
O  64.305325 23.566576 48.069863
O  62.410216 22.477417 48.498959
H  62.663521 24.44065 48.819161
C  54.8086 36.8323 66.7723
N  54.959177 37.21752 65.508246
H  54.64866 37.880022 66.2045
H  55.155346 36.262482 65.771913
N  54.399701 37.704704 67.689149
H  54.59587 36.749666 67.952816
H  54.514049 37.99724 66.729228
N  55.066921 35.574676 67.119505
H  55.18127 35.867211 66.159584
H  54.756404 36.237178 67.815759
C  51.5859 28.2997 64.0678
N  51.736477 28.68492 62.803746
H  51.42596 29.347422 63.5
H  51.932646 27.729882 63.067413
N  51.177001 29.172104 64.984649
H  51.37317 28.217066 65.248316
H  51.291349 29.46464 64.024728
N  51.844221 27.042076 64.415005
H  51.95857 27.334611 63.455084
H  51.533704 27.704578 65.111259
C  69.4102 30.8431 47.2818
O  70.594025 30.904876 46.885263
O  68.698916 29.815717 47.314359
H  68.952221 31.77895 47.634561
C  63.0871 27.808 64.8886
N  63.237677 28.19322 63.624546
H  62.92716 28.855722 64.3208
H  63.433846 27.238182 63.888213
N  62.678201 28.680404 65.805449
H  62.87437 27.725366 66.069116
H  62.792549 28.97294 64.845528
N  63.345421 26.550376 65.235805
H  63.45977 26.842911 64.275884
H  63.034904 27.212878 65.932059
88
Image 12. Energy: -22842.539108452875 
C  53.78147949260353 34.68280810262114 62.51782029665327
H  54.35512841944042 35.62803805039181 62.509002740682305
H  53.6089211573829 34.38454787587003 61.45991394534351
C  52.443799538175085 34.865598327592785 63.11811449066421
C  52.318876835493974 35.800485215707695 64.34518997167054
O  51.79361594797801 36.93068348283991 64.1456772292365
O  52.72180038610584 35.37534366565966 65.45348931510797
O  51.47321244788525 34.23216947969431 62.711381633966575
C  52.903769388258404 31.502035528923628 63.52561855472992
H  51.91703834150954 31.135092530297968 63.88778879378662
C  53.410520865116666 32.597322227119115 64.08867210216142
H  52.93073467050311 33.073792075533404 64.94618324798014
C  54.55680001545334 33.353694956492724 63.47808830810108
C  55.31050392504995 32.55828702780672 62.45603110670963
H  56.261516019241114 32.96882654132352 62.108340384394424
C  54.8252543558283 31.43508792350583 61.91728901268181
H  55.309360645996875 30.953036167369778 61.06224303213484
C  53.661891425257 30.708979731804316 62.50433404024843
H  52.9829899556285 30.332791021719522 61.713911132001286
O  54.178609943297374 29.563207645360198 63.26713750433852
H  54.80547729986115 29.101489703419375 62.68646906925505
C  55.504581594699076 33.77077608374487 64.6641982437051
O  55.75522192698087 32.88179070203856 65.49150753415873
O  55.92083246225256 34.96358429316704 64.69029620028034
C  66.7933 36.5453 46.0673
O  67.977125 36.607076 45.670763
O  66.082016 35.517917 46.099859
H  66.335321 37.48115 46.420061
C  49.2014 36.8333 63.4169
N  49.351977 37.21852 62.152846
H  49.04146 37.881022 62.8491
H  49.548146 36.263482 62.416513
N  48.792501 37.705704 64.333749
H  48.98867 36.750666 64.597416
H  48.906849 37.99824 63.373828
N  49.459721 35.575676 63.764105
H  49.57407 35.868211 62.804184
H  49.149204 36.238178 64.460359
C  62.2919 31.6694 43.3719
O  63.475725 31.731176 42.975363
O  61.580616 30.642017 43.404459
H  61.833921 32.60525 43.724661
C  59.428 22.2845 52.1819
O  60.611825 22.346276 51.785363
O  58.716716 21.257117 52.214459
H  58.970021 23.22035 52.534661
C  64.5064 22.1758 54.0596
O  65.690225 22.237576 53.663063
O  63.795116 21.148417 54.092159
H  64.048421 23.11165 54.412361
C  63.1215 23.5048 48.4664
O  64.305325 23.566576 48.069863
O  62.410216 22.477417 48.498959
H  62.663521 24.44065 48.819161
C  54.8086 36.8323 66.7723
N  54.959177 37.21752 65.508246
H  54.64866 37.880022 66.2045
H  55.155346 36.262482 65.771913
N  54.399701 37.704704 67.689149
H  54.59587 36.749666 67.952816
H  54.514049 37.99724 66.729228
N  55.066921 35.574676 67.119505
H  55.18127 35.867211 66.159584
H  54.756404 36.237178 67.815759
C  51.5859 28.2997 64.0678
N  51.736477 28.68492 62.803746
H  51.42596 29.347422 63.5
H  51.932646 27.729882 63.067413
N  51.177001 29.172104 64.984649
H  51.37317 28.217066 65.248316
H  51.291349 29.46464 64.024728
N  51.844221 27.042076 64.415005
H  51.95857 27.334611 63.455084
H  51.533704 27.704578 65.111259
C  69.4102 30.8431 47.2818
O  70.594025 30.904876 46.885263
O  68.698916 29.815717 47.314359
H  68.952221 31.77895 47.634561
C  63.0871 27.808 64.8886
N  63.237677 28.19322 63.624546
H  62.92716 28.855722 64.3208
H  63.433846 27.238182 63.888213
N  62.678201 28.680404 65.805449
H  62.87437 27.725366 66.069116
H  62.792549 28.97294 64.845528
N  63.345421 26.550376 65.235805
H  63.45977 26.842911 64.275884
H  63.034904 27.212878 65.932059
88
Image 13. Energy: -22844.282829084823 
C  53.73156890020136 34.55336224909051 62.49818782474631
H  54.57843466765408 35.25655856841049 62.572169332619445
H  53.60762744723279 34.25947417055284 61.44624178690238
C  52.48207557988981 35.29480660595024 62.88141819696852
C  52.33507534392486 36.07875907987812 64.22634518214873
O  51.79143877746937 37.21137263850866 64.14425896174183
O  52.67749047812478 35.509634379074214 65.28590185810874
O  51.519517863699456 35.326974917860184 62.11795313295248
C  53.08130814036971 31.093934441820128 63.295274231336734
H  52.25922731101576 30.340873310268943 63.62292541491723
C  53.020191908201475 32.371633150399724 63.647297269190574
H  52.181041500907845 32.76791308588074 64.22254831072172
C  54.16233235557774 33.3145502138481 63.34057570974372
C  55.28520524936486 32.62355222724858 62.60153778982391
H  56.13479534397358 33.258916364842754 62.33693139622793
C  55.307275524399735 31.326433885640455 62.28337047430019
H  56.160058528488086 30.901184980236547 61.74351460773132
C  54.15876208312612 30.386219260244545 62.53470419246143
H  53.76373160640605 30.05123898250748 61.55444548785709
O  54.50960994792702 29.229436701705417 63.312626594706224
H  55.20643322664919 28.750110201879934 62.831812647094516
C  54.78772284194237 33.74736756043275 64.7158962544334
O  54.55333845219491 33.02357155391974 65.69060595590621
O  55.519158011262135 34.78269468980343 64.67384960735436
C  66.7933 36.5453 46.0673
O  67.977125 36.607076 45.670763
O  66.082016 35.517917 46.099859
H  66.335321 37.48115 46.420061
C  49.2014 36.8333 63.4169
N  49.351977 37.21852 62.152846
H  49.04146 37.881022 62.8491
H  49.548146 36.263482 62.416513
N  48.792501 37.705704 64.333749
H  48.98867 36.750666 64.597416
H  48.906849 37.99824 63.373828
N  49.459721 35.575676 63.764105
H  49.57407 35.868211 62.804184
H  49.149204 36.238178 64.460359
C  62.2919 31.6694 43.3719
O  63.475725 31.731176 42.975363
O  61.580616 30.642017 43.404459
H  61.833921 32.60525 43.724661
C  59.428 22.2845 52.1819
O  60.611825 22.346276 51.785363
O  58.716716 21.257117 52.214459
H  58.970021 23.22035 52.534661
C  64.5064 22.1758 54.0596
O  65.690225 22.237576 53.663063
O  63.795116 21.148417 54.092159
H  64.048421 23.11165 54.412361
C  63.1215 23.5048 48.4664
O  64.305325 23.566576 48.069863
O  62.410216 22.477417 48.498959
H  62.663521 24.44065 48.819161
C  54.8086 36.8323 66.7723
N  54.959177 37.21752 65.508246
H  54.64866 37.880022 66.2045
H  55.155346 36.262482 65.771913
N  54.399701 37.704704 67.689149
H  54.59587 36.749666 67.952816
H  54.514049 37.99724 66.729228
N  55.066921 35.574676 67.119505
H  55.18127 35.867211 66.159584
H  54.756404 36.237178 67.815759
C  51.5859 28.2997 64.0678
N  51.736477 28.68492 62.803746
H  51.42596 29.347422 63.5
H  51.932646 27.729882 63.067413
N  51.177001 29.172104 64.984649
H  51.37317 28.217066 65.248316
H  51.291349 29.46464 64.024728
N  51.844221 27.042076 64.415005
H  51.95857 27.334611 63.455084
H  51.533704 27.704578 65.111259
C  69.4102 30.8431 47.2818
O  70.594025 30.904876 46.885263
O  68.698916 29.815717 47.314359
H  68.952221 31.77895 47.634561
C  63.0871 27.808 64.8886
N  63.237677 28.19322 63.624546
H  62.92716 28.855722 64.3208
H  63.433846 27.238182 63.888213
N  62.678201 28.680404 65.805449
H  62.87437 27.725366 66.069116
H  62.792549 28.97294 64.845528
N  63.345421 26.550376 65.235805
H  63.45977 26.842911 64.275884
H  63.034904 27.212878 65.932059
