88
-2 1 -839.4606486191028
C       52.61327816    35.62745555    62.35381762
H       52.75897779    34.86730026    61.58172494
H       52.79792267    36.66963517    62.08106163
C       52.30145614    35.30893335    63.62037399
C       52.12616912    36.36353709    64.71465143
O       51.67324001    37.48542373    64.37323773
O       52.40776430    36.02358741    65.89661836
O       51.99856863    34.03585383    64.03512986
C       53.05960646    33.12813950    64.36640116
H       52.69318542    32.57400356    65.25656076
C       54.34089680    33.82213365    64.69169136
H       54.31452607    34.81089559    65.14905564
C       55.53631938    33.24427399    64.50911542
C       55.61109900    31.88392082    63.95870214
H       56.58383465    31.38845655    63.97045924
C       54.52451733    31.31858846    63.39954588
H       54.59214881    30.36008911    62.87375614
C       53.25276462    32.11845601    63.23985447
H       53.34416493    32.68234339    62.29274130
O       52.05906970    31.30288045    63.14489307
H       51.85087138    31.26707562    62.19803098
C       56.80580409    33.99463943    64.91717931
O       56.66756051    35.24950882    65.13478563
O       57.84038283    33.33907878    65.00897793
C       66.79330000    36.54530000    46.06730000
O       67.97712500    36.60707600    45.67076300
O       66.08201600    35.51791700    46.09985900
H       66.33532100    37.48115000    46.42006100
C       49.20140000    36.83330000    63.41690000
N       49.35197700    37.21852000    62.15284600
H       49.04146000    37.88102200    62.84910000
H       49.54814600    36.26348200    62.41651300
N       48.79250100    37.70570400    64.33374900
H       48.98867000    36.75066600    64.59741600
H       48.90684900    37.99824000    63.37382800
N       49.45972100    35.57567600    63.76410500
H       49.57407000    35.86821100    62.80418400
H       49.14920400    36.23817800    64.46035900
C       62.29190000    31.66940000    43.37190000
O       63.47572500    31.73117600    42.97536300
O       61.58061600    30.64201700    43.40445900
H       61.83392100    32.60525000    43.72466100
C       59.42800000    22.28450000    52.18190000
O       60.61182500    22.34627600    51.78536300
O       58.71671600    21.25711700    52.21445900
H       58.97002100    23.22035000    52.53466100
C       64.50640000    22.17580000    54.05960000
O       65.69022500    22.23757600    53.66306300
O       63.79511600    21.14841700    54.09215900
H       64.04842100    23.11165000    54.41236100
C       63.12150000    23.50480000    48.46640000
O       64.30532500    23.56657600    48.06986300
O       62.41021600    22.47741700    48.49895900
H       62.66352100    24.44065000    48.81916100
C       54.80860000    36.83230000    66.77230000
N       54.95917700    37.21752000    65.50824600
H       54.64866000    37.88002200    66.20450000
H       55.15534600    36.26248200    65.77191300
N       54.39970100    37.70470400    67.68914900
H       54.59587000    36.74966600    67.95281600
H       54.51404900    37.99724000    66.72922800
N       55.06692100    35.57467600    67.11950500
H       55.18127000    35.86721100    66.15958400
H       54.75640400    36.23717800    67.81575900
C       51.58590000    28.29970000    64.06780000
N       51.73647700    28.68492000    62.80374600
H       51.42596000    29.34742200    63.50000000
H       51.93264600    27.72988200    63.06741300
N       51.17700100    29.17210400    64.98464900
H       51.37317000    28.21706600    65.24831600
H       51.29134900    29.46464000    64.02472800
N       51.84422100    27.04207600    64.41500500
H       51.95857000    27.33461100    63.45508400
H       51.53370400    27.70457800    65.11125900
C       69.41020000    30.84310000    47.28180000
O       70.59402500    30.90487600    46.88526300
O       68.69891600    29.81571700    47.31435900
H       68.95222100    31.77895000    47.63456100
C       63.08710000    27.80800000    64.88860000
N       63.23767700    28.19322000    63.62454600
H       62.92716000    28.85572200    64.32080000
H       63.43384600    27.23818200    63.88821300
N       62.67820100    28.68040400    65.80544900
H       62.87437000    27.72536600    66.06911600
H       62.79254900    28.97294000    64.84552800
N       63.34542100    26.55037600    65.23580500
H       63.45977000    26.84291100    64.27588400
H       63.03490400    27.21287800    65.93205900
