24
Coordinates from ORCA-job neb_initial_path.QMRegion E   0.000000000000
  C      46.671000     27.084000     57.144000
  H      47.580000     26.785000     56.631000
  H      46.696000     27.893000     57.872000
  C      45.511000     26.472000     56.878000
  C      44.220000     26.898000     57.571000
  O      44.302000     27.819000     58.410000
  O      43.154000     26.306000     57.242000
  O      45.430000     25.390000     56.034000
  C      45.306000     25.544000     54.574000
  H      45.209000     24.509000     54.221000
  C      46.572000     26.175000     54.086000
  H      47.478000     25.571000     54.029000
  C      46.647000     27.508000     53.912000
  C      45.433000     28.329000     54.015000
  H      45.556000     29.411000     53.956000
  C      44.217000     27.778000     54.170000
  H      43.335000     28.422000     54.223000
  C      44.007000     26.286000     54.193000
  H      43.286000     26.033000     54.985000
  O      43.535000     25.874000     52.924000
  H      42.723000     25.282000     53.044000
  C      47.989000     28.201000     53.764000
  O      49.047000     27.548000     53.640000
  O      47.964000     29.454000     53.842000
24
Coordinates from ORCA-job neb_initial_path.QMRegion E   0.000000000000
  C      46.678250     27.119500     57.026500
  H      47.586750     26.799750     56.530750
  H      46.710000     27.958500     57.714250
  C      45.528000     26.471750     56.841500
  C      44.246000     26.901250     57.551000
  O      44.337750     27.815250     58.396500
  O      43.175250     26.310500     57.233250
  O      45.445500     25.372750     56.039000
  C      45.298750     25.527750     54.518500
  H      45.204250     24.486500     54.193000
  C      46.557500     26.165000     54.060750
  H      47.465000     25.567750     53.979750
  C      46.635250     27.501500     53.969500
  C      45.418250     28.319000     54.066250
  H      45.539750     29.401250     54.032750
  C      44.202750     27.763500     54.178500
  H      43.318000     28.403500     54.217500
  C      43.996000     26.272000     54.176250
  H      43.286500     26.004000     54.973500
  O      43.509000     25.882000     52.907000
  H      42.699750     25.284750     53.027500
  C      47.974000     28.196000     53.799250
  O      49.030250     27.540250     53.675750
  O      47.949000     29.449000     53.844500
24
Coordinates from ORCA-job neb_initial_path.QMRegion E   0.000000000000
  C      46.685500     27.155000     56.909000
  H      47.593500     26.814500     56.430500
  H      46.724000     28.024000     57.556500
  C      45.545000     26.471500     56.805000
  C      44.272000     26.904500     57.531000
  O      44.373500     27.811500     58.383000
  O      43.196500     26.315000     57.224500
  O      45.461000     25.355500     56.044000
  C      45.291500     25.511500     54.463000
  H      45.199500     24.464000     54.165000
  C      46.543000     26.155000     54.035500
  H      47.452000     25.564500     53.930500
  C      46.623500     27.495000     54.027000
  C      45.403500     28.309000     54.117500
  H      45.523500     29.391500     54.109500
  C      44.188500     27.749000     54.187000
  H      43.301000     28.385000     54.212000
  C      43.985000     26.258000     54.159500
  H      43.287000     25.975000     54.962000
  O      43.483000     25.890000     52.890000
  H      42.676500     25.287500     53.011000
  C      47.959000     28.191000     53.834500
  O      49.013500     27.532500     53.711500
  O      47.934000     29.444000     53.847000
24
Coordinates from ORCA-job neb_initial_path.QMRegion E   0.000000000000
  C      46.692750     27.190500     56.791500
  H      47.600250     26.829250     56.330250
  H      46.738000     28.089500     57.398750
  C      45.562000     26.471250     56.768500
  C      44.298000     26.907750     57.511000
  O      44.409250     27.807750     58.369500
  O      43.217750     26.319500     57.215750
  O      45.476500     25.338250     56.049000
  C      45.284250     25.495250     54.407500
  H      45.194750     24.441500     54.137000
  C      46.528500     26.145000     54.010250
  H      47.439000     25.561250     53.881250
  C      46.611750     27.488500     54.084500
  C      45.388750     28.299000     54.168750
  H      45.507250     29.381750     54.186250
  C      44.174250     27.734500     54.195500
  H      43.284000     28.366500     54.206500
  C      43.974000     26.244000     54.142750
  H      43.287500     25.946000     54.950500
  O      43.457000     25.898000     52.873000
  H      42.653250     25.290250     52.994500
  C      47.944000     28.186000     53.869750
  O      48.996750     27.524750     53.747250
  O      47.919000     29.439000     53.849500
24
Coordinates from ORCA-job neb_initial_path.QMRegion E   0.000000000000
  C      46.700000     27.226000     56.674000
  H      47.607000     26.844000     56.230000
  H      46.752000     28.155000     57.241000
  C      45.579000     26.471000     56.732000
  C      44.324000     26.911000     57.491000
  O      44.445000     27.804000     58.356000
  O      43.239000     26.324000     57.207000
  O      45.492000     25.321000     56.054000
  C      45.277000     25.479000     54.352000
  H      45.190000     24.419000     54.109000
  C      46.514000     26.135000     53.985000
  H      47.426000     25.558000     53.832000
  C      46.600000     27.482000     54.142000
  C      45.374000     28.289000     54.220000
  H      45.491000     29.372000     54.263000
  C      44.160000     27.720000     54.204000
  H      43.267000     28.348000     54.201000
  C      43.963000     26.230000     54.126000
  H      43.288000     25.917000     54.939000
  O      43.431000     25.906000     52.856000
  H      42.630000     25.293000     52.978000
  C      47.929000     28.181000     53.905000
  O      48.980000     27.517000     53.783000
  O      47.904000     29.434000     53.852000
24
Coordinates from ORCA-job neb_initial_path.QMRegion E   0.000000000000
  C      46.710200     27.238400     56.583000
  H      47.630600     26.839600     56.257200
  H      46.747200     28.176000     57.137000
  C      45.618400     26.445200     56.761000
  C      44.351200     26.900800     57.492000
  O      44.473600     27.795200     58.354400
  O      43.268800     26.320000     57.194800
  O      45.603800     25.288400     56.235800
  C      45.251800     25.490600     54.236600
  H      45.163000     24.438000     53.968600
  C      46.480400     26.119000     54.001600
  H      47.393800     25.542200     53.856200
  C      46.583200     27.471600     54.246000
  C      45.355400     28.285600     54.267200
  H      45.471400     29.367200     54.328200
  C      44.146400     27.726000     54.193600
  H      43.258800     28.359600     54.169000
  C      43.940800     26.241000     54.083600
  H      43.294200     25.911000     54.910800
  O      43.357800     25.950200     52.835400
  H      42.569600     25.325200     52.967600
  C      47.902400     28.168200     53.937600
  O      48.948600     27.501000     53.801600
  O      47.872000     29.417400     53.851600
24
Coordinates from ORCA-job neb_initial_path.QMRegion E   0.000000000000
  C      46.720400     27.250800     56.492000
  H      47.654200     26.835200     56.284400
  H      46.742400     28.197000     57.033000
  C      45.657800     26.419400     56.790000
  C      44.378400     26.890600     57.493000
  O      44.502200     27.786400     58.352800
  O      43.298600     26.316000     57.182600
  O      45.715600     25.255800     56.417600
  C      45.226600     25.502200     54.121200
  H      45.136000     24.457000     53.828200
  C      46.446800     26.103000     54.018200
  H      47.361600     25.526400     53.880400
  C      46.566400     27.461200     54.350000
  C      45.336800     28.282200     54.314400
  H      45.451800     29.362400     54.393400
  C      44.132800     27.732000     54.183200
  H      43.250600     28.371200     54.137000
  C      43.918600     26.252000     54.041200
  H      43.300400     25.905000     54.882600
  O      43.284600     25.994400     52.814800
  H      42.509200     25.357400     52.957200
  C      47.875800     28.155400     53.970200
  O      48.917200     27.485000     53.820200
  O      47.840000     29.400800     53.851200
24
Coordinates from ORCA-job neb_initial_path.QMRegion E   0.000000000000
  C      46.730600     27.263200     56.401000
  H      47.677800     26.830800     56.311600
  H      46.737600     28.218000     56.929000
  C      45.697200     26.393600     56.819000
  C      44.405600     26.880400     57.494000
  O      44.530800     27.777600     58.351200
  O      43.328400     26.312000     57.170400
  O      45.827400     25.223200     56.599400
  C      45.201400     25.513800     54.005800
  H      45.109000     24.476000     53.687800
  C      46.413200     26.087000     54.034800
  H      47.329400     25.510600     53.904600
  C      46.549600     27.450800     54.454000
  C      45.318200     28.278800     54.361600
  H      45.432200     29.357600     54.458600
  C      44.119200     27.738000     54.172800
  H      43.242400     28.382800     54.105000
  C      43.896400     26.263000     53.998800
  H      43.306600     25.899000     54.854400
  O      43.211400     26.038600     52.794200
  H      42.448800     25.389600     52.946800
  C      47.849200     28.142600     54.002800
  O      48.885800     27.469000     53.838800
  O      47.808000     29.384200     53.850800
24
Coordinates from ORCA-job neb_initial_path.QMRegion E   0.000000000000
  C      46.740800     27.275600     56.310000
  H      47.701400     26.826400     56.338800
  H      46.732800     28.239000     56.825000
  C      45.736600     26.367800     56.848000
  C      44.432800     26.870200     57.495000
  O      44.559400     27.768800     58.349600
  O      43.358200     26.308000     57.158200
  O      45.939200     25.190600     56.781200
  C      45.176200     25.525400     53.890400
  H      45.082000     24.495000     53.547400
  C      46.379600     26.071000     54.051400
  H      47.297200     25.494800     53.928800
  C      46.532800     27.440400     54.558000
  C      45.299600     28.275400     54.408800
  H      45.412600     29.352800     54.523800
  C      44.105600     27.744000     54.162400
  H      43.234200     28.394400     54.073000
  C      43.874200     26.274000     53.956400
  H      43.312800     25.893000     54.826200
  O      43.138200     26.082800     52.773600
  H      42.388400     25.421800     52.936400
  C      47.822600     28.129800     54.035400
  O      48.854400     27.453000     53.857400
  O      47.776000     29.367600     53.850400
24
Coordinates from ORCA-job neb_initial_path.QMRegion E   0.000000000000
  C      46.751000     27.288000     56.219000
  H      47.725000     26.822000     56.366000
  H      46.728000     28.260000     56.721000
  C      45.776000     26.342000     56.877000
  C      44.460000     26.860000     57.496000
  O      44.588000     27.760000     58.348000
  O      43.388000     26.304000     57.146000
  O      46.051000     25.158000     56.963000
  C      45.151000     25.537000     53.775000
  H      45.055000     24.514000     53.407000
  C      46.346000     26.055000     54.068000
  H      47.265000     25.479000     53.953000
  C      46.516000     27.430000     54.662000
  C      45.281000     28.272000     54.456000
  H      45.393000     29.348000     54.589000
  C      44.092000     27.750000     54.152000
  H      43.226000     28.406000     54.041000
  C      43.852000     26.285000     53.914000
  H      43.319000     25.887000     54.798000
  O      43.065000     26.127000     52.753000
  H      42.328000     25.454000     52.926000
  C      47.796000     28.117000     54.068000
  O      48.823000     27.437000     53.876000
  O      47.744000     29.351000     53.850000
