24
Coordinates from ORCA-job neb_MEP.QMRegion E -1076.011592353978
  C      46.671000     27.084000     57.144000
  H      47.580000     26.785000     56.631000
  H      46.696000     27.893000     57.872000
  C      45.511000     26.472000     56.878000
  C      44.220000     26.898000     57.571000
  O      44.302000     27.819000     58.410000
  O      43.154000     26.306000     57.242000
  O      45.430000     25.390000     56.034000
  C      45.306000     25.544000     54.574000
  H      45.209000     24.509000     54.221000
  C      46.572000     26.175000     54.086000
  H      47.478000     25.571000     54.029000
  C      46.647000     27.508000     53.912000
  C      45.433000     28.329000     54.015000
  H      45.556000     29.411000     53.956000
  C      44.217000     27.778000     54.170000
  H      43.335000     28.422000     54.223000
  C      44.007000     26.286000     54.193000
  H      43.286000     26.033000     54.985000
  O      43.535000     25.874000     52.924000
  H      42.723000     25.282000     53.044000
  C      47.989000     28.201000     53.764000
  O      49.047000     27.548000     53.640000
  O      47.964000     29.454000     53.842000
24
Coordinates from ORCA-job neb_MEP.QMRegion E -1076.014142347874
  C      46.684990     27.111257     57.036435
  H      47.575068     26.822313     56.484931
  H      46.725415     27.949922     57.731099
  C      45.527076     26.472577     56.827310
  C      44.250574     26.895108     57.549303
  O      44.345366     27.808373     58.394761
  O      43.177659     26.308301     57.231549
  O      45.430380     25.381803     55.997246
  C      45.295896     25.523663     54.542024
  H      45.198076     24.488091     54.193883
  C      46.553583     26.160990     54.043751
  H      47.461462     25.562557     53.963403
  C      46.628137     27.499210     53.911782
  C      45.413653     28.315996     54.047454
  H      45.535312     29.399901     54.031560
  C      44.198351     27.758920     54.182349
  H      43.313519     28.397698     54.248756
  C      43.993482     26.264992     54.174465
  H      43.276995     25.998635     54.967172
  O      43.514159     25.872476     52.901774
  H      42.701436     25.280547     53.021142
  C      47.969235     28.194698     53.776312
  O      49.028005     27.538872     53.671302
  O      47.946430     29.448447     53.841793
24
Coordinates from ORCA-job neb_MEP.QMRegion E -1076.012546953982
  C      46.722032     27.150455     56.857540
  H      47.602155     26.842908     56.302200
  H      46.761717     28.070141     57.441027
  C      45.573759     26.467257     56.742140
  C      44.319126     26.891771     57.502457
  O      44.436754     27.790365     58.361060
  O      43.234951     26.312895     57.205510
  O      45.455426     25.356034     55.940000
  C      45.270655     25.490448     54.471913
  H      45.172768     24.453278     54.125862
  C      46.510650     26.144995     53.971235
  H      47.420505     25.557181     53.848953
  C      46.584338     27.489715     53.945782
  C      45.369929     28.296986     54.131138
  H      45.487063     29.379893     54.193063
  C      44.154728     27.729130     54.204960
  H      43.263446     28.359488     54.262830
  C      43.955981     26.236295     54.142718
  H      43.261917     25.941488     54.944053
  O      43.441238     25.890810     52.870545
  H      42.625790     25.298737     52.989748
  C      47.923624     28.182775     53.820394
  O      48.980409     27.518406     53.739844
  O      47.906894     29.437241     53.847138
24
Coordinates from ORCA-job neb_MEP.QMRegion E -1076.002509941133
  C      46.747047     27.186569     56.776185
  H      47.642023     26.831933     56.278091
  H      46.778018     28.165882     57.254255
  C      45.614210     26.455664     56.733740
  C      44.355644     26.895614     57.485381
  O      44.473335     27.791961     58.347288
  O      43.268444     26.321636     57.186484
  O      45.512249     25.327030     55.968520
  C      45.257948     25.473649     54.382073
  H      45.164498     24.426088     54.062693
  C      46.488799     26.138084     53.946946
  H      47.399458     25.556034     53.811731
  C      46.564696     27.484693     54.033081
  C      45.347784     28.289090     54.203505
  H      45.462164     29.370429     54.293978
  C      44.132516     27.719048     54.208034
  H      43.237400     28.344995     54.227980
  C      43.934603     26.229805     54.114896
  H      43.272989     25.911393     54.933577
  O      43.370195     25.924907     52.852080
  H      42.558767     25.323512     52.979337
  C      47.900090     28.174644     53.882489
  O      48.950970     27.504219     53.792742
  O      47.884473     29.429379     53.853809
24
Coordinates from ORCA-job neb_MEP.QMRegion E -1075.987343603099
  C      46.753851     27.225942     56.731517
  H      47.664303     26.824167     56.306149
  H      46.781244     28.216194     57.178258
  C      45.635091     26.437921     56.773613
  C      44.360067     26.902539     57.493094
  O      44.473675     27.800013     58.354482
  O      43.276371     26.327048     57.183481
  O      45.592049     25.296952     56.129606
  C      45.249421     25.474900     54.216590
  H      45.165782     24.404594     54.012027
  C      46.475438     26.125613     53.946257
  H      47.392070     25.551183     53.825852
  C      46.561988     27.482901     54.121762
  C      45.343946     28.289761     54.234355
  H      45.459059     29.371080     54.316299
  C      44.130195     27.719441     54.196364
  H      43.235022     28.343935     54.205930
  C      43.934476     26.233780     54.082907
  H      43.300294     25.899423     54.918950
  O      43.331497     25.947941     52.831296
  H      42.534781     25.327037     52.970891
  C      47.896958     28.172608     53.922262
  O      48.942864     27.499825     53.802662
  O      47.878483     29.424773     53.854604
24
Coordinates from ORCA-job neb_MEP.QMRegion E -1075.983516876285
  C      46.757817     27.265066     56.650110
  H      47.686261     26.809654     56.332839
  H      46.784150     28.246766     57.121272
  C      45.651591     26.419778     56.798415
  C      44.362260     26.905306     57.498978
  O      44.475762     27.803725     58.358661
  O      43.281907     26.329054     57.184485
  O      45.654927     25.264424     56.280244
  C      45.242124     25.476348     54.080877
  H      45.161777     24.395207     53.962635
  C      46.459092     26.108639     53.958726
  H      47.382823     25.545340     53.837697
  C      46.559934     27.481604     54.219997
  C      45.340017     28.291321     54.255715
  H      45.455792     29.372754     54.326456
  C      44.129597     27.718886     54.184217
  H      43.233958     28.342398     54.191248
  C      43.935825     26.234631     54.053332
  H      43.321411     25.890423     54.902854
  O      43.296638     25.967290     52.815067
  H      42.516834     25.327181     52.963417
  C      47.892423     28.169470     53.953767
  O      48.933507     27.494426     53.808194
  O      47.871363     29.419180     53.855691
24
Coordinates from ORCA-job neb_MEP.QMRegion E -1075.986751440490
  C      46.750066     27.300216     56.503352
  H      47.697023     26.796264     56.358738
  H      46.783086     28.249944     57.051112
  C      45.652776     26.414068     56.785786
  C      44.364551     26.905567     57.498561
  O      44.487495     27.801687     58.359453
  O      43.287144     26.326745     57.189707
  O      45.684116     25.247957     56.359874
  C      45.243402     25.480311     54.027145
  H      45.161240     24.397506     53.925800
  C      46.450931     26.099005     53.985946
  H      47.377756     25.543181     53.850117
  C      46.567747     27.480837     54.360649
  C      45.337395     28.293782     54.282315
  H      45.451589     29.376688     54.334668
  C      44.133334     27.718890     54.180640
  H      43.236796     28.341393     54.174165
  C      43.937165     26.234036     54.043270
  H      43.328598     25.886269     54.895799
  O      43.280747     25.979028     52.811493
  H      42.509833     25.329609     52.961660
  C      47.890480     28.167946     53.984962
  O      48.925533     27.491689     53.812268
  O      47.864300     29.414646     53.856025
24
Coordinates from ORCA-job neb_MEP.QMRegion E -1075.999904542876
  C      46.741987     27.322239     56.346604
  H      47.691453     26.789939     56.379122
  H      46.776145     28.243306     56.961503
  C      45.651135     26.410045     56.769444
  C      44.368757     26.906517     57.499782
  O      44.501492     27.798751     58.358565
  O      43.292740     26.324895     57.193268
  O      45.716432     25.229503     56.442856
  C      45.246862     25.485658     53.989176
  H      45.161840     24.402552     53.876853
  C      46.445005     26.091824     54.014517
  H      47.374185     25.539692     53.866424
  C      46.579735     27.481027     54.510344
  C      45.337381     28.294216     54.315017
  H      45.446982     29.379038     54.348376
  C      44.138911     27.718122     54.179840
  H      43.242559     28.341565     54.151699
  C      43.938134     26.232927     54.034523
  H      43.334774     25.881462     54.889242
  O      43.265321     25.991848     52.808758
  H      42.502854     25.333818     52.960534
  C      47.887321     28.167186     54.014621
  O      48.916969     27.488625     53.816845
  O      47.855387     29.408568     53.855174
24
Coordinates from ORCA-job neb_MEP.QMRegion E -1076.019906004530
  C      46.733404     27.316487     56.224128
  H      47.677894     26.793838     56.395514
  H      46.744812     28.260571     56.785806
  C      45.668334     26.395122     56.777400
  C      44.386858     26.902240     57.493917
  O      44.541260     27.790884     58.353188
  O      43.307132     26.325380     57.196771
  O      45.819105     25.194405     56.650950
  C      45.240149     25.499545     53.923962
  H      45.156952     24.427904     53.735529
  C      46.434963     26.081087     54.056637
  H      47.363860     25.524416     53.924648
  C      46.579539     27.470660     54.620374
  C      45.335241     28.290758     54.376240
  H      45.438110     29.376839     54.410107
  C      44.143359     27.722200     54.178753
  H      43.256216     28.352895     54.092863
  C      43.931916     26.241401     54.007790
  H      43.350693     25.872539     54.873066
  O      43.216428     26.035307     52.802473
  H      42.471665     25.359839     52.958154
  C      47.871082     28.158319     54.053567
  O      48.896465     27.479880     53.840396
  O      47.829652     29.395541     53.859095
24
Coordinates from ORCA-job neb_MEP.QMRegion E -1076.029436791522
  C      46.751000     27.288000     56.219000
  H      47.725000     26.822000     56.366000
  H      46.728000     28.260000     56.721000
  C      45.776000     26.342000     56.877000
  C      44.460000     26.860000     57.496000
  O      44.588000     27.760000     58.348000
  O      43.388000     26.304000     57.146000
  O      46.051000     25.158000     56.963000
  C      45.151000     25.537000     53.775000
  H      45.055000     24.514000     53.407000
  C      46.346000     26.055000     54.068000
  H      47.265000     25.479000     53.953000
  C      46.516000     27.430000     54.662000
  C      45.281000     28.272000     54.456000
  H      45.393000     29.348000     54.589000
  C      44.092000     27.750000     54.152000
  H      43.226000     28.406000     54.041000
  C      43.852000     26.285000     53.914000
  H      43.319000     25.887000     54.798000
  O      43.065000     26.127000     52.753000
  H      42.328000     25.454000     52.926000
  C      47.796000     28.117000     54.068000
  O      48.823000     27.437000     53.876000
  O      47.744000     29.351000     53.850000
