24
Coordinates from ORCA-job neb_MEP.QMRegion E -1075.318064670711
  C      40.709000     14.742000     44.917000
  H      41.395000     14.320000     44.183000
  H      41.015000     15.626000     45.474000
  C      39.499000     14.218000     45.146000
  C      38.562000     14.813000     46.190000
  O      38.824000     15.977000     46.581000
  O      37.609000     14.107000     46.603000
  O      39.064000     13.085000     44.483000
  C      38.366000     13.250000     43.180000
  H      38.118000     12.220000     42.894000
  C      39.334000     13.874000     42.227000
  H      40.111000     13.257000     41.772000
  C      39.367000     15.212000     42.068000
  C      38.331000     16.050000     42.683000
  H      38.471000     17.128000     42.612000
  C      37.268000     15.516000     43.308000
  H      36.509000     16.157000     43.764000
  C      37.042000     14.025000     43.351000
  H      36.645000     13.754000     44.340000
  O      36.130000     13.659000     42.323000
  H      35.326000     13.216000     42.722000
  C      40.517000     15.897000     41.344000
  O      41.430000     15.194000     40.831000
  O      40.482000     17.151000     41.326000
24
Coordinates from ORCA-job neb_MEP.QMRegion E -1075.322064767902
  C      40.698661     14.766407     44.877023
  H      41.375877     14.354360     44.130901
  H      40.997960     15.660204     45.421729
  C      39.499910     14.226529     45.128223
  C      38.569540     14.817548     46.179179
  O      38.833459     15.979661     46.573014
  O      37.617881     14.111394     46.593209
  O      39.069087     13.086129     44.474954
  C      38.365428     13.239272     43.170611
  H      38.124425     12.205254     42.889510
  C      39.326798     13.867767     42.213485
  H      40.102791     13.253418     41.754200
  C      39.360770     15.207623     42.065491
  C      38.323705     16.038959     42.688760
  H      38.463187     17.118581     42.630019
  C      37.261377     15.498967     43.310205
  H      36.502150     16.135191     43.770079
  C      37.038278     14.007929     43.346289
  H      36.645617     13.731854     44.335162
  O      36.124709     13.640239     42.320035
  H      35.318488     13.204698     42.721845
  C      40.511219     15.896448     41.346408
  O      41.426728     15.193973     40.835342
  O      40.475239     17.149858     41.331245
24
Coordinates from ORCA-job neb_MEP.QMRegion E -1075.326155061246
  C      40.686077     14.800466     44.819790
  H      41.352203     14.399965     44.058224
  H      40.974763     15.709282     45.344849
  C      39.504123     14.238517     45.101673
  C      38.583343     14.823498     46.163975
  O      38.852032     15.982565     46.563158
  O      37.632465     14.117540     46.580647
  O      39.076687     13.088423     44.463384
  C      38.365144     13.225137     43.158028
  H      38.134089     12.186660     42.885715
  C      39.316818     13.859023     42.196046
  H      40.093330     13.250015     41.730657
  C      39.349849     15.200395     42.060870
  C      38.313129     16.024503     42.695216
  H      38.453271     17.104909     42.652844
  C      37.251858     15.476409     43.311725
  H      36.491717     16.105723     43.779339
  C      37.034006     13.984303     43.339033
  H      36.646491     13.701976     44.328091
  O      36.119448     13.615000     42.314735
  H      35.309219     13.190197     42.719855
  C      40.503158     15.893800     41.350508
  O      41.421823     15.193647     40.841109
  O      40.467835     17.147034     41.341339
24
Coordinates from ORCA-job neb_MEP.QMRegion E -1075.329546784206
  C      40.666981     14.853827     44.730115
  H      41.327765     14.463275     43.960034
  H      40.923177     15.799481     45.205172
  C      39.512698     14.257219     45.057121
  C      38.605831     14.836850     46.134017
  O      38.885645     15.989370     46.543914
  O      37.652993     14.134405     46.553473
  O      39.091132     13.091303     44.443388
  C      38.365881     13.202640     43.134074
  H      38.151722     12.157900     42.872085
  C      39.305054     13.847285     42.171426
  H      40.079725     13.247934     41.691058
  C      39.342924     15.191745     42.070773
  C      38.306496     16.003175     42.723341
  H      38.449986     17.084217     42.715298
  C      37.238941     15.441140     43.316243
  H      36.470602     16.058308     43.786314
  C      37.027771     13.948090     43.324830
  H      36.652569     13.653335     44.314495
  O      36.103483     13.584178     42.308004
  H      35.287764     13.175587     42.720263
  C      40.497821     15.892463     41.371496
  O      41.422204     15.196502     40.865250
  O      40.458475     17.145025     41.363647
24
Coordinates from ORCA-job neb_MEP.QMRegion E -1075.317147659699
  C      40.647472     14.938002     44.617318
  H      41.355450     14.511948     43.911573
  H      40.820923     15.960429     44.955794
  C      39.559650     14.256139     45.047817
  C      38.639746     14.859543     46.110198
  O      38.922866     16.010642     46.523978
  O      37.670312     14.171127     46.519374
  O      39.184030     13.069757     44.502874
  C      38.324632     13.168789     43.003551
  H      38.155154     12.103856     42.792741
  C      39.294910     13.828955     42.151109
  H      40.072687     13.247117     41.657734
  C      39.391177     15.183091     42.188193
  C      38.335035     15.981067     42.823012
  H      38.483756     17.060823     42.858354
  C      37.228093     15.405607     43.320851
  H      36.428059     16.008583     43.754065
  C      37.008939     13.917073     43.279008
  H      36.684250     13.584151     44.272053
  O      36.024609     13.609158     42.297313
  H      35.219443     13.187744     42.729932
  C      40.526691     15.892548     41.465797
  O      41.442862     15.200584     40.941169
  O      40.452904     17.140968     41.410076
24
Coordinates from ORCA-job neb_MEP.QMRegion E -1075.310619022501
  C      40.640383     14.960867     44.587666
  H      41.369018     14.509776     43.920209
  H      40.811250     15.983181     44.922818
  C      39.580693     14.243383     45.073482
  C      38.643639     14.862905     46.118281
  O      38.921750     16.017423     46.525577
  O      37.669874     14.176927     46.520036
  O      39.262688     13.056378     44.602731
  C      38.275942     13.165289     42.899475
  H      38.140463     12.088451     42.760914
  C      39.284605     13.816881     42.152941
  H      40.071046     13.243588     41.663456
  C      39.409352     15.182583     42.235928
  C      38.337626     15.981086     42.836040
  H      38.484998     17.060890     42.868485
  C      37.223642     15.403352     43.315098
  H      36.423235     16.004951     43.749395
  C      37.001168     13.916820     43.260190
  H      36.694875     13.574914     44.257421
  O      35.996950     13.622158     42.292461
  H      35.201434     13.188429     42.732082
  C      40.533403     15.891534     41.486811
  O      41.438987     15.197546     40.948495
  O      40.448763     17.137952     41.413428
24
Coordinates from ORCA-job neb_MEP.QMRegion E -1075.308993906799
  C      40.629498     14.984447     44.545773
  H      41.384792     14.508509     43.928165
  H      40.798144     16.005928     44.882136
  C      39.598135     14.235072     45.093050
  C      38.647133     14.866472     46.124171
  O      38.924248     16.022911     46.524987
  O      37.672282     14.181071     46.521015
  O      39.336775     13.043471     44.695869
  C      38.234057     13.162935     42.808472
  H      38.123912     12.079745     42.723946
  C      39.277705     13.805362     42.159939
  H      40.071725     13.240119     41.672931
  C      39.433910     15.183772     42.292461
  C      38.342248     15.981823     42.851052
  H      38.486404     17.061993     42.878984
  C      37.220850     15.401399     43.309643
  H      36.418228     16.002248     43.741203
  C      36.994506     13.916132     43.241292
  H      36.703488     13.566996     44.242853
  O      35.971389     13.635498     42.287977
  H      35.185482     13.191127     42.733738
  C      40.541160     15.891172     41.509150
  O      41.436283     15.195343     40.956548
  O      40.445816     17.135397     41.417432
24
Coordinates from ORCA-job neb_MEP.QMRegion E -1075.311253878072
  C      40.588372     15.013194     44.448408
  H      41.398429     14.505432     43.933337
  H      40.771018     16.024495     44.814273
  C      39.604108     14.231491     45.094879
  C      38.649531     14.870984     46.125220
  O      38.933322     16.026385     46.522329
  O      37.678630     14.183449     46.523215
  O      39.400999     13.031304     44.776037
  C      38.208061     13.162395     42.746297
  H      38.102685     12.077815     42.675124
  C      39.279568     13.795253     42.181361
  H      40.074441     13.236279     41.687033
  C      39.482158     15.184014     42.388624
  C      38.350545     15.983057     42.875949
  H      38.487982     17.064166     42.895571
  C      37.219535     15.400116     43.303479
  H      36.411109     16.000780     43.724536
  C      36.989229     13.915148     43.225215
  H      36.709552     13.558866     44.228747
  O      35.948875     13.650355     42.285897
  H      35.171468     13.195034     42.735325
  C      40.552843     15.890772     41.540817
  O      41.434622     15.193513     40.969286
  O      40.441760     17.131467     41.424758
24
Coordinates from ORCA-job neb_MEP.QMRegion E -1075.318862298514
  C      40.526428     15.036616     44.319846
  H      41.395503     14.502278     43.937769
  H      40.737825     16.026671     44.743447
  C      39.596847     14.230148     45.087092
  C      38.650593     14.874488     46.126870
  O      38.945790     16.026716     46.519541
  O      37.683581     14.185167     46.527044
  O      39.449011     13.025560     44.841196
  C      38.195879     13.164969     42.706596
  H      38.087800     12.081083     42.630583
  C      39.285511     13.787631     42.204253
  H      40.080285     13.234353     41.702052
  C      39.544624     15.184484     42.502508
  C      38.361416     15.983596     42.902091
  H      38.490622     17.065877     42.910986
  C      37.224141     15.398878     43.301097
  H      36.407363     16.001534     43.702876
  C      36.989392     13.913778     43.218667
  H      36.712464     13.552296     44.222075
  O      35.937781     13.663358     42.288097
  H      35.165673     13.199846     42.736525
  C      40.564095     15.891374     41.570125
  O      41.432180     15.193052     40.979283
  O      40.437006     17.127729     41.430523
24
Coordinates from ORCA-job neb_MEP.QMRegion E -1075.356424071407
  C      40.459000     15.097000     44.046000
  H      41.415000     14.584000     43.882000
  H      40.646000     16.119000     44.400000
  C      39.682000     14.314000     45.080000
  C      38.766000     15.022000     46.098000
  O      39.243000     16.059000     46.597000
  O      37.676000     14.466000     46.379000
  O      39.774000     13.098000     45.149000
  C      38.098000     13.215000     42.426000
  H      37.896000     12.188000     42.115000
  C      39.300000     13.765000     42.231000
  H      40.105000     13.204000     41.754000
  C      39.653000     15.158000     42.682000
  C      38.413000     15.965000     42.981000
  H      38.557000     17.041000     43.075000
  C      37.219000     15.409000     43.201000
  H      36.380000     16.032000     43.519000
  C      36.931000     13.939000     43.044000
  H      36.741000     13.525000     44.052000
  O      35.783000     13.759000     42.226000
  H      35.058000     13.272000     42.724000
  C      40.576000     15.872000     41.629000
  O      41.426000     15.181000     41.007000
  O      40.416000     17.101000     41.473000
