24
Coordinates from ORCA-job neb_initial_path.QMRegion E   0.000000000000
  C      40.709000     14.742000     44.917000
  H      41.395000     14.320000     44.183000
  H      41.015000     15.626000     45.474000
  C      39.499000     14.218000     45.146000
  C      38.562000     14.813000     46.190000
  O      38.824000     15.977000     46.581000
  O      37.609000     14.107000     46.603000
  O      39.064000     13.085000     44.483000
  C      38.366000     13.250000     43.180000
  H      38.118000     12.220000     42.894000
  C      39.334000     13.874000     42.227000
  H      40.111000     13.257000     41.772000
  C      39.367000     15.212000     42.068000
  C      38.331000     16.050000     42.683000
  H      38.471000     17.128000     42.612000
  C      37.268000     15.516000     43.308000
  H      36.509000     16.157000     43.764000
  C      37.042000     14.025000     43.351000
  H      36.645000     13.754000     44.340000
  O      36.130000     13.659000     42.323000
  H      35.326000     13.216000     42.722000
  C      40.517000     15.897000     41.344000
  O      41.430000     15.194000     40.831000
  O      40.482000     17.151000     41.326000
24
Coordinates from ORCA-job neb_initial_path.QMRegion E   0.000000000000
  C      40.680833     14.785333     44.828500
  H      41.389000     14.349500     44.133167
  H      40.965167     15.692833     45.347833
  C      39.508167     14.221667     45.127500
  C      38.575667     14.821500     46.175500
  O      38.843500     15.983500     46.568167
  O      37.622167     14.117833     46.591333
  O      39.099500     13.080833     44.507000
  C      38.348167     13.236333     43.127000
  H      38.120167     12.198333     42.868167
  C      39.325500     13.863833     42.221000
  H      40.104167     13.255667     41.758167
  C      39.388500     15.207167     42.126167
  C      38.335333     16.039500     42.719667
  H      38.474500     17.118167     42.663333
  C      37.260833     15.497667     43.310833
  H      36.491667     16.132667     43.755667
  C      37.035333     14.007333     43.337333
  H      36.652500     13.724167     44.327667
  O      36.107500     13.655000     42.319500
  H      35.305833     13.212000     42.724500
  C      40.524667     15.896167     41.381167
  O      41.433167     15.194667     40.859000
  O      40.475167     17.147500     41.344833
24
Coordinates from ORCA-job neb_initial_path.QMRegion E   0.000000000000
  C      40.652667     14.828667     44.740000
  H      41.383000     14.379000     44.083333
  H      40.915333     15.759667     45.221667
  C      39.517333     14.225333     45.109000
  C      38.589333     14.830000     46.161000
  O      38.863000     15.990000     46.555333
  O      37.635333     14.128667     46.579667
  O      39.135000     13.076667     44.531000
  C      38.330333     13.222667     43.074000
  H      38.122333     12.176667     42.842333
  C      39.317000     13.853667     42.215000
  H      40.097333     13.254333     41.744333
  C      39.410000     15.202333     42.184333
  C      38.339667     16.029000     42.756333
  H      38.478000     17.108333     42.714667
  C      37.253667     15.479333     43.313667
  H      36.474333     16.108333     43.747333
  C      37.028667     13.989667     43.323667
  H      36.660000     13.694333     44.315333
  O      36.085000     13.651000     42.316000
  H      35.285667     13.208000     42.727000
  C      40.532333     15.895333     41.418333
  O      41.436333     15.195333     40.887000
  O      40.468333     17.144000     41.363667
24
Coordinates from ORCA-job neb_initial_path.QMRegion E   0.000000000000
  C      40.624500     14.872000     44.651500
  H      41.377000     14.408500     44.033500
  H      40.865500     15.826500     45.095500
  C      39.526500     14.229000     45.090500
  C      38.603000     14.838500     46.146500
  O      38.882500     15.996500     46.542500
  O      37.648500     14.139500     46.568000
  O      39.170500     13.072500     44.555000
  C      38.312500     13.209000     43.021000
  H      38.124500     12.155000     42.816500
  C      39.308500     13.843500     42.209000
  H      40.090500     13.253000     41.730500
  C      39.431500     15.197500     42.242500
  C      38.344000     16.018500     42.793000
  H      38.481500     17.098500     42.766000
  C      37.246500     15.461000     43.316500
  H      36.457000     16.084000     43.739000
  C      37.022000     13.972000     43.310000
  H      36.667500     13.664500     44.303000
  O      36.062500     13.647000     42.312500
  H      35.265500     13.204000     42.729500
  C      40.540000     15.894500     41.455500
  O      41.439500     15.196000     40.915000
  O      40.461500     17.140500     41.382500
24
Coordinates from ORCA-job neb_initial_path.QMRegion E   0.000000000000
  C      40.596333     14.915333     44.563000
  H      41.371000     14.438000     43.983667
  H      40.815667     15.893333     44.969333
  C      39.535667     14.232667     45.072000
  C      38.616667     14.847000     46.132000
  O      38.902000     16.003000     46.529667
  O      37.661667     14.150333     46.556333
  O      39.206000     13.068333     44.579000
  C      38.294667     13.195333     42.968000
  H      38.126667     12.133333     42.790667
  C      39.300000     13.833333     42.203000
  H      40.083667     13.251667     41.716667
  C      39.453000     15.192667     42.300667
  C      38.348333     16.008000     42.829667
  H      38.485000     17.088667     42.817333
  C      37.239333     15.442667     43.319333
  H      36.439667     16.059667     43.730667
  C      37.015333     13.954333     43.296333
  H      36.675000     13.634667     44.290667
  O      36.040000     13.643000     42.309000
  H      35.245333     13.200000     42.732000
  C      40.547667     15.893667     41.492667
  O      41.442667     15.196667     40.943000
  O      40.454667     17.137000     41.401333
24
Coordinates from ORCA-job neb_initial_path.QMRegion E   0.000000000000
  C      40.568167     14.958667     44.474500
  H      41.365000     14.467500     43.933833
  H      40.765833     15.960167     44.843167
  C      39.544833     14.236333     45.053500
  C      38.630333     14.855500     46.117500
  O      38.921500     16.009500     46.516833
  O      37.674833     14.161167     46.544667
  O      39.241500     13.064167     44.603000
  C      38.276833     13.181667     42.915000
  H      38.128833     12.111667     42.764833
  C      39.291500     13.823167     42.197000
  H      40.076833     13.250333     41.702833
  C      39.474500     15.187833     42.358833
  C      38.352667     15.997500     42.866333
  H      38.488500     17.078833     42.868667
  C      37.232167     15.424333     43.322167
  H      36.422333     16.035333     43.722333
  C      37.008667     13.936667     43.282667
  H      36.682500     13.604833     44.278333
  O      36.017500     13.639000     42.305500
  H      35.225167     13.196000     42.734500
  C      40.555333     15.892833     41.529833
  O      41.445833     15.197333     40.971000
  O      40.447833     17.133500     41.420167
24
Coordinates from ORCA-job neb_initial_path.QMRegion E   0.000000000000
  C      40.540000     15.002000     44.386000
  H      41.359000     14.497000     43.884000
  H      40.716000     16.027000     44.717000
  C      39.554000     14.240000     45.035000
  C      38.644000     14.864000     46.103000
  O      38.941000     16.016000     46.504000
  O      37.688000     14.172000     46.533000
  O      39.277000     13.060000     44.627000
  C      38.259000     13.168000     42.862000
  H      38.131000     12.090000     42.739000
  C      39.283000     13.813000     42.191000
  H      40.070000     13.249000     41.689000
  C      39.496000     15.183000     42.417000
  C      38.357000     15.987000     42.903000
  H      38.492000     17.069000     42.920000
  C      37.225000     15.406000     43.325000
  H      36.405000     16.011000     43.714000
  C      37.002000     13.919000     43.269000
  H      36.690000     13.575000     44.266000
  O      35.995000     13.635000     42.302000
  H      35.205000     13.192000     42.737000
  C      40.563000     15.892000     41.567000
  O      41.449000     15.198000     40.999000
  O      40.441000     17.130000     41.439000
24
Coordinates from ORCA-job neb_initial_path.QMRegion E   0.000000000000
  C      40.513000     15.033667     44.272667
  H      41.377667     14.526000     43.883333
  H      40.692667     16.057667     44.611333
  C      39.596667     14.264667     45.050000
  C      38.684667     14.916667     46.101333
  O      39.041667     16.030333     46.535000
  O      37.684000     14.270000     46.481667
  O      39.442667     13.072667     44.801000
  C      38.205333     13.183667     42.716667
  H      38.052667     12.122667     42.531000
  C      39.288667     13.797000     42.204333
  H      40.081667     13.234000     41.710667
  C      39.548333     15.174667     42.505333
  C      38.375667     15.979667     42.929000
  H      38.513667     17.059667     42.971667
  C      37.223000     15.407000     43.283667
  H      36.396667     16.018000     43.649000
  C      36.978333     13.925667     43.194000
  H      36.707000     13.558333     44.194667
  O      35.924333     13.676333     42.276667
  H      35.156000     13.218667     42.732667
  C      40.567333     15.885333     41.587667
  O      41.441333     15.192333     41.001667
  O      40.432667     17.120333     41.450333
24
Coordinates from ORCA-job neb_initial_path.QMRegion E   0.000000000000
  C      40.486000     15.065333     44.159333
  H      41.396333     14.555000     43.882667
  H      40.669333     16.088333     44.505667
  C      39.639333     14.289333     45.065000
  C      38.725333     14.969333     46.099667
  O      39.142333     16.044667     46.566000
  O      37.680000     14.368000     46.430333
  O      39.608333     13.085333     44.975000
  C      38.151667     13.199333     42.571333
  H      37.974333     12.155333     42.323000
  C      39.294333     13.781000     42.217667
  H      40.093333     13.219000     41.732333
  C      39.600667     15.166333     42.593667
  C      38.394333     15.972333     42.955000
  H      38.535333     17.050333     43.023333
  C      37.221000     15.408000     43.242333
  H      36.388333     16.025000     43.584000
  C      36.954667     13.932333     43.119000
  H      36.724000     13.541667     44.123333
  O      35.853667     13.717667     42.251333
  H      35.107000     13.245333     42.728333
  C      40.571667     15.878667     41.608333
  O      41.433667     15.186667     41.004333
  O      40.424333     17.110667     41.461667
24
Coordinates from ORCA-job neb_initial_path.QMRegion E   0.000000000000
  C      40.459000     15.097000     44.046000
  H      41.415000     14.584000     43.882000
  H      40.646000     16.119000     44.400000
  C      39.682000     14.314000     45.080000
  C      38.766000     15.022000     46.098000
  O      39.243000     16.059000     46.597000
  O      37.676000     14.466000     46.379000
  O      39.774000     13.098000     45.149000
  C      38.098000     13.215000     42.426000
  H      37.896000     12.188000     42.115000
  C      39.300000     13.765000     42.231000
  H      40.105000     13.204000     41.754000
  C      39.653000     15.158000     42.682000
  C      38.413000     15.965000     42.981000
  H      38.557000     17.041000     43.075000
  C      37.219000     15.409000     43.201000
  H      36.380000     16.032000     43.519000
  C      36.931000     13.939000     43.044000
  H      36.741000     13.525000     44.052000
  O      35.783000     13.759000     42.226000
  H      35.058000     13.272000     42.724000
  C      40.576000     15.872000     41.629000
  O      41.426000     15.181000     41.007000
  O      40.416000     17.101000     41.473000
