24
frame 26495 P, aligned onto 20000 on 8 atoms
C      48.13908429    28.21030976    55.84632946
H      49.02866932    27.57503413    55.97230307
H      48.21292025    29.10666404    56.47556173
C      46.91697790    27.41848290    56.26387131
C      45.71256451    28.12811541    56.96371921
O      45.95088508    29.17661577    57.60383192
O      44.59120444    27.58649332    56.86483995
O      46.84558892    26.22450386    56.03838589
C      46.67605073    26.94155682    53.11439173
H      46.56210443    25.99476510    52.59052182
C      47.87702774    27.38585569    53.49162208
H      48.78258165    26.80667248    53.29528585
C      48.05552355    28.63471952    54.31828367
C      46.85290145    29.53949433    54.20669686
H      46.98645862    30.57701894    54.51519510
C      45.64710185    29.06888551    53.87985033
H      44.76670943    29.70841990    53.96232422
C      45.39254720    27.66473926    53.39831397
H      44.85233901    27.11391664    54.19675843
O      44.62181618    27.67295118    52.20948250
H      43.64231189    27.69240529    52.44775521
C      49.40117138    29.32807618    53.90544657
O      50.45765844    28.65684839    54.06148937
O      49.37057753    30.49816793    53.46477968
