24
frame 26495 R, aligned onto 20000 on 8 atoms
C      47.94899800    27.96074203    56.89049763
H      48.84430786    27.49403978    56.47748400
H      48.05187662    28.75473229    57.62902824
C      46.72224677    27.59522132    56.50082978
C      45.47596883    28.23174553    57.09950685
O      45.62467615    29.31306635    57.72597107
O      44.37254015    27.65759511    56.95868272
O      46.53867415    26.58741357    55.57236350
C      46.56790127    26.97129342    54.14868832
H      46.37162023    26.02777118    53.61731507
C      47.93080163    27.50753571    53.81779281
H      48.76718347    26.80713473    53.74925906
C      48.15803646    28.83685974    53.75740272
C      47.03805036    29.77389677    53.91658416
H      47.29303114    30.83074260    53.96783544
C      45.76786284    29.35714826    54.03826551
H      44.97030140    30.08015473    54.23136235
C      45.38642652    27.91363121    53.84607321
H      44.59710872    27.63656550    54.56167714
O      44.93156984    27.71394070    52.51488311
H      43.92818477    27.65774110    52.54456477
C      49.56117806    29.43002626    53.65518662
O      50.55803588    28.70136329    53.90475777
O      49.61983669    30.65557824    53.38494319
