24
frame 26495 TS, aligned onto 20000 on 8 atoms
C      48.11524327    28.08361366    56.29838389
H      49.00754168    27.53147982    56.01130443
H      48.22237369    29.02497436    56.83326895
C      46.87060836    27.46107157    56.29175015
C      45.65119033    28.15426371    56.93744957
O      45.84302181    29.21842212    57.57962519
O      44.52773222    27.61362983    56.81526738
O      46.68264859    26.37090510    55.65161998
C      46.60837960    26.82703267    53.57594134
H      46.45988888    25.78803309    53.27953583
C      47.87379799    27.38831771    53.53118230
H      48.75350380    26.76480410    53.36250132
C      48.06291584    28.70832317    53.95673137
C      46.89342748    29.58706658    54.07536031
H      47.08138951    30.63627876    54.30000736
C      45.64822200    29.10547989    53.95031997
H      44.78746067    29.75902753    54.10212145
C      45.35566853    27.67133548    53.60202452
H      44.68072651    27.25454426    54.36748561
O      44.75500124    27.59143095    52.31539068
H      43.75429492    27.61342511    52.44085189
C      49.44526300    29.34983091    53.80230105
O      50.47030575    28.64890699    54.00829832
O      49.46478051    30.55555196    53.45604458
