25
Coordinates from ORCA-job job
  C          43.86100695644640     22.36795582239919     42.08590532558674
  H          44.44189509123203     22.98008158262851     41.37944613838101
  H          43.88425347273385     22.66937066756168     43.13301067343017
  C          43.19007608556508     21.29528927250972     41.59161612004901
  C          42.39920409451869     20.33599189993181     42.59152310347508
  O          42.65683858978748     20.48917956575160     43.76863634604630
  O          41.50154759070180     19.41924356347595     42.16008938059296
  O          43.35847889954390     21.01003758016715     40.27868385459695
  C          42.61690823421615     21.61828612446932     39.18844945340692
  H          41.66387085967174     21.06047957283819     39.13801159305769
  C          43.38403588250814     21.46324864605220     37.88495973477237
  H          44.36674591680566     20.98409221445735     37.86163289401987
  C          42.81802299625001     21.93652629217519     36.75245563644737
  C          41.55450544143269     22.66852144416655     36.89372214156977
  H          40.92182389063169     22.73087267729115     36.00534754346060
  C          41.26710127362819     23.26610705035044     38.06503277747479
  H          40.37692342775291     23.87849806333436     38.23691181678650
  C          42.21166894216247     23.10653300769814     39.24613641171676
  H          43.12007737799927     23.72949041037060     39.05771082517006
  O          41.53690588276442     23.53760089537718     40.41432385127025
  H          42.19734108098887     23.58120008594618     41.11749857911457
  C          43.37081842035946     21.68842808829919     35.31782595233342
  O          44.60460301724991     21.58062150270357     35.20435968125228
  O          42.45934657504760     21.60234397004407     34.46171016598718
  N          40.83200000000000     18.75000000000000     42.55100000000000
