25
Coordinates from ORCA-job job E -836.339138445021
  C      44.842000     22.068000     40.142000
  H      45.265000     21.440000     39.358000
  H      45.368000     22.976000     40.435000
  C      43.689000     21.758000     40.746000
  C      43.115000     22.623000     41.859000
  O      43.577000     23.785000     42.012000
  O      42.221000     22.117000     42.579000
  O      42.985000     20.610000     40.433000
  C      42.079000     20.646000     39.270000
  H      41.683000     19.622000     39.219000
  C      42.892000     20.975000     38.054000
  H      43.551000     20.209000     37.638000
  C      42.969000     22.244000     37.605000
  C      42.118000     23.281000     38.202000
  H      42.307000     24.301000     37.867000
  C      41.188000     23.002000     39.130000
  H      40.598000     23.809000     39.575000
  C      40.887000     21.588000     39.553000
  H      40.742000     21.566000     40.644000
  O      39.715000     21.144000     38.884000
  H      39.068000     20.737000     39.535000
  C      44.024000     22.694000     36.600000
  O      44.937000     21.905000     36.259000
  O      43.944000     23.900000     36.236000
  N      40.832000     18.750000     42.551000
25
Coordinates from ORCA-job job E -836.358297915477
  C      44.805360     22.238896     40.293460
  H      45.275448     21.755771     39.434859
  H      45.250494     23.148191     40.699663
  C      43.675566     21.773008     40.843896
  C      43.005004     22.422956     42.056517
  O      43.373968     23.574726     42.378754
  O      42.137393     21.712186     42.648751
  O      43.033326     20.622971     40.414052
  C      42.137522     20.685568     39.250373
  H      41.723765     19.661400     39.221699
  C      42.891454     20.975645     37.988298
  H      43.510984     20.186407     37.555060
  C      42.964969     22.220376     37.481620
  C      42.172449     23.293657     38.089363
  H      42.360616     24.295110     37.698686
  C      41.292213     23.063862     39.081563
  H      40.739897     23.894043     39.532661
  C      40.984956     21.667139     39.561813
  H      40.897009     21.673960     40.664148
  O      39.758612     21.224513     38.969593
  H      39.175022     20.870293     39.660478
  C      43.958072     22.580922     36.370705
  O      44.779241     21.703187     36.015257
  O      43.860661     23.755212     35.923731
  N      40.832000     18.750000     42.551000
25
Coordinates from ORCA-job job E -836.371067664464
  C      44.692982     22.426575     40.372626
  H      45.152946     22.103985     39.434552
  H      45.063678     23.328544     40.865080
  C      43.645483     21.789800     40.915394
  C      42.954598     22.188476     42.238737
  O      43.215502     23.308493     42.705850
  O      42.184051     21.286853     42.724544
  O      43.078349     20.639722     40.398800
  C      42.187434     20.726950     39.248942
  H      41.758659     19.706314     39.241479
  C      42.908466     20.975866     37.961852
  H      43.499320     20.164564     37.527929
  C      42.978453     22.192739     37.392337
  C      42.225847     23.301866     37.982666
  H      42.411240     24.280216     37.532121
  C      41.383007     23.126541     39.019582
  H      40.856351     23.980524     39.457877
  C      41.068978     21.752588     39.563396
  H      41.017781     21.792745     40.667725
  O      39.798015     21.317692     39.040327
  H      39.263790     21.021385     39.778423
  C      43.917632     22.460224     36.195739
  O      44.683234     21.522168     35.879692
  O      43.818204     23.605169     35.689332
  N      40.832000     18.750000     42.551000
25
Coordinates from ORCA-job job E -836.388113736430
  C      44.581374     22.631886     40.613363
  H      45.042786     22.526723     39.627051
  H      44.853403     23.485850     41.241153
  C      43.626469     21.800872     41.055373
  C      42.904834     21.857375     42.441738
  O      43.052238     22.880020     43.113814
  O      42.189406     20.809871     42.699121
  O      43.162060     20.691652     40.381932
  C      42.280158     20.810376     39.244812
  H      41.828880     19.799685     39.270571
  C      42.954458     20.994676     37.922419
  H      43.513290     20.154967     37.498892
  C      42.982157     22.160144     37.250472
  C      42.260981     23.311245     37.796677
  H      42.410134     24.247496     37.249920
  C      41.486284     23.216575     38.895502
  H      40.979008     24.098824     39.300857
  C      41.198101     21.884929     39.549720
  H      41.199781     21.983819     40.649166
  O      39.878654     21.440372     39.151789
  H      39.420059     21.226006     39.968326
  C      43.812708     22.302146     35.938736
  O      44.509271     21.306749     35.648901
  O      43.637506     23.377742     35.324691
  N      40.832000     18.750000     42.551000
25
Coordinates from ORCA-job job E -836.407968209358
  C      44.361286     22.905167     41.032443
  H      44.776986     23.132060     40.045412
  H      44.488691     23.633234     41.843198
  C      43.592133     21.830344     41.264845
  C      42.895580     21.351825     42.619806
  O      42.909731     22.137250     43.553982
  O      42.321355     20.172320     42.521467
  O      43.284002     20.833858     40.377890
  C      42.432883     20.966281     39.245687
  H      41.963070     19.968083     39.334345
  C      43.031211     21.045941     37.876134
  H      43.550234     20.165860     37.482922
  C      42.975101     22.110120     37.054374
  C      42.285151     23.315574     37.515328
  H      42.358753     24.167612     36.828928
  C      41.618066     23.353195     38.685144
  H      41.125112     24.270420     39.028429
  C      41.391940     22.104071     39.506277
  H      41.464151     22.300755     40.585242
  O      40.021890     21.648648     39.311095
  H      39.701313     21.574823     40.221372
  C      43.623554     22.034876     35.612398
  O      44.257701     20.982480     35.410624
  O      43.334103     22.995203     34.877659
  N      40.832000     18.750000     42.551000
25
Coordinates from ORCA-job job E -836.419417650022
  C      44.394373     22.918230     41.384721
  H      44.905654     23.262740     40.476226
  H      44.404787     23.568016     42.271189
  C      43.617114     21.820210     41.408471
  C      42.713146     21.147465     42.603058
  O      42.646814     21.803402     43.617549
  O      41.916323     20.152005     42.194605
  O      43.422482     20.944003     40.393272
  C      42.633246     21.090089     39.243983
  H      42.181480     20.085626     39.352410
  C      43.175606     21.147125     37.847303
  H      43.716141     20.275162     37.461541
  C      42.961499     22.114888     36.933313
  C      42.205005     23.300030     37.339344
  H      42.133079     24.069868     36.558838
  C      41.644763     23.403878     38.558589
  H      41.097719     24.303108     38.868124
  C      41.575099     22.221433     39.490669
  H      41.721306     22.499940     40.541793
  O      40.206596     21.691898     39.512055
  H      40.055742     21.719474     40.469276
  C      43.420994     21.892436     35.409825
  O      44.091095     20.857087     35.271140
  O      42.923939     22.711887     34.627705
  N      40.832000     18.750000     42.551000
25
Coordinates from ORCA-job job E -836.435123723928
  C      44.340037     22.867024     41.495647
  H      44.840164     23.236287     40.588483
  H      44.362959     23.506447     42.388420
  C      43.548932     21.772564     41.489817
  C      42.636937     21.071996     42.744219
  O      42.701415     21.701653     43.775954
  O      41.833223     20.004378     42.512454
  O      43.411561     20.978281     40.412432
  C      42.701009     21.152037     39.207207
  H      42.231252     20.156203     39.297837
  C      43.261622     21.215371     37.808536
  H      43.822694     20.355452     37.421763
  C      42.997480     22.150323     36.864766
  C      42.193401     23.315541     37.239576
  H      42.074485     24.050284     36.430199
  C      41.653007     23.439988     38.461763
  H      41.072727     24.322203     38.759736
  C      41.638347     22.287338     39.419612
  H      41.798458     22.598887     40.460583
  O      40.281477     21.723787     39.523837
  H      40.210103     21.789319     40.505841
  C      43.405477     21.893890     35.309991
  O      44.022566     20.828464     35.172607
  O      42.724667     22.582285     34.543720
  N      40.832000     18.750000     42.551000
25
Coordinates from ORCA-job job E -836.450554207562
  C      44.144254     22.912938     41.590381
  H      44.597440     23.370476     40.698362
  H      44.093330     23.521482     42.502128
  C      43.486318     21.731687     41.540676
  C      42.686661     20.858123     42.793597
  O      42.683235     21.472477     43.827000
  O      42.023761     19.686643     42.525664
  O      43.459804     20.982802     40.411696
  C      42.746810     21.221993     39.184801
  H      42.225145     20.250392     39.258784
  C      43.301848     21.249303     37.789037
  H      43.836089     20.368902     37.409426
  C      42.991474     22.139513     36.814416
  C      42.198929     23.321491     37.155422
  H      42.043903     24.008094     36.310005
  C      41.725281     23.519265     38.399540
  H      41.173774     24.423327     38.684261
  C      41.742258     22.410321     39.409029
  H      41.992890     22.763381     40.428401
  O      40.361647     21.901486     39.620314
  H      40.346901     21.994285     40.593844
  C      43.305159     21.760620     35.252049
  O      43.984986     20.725458     35.175977
  O      42.612101     22.405542     34.460189
  N      40.832000     18.750000     42.551000
25
Coordinates from ORCA-job job E -836.481532595154
  C      44.213285     22.844687     41.748697
  H      44.797419     23.279273     40.920854
  H      44.114708     23.456302     42.653900
  C      43.478673     21.710766     41.584701
  C      42.465862     20.834029     42.726426
  O      42.528255     21.343691     43.802862
  O      41.795574     19.656508     42.351588
  O      43.550093     21.002806     40.424737
  C      42.845033     21.328590     39.161489
  H      42.320778     20.359493     39.194570
  C      43.406141     21.362966     37.778978
  H      43.982933     20.508063     37.403819
  C      42.955749     22.158438     36.776967
  C      42.058542     23.276378     37.068434
  H      41.780006     23.864115     36.181196
  C      41.655364     23.539385     38.330546
  H      41.046996     24.411876     38.595331
  C      41.830884     22.505632     39.400673
  H      42.166162     22.936572     40.369564
  O      40.488371     21.955818     39.790664
  H      40.565031     22.081172     40.747340
  C      43.194327     21.638748     35.226310
  O      44.087547     20.775634     35.185828
  O      42.436266     22.169059     34.409526
  N      40.832000     18.750000     42.551000
25
Coordinates from ORCA-job job E -836.506312976724
  C      44.213436     22.751845     41.796589
  H      44.854283     23.154908     40.988146
  H      44.111250     23.408226     42.667935
  C      43.468629     21.617076     41.578804
  C      42.344876     20.791823     42.723166
  O      42.351582     21.441547     43.730051
  O      41.418799     19.734911     42.386780
  O      43.658972     20.963876     40.402850
  C      42.923673     21.400040     39.115186
  H      42.389772     20.444123     39.105636
  C      43.526456     21.452251     37.758751
  H      44.152393     20.637138     37.378167
  C      42.953701     22.182452     36.770458
  C      41.958874     23.219519     37.041048
  H      41.580850     23.733091     36.147760
  C      41.602652     23.521182     38.313002
  H      40.946607     24.357098     38.577462
  C      41.922626     22.553488     39.402001
  H      42.331292     23.059795     40.303306
  O      40.663918     21.954981     39.960020
  H      40.795902     22.079476     40.898633
  C      43.151330     21.620038     35.232947
  O      44.152362     20.888649     35.115256
  O      42.289767     22.032464     34.441043
  N      40.832000     18.750000     42.551000
25
Coordinates from ORCA-job job E -836.510936197450
  C      44.098174     22.717952     42.039263
  H      44.694771     23.275749     41.287835
  H      43.990359     23.258477     42.988686
  C      43.440151     21.573564     41.633321
  C      42.344565     20.462199     42.641150
  O      42.407569     20.894071     43.758090
  O      41.450582     19.350888     42.246559
  O      43.667078     21.128054     40.400567
  C      42.968703     21.594955     39.092390
  H      42.429525     20.647522     39.106040
  C      43.596462     21.587361     37.743638
  H      44.250840     20.774278     37.410308
  C      42.942323     22.172549     36.710378
  C      41.895442     23.170758     36.902772
  H      41.445616     23.553673     35.978849
  C      41.589116     23.602278     38.145622
  H      40.912837     24.437212     38.358067
  C      42.004013     22.781040     39.311403
  H      42.468910     23.403210     40.092678
  O      40.843088     22.294276     40.102269
  H      41.122101     22.554752     40.999823
  C      43.074686     21.442570     35.234098
  O      44.056142     20.693709     35.118674
  O      42.070946     21.628906     34.532520
  N      40.832000     18.750000     42.551000
25
Coordinates from ORCA-job job E -836.495852957705
  C      43.965391     22.711027     42.094092
  H      44.490895     23.389307     41.407163
  H      43.801480     23.119567     43.098769
  C      43.467530     21.564521     41.573244
  C      42.587856     20.334357     42.499989
  O      42.563834     20.588994     43.677339
  O      41.914611     19.212547     41.932047
  O      43.672487     21.174648     40.331971
  C      42.857556     21.672935     39.115226
  H      42.254528     20.756306     39.153402
  C      43.556299     21.547125     37.813865
  H      44.189487     20.689394     37.564602
  C      42.949799     22.114074     36.744990
  C      41.953493     23.159805     36.870598
  H      41.550300     23.539501     35.927820
  C      41.638075     23.659007     38.078869
  H      41.011724     24.545957     38.214796
  C      41.991376     22.906515     39.315743
  H      42.504536     23.570105     40.023741
  O      40.813829     22.548548     40.078804
  H      41.024612     22.820570     40.999440
  C      43.070986     21.380676     35.328916
  O      43.921200     20.486495     35.291301
  O      42.012117     21.508019     34.698273
  N      40.832000     18.750000     42.551000
25
Coordinates from ORCA-job job E -836.549342384603
  C      44.032021     22.650461     41.892140
  H      44.591753     23.197352     41.126446
  H      43.924334     23.156158     42.854598
  C      43.434602     21.508998     41.522328
  C      42.566023     20.583983     42.697531
  O      42.655010     21.023861     43.809582
  O      41.758062     19.508420     42.351023
  O      43.599712     20.991150     40.293836
  C      42.769276     21.522349     39.095406
  H      42.115566     20.633155     39.094921
  C      43.497161     21.458466     37.801406
  H      44.146603     20.623377     37.522575
  C      42.957965     22.129798     36.752682
  C      41.961082     23.171180     36.929429
  H      41.602045     23.640187     36.008737
  C      41.603224     23.574346     38.165683
  H      40.982998     24.458522     38.341423
  C      41.937985     22.755312     39.376800
  H      42.476699     23.383162     40.120004
  O      40.724656     22.355577     40.061961
  H      40.867304     22.539168     41.002022
  C      43.187903     21.554858     35.293450
  O      44.132551     20.757939     35.188158
  O      42.239464     21.822224     34.532858
  N      40.832000     18.750000     42.551000
25
Coordinates from ORCA-job job E -836.560381889995
  C      44.011618     22.664933     41.887840
  H      44.666062     23.161956     41.150780
  H      43.850742     23.219200     42.814369
  C      43.397987     21.513179     41.508706
  C      42.352730     20.650880     42.612586
  O      42.402419     21.127233     43.714551
  O      41.490118     19.596609     42.255368
  O      43.678258     20.993748     40.305588
  C      42.884637     21.507498     39.088481
  H      42.247776     20.612476     39.099759
  C      43.566583     21.491210     37.763150
  H      44.244531     20.692580     37.449031
  C      42.945164     22.130155     36.735628
  C      41.895758     23.119055     36.966207
  H      41.458148     23.558912     36.064285
  C      41.587966     23.515781     38.219568
  H      40.931171     24.366205     38.431740
  C      42.038761     22.725002     39.410376
  H      42.608541     23.374566     40.114857
  O      40.911808     22.292521     40.220872
  H      41.169097     22.502063     41.130423
  C      43.140034     21.563535     35.258334
  O      44.140102     20.841999     35.094927
  O      42.143988     21.778705     34.537578
  N      40.832000     18.750000     42.551000
25
Coordinates from ORCA-job job E -836.575012714136
  C      43.964772     22.635841     41.960460
  H      44.590399     23.171647     41.221871
  H      43.860999     23.135831     42.925215
  C      43.351298     21.484969     41.546515
  C      42.399613     20.534108     42.652610
  O      42.505929     20.951926     43.781270
  O      41.547349     19.460124     42.319869
  O      43.594034     21.021981     40.322374
  C      42.825438     21.524372     39.093172
  H      42.151506     20.659409     39.124448
  C      43.518692     21.462305     37.768518
  H      44.226678     20.676747     37.490747
  C      42.912989     22.073919     36.713099
  C      41.842499     23.051671     36.907808
  H      41.398862     23.454062     35.992093
  C      41.532848     23.494308     38.139814
  H      40.866579     24.345995     38.319653
  C      42.035910     22.796707     39.365366
  H      42.668476     23.490840     39.961032
  O      40.985249     22.496204     40.303050
  H      41.354476     22.792360     41.158135
  C      43.167400     21.533436     35.244071
  O      44.245366     20.948067     35.043959
  O      42.216640     21.803171     34.479853
  N      40.832000     18.750000     42.551000
25
Coordinates from ORCA-job job E -836.587954034393
  C      43.901659     22.573798     41.990624
  H      44.513625     23.148756     41.276928
  H      43.779752     23.022976     42.977330
  C      43.335130     21.423513     41.541749
  C      42.446908     20.461759     42.642077
  O      42.603409     20.823838     43.775483
  O      41.619891     19.401941     42.278837
  O      43.598422     21.019059     40.285733
  C      42.795833     21.573580     39.090281
  H      42.067403     20.747929     39.108524
  C      43.509517     21.489808     37.785165
  H      44.242589     20.715328     37.542003
  C      42.898475     22.066504     36.714201
  C      41.800503     23.017347     36.887568
  H      41.335819     23.374338     35.964158
  C      41.496979     23.502310     38.109077
  H      40.815539     24.346095     38.263548
  C      42.063706     22.882145     39.352018
  H      42.764607     23.602764     39.842092
  O      41.041719     22.671541     40.348482
  H      41.428393     22.990094     41.169904
  C      43.191921     21.519573     35.269621
  O      44.288996     20.954433     35.124618
  O      42.223207     21.670572     34.494977
  N      40.832000     18.750000     42.551000
25
Coordinates from ORCA-job job E -836.601849331989
  C      43.834084     22.527033     42.005804
  H      44.426380     23.126814     41.299006
  H      43.737695     22.933873     43.013079
  C      43.288655     21.374820     41.537509
  C      42.439903     20.425168     42.610343
  O      42.614412     20.742709     43.761288
  O      41.637258     19.373433     42.243293
  O      43.543889     21.014144     40.268431
  C      42.745847     21.573729     39.104534
  H      41.946540     20.814184     39.127659
  C      43.474819     21.465135     37.804680
  H      44.264018     20.736308     37.602449
  C      42.876884     22.023779     36.719872
  C      41.734979     22.924663     36.890852
  H      41.225228     23.222779     35.971756
  C      41.435281     23.435039     38.100237
  H      40.707517     24.241007     38.242212
  C      42.115357     22.937324     39.344595
  H      42.896257     23.674595     39.654162
  O      41.203631     22.880043     40.445384
  H      41.700454     23.237006     41.196065
  C      43.245618     21.565463     35.279678
  O      44.389042     21.104151     35.125194
  O      42.280253     21.646803     34.486917
  N      40.832000     18.750000     42.551000
25
Coordinates from ORCA-job job E -836.612277917350
  C      43.877394     22.419681     42.077542
  H      44.484438     23.030304     41.390344
  H      43.851439     22.750094     43.115255
  C      43.257353     21.322659     41.556784
  C      42.419198     20.365883     42.585978
  O      42.643834     20.611756     43.752057
  O      41.546031     19.386451     42.204380
  O      43.506727     21.045583     40.259766
  C      42.707115     21.626723     39.129171
  H      41.851447     20.929013     39.137692
  C      43.464388     21.501323     37.838724
  H      44.324440     20.843385     37.691614
  C      42.859077     21.998244     36.729560
  C      41.649811     22.813648     36.880645
  H      41.090167     23.010842     35.963537
  C      41.341452     23.368623     38.067592
  H      40.544487     24.108931     38.191458
  C      42.136727     23.033028     39.303777
  H      42.953945     23.786840     39.424450
  O      41.294503     23.121341     40.453878
  H      41.843774     23.518129     41.139640
  C      43.295223     21.591443     35.298643
  O      44.486501     21.261486     35.150315
  O      42.334528     21.554591     34.492199
  N      40.832000     18.750000     42.551000
25
Coordinates from ORCA-job job E -836.616561432227
  C      43.918173     22.371241     42.076755
  H      44.478773     22.999758     41.368601
  H      43.964574     22.656088     43.127133
  C      43.237949     21.303824     41.577582
  C      42.408024     20.383889     42.562177
  O      42.620836     20.564905     43.749395
  O      41.548998     19.443279     42.148264
  O      43.406515     21.048518     40.262772
  C      42.643578     21.602793     39.178666
  H      41.717193     20.995031     39.157510
  C      43.412425     21.470367     37.877404
  H      44.323152     20.872342     37.791312
  C      42.850310     21.950338     36.746872
  C      41.612713     22.723567     36.893704
  H      41.018090     22.847270     35.985156
  C      41.300264     23.293148     38.068158
  H      40.450875     23.972329     38.193527
  C      42.165448     23.065837     39.295623
  H      43.023322     23.777768     39.279654
  O      41.354782     23.302180     40.445197
  H      41.971513     23.646476     41.106321
  C      43.346177     21.619950     35.313422
  O      44.571471     21.460639     35.162571
  O      42.418844     21.628464     34.467225
  N      40.832000     18.750000     42.551000
25
Coordinates from ORCA-job job E -836.620820941775
  C      43.862460     22.375808     42.087150
  H      44.438575     22.993911     41.380713
  H      43.887210     22.675347     43.134102
  C      43.196786     21.299187     41.586265
  C      42.381175     20.355074     42.576730
  O      42.624663     20.525166     43.756785
  O      41.502971     19.420691     42.152883
  O      43.410076     21.036838     40.269631
  C      42.650418     21.607373     39.172704
  H      41.710081     21.025216     39.132535
  C      43.418005     21.473203     37.874184
  H      44.361855     20.926469     37.800348
  C      42.836886     21.951483     36.746826
  C      41.575733     22.690625     36.900454
  H      40.959829     22.784268     36.002669
  C      41.272471     23.263913     38.080453
  H      40.403926     23.911714     38.233801
  C      42.197745     23.072140     39.269315
  H      43.074637     23.754556     39.161591
  O      41.488879     23.379741     40.471892
  H      42.152294     23.689653     41.097730
  C      43.351585     21.662391     35.308697
  O      44.580625     21.514322     35.173551
  O      42.425114     21.610911     34.463990
  N      40.832000     18.750000     42.551000
25
Coordinates from ORCA-job job E -836.621474641383
  C      43.897300     22.351638     42.110245
  H      44.470216     22.972949     41.404136
  H      43.954844     22.629628     43.162800
  C      43.207394     21.296713     41.597424
  C      42.402794     20.335940     42.577841
  O      42.665305     20.480845     43.759678
  O      41.488153     19.427264     42.165224
  O      43.384364     21.058725     40.273063
  C      42.608453     21.611952     39.185168
  H      41.660330     21.045757     39.148422
  C      43.380127     21.453148     37.886751
  H      44.350237     20.950761     37.849462
  C      42.823209     21.938802     36.753325
  C      41.562278     22.679790     36.882384
  H      40.950079     22.758597     35.981638
  C      41.245741     23.256703     38.055732
  H      40.359900     23.880675     38.207728
  C      42.174699     23.088750     39.245015
  H      43.061770     23.743711     39.090137
  O      41.488920     23.467887     40.429979
  H      42.164685     23.717590     41.074429
  C      43.380956     21.698987     35.324405
  O      44.607829     21.525451     35.210842
  O      42.474415     21.627737     34.459170
  N      40.832000     18.750000     42.551000
25
Coordinates from ORCA-job job E -836.622116396715
  C      43.884284     22.341160     42.129727
  H      44.485465     22.950972     41.439714
  H      43.915893     22.613806     43.184658
  C      43.185011     21.304082     41.604741
  C      42.381609     20.333039     42.581935
  O      42.637480     20.467934     43.761381
  O      41.478617     19.426888     42.136953
  O      43.389175     21.053189     40.281312
  C      42.625317     21.622958     39.188405
  H      41.671430     21.064261     39.140314
  C      43.385932     21.462433     37.883987
  H      44.376225     21.000054     37.853315
  C      42.809396     21.928317     36.752258
  C      41.537334     22.647537     36.890271
  H      40.904894     22.693850     36.000592
  C      41.240384     23.247593     38.060040
  H      40.342469     23.848830     38.230089
  C      42.200281     23.104838     39.228636
  H      43.099239     23.734986     39.023151
  O      41.544378     23.534792     40.414481
  H      42.230746     23.723748     41.064582
  C      43.369176     21.689777     35.317832
  O      44.604588     21.590077     35.212892
  O      42.464676     21.614877     34.453732
  N      40.832000     18.750000     42.551000
25
Coordinates from ORCA-job job E -836.622412374339
  C      43.866344     22.365748     42.109514
  H      44.449115     22.983389     41.409731
  H      43.889575     22.655539     43.159745
  C      43.191125     21.304791     41.599111
  C      42.394231     20.335103     42.585814
  O      42.658119     20.472451     43.763378
  O      41.491155     19.423660     42.151274
  O      43.381800     21.041962     40.279699
  C      42.621531     21.609102     39.187429
  H      41.672285     21.042346     39.144513
  C      43.380557     21.452907     37.880434
  H      44.365486     20.978711     37.848312
  C      42.810784     21.928785     36.750935
  C      41.549045     22.664166     36.890794
  H      40.922861     22.731032     35.998023
  C      41.257125     23.260802     38.062723
  H      40.367957     23.875340     38.231437
  C      42.201685     23.093553     39.240672
  H      43.107118     23.720758     39.055391
  O      41.536892     23.513037     40.421913
  H      42.218801     23.660496     41.087680
  C      43.367580     21.688014     35.315506
  O      44.600824     21.565503     35.210115
  O      42.462005     21.632804     34.450858
  N      40.832000     18.750000     42.551000
25
Coordinates from ORCA-job job E -836.622536699347
  C      43.861775     22.369489     42.104432
  H      44.442927     22.988812     41.404184
  H      43.884449     22.659808     43.154334
  C      43.192358     21.303898     41.595033
  C      42.399408     20.335118     42.585101
  O      42.660910     20.477963     43.762929
  O      41.496924     19.422394     42.153431
  O      43.378299     21.038249     40.278256
  C      42.618192     21.611517     39.187639
  H      41.670823     21.042117     39.147607
  C      43.380433     21.454461     37.881546
  H      44.364198     20.977435     37.853687
  C      42.811862     21.930626     36.751987
  C      41.549804     22.665280     36.891952
  H      40.923412     22.734511     35.999664
  C      41.261594     23.265116     38.062250
  H      40.374603     23.882798     38.230879
  C      42.204525     23.097556     39.241130
  H      43.113793     23.719861     39.053949
  O      41.536933     23.522300     40.415110
  H      42.209186     23.620552     41.100325
  C      43.367206     21.689546     35.316892
  O      44.599814     21.561819     35.209377
  O      42.460573     21.628775     34.453308
  N      40.832000     18.750000     42.551000
25
Coordinates from ORCA-job job E -836.622594231950
  C      43.858918     22.370591     42.100995
  H      44.440729     22.989072     41.400529
  H      43.879586     22.662771     43.150499
  C      43.192134     21.301477     41.593952
  C      42.399446     20.334927     42.587963
  O      42.659136     20.482142     43.765471
  O      41.499224     19.420277     42.156479
  O      43.374895     21.031697     40.279146
  C      42.618460     21.615307     39.187938
  H      41.671406     21.046378     39.146892
  C      43.382273     21.458674     37.881864
  H      44.364941     20.979461     37.856587
  C      42.812982     21.932970     36.751669
  C      41.549930     22.666201     36.892490
  H      40.920532     22.732385     36.002147
  C      41.263928     23.266559     38.062621
  H      40.376836     23.883547     38.233454
  C      42.209582     23.103260     39.240260
  H      43.121322     23.721344     39.047119
  O      41.540911     23.537104     40.409283
  H      42.202813     23.587000     41.110244
  C      43.366394     21.689083     35.315935
  O      44.599476     21.567284     35.206635
  O      42.458146     21.620489     34.454829
  N      40.832000     18.750000     42.551000
25
Coordinates from ORCA-job job E -836.622609313766
  C      43.859432     22.369694     42.098578
  H      44.441928     22.986809     41.397614
  H      43.880720     22.662722     43.147941
  C      43.191416     21.299951     41.593370
  C      42.397508     20.335696     42.588257
  O      42.655542     20.484942     43.765926
  O      41.498916     19.420281     42.156095
  O      43.373018     21.027664     40.279094
  C      42.619205     21.617653     39.188093
  H      41.671088     21.050979     39.145106
  C      43.383887     21.461480     37.882480
  H      44.365457     20.980277     37.857073
  C      42.814415     21.934408     36.751557
  C      41.550620     22.666438     36.892918
  H      40.919229     22.729421     36.003711
  C      41.263913     23.265441     38.063511
  H      40.375588     23.880470     38.235170
  C      42.211241     23.105547     39.240871
  H      43.121661     23.724547     39.046572
  O      41.542104     23.540207     40.410157
  H      42.202421     23.580468     41.113335
  C      43.366922     21.688806     35.315955
  O      44.600288     21.571692     35.204991
  O      42.457482     21.614408     34.456624
  N      40.832000     18.750000     42.551000
25
Coordinates from ORCA-job job E -836.622619500869
  C      43.860633     22.368696     42.094924
  H      44.443905     22.983561     41.392795
  H      43.882396     22.663976     43.143756
  C      43.190765     21.298410     41.592863
  C      42.395998     20.336559     42.589033
  O      42.652674     20.488213     43.766662
  O      41.498903     19.420055     42.156844
  O      43.369970     21.022168     40.278996
  C      42.619851     21.619241     39.188182
  H      41.670021     21.055730     39.142394
  C      43.385032     21.463756     37.883054
  H      44.365962     20.981289     37.857193
  C      42.816278     21.935968     36.751322
  C      41.552341     22.667478     36.893034
  H      40.919695     22.728259     36.004517
  C      41.264417     23.264757     38.064287
  H      40.374567     23.877488     38.236460
  C      42.211839     23.106795     39.242587
  H      43.120299     23.728363     39.049858
  O      41.541017     23.540206     40.412420
  H      42.201329     23.577122     41.115880
  C      43.367810     21.688102     35.315987
  O      44.601384     21.575378     35.203168
  O      42.456913     21.608430     34.458782
  N      40.832000     18.750000     42.551000
25
Coordinates from ORCA-job job E -836.622623951567
  C      43.861051     22.368215     42.091476
  H      44.443793     22.981833     41.387855
  H      43.883103     22.665874     43.139668
  C      43.190424     21.297158     41.592335
  C      42.396126     20.336747     42.589504
  O      42.652852     20.489202     43.767047
  O      41.499290     19.419996     42.157577
  O      43.366367     21.017718     40.278656
  C      42.619237     21.619426     39.188416
  H      41.667813     21.058653     39.140736
  C      43.384886     21.464108     37.883807
  H      44.366191     20.982318     37.858377
  C      42.817278     21.936416     36.751582
  C      41.553365     22.667763     36.893416
  H      40.920431     22.728328     36.005070
  C      41.265185     23.264624     38.064879
  H      40.374620     23.876311     38.237193
  C      42.212077     23.107030     39.244095
  H      43.119738     23.729935     39.052834
  O      41.540134     23.539644     40.413807
  H      42.200939     23.577360     41.116831
  C      43.368967     21.688110     35.316600
  O      44.602641     21.578014     35.202982
  O      42.457494     21.605217     34.460257
  N      40.832000     18.750000     42.551000
25
Coordinates from ORCA-job job E -836.622627164259
  C      43.861416     22.367925     42.087992
  H      44.443480     22.980349     41.382798
  H      43.883786     22.668074     43.135478
  C      43.190377     21.296078     41.591761
  C      42.397475     20.336529     42.590374
  O      42.654283     20.490006     43.767728
  O      41.500534     19.419473     42.158927
  O      43.362400     21.013161     40.278401
  C      42.618263     21.619119     39.188473
  H      41.665633     21.060438     39.139196
  C      43.384411     21.463902     37.884447
  H      44.366459     20.983469     37.859827
  C      42.817943     21.936625     36.751908
  C      41.554422     22.668505     36.893549
  H      40.921671     22.730023     36.005140
  C      41.266434     23.265508     38.065040
  H      40.375759     23.877121     38.237120
  C      42.211733     23.106855     39.245677
  H      43.119216     23.730804     39.056826
  O      41.537791     23.538013     40.414677
  H      42.198564     23.578335     41.117692
  C      43.370011     21.687836     35.317267
  O      44.603716     21.579340     35.203290
  O      42.458224     21.602509     34.461411
  N      40.832000     18.750000     42.551000
25
Coordinates from ORCA-job job E -836.622628222145
  C      43.860982     22.367924     42.086382
  H      44.442155     22.980153     41.380247
  H      43.883835     22.669085     43.133569
  C      43.190038     21.295484     41.591589
  C      42.398479     20.336169     42.590950
  O      42.656022     20.489301     43.768151
  O      41.501078     19.419356     42.159605
  O      43.359686     21.010987     40.278445
  C      42.617309     21.618560     39.188556
  H      41.664128     21.060878     39.138506
  C      43.384049     21.463363     37.884898
  H      44.366685     20.984056     37.861189
  C      42.818055     21.936480     36.752319
  C      41.554431     22.668239     36.893831
  H      40.921703     22.730282     36.005453
  C      41.266894     23.265681     38.065197
  H      40.376429     23.877616     38.237226
  C      42.211900     23.106671     39.246067
  H      43.119888     23.730069     39.057302
  O      41.537669     23.538023     40.414553
  H      42.198440     23.580363     41.117462
  C      43.370664     21.688345     35.317750
  O      44.604433     21.580577     35.204001
  O      42.459047     21.602339     34.461754
  N      40.832000     18.750000     42.551000
25
Coordinates from ORCA-job job E -836.622628793702
  C      43.861007     22.367956     42.085905
  H      44.441895     22.980082     41.379446
  H      43.884253     22.669371     43.133011
  C      43.190076     21.295289     41.591616
  C      42.399204     20.335992     42.591523
  O      42.656839     20.489180     43.768636
  O      41.501548     19.419244     42.160089
  O      43.358479     21.010038     40.278684
  C      42.616908     21.618286     39.188449
  H      41.663871     21.060480     39.138012
  C      43.384036     21.463249     37.884960
  H      44.366746     20.984092     37.861633
  C      42.818023     21.936526     36.752456
  C      41.554505     22.668521     36.893722
  H      40.921824     22.730873     36.005348
  C      41.267101     23.266107     38.065033
  H      40.376923     23.878498     38.236912
  C      42.211669     23.106533     39.246136
  H      43.120077     23.729490     39.057711
  O      41.536906     23.537601     40.414324
  H      42.197341     23.581200     41.117499
  C      43.370818     21.688428     35.317826
  O      44.604603     21.580622     35.204360
  O      42.459347     21.602344     34.461710
  N      40.832000     18.750000     42.551000
