! B3LYP D3BJ def2-SVP def2/J RIJCOSX CPCM KeepDens
%maxcore 3000
%pal nprocs 8 end
%cpcm epsilon 4.0 end
%scf MaxIter 300 end
* xyz -2 1
C     60.09235600    34.05698400    56.35459400
H     60.75786200    33.54493000    57.06277500
H     60.60767600    34.92579300    55.92139700
C     58.84472100    34.46586700    57.09584100
C     58.15893600    35.83017900    56.83923500
O     58.89351900    36.79981500    56.52890700
O     56.91720000    35.84773100    56.99285000
O     58.30761300    33.70221400    57.87530200
C     57.54869800    31.93814700    55.69973500
H     56.94039100    31.18373000    56.20354900
C     58.87843200    31.92001500    55.80004300
H     59.39930500    31.16524100    56.38948800
C     59.74448700    33.00897700    55.21984600
C     59.02855000    33.70758900    54.08798100
H     59.67081200    34.19274300    53.34636500
C     57.69538100    33.71680400    53.97181000
H     57.19503200    34.24640100    53.15488700
C     56.81046800    33.03513000    54.98142600
H     56.51340100    33.81033500    55.71495500
O     55.64047900    32.54363400    54.33839200
H     55.03250400    32.22088500    55.02019200
C     61.07710500    32.33266100    54.73936100
O     61.76525900    31.76673800    55.62547500
O     61.33680800    32.35822100    53.51747800
*
