24
Coordinates from ORCA-job neb_MEP.QMRegion E -1076.123628179114
  C      45.788000     30.879000     60.789000
  H      46.603000     30.156000     60.734000
  H      45.899000     31.757000     61.425000
  C      44.656000     30.712000     60.097000
  C      43.491000     31.687000     60.204000
  O      43.731000     32.856000     60.609000
  O      42.354000     31.264000     59.899000
  O      44.451000     29.588000     59.318000
  C      44.847000     29.615000     57.895000
  H      44.627000     28.596000     57.546000
  C      46.318000     29.906000     57.836000
  H      47.023000     29.114000     58.093000
  C      46.759000     31.169000     57.664000
  C      45.794000     32.232000     57.344000
  H      46.184000     33.249000     57.312000
  C      44.498000     31.979000     57.089000
  H      43.817000     32.796000     56.832000
  C      43.932000     30.583000     57.103000
  H      42.981000     30.599000     57.660000
  O      43.717000     30.144000     55.770000
  H      42.787000     29.762000     55.702000
  C      48.213000     31.552000     57.925000
  O      49.059000     30.675000     58.210000
  O      48.456000     32.796000     57.909000
24
Coordinates from ORCA-job neb_MEP.QMRegion E -1076.132887091955
  C      45.775250     30.864610     60.814829
  H      46.587377     30.137383     60.761722
  H      45.884025     31.737146     61.459046
  C      44.652139     30.705029     60.106426
  C      43.488110     31.680775     60.203276
  O      43.728535     32.851989     60.601081
  O      42.350418     31.255115     59.900003
  O      44.454910     29.582873     59.323482
  C      44.855891     29.616213     57.904075
  H      44.637872     28.598822     57.551972
  C      46.326725     29.908031     57.850886
  H      47.032494     29.115326     58.107501
  C      46.767719     31.170792     57.677326
  C      45.805177     32.232154     57.348451
  H      46.194575     33.249408     57.315515
  C      44.511491     31.977298     57.083140
  H      43.832725     32.791082     56.810561
  C      43.942645     30.582780     57.109701
  H      42.994491     30.608849     57.671623
  O      43.718998     30.132173     55.782588
  H      42.787639     29.752240     55.720022
  C      48.221150     31.556730     57.934566
  O      49.067066     30.682459     58.227774
  O      48.467060     32.799695     57.901534
24
Coordinates from ORCA-job neb_MEP.QMRegion E -1076.123059834256
  C      45.937499     30.886646     60.349729
  H      46.773175     30.192650     60.255257
  H      46.111895     31.844806     60.835144
  C      44.709210     30.625068     59.867607
  C      43.551929     31.607099     60.095561
  O      43.816100     32.767216     60.519622
  O      42.391104     31.200051     59.865215
  O      44.446200     29.496537     59.124649
  C      44.851480     29.522892     57.575063
  H      44.643762     28.497325     57.231737
  C      46.284795     29.864100     57.568184
  H      47.032348     29.081871     57.703127
  C      46.645286     31.164208     57.677651
  C      45.647089     32.214985     57.435034
  H      45.976952     33.244873     57.571698
  C      44.398608     31.931150     57.021692
  H      43.704135     32.731165     56.751741
  C      43.883385     30.524316     56.898445
  H      42.977323     30.441763     57.518047
  O      43.574273     30.236322     55.544996
  H      42.652453     29.815295     55.514360
  C      48.079483     31.565448     58.002085
  O      48.928538     30.689293     58.284842
  O      48.313968     32.811299     58.003950
24
Coordinates from ORCA-job neb_MEP.QMRegion E -1076.109445908098
  C      45.968235     30.916902     60.303648
  H      46.780346     30.192425     60.260774
  H      46.150168     31.882202     60.766812
  C      44.697951     30.601897     59.914773
  C      43.551106     31.613044     60.111808
  O      43.822265     32.778801     60.514144
  O      42.390375     31.213179     59.869604
  O      44.420357     29.481378     59.280946
  C      44.905861     29.509710     57.410382
  H      44.660106     28.468675     57.179408
  C      46.275598     29.851667     57.549873
  H      47.027701     29.078993     57.708811
  C      46.616939     31.166901     57.754217
  C      45.637281     32.217304     57.462081
  H      45.968132     33.247120     57.597857
  C      44.403579     31.928987     57.012140
  H      43.710743     32.726666     56.731614
  C      43.898083     30.521335     56.869045
  H      43.013587     30.415095     57.517376
  O      43.548779     30.265011     55.516258
  H      42.634578     29.824161     55.502333
  C      48.063708     31.565904     58.039378
  O      48.915686     30.684992     58.297449
  O      48.306621     32.807920     58.007137
24
Coordinates from ORCA-job neb_MEP.QMRegion E -1076.106963471686
  C      46.000897     30.940101     60.242025
  H      46.785245     30.185996     60.266614
  H      46.173915     31.898794     60.720101
  C      44.689992     30.589392     59.938492
  C      43.547613     31.616497     60.118332
  O      43.824528     32.783079     60.509712
  O      42.389018     31.215048     59.873263
  O      44.401875     29.467980     59.409398
  C      44.945019     29.498455     57.283872
  H      44.673810     28.452869     57.128246
  C      46.261212     29.836943     57.542809
  H      47.019965     29.072561     57.711116
  C      46.590538     31.167522     57.828692
  C      45.630071     32.215917     57.477230
  H      45.962737     33.246043     57.604611
  C      44.406358     31.923142     57.002846
  H      43.713834     32.719740     56.717817
  C      43.908540     30.513942     56.845218
  H      43.035555     30.396642     57.510907
  O      43.529838     30.280849     55.494223
  H      42.622184     29.826521     55.492321
  C      48.051860     31.562250     58.062294
  O      48.907010     30.679671     58.298243
  O      48.301596     32.802600     58.004520
24
Coordinates from ORCA-job neb_MEP.QMRegion E -1076.108065789366
  C      46.029447     30.962169     60.166784
  H      46.786324     30.186144     60.268206
  H      46.190589     31.907229     60.678451
  C      44.689334     30.590668     59.940437
  C      43.546411     31.620543     60.123670
  O      43.827674     32.787210     60.512881
  O      42.390647     31.217150     59.881780
  O      44.395919     29.464989     59.469684
  C      44.961474     29.498357     57.242676
  H      44.684354     28.452509     57.101271
  C      46.252684     29.833947     57.552983
  H      47.015470     29.072637     57.720104
  C      46.571460     31.170968     57.904520
  C      45.624512     32.219360     57.497208
  H      45.959625     33.250150     57.613760
  C      44.410597     31.923951     57.003294
  H      43.720362     32.719880     56.709824
  C      43.912847     30.514197     56.841743
  H      43.042435     30.393233     57.511584
  O      43.523494     30.292134     55.491410
  H      42.619099     29.832384     55.492854
  C      48.046251     31.564235     58.082447
  O      48.904442     30.680871     58.302267
  O      48.299643     32.802821     58.005163
24
Coordinates from ORCA-job neb_MEP.QMRegion E -1076.112355495754
  C      46.060917     30.982232     60.073449
  H      46.783441     30.187741     60.267032
  H      46.205869     31.909593     60.630527
  C      44.688830     30.590590     59.936269
  C      43.545515     31.622891     60.127179
  O      43.830289     32.787468     60.514405
  O      42.391151     31.215229     59.888772
  O      44.389944     29.459448     59.529468
  C      44.976831     29.496094     57.204106
  H      44.695271     28.450184     57.068371
  C      46.243797     29.828199     57.562097
  H      47.010347     29.069685     57.727563
  C      46.549963     31.171116     57.991496
  C      45.617015     32.219477     57.517828
  H      45.955221     33.250804     57.621299
  C      44.414605     31.921835     57.001821
  H      43.726558     32.716984     56.698486
  C      43.916879     30.511344     56.835684
  H      43.049319     30.387411     57.509637
  O      43.516701     30.300517     55.486428
  H      42.614595     29.836873     55.490676
  C      48.040364     31.563345     58.099792
  O      48.901440     30.679540     58.304211
  O      48.296877     32.799787     58.003630
24
Coordinates from ORCA-job neb_MEP.QMRegion E -1076.122043600861
  C      46.093958     30.999720     59.956459
  H      46.774872     30.192984     60.255158
  H      46.223664     31.909196     60.559258
  C      44.687252     30.593326     59.924318
  C      43.544311     31.625534     60.129193
  O      43.834081     32.785075     60.518541
  O      42.390773     31.212004     59.898238
  O      44.381766     29.454052     59.599669
  C      44.991728     29.495349     57.175134
  H      44.710664     28.449821     57.030453
  C      46.234634     29.823093     57.580534
  H      47.006447     29.067531     57.737352
  C      46.525750     31.171156     58.098259
  C      45.609034     32.219215     57.544158
  H      45.949917     33.251038     57.636320
  C      44.421060     31.920794     56.999901
  H      43.737535     32.716456     56.681944
  C      43.921225     30.509210     56.832701
  H      43.056637     30.376054     57.510391
  O      43.510614     30.312675     55.484244
  H      42.613665     29.841656     55.488678
  C      48.032309     31.562647     58.119431
  O      48.896047     30.678020     58.306955
  O      48.291532     32.796160     58.000999
24
Coordinates from ORCA-job neb_MEP.QMRegion E -1076.147313945658
  C      46.130762     31.059167     59.775887
  H      46.814230     30.334689     60.245192
  H      46.224711     32.033076     60.263135
  C      44.714139     30.586865     59.959118
  C      43.549960     31.610000     60.156532
  O      43.835315     32.789377     60.486618
  O      42.398955     31.167408     59.983280
  O      44.447891     29.405631     59.905315
  C      45.059584     29.515208     57.011531
  H      44.845061     28.498483     56.682755
  C      46.223639     29.816385     57.597244
  H      46.995494     29.061890     57.755049
  C      46.485585     31.160645     58.221460
  C      45.592223     32.214768     57.606961
  H      45.918825     33.248856     57.727884
  C      44.449176     31.919129     56.979085
  H      43.809244     32.713095     56.583150
  C      43.957062     30.512592     56.757786
  H      43.126712     30.323545     57.469529
  O      43.470213     30.384292     55.428684
  H      42.589453     29.888335     55.460363
  C      48.006080     31.555041     58.146366
  O      48.875206     30.670418     58.303383
  O      48.262156     32.787385     58.011816
24
Coordinates from ORCA-job neb_MEP.QMRegion E -1076.149696585311
  C      46.128000     31.084000     59.693000
  H      46.832000     30.395000     60.183000
  H      46.217000     32.079000     60.129000
  C      44.725000     30.593000     59.942000
  C      43.553000     31.597000     60.204000
  O      43.837000     32.795000     60.460000
  O      42.404000     31.122000     60.149000
  O      44.480000     29.405000     59.928000
  C      45.105000     29.518000     56.899000
  H      44.913000     28.511000     56.528000
  C      46.246000     29.815000     57.530000
  H      47.021000     29.065000     57.699000
  C      46.490000     31.162000     58.152000
  C      45.603000     32.216000     57.529000
  H      45.918000     33.251000     57.667000
  C      44.469000     31.917000     56.887000
  H      43.828000     32.707000     56.486000
  C      43.986000     30.505000     56.675000
  H      43.189000     30.305000     57.425000
  O      43.447000     30.375000     55.371000
  H      42.565000     29.881000     55.432000
  C      48.010000     31.566000     58.118000
  O      48.880000     30.689000     58.306000
  O      48.259000     32.801000     57.998000
