24
Coordinates from ORCA-job neb_initial_path.QMRegion E   0.000000000000
  C      45.788000     30.879000     60.789000
  H      46.603000     30.156000     60.734000
  H      45.899000     31.757000     61.425000
  C      44.656000     30.712000     60.097000
  C      43.491000     31.687000     60.204000
  O      43.731000     32.856000     60.609000
  O      42.354000     31.264000     59.899000
  O      44.451000     29.588000     59.318000
  C      44.847000     29.615000     57.895000
  H      44.627000     28.596000     57.546000
  C      46.318000     29.906000     57.836000
  H      47.023000     29.114000     58.093000
  C      46.759000     31.169000     57.664000
  C      45.794000     32.232000     57.344000
  H      46.184000     33.249000     57.312000
  C      44.498000     31.979000     57.089000
  H      43.817000     32.796000     56.832000
  C      43.932000     30.583000     57.103000
  H      42.981000     30.599000     57.660000
  O      43.717000     30.144000     55.770000
  H      42.787000     29.762000     55.702000
  C      48.213000     31.552000     57.925000
  O      49.059000     30.675000     58.210000
  O      48.456000     32.796000     57.909000
24
Coordinates from ORCA-job neb_initial_path.QMRegion E   0.000000000000
  C      45.825778     30.901778     60.667222
  H      46.628444     30.182556     60.672778
  H      45.934333     31.792778     61.281000
  C      44.663667     30.698778     60.079778
  C      43.497889     31.677000     60.204000
  O      43.742778     32.849222     60.592444
  O      42.359556     31.248222     59.926778
  O      44.454222     29.567667     59.385778
  C      44.875667     29.604222     57.784333
  H      44.658778     28.586556     57.432889
  C      46.310000     29.895889     57.802000
  H      47.022778     29.108556     58.049222
  C      46.729111     31.168222     57.718222
  C      45.772778     32.230222     57.364556
  H      46.154444     33.249222     57.351444
  C      44.494778     31.972111     57.066556
  H      43.818222     32.786111     56.793556
  C      43.938000     30.574333     57.055444
  H      43.004111     30.566333     57.633889
  O      43.687000     30.169667     55.725667
  H      42.762333     29.775222     55.672000
  C      48.190444     31.553556     57.946444
  O      49.039111     30.676556     58.220667
  O      48.434111     32.796556     57.918889
24
Coordinates from ORCA-job neb_initial_path.QMRegion E   0.000000000000
  C      45.863556     30.924556     60.545444
  H      46.653889     30.209111     60.611556
  H      45.969667     31.828556     61.137000
  C      44.671333     30.685556     60.062556
  C      43.504778     31.667000     60.204000
  O      43.754556     32.842444     60.575889
  O      42.365111     31.232444     59.954556
  O      44.457444     29.547333     59.453556
  C      44.904333     29.593444     57.673667
  H      44.690556     28.577111     57.319778
  C      46.302000     29.885778     57.768000
  H      47.022556     29.103111     58.005444
  C      46.699222     31.167444     57.772444
  C      45.751556     32.228444     57.385111
  H      46.124889     33.249444     57.390889
  C      44.491556     31.965222     57.044111
  H      43.819444     32.776222     56.755111
  C      43.944000     30.565667     57.007889
  H      43.027222     30.533667     57.607778
  O      43.657000     30.195333     55.681333
  H      42.737667     29.788444     55.642000
  C      48.167889     31.555111     57.967889
  O      49.019222     30.678111     58.231333
  O      48.412222     32.797111     57.928778
24
Coordinates from ORCA-job neb_initial_path.QMRegion E   0.000000000000
  C      45.901333     30.947333     60.423667
  H      46.679333     30.235667     60.550333
  H      46.005000     31.864333     60.993000
  C      44.679000     30.672333     60.045333
  C      43.511667     31.657000     60.204000
  O      43.766333     32.835667     60.559333
  O      42.370667     31.216667     59.982333
  O      44.460667     29.527000     59.521333
  C      44.933000     29.582667     57.563000
  H      44.722333     28.567667     57.206667
  C      46.294000     29.875667     57.734000
  H      47.022333     29.097667     57.961667
  C      46.669333     31.166667     57.826667
  C      45.730333     32.226667     57.405667
  H      46.095333     33.249667     57.430333
  C      44.488333     31.958333     57.021667
  H      43.820667     32.766333     56.716667
  C      43.950000     30.557000     56.960333
  H      43.050333     30.501000     57.581667
  O      43.627000     30.221000     55.637000
  H      42.713000     29.801667     55.612000
  C      48.145333     31.556667     57.989333
  O      48.999333     30.679667     58.242000
  O      48.390333     32.797667     57.938667
24
Coordinates from ORCA-job neb_initial_path.QMRegion E   0.000000000000
  C      45.939111     30.970111     60.301889
  H      46.704778     30.262222     60.489111
  H      46.040333     31.900111     60.849000
  C      44.686667     30.659111     60.028111
  C      43.518556     31.647000     60.204000
  O      43.778111     32.828889     60.542778
  O      42.376222     31.200889     60.010111
  O      44.463889     29.506667     59.589111
  C      44.961667     29.571889     57.452333
  H      44.754111     28.558222     57.093556
  C      46.286000     29.865556     57.700000
  H      47.022111     29.092222     57.917889
  C      46.639444     31.165889     57.880889
  C      45.709111     32.224889     57.426222
  H      46.065778     33.249889     57.469778
  C      44.485111     31.951444     56.999222
  H      43.821889     32.756444     56.678222
  C      43.956000     30.548333     56.912778
  H      43.073444     30.468333     57.555556
  O      43.597000     30.246667     55.592667
  H      42.688333     29.814889     55.582000
  C      48.122778     31.558222     58.010778
  O      48.979444     30.681222     58.252667
  O      48.368444     32.798222     57.948556
24
Coordinates from ORCA-job neb_initial_path.QMRegion E   0.000000000000
  C      45.976889     30.992889     60.180111
  H      46.730222     30.288778     60.427889
  H      46.075667     31.935889     60.705000
  C      44.694333     30.645889     60.010889
  C      43.525444     31.637000     60.204000
  O      43.789889     32.822111     60.526222
  O      42.381778     31.185111     60.037889
  O      44.467111     29.486333     59.656889
  C      44.990333     29.561111     57.341667
  H      44.785889     28.548778     56.980444
  C      46.278000     29.855444     57.666000
  H      47.021889     29.086778     57.874111
  C      46.609556     31.165111     57.935111
  C      45.687889     32.223111     57.446778
  H      46.036222     33.250111     57.509222
  C      44.481889     31.944556     56.976778
  H      43.823111     32.746556     56.639778
  C      43.962000     30.539667     56.865222
  H      43.096556     30.435667     57.529444
  O      43.567000     30.272333     55.548333
  H      42.663667     29.828111     55.552000
  C      48.100222     31.559778     58.032222
  O      48.959556     30.682778     58.263333
  O      48.346556     32.798778     57.958444
24
Coordinates from ORCA-job neb_initial_path.QMRegion E   0.000000000000
  C      46.014667     31.015667     60.058333
  H      46.755667     30.315333     60.366667
  H      46.111000     31.971667     60.561000
  C      44.702000     30.632667     59.993667
  C      43.532333     31.627000     60.204000
  O      43.801667     32.815333     60.509667
  O      42.387333     31.169333     60.065667
  O      44.470333     29.466000     59.724667
  C      45.019000     29.550333     57.231000
  H      44.817667     28.539333     56.867333
  C      46.270000     29.845333     57.632000
  H      47.021667     29.081333     57.830333
  C      46.579667     31.164333     57.989333
  C      45.666667     32.221333     57.467333
  H      46.006667     33.250333     57.548667
  C      44.478667     31.937667     56.954333
  H      43.824333     32.736667     56.601333
  C      43.968000     30.531000     56.817667
  H      43.119667     30.403000     57.503333
  O      43.537000     30.298000     55.504000
  H      42.639000     29.841333     55.522000
  C      48.077667     31.561333     58.053667
  O      48.939667     30.684333     58.274000
  O      48.324667     32.799333     57.968333
24
Coordinates from ORCA-job neb_initial_path.QMRegion E   0.000000000000
  C      46.052444     31.038444     59.936556
  H      46.781111     30.341889     60.305444
  H      46.146333     32.007444     60.417000
  C      44.709667     30.619444     59.976444
  C      43.539222     31.617000     60.204000
  O      43.813444     32.808556     60.493111
  O      42.392889     31.153556     60.093444
  O      44.473556     29.445667     59.792444
  C      45.047667     29.539556     57.120333
  H      44.849444     28.529889     56.754222
  C      46.262000     29.835222     57.598000
  H      47.021444     29.075889     57.786556
  C      46.549778     31.163556     58.043556
  C      45.645444     32.219556     57.487889
  H      45.977111     33.250556     57.588111
  C      44.475444     31.930778     56.931889
  H      43.825556     32.726778     56.562889
  C      43.974000     30.522333     56.770111
  H      43.142778     30.370333     57.477222
  O      43.507000     30.323667     55.459667
  H      42.614333     29.854556     55.492000
  C      48.055111     31.562889     58.075111
  O      48.919778     30.685889     58.284667
  O      48.302778     32.799889     57.978222
24
Coordinates from ORCA-job neb_initial_path.QMRegion E   0.000000000000
  C      46.090222     31.061222     59.814778
  H      46.806556     30.368444     60.244222
  H      46.181667     32.043222     60.273000
  C      44.717333     30.606222     59.959222
  C      43.546111     31.607000     60.204000
  O      43.825222     32.801778     60.476556
  O      42.398444     31.137778     60.121222
  O      44.476778     29.425333     59.860222
  C      45.076333     29.528778     57.009667
  H      44.881222     28.520444     56.641111
  C      46.254000     29.825111     57.564000
  H      47.021222     29.070444     57.742778
  C      46.519889     31.162778     58.097778
  C      45.624222     32.217778     57.508444
  H      45.947556     33.250778     57.627556
  C      44.472222     31.923889     56.909444
  H      43.826778     32.716889     56.524444
  C      43.980000     30.513667     56.722556
  H      43.165889     30.337667     57.451111
  O      43.477000     30.349333     55.415333
  H      42.589667     29.867778     55.462000
  C      48.032556     31.564444     58.096556
  O      48.899889     30.687444     58.295333
  O      48.280889     32.800444     57.988111
24
Coordinates from ORCA-job neb_initial_path.QMRegion E   0.000000000000
  C      46.128000     31.084000     59.693000
  H      46.832000     30.395000     60.183000
  H      46.217000     32.079000     60.129000
  C      44.725000     30.593000     59.942000
  C      43.553000     31.597000     60.204000
  O      43.837000     32.795000     60.460000
  O      42.404000     31.122000     60.149000
  O      44.480000     29.405000     59.928000
  C      45.105000     29.518000     56.899000
  H      44.913000     28.511000     56.528000
  C      46.246000     29.815000     57.530000
  H      47.021000     29.065000     57.699000
  C      46.490000     31.162000     58.152000
  C      45.603000     32.216000     57.529000
  H      45.918000     33.251000     57.667000
  C      44.469000     31.917000     56.887000
  H      43.828000     32.707000     56.486000
  C      43.986000     30.505000     56.675000
  H      43.189000     30.305000     57.425000
  O      43.447000     30.375000     55.371000
  H      42.565000     29.881000     55.432000
  C      48.010000     31.566000     58.118000
  O      48.880000     30.689000     58.306000
  O      48.259000     32.801000     57.998000
