24
Coordinates from ORCA-job neb_NEB-CI_converged.QMRegion
  C          46.00089719055838     30.94010088680339     60.24202533855252
  H          46.78524505443954     30.18599600127346     60.26661366096978
  H          46.17391546952587     31.89879442218221     60.72010096378106
  C          44.68999162845510     30.58939197526603     59.93849203299240
  C          43.54761251678564     31.61649731986848     60.11833195901046
  O          43.82452834281017     32.78307904319836     60.50971228232061
  O          42.38901831932019     31.21504799370065     59.87326277548445
  O          44.40187506959034     29.46797997244666     59.40939829786942
  C          44.94501943288643     29.49845533709025     57.28387219395839
  H          44.67380960881840     28.45286871724351     57.12824643353425
  C          46.26121170483070     29.83694324548162     57.54280898613946
  H          47.01996535911766     29.07256054944248     57.71111646592749
  C          46.59053800433276     31.16752216083849     57.82869150254638
  C          45.63007112810444     32.21591731252542     57.47723010719150
  H          45.96273718719786     33.24604313256422     57.60461116703979
  C          44.40635770400308     31.92314234635435     57.00284593934443
  H          43.71383394012768     32.71974018534632     56.71781736422135
  C          43.90853966254229     30.51394180701264     56.84521800161500
  H          43.03555525848426     30.39664153607978     57.51090715904507
  O          43.52983843619868     30.28084901128606     55.49422314215183
  H          42.62218399488967     29.82652105291663     55.49232129291631
  C          48.05186045874661     31.56224980858960     58.06229436368733
  O          48.90700982526929     30.67967128074017     58.29824295620043
  O          48.30159588007309     32.80259992139518     58.00452034517508
