24
Coordinates from ORCA-job neb_NEB-CI_converged.QMRegion
  C          46.20664797106658     26.61626108723366     55.27435279088217
  H          47.04321723826378     25.95307101515704     55.08830040636811
  H          46.40271472491170     27.66799289754461     55.47833008968987
  C          44.94008817132053     26.10077012404525     55.51543303177689
  C          43.82009842046614     27.06647784305039     55.95993769853229
  O          44.14582386099382     28.25013279373917     56.23032107314620
  O          42.65215499729222     26.61151274060724     56.03861424323519
  O          44.65143773636482     24.87031100833380     55.28543367104099
  C          44.38738345438892     24.56737548404982     53.14423285796354
  H          44.18673978744230     23.49996505175870     53.24615928367864
  C          45.66934870691529     25.00502171663679     52.85571748932550
  H          46.52099580528395     24.32370017114163     52.86930166550135
  C          45.92566394020130     26.36910223118620     52.74830952126730
  C          44.80378030087773     27.30882738284733     52.67986116207255
  H          45.03855249888699     28.36651858761123     52.57374026718529
  C          43.53305624762471     26.88495128290742     52.76709058383953
  H          42.70235672490788     27.59225843453975     52.76270752887975
  C          43.17826731986921     25.43037881619514     52.86381147475743
  H          42.46715825469795     25.30902541320945     53.69101329282719
  O          42.60234283458708     24.98128107329089     51.63513399905081
  H          41.60089019713213     24.93173211021385     51.72749203703685
  C          47.29949550440895     26.83544862310831     52.27451955504407
  O          48.30024882766160     26.07122826483305     52.38293976388392
  O          47.30893920921817     27.96715359862780     51.73822842000256
