24
Coordinates from ORCA-job neb_MEP.QMRegion E -1076.029326667849
  C      46.089000     26.523000     55.691000
  H      46.912000     25.890000     55.367000
  H      46.312000     27.496000     56.129000
  C      44.809000     26.159000     55.554000
  C      43.683000     27.078000     56.018000
  O      43.989000     28.269000     56.284000
  O      42.528000     26.594000     56.114000
  O      44.454000     24.925000     55.022000
  C      44.361000     24.803000     53.552000
  H      44.096000     23.749000     53.391000
  C      45.703000     25.118000     52.966000
  H      46.514000     24.394000     53.069000
  C      45.965000     26.344000     52.472000
  C      44.896000     27.351000     52.402000
  H      45.191000     28.361000     52.119000
  C      43.622000     27.058000     52.708000
  H      42.852000     27.831000     52.712000
  C      43.194000     25.645000     52.994000
  H      42.421000     25.661000     53.773000
  O      42.703000     25.045000     51.799000
  H      41.703000     24.996000     51.828000
  C      47.366000     26.789000     52.084000
  O      48.356000     26.028000     52.288000
  O      47.427000     27.944000     51.603000
24
Coordinates from ORCA-job neb_MEP.QMRegion E -1076.034807243141
  C      46.091893     26.520162     55.685400
  H      46.915273     25.886595     55.360204
  H      46.316636     27.494362     56.119543
  C      44.811692     26.155212     55.552451
  C      43.685947     27.074266     56.018493
  O      43.994040     28.264601     56.283268
  O      42.530479     26.592727     56.114251
  O      44.457453     24.920332     55.023361
  C      44.362294     24.797579     53.552289
  H      44.100775     23.741928     53.393111
  C      45.701675     25.117223     52.964220
  H      46.514981     24.394555     53.063419
  C      45.960006     26.343787     52.471639
  C      44.889952     27.349195     52.407292
  H      45.181738     28.360808     52.127967
  C      43.617113     27.052344     52.713485
  H      42.845390     27.823768     52.721538
  C      43.192713     25.637353     52.996171
  H      42.418315     25.648381     53.774011
  O      42.704909     25.037274     51.799154
  H      41.704984     24.987260     51.827968
  C      47.361893     26.787846     52.083114
  O      48.351297     26.025935     52.285409
  O      47.423191     27.943436     51.601778
24
Coordinates from ORCA-job neb_MEP.QMRegion E -1076.040605893204
  C      46.096243     26.515817     55.678464
  H      46.918864     25.882547     55.351128
  H      46.321776     27.490541     56.110959
  C      44.815849     26.150290     55.549011
  C      43.691402     27.070146     56.016650
  O      44.001026     28.259830     56.282415
  O      42.535263     26.590081     56.112540
  O      44.460792     24.914724     55.021916
  C      44.363375     24.789449     53.550946
  H      44.103226     23.733122     53.393728
  C      45.701161     25.110920     52.960433
  H      46.515652     24.389332     53.057847
  C      45.957197     26.338610     52.469358
  C      44.885619     27.342602     52.407615
  H      45.175781     28.355224     52.129980
  C      43.613583     27.043278     52.715010
  H      42.840669     27.813479     52.725981
  C      43.191773     25.627142     52.996444
  H      42.418102     25.635883     53.775089
  O      42.704036     25.027065     51.799432
  H      41.704037     24.978100     51.828301
  C      47.358416     26.785231     52.081567
  O      48.348767     26.024491     52.284030
  O      47.418447     27.941407     51.601385
24
Coordinates from ORCA-job neb_MEP.QMRegion E -1076.045915109447
  C      46.101526     26.511104     55.668629
  H      46.923210     25.878422     55.338257
  H      46.327944     27.486512     56.099039
  C      44.820921     26.144767     55.543690
  C      43.698101     27.065469     56.013578
  O      44.009536     28.254276     56.280945
  O      42.541161     26.587130     56.109469
  O      44.464777     24.908404     55.019077
  C      44.364436     24.779851     53.548239
  H      44.105923     23.722716     53.393611
  C      45.700317     25.103377     52.954786
  H      46.516164     24.383050     53.050049
  C      45.953712     26.332499     52.465822
  C      44.880285     27.334820     52.407031
  H      45.168553     28.348653     52.131571
  C      43.609161     27.032446     52.715538
  H      42.834752     27.801104     52.729672
  C      43.190404     25.614986     52.995582
  H      42.417683     25.621103     53.775216
  O      42.702700     25.014794     51.798690
  H      41.702565     24.967745     51.827258
  C      47.354280     26.782300     52.079420
  O      48.345747     26.023010     52.282384
  O      47.412805     27.939231     51.600784
24
Coordinates from ORCA-job neb_MEP.QMRegion E -1076.049735859044
  C      46.106875     26.505308     55.659252
  H      46.926610     25.873365     55.323141
  H      46.335657     27.480324     56.089119
  C      44.825862     26.138938     55.538858
  C      43.704603     27.060256     56.011484
  O      44.017933     28.247961     56.281292
  O      42.546809     26.583561     56.106654
  O      44.468709     24.901993     55.016150
  C      44.364980     24.770524     53.545633
  H      44.107659     23.712718     53.393474
  C      45.698775     25.095622     52.948577
  H      46.515880     24.376506     53.041994
  C      45.949595     26.325406     52.459886
  C      44.874514     27.326199     52.403396
  H      45.160958     28.340776     52.128347
  C      43.604603     27.021683     52.715133
  H      42.829118     27.789196     52.733096
  C      43.188658     25.603149     52.994844
  H      42.416756     25.606903     53.775377
  O      42.701489     25.002289     51.798156
  H      41.701126     24.956576     51.825867
  C      47.349758     26.777975     52.075111
  O      48.342102     26.019957     52.279151
  O      47.407351     27.935817     51.598402
24
Coordinates from ORCA-job neb_MEP.QMRegion E -1076.037442033002
  C      46.184214     26.582904     55.366406
  H      47.017363     25.958079     55.060944
  H      46.384197     27.634602     55.577923
  C      44.919436     26.121678     55.442960
  C      43.811275     27.056992     55.941284
  O      44.136890     28.236459     56.232166
  O      42.643548     26.601179     56.036781
  O      44.569703     24.860533     55.010539
  C      44.392461     24.631486     53.394875
  H      44.187236     23.553068     53.324109
  C      45.689632     25.030985     52.851949
  H      46.524962     24.329778     52.852056
  C      45.918649     26.342182     52.619464
  C      44.804320     27.303794     52.643095
  H      45.042811     28.362309     52.547262
  C      43.532572     26.897019     52.778982
  H      42.705171     27.607577     52.778983
  C      43.173814     25.445620     52.914004
  H      42.432534     25.344194     53.711922
  O      42.643082     24.955730     51.683219
  H      41.638884     24.926210     51.743346
  C      47.297937     26.829226     52.220273
  O      48.304835     26.077185     52.369148
  O      47.319745     27.980004     51.725805
24
Coordinates from ORCA-job neb_MEP.QMRegion E -1076.026843781104
  C      46.197681     26.603977     55.322954
  H      47.031495     25.956097     55.075719
  H      46.395735     27.656903     55.521360
  C      44.932504     26.108412     55.489840
  C      43.817197     27.063568     55.953069
  O      44.140911     28.246463     56.231184
  O      42.648252     26.609085     56.036864
  O      44.618422     24.867304     55.174397
  C      44.388957     24.592081     53.240835
  H      44.187004     23.518505     53.283040
  C      45.677949     25.015876     52.849669
  H      46.523024     24.326837     52.859593
  C      45.921302     26.356425     52.688791
  C      44.803559     27.306794     52.665069
  H      45.040423     28.364784     52.564799
  C      43.532097     26.890535     52.772682
  H      42.702727     27.599047     52.771187
  C      43.175732     25.437585     52.884792
  H      42.453777     25.323326     53.700924
  O      42.618678     24.971238     51.654589
  H      41.615701     24.928831     51.734295
  C      47.299042     26.833257     52.252615
  O      48.302191     26.074133     52.377844
  O      47.313174     27.972949     51.733610
24
Coordinates from ORCA-job neb_MEP.QMRegion E -1076.025470906293
  C      46.206648     26.616261     55.274353
  H      47.043217     25.953071     55.088300
  H      46.402715     27.667993     55.478330
  C      44.940088     26.100770     55.515433
  C      43.820098     27.066478     55.959938
  O      44.145824     28.250133     56.230321
  O      42.652155     26.611513     56.038614
  O      44.651438     24.870311     55.285434
  C      44.387383     24.567375     53.144233
  H      44.186740     23.499965     53.246159
  C      45.669349     25.005022     52.855717
  H      46.520996     24.323700     52.869302
  C      45.925664     26.369102     52.748310
  C      44.803780     27.308827     52.679861
  H      45.038552     28.366519     52.573740
  C      43.533056     26.884951     52.767091
  H      42.702357     27.592258     52.762708
  C      43.178267     25.430379     52.863811
  H      42.467158     25.309025     53.691013
  O      42.602343     24.981281     51.635134
  H      41.600890     24.931732     51.727492
  C      47.299496     26.835449     52.274520
  O      48.300249     26.071228     52.382940
  O      47.308939     27.967154     51.738228
24
Coordinates from ORCA-job neb_MEP.QMRegion E -1076.029180981352
  C      46.205897     26.622351     55.131209
  H      47.052356     25.945957     55.101058
  H      46.403717     27.665782     55.385501
  C      44.942228     26.093081     55.516807
  C      43.824213     27.068352     55.963344
  O      44.159485     28.248761     56.229711
  O      42.658614     26.612329     56.045885
  O      44.681682     24.872978     55.391770
  C      44.390947     24.550123     53.067165
  H      44.189434     23.485624     53.191401
  C      45.662984     24.998758     52.881185
  H      46.519035     24.321873     52.890035
  C      45.941848     26.396138     52.884378
  C      44.803950     27.316407     52.714042
  H      45.033481     28.373653     52.592668
  C      43.537277     26.880858     52.762468
  H      42.703988     27.585405     52.740428
  C      43.182318     25.424211     52.847238
  H      42.478317     25.295542     53.681849
  O      42.589261     24.994355     51.620047
  H      41.589995     24.936471     51.722988
  C      47.300590     26.840655     52.315838
  O      48.298283     26.069196     52.394567
  O      47.299229     27.956785     51.748545
24
Coordinates from ORCA-job neb_MEP.QMRegion E -1076.073859814310
  C      46.248000     26.643000     54.761000
  H      47.132000     26.067000     55.052000
  H      46.410000     27.705000     54.980000
  C      45.074000     26.127000     55.555000
  C      43.982000     27.124000     56.034000
  O      44.386000     28.244000     56.404000
  O      42.795000     26.712000     56.023000
  O      44.970000     24.931000     55.787000
  C      44.400000     24.546000     52.749000
  H      44.205000     23.479000     52.636000
  C      45.641000     24.994000     52.956000
  H      46.488000     24.305000     53.008000
  C      45.967000     26.440000     53.213000
  C      44.793000     27.334000     52.891000
  H      44.976000     28.408000     52.902000
  C      43.551000     26.879000     52.710000
  H      42.721000     27.580000     52.609000
  C      43.188000     25.425000     52.642000
  H      42.516000     25.204000     53.491000
  O      42.515000     25.140000     51.418000
  H      41.529000     25.030000     51.587000
  C      47.257000     26.846000     52.413000
  O      48.260000     26.078000     52.440000
  O      47.205000     27.927000     51.787000
