host=comp050.hpc start=Tue Oct  6 13:50:30 SAST 2026
end=Tue Oct  6 14:03:18 SAST 2026
single points: 648 written, 648 terminated normally (expected 648)
== format sample: default/NaOc/sp_3.00.out, energy lines
100:  Masaaki Saitow         : Open-shell DLPNO-CCSD energy and density      
125:  Stefan Grimme          : VdW corrections, initial TS optimization, DFT functionals, gCP, sTDA/sTD-DF 
215:Do energy calculation
221:   Force Switching (LJ Interaction)    ... YES
222:       LJ Inner CutOff                 ...       10.000 Ang.
223:       LJ Outer CutOff                 ...       12.000 Ang.
227:MM Energy contributions:
244:-------------------------- LJ and Coulomb interaction --------------------------
246:TOTAL TIME LJ + Coul           :....................         0.0000010000 seconds
248:LJ interaction                -0.00021492
253:FINAL SINGLE POINT ENERGY (MM)       -0.000214922924
== the prms file ORCA read for NaOc
$fftype
AMBER
$atoms
2 1 4
     1   Na      0.000000    -0.087439     2.738000    -0.043720     2.738000
     2   O       0.000000    -0.210000     3.322400    -0.105000     3.322400
$bonds
0 2 2
$angles
0 3 2
$dihedrals
0 4 3
