24
Coordinates from ORCA-job neb_initial_path.QMRegion E   0.000000000000
  C      39.018000     19.301000     44.456000
  H      39.647000     18.722000     43.778000
  H      39.202000     20.365000     44.601000
  C      37.986000     18.736000     45.093000
  C      37.094000     19.515000     46.051000
  O      37.136000     20.770000     45.973000
  O      36.387000     18.858000     46.849000
  O      37.695000     17.397000     44.987000
  C      36.913000     16.935000     43.838000
  H      36.696000     15.883000     44.071000
  C      37.799000     17.041000     42.638000
  H      38.628000     16.337000     42.570000
  C      37.687000     18.059000     41.763000
  C      36.605000     19.037000     41.928000
  H      36.624000     19.913000     41.276000
  C      35.667000     18.915000     42.884000
  H      34.934000     19.712000     43.036000
  C      35.556000     17.668000     43.732000
  H      35.258000     17.933000     44.760000
  O      34.585000     16.823000     43.130000
  H      33.998000     16.392000     43.810000
  C      38.702000     18.267000     40.652000
  O      39.897000     17.890000     40.849000
  O      38.308000     18.841000     39.610000
24
Coordinates from ORCA-job neb_initial_path.QMRegion E   0.000000000000
  C      39.013500     19.258833     44.379167
  H      39.670333     18.671333     43.749000
  H      39.181667     20.325667     44.481500
  C      38.013833     18.703667     45.076833
  C      37.118333     19.500833     46.019667
  O      37.168167     20.754667     45.935333
  O      36.403333     18.854000     46.819167
  O      37.746500     17.377667     45.008500
  C      36.893167     16.877500     43.807000
  H      36.705000     15.830833     44.065167
  C      37.787500     17.018000     42.644833
  H      38.613333     16.315333     42.553167
  C      37.712000     18.086000     41.839833
  C      36.615333     19.048000     42.004500
  H      36.636667     19.940667     41.379500
  C      35.660833     18.888333     42.930333
  H      34.915000     19.670667     43.086833
  C      35.550167     17.623833     43.747167
  H      35.271833     17.868833     44.783167
  O      34.562333     16.800000     43.145000
  H      33.970000     16.374833     43.825333
  C      38.713667     18.298833     40.716167
  O      39.907167     17.911667     40.884833
  O      38.300167     18.875333     39.684833
24
Coordinates from ORCA-job neb_initial_path.QMRegion E   0.000000000000
  C      39.009000     19.216667     44.302333
  H      39.693667     18.620667     43.720000
  H      39.161333     20.286333     44.362000
  C      38.041667     18.671333     45.060667
  C      37.142667     19.486667     45.988333
  O      37.200333     20.739333     45.897667
  O      36.419667     18.850000     46.789333
  O      37.798000     17.358333     45.030000
  C      36.873333     16.820000     43.776000
  H      36.714000     15.778667     44.059333
  C      37.776000     16.995000     42.651667
  H      38.598667     16.293667     42.536333
  C      37.737000     18.113000     41.916667
  C      36.625667     19.059000     42.081000
  H      36.649333     19.968333     41.483000
  C      35.654667     18.861667     42.976667
  H      34.896000     19.629333     43.137667
  C      35.544333     17.579667     43.762333
  H      35.285667     17.804667     44.806333
  O      34.539667     16.777000     43.160000
  H      33.942000     16.357667     43.840667
  C      38.725333     18.330667     40.780333
  O      39.917333     17.933333     40.920667
  O      38.292333     18.909667     39.759667
24
Coordinates from ORCA-job neb_initial_path.QMRegion E   0.000000000000
  C      39.004500     19.174500     44.225500
  H      39.717000     18.570000     43.691000
  H      39.141000     20.247000     44.242500
  C      38.069500     18.639000     45.044500
  C      37.167000     19.472500     45.957000
  O      37.232500     20.724000     45.860000
  O      36.436000     18.846000     46.759500
  O      37.849500     17.339000     45.051500
  C      36.853500     16.762500     43.745000
  H      36.723000     15.726500     44.053500
  C      37.764500     16.972000     42.658500
  H      38.584000     16.272000     42.519500
  C      37.762000     18.140000     41.993500
  C      36.636000     19.070000     42.157500
  H      36.662000     19.996000     41.586500
  C      35.648500     18.835000     43.023000
  H      34.877000     19.588000     43.188500
  C      35.538500     17.535500     43.777500
  H      35.299500     17.740500     44.829500
  O      34.517000     16.754000     43.175000
  H      33.914000     16.340500     43.856000
  C      38.737000     18.362500     40.844500
  O      39.927500     17.955000     40.956500
  O      38.284500     18.944000     39.834500
24
Coordinates from ORCA-job neb_initial_path.QMRegion E   0.000000000000
  C      39.000000     19.132333     44.148667
  H      39.740333     18.519333     43.662000
  H      39.120667     20.207667     44.123000
  C      38.097333     18.606667     45.028333
  C      37.191333     19.458333     45.925667
  O      37.264667     20.708667     45.822333
  O      36.452333     18.842000     46.729667
  O      37.901000     17.319667     45.073000
  C      36.833667     16.705000     43.714000
  H      36.732000     15.674333     44.047667
  C      37.753000     16.949000     42.665333
  H      38.569333     16.250333     42.502667
  C      37.787000     18.167000     42.070333
  C      36.646333     19.081000     42.234000
  H      36.674667     20.023667     41.690000
  C      35.642333     18.808333     43.069333
  H      34.858000     19.546667     43.239333
  C      35.532667     17.491333     43.792667
  H      35.313333     17.676333     44.852667
  O      34.494333     16.731000     43.190000
  H      33.886000     16.323333     43.871333
  C      38.748667     18.394333     40.908667
  O      39.937667     17.976667     40.992333
  O      38.276667     18.978333     39.909333
24
Coordinates from ORCA-job neb_initial_path.QMRegion E   0.000000000000
  C      38.995500     19.090167     44.071833
  H      39.763667     18.468667     43.633000
  H      39.100333     20.168333     44.003500
  C      38.125167     18.574333     45.012167
  C      37.215667     19.444167     45.894333
  O      37.296833     20.693333     45.784667
  O      36.468667     18.838000     46.699833
  O      37.952500     17.300333     45.094500
  C      36.813833     16.647500     43.683000
  H      36.741000     15.622167     44.041833
  C      37.741500     16.926000     42.672167
  H      38.554667     16.228667     42.485833
  C      37.812000     18.194000     42.147167
  C      36.656667     19.092000     42.310500
  H      36.687333     20.051333     41.793500
  C      35.636167     18.781667     43.115667
  H      34.839000     19.505333     43.290167
  C      35.526833     17.447167     43.807833
  H      35.327167     17.612167     44.875833
  O      34.471667     16.708000     43.205000
  H      33.858000     16.306167     43.886667
  C      38.760333     18.426167     40.972833
  O      39.947833     17.998333     41.028167
  O      38.268833     19.012667     39.984167
24
Coordinates from ORCA-job neb_initial_path.QMRegion E   0.000000000000
  C      38.991000     19.048000     43.995000
  H      39.787000     18.418000     43.604000
  H      39.080000     20.129000     43.884000
  C      38.153000     18.542000     44.996000
  C      37.240000     19.430000     45.863000
  O      37.329000     20.678000     45.747000
  O      36.485000     18.834000     46.670000
  O      38.004000     17.281000     45.116000
  C      36.794000     16.590000     43.652000
  H      36.750000     15.570000     44.036000
  C      37.730000     16.903000     42.679000
  H      38.540000     16.207000     42.469000
  C      37.837000     18.221000     42.224000
  C      36.667000     19.103000     42.387000
  H      36.700000     20.079000     41.897000
  C      35.630000     18.755000     43.162000
  H      34.820000     19.464000     43.341000
  C      35.521000     17.403000     43.823000
  H      35.341000     17.548000     44.899000
  O      34.449000     16.685000     43.220000
  H      33.830000     16.289000     43.902000
  C      38.772000     18.458000     41.037000
  O      39.958000     18.020000     41.064000
  O      38.261000     19.047000     40.059000
24
Coordinates from ORCA-job neb_initial_path.QMRegion E   0.000000000000
  C      38.956667     19.025333     43.912000
  H      39.820000     18.456667     43.626333
  H      39.032667     20.111000     43.815667
  C      38.201333     18.541333     45.018667
  C      37.269000     19.432000     45.870000
  O      37.361333     20.676667     45.743333
  O      36.506333     18.836000     46.668000
  O      38.187333     17.330000     45.235000
  C      36.734000     16.556667     43.539000
  H      36.660333     15.521333     43.861333
  C      37.738667     16.914000     42.714000
  H      38.552667     16.220667     42.507333
  C      37.901667     18.281333     42.333667
  C      36.695333     19.134000     42.439000
  H      36.739000     20.125333     41.985000
  C      35.627000     18.756667     43.141000
  H      34.803333     19.455333     43.286000
  C      35.497000     17.393667     43.772333
  H      35.358000     17.522667     44.857000
  O      34.382333     16.726667     43.204667
  H      33.789667     16.316000     43.898333
  C      38.789667     18.483667     41.095000
  O      39.979667     18.054000     41.103333
  O      38.249000     19.041000     40.118000
24
Coordinates from ORCA-job neb_initial_path.QMRegion E   0.000000000000
  C      38.922333     19.002667     43.829000
  H      39.853000     18.495333     43.648667
  H      38.985333     20.093000     43.747333
  C      38.249667     18.540667     45.041333
  C      37.298000     19.434000     45.877000
  O      37.393667     20.675333     45.739667
  O      36.527667     18.838000     46.666000
  O      38.370667     17.379000     45.354000
  C      36.674000     16.523333     43.426000
  H      36.570667     15.472667     43.686667
  C      37.747333     16.925000     42.749000
  H      38.565333     16.234333     42.545667
  C      37.966333     18.341667     42.443333
  C      36.723667     19.165000     42.491000
  H      36.778000     20.171667     42.073000
  C      35.624000     18.758333     43.120000
  H      34.786667     19.446667     43.231000
  C      35.473000     17.384333     43.721667
  H      35.375000     17.497333     44.815000
  O      34.315667     16.768333     43.189333
  H      33.749333     16.343000     43.894667
  C      38.807333     18.509333     41.153000
  O      40.001333     18.088000     41.142667
  O      38.237000     19.035000     40.177000
24
Coordinates from ORCA-job neb_initial_path.QMRegion E   0.000000000000
  C      38.888000     18.980000     43.746000
  H      39.886000     18.534000     43.671000
  H      38.938000     20.075000     43.679000
  C      38.298000     18.540000     45.064000
  C      37.327000     19.436000     45.884000
  O      37.426000     20.674000     45.736000
  O      36.549000     18.840000     46.664000
  O      38.554000     17.428000     45.473000
  C      36.614000     16.490000     43.313000
  H      36.481000     15.424000     43.512000
  C      37.756000     16.936000     42.784000
  H      38.578000     16.248000     42.584000
  C      38.031000     18.402000     42.553000
  C      36.752000     19.196000     42.543000
  H      36.817000     20.218000     42.161000
  C      35.621000     18.760000     43.099000
  H      34.770000     19.438000     43.176000
  C      35.449000     17.375000     43.671000
  H      35.392000     17.472000     44.773000
  O      34.249000     16.810000     43.174000
  H      33.709000     16.370000     43.891000
  C      38.825000     18.535000     41.211000
  O      40.023000     18.122000     41.182000
  O      38.225000     19.029000     40.236000
