24
Coordinates from ORCA-job neb_MEP.QMRegion E -1074.647611985499
  C      39.018000     19.301000     44.456000
  H      39.647000     18.722000     43.778000
  H      39.202000     20.365000     44.601000
  C      37.986000     18.736000     45.093000
  C      37.094000     19.515000     46.051000
  O      37.136000     20.770000     45.973000
  O      36.387000     18.858000     46.849000
  O      37.695000     17.397000     44.987000
  C      36.913000     16.935000     43.838000
  H      36.696000     15.883000     44.071000
  C      37.799000     17.041000     42.638000
  H      38.628000     16.337000     42.570000
  C      37.687000     18.059000     41.763000
  C      36.605000     19.037000     41.928000
  H      36.624000     19.913000     41.276000
  C      35.667000     18.915000     42.884000
  H      34.934000     19.712000     43.036000
  C      35.556000     17.668000     43.732000
  H      35.258000     17.933000     44.760000
  O      34.585000     16.823000     43.130000
  H      33.998000     16.392000     43.810000
  C      38.702000     18.267000     40.652000
  O      39.897000     17.890000     40.849000
  O      38.308000     18.841000     39.610000
24
Coordinates from ORCA-job neb_MEP.QMRegion E -1074.649850064049
  C      39.035245     19.252121     44.412953
  H      39.656146     18.663003     43.737532
  H      39.213520     20.320636     44.529208
  C      38.009068     18.698976     45.070286
  C      37.120818     19.492975     46.017622
  O      37.167923     20.746673     45.933280
  O      36.408372     18.846258     46.820741
  O      37.715399     17.359865     44.985232
  C      36.918012     16.887505     43.846750
  H      36.712857     15.834560     44.084270
  C      37.789735     17.006492     42.638288
  H      38.614023     16.299141     42.549232
  C      37.684306     18.050940     41.795256
  C      36.607184     19.030919     41.993512
  H      36.632569     19.930523     41.373194
  C      35.666566     18.881645     42.943035
  H      34.934930     19.674069     43.118494
  C      35.557427     17.615721     43.762049
  H      35.265345     17.862043     44.795661
  O      34.585553     16.777976     43.152651
  H      33.980780     16.362755     43.827298
  C      38.699287     18.281382     40.688130
  O      39.895782     17.901232     40.871962
  O      38.303783     18.876721     39.659111
24
Coordinates from ORCA-job neb_MEP.QMRegion E -1074.650634214254
  C      39.059631     19.182450     44.356022
  H      39.672854     18.577585     43.688089
  H      39.228423     20.256160     44.427687
  C      38.041467     18.646382     45.039576
  C      37.158877     19.462457     45.973510
  O      37.213957     20.714623     45.877720
  O      36.436890     18.831170     46.781602
  O      37.741142     17.307205     44.981352
  C      36.923939     16.821092     43.859151
  H      36.737927     15.766062     44.100160
  C      37.775466     16.961514     42.641720
  H      38.593565     16.252840     42.518964
  C      37.681359     18.044907     41.848426
  C      36.609974     19.023490     42.090659
  H      36.644536     19.954805     41.519075
  C      35.662673     18.833341     43.026849
  H      34.927563     19.615929     43.230738
  C      35.558568     17.541364     43.804329
  H      35.277533     17.760708     44.846089
  O      34.580884     16.718978     43.184638
  H      33.953061     16.325589     43.852007
  C      38.698417     18.309063     40.749408
  O      39.896434     17.924918     40.916263
  O      38.300252     18.932033     39.738749
24
Coordinates from ORCA-job neb_MEP.QMRegion E -1074.646689505361
  C      39.084585     19.092584     44.250594
  H      39.714112     18.465712     43.620108
  H      39.203004     20.175213     44.209030
  C      38.092108     18.576010     44.989427
  C      37.214029     19.425730     45.899793
  O      37.284957     20.675786     45.792121
  O      36.473454     18.817369     46.711208
  O      37.785139     17.235197     44.971298
  C      36.927418     16.727537     43.866177
  H      36.770205     15.666623     44.105194
  C      37.754722     16.909293     42.647166
  H      38.563187     16.201612     42.472348
  C      37.696933     18.063767     41.958781
  C      36.627247     19.032310     42.254533
  H      36.677978     20.008648     41.764881
  C      35.649964     18.767686     43.140311
  H      34.887459     19.519577     43.359494
  C      35.553374     17.440188     43.853937
  H      35.300693     17.620929     44.908102
  O      34.551473     16.653319     43.227001
  H      33.896723     16.289423     43.888319
  C      38.712485     18.373388     40.874305
  O      39.912919     17.982073     41.004926
  O      38.294046     19.024400     39.891540
24
Coordinates from ORCA-job neb_MEP.QMRegion E -1074.633705882505
  C      39.071708     19.091691     44.168611
  H      39.754181     18.456187     43.604748
  H      39.139654     20.173556     44.040523
  C      38.135610     18.564583     44.987892
  C      37.234658     19.426314     45.876448
  O      37.303510     20.676556     45.765361
  O      36.480250     18.823361     46.681491
  O      37.870244     17.228732     44.999967
  C      36.889995     16.669358     43.807012
  H      36.761920     15.609410     44.074347
  C      37.745667     16.900345     42.650720
  H      38.552018     16.194417     42.465243
  C      37.742497     18.113048     42.055259
  C      36.649547     19.060944     42.329385
  H      36.700980     20.045664     41.857258
  C      35.637577     18.753005     43.156886
  H      34.849868     19.482830     43.358589
  C      35.534494     17.412205     43.840688
  H      35.323838     17.572708     44.905145
  O      34.491438     16.666513     43.226205
  H      33.847868     16.292290     43.898493
  C      38.740266     18.415548     40.955821
  O      39.937737     18.008916     41.044108
  O      38.283059     19.048347     39.978619
24
Coordinates from ORCA-job neb_MEP.QMRegion E -1074.621747271508
  C      39.058333     19.098559     44.120123
  H      39.775681     18.459289     43.608492
  H      39.116750     20.177635     43.980082
  C      38.160995     18.563471     45.006078
  C      37.238090     19.431132     45.874738
  O      37.306557     20.680369     45.761107
  O      36.482063     18.826577     46.677695
  O      37.974490     17.266833     45.081791
  C      36.821841     16.615161     43.703955
  H      36.748192     15.581112     44.051973
  C      37.736748     16.894373     42.660341
  H      38.548505     16.195307     42.472046
  C      37.771098     18.147271     42.108046
  C      36.655642     19.073572     42.347150
  H      36.703173     20.055702     41.870552
  C      35.631925     18.750995     43.152928
  H      34.838412     19.474406     43.349791
  C      35.521157     17.405325     43.822090
  H      35.335987     17.557240     44.894767
  O      34.456605     16.678001     43.219404
  H      33.827697     16.293294     43.900049
  C      38.752130     18.428754     40.983390
  O      39.944828     18.009758     41.049614
  O      38.274066     19.045214     40.006153
24
Coordinates from ORCA-job neb_MEP.QMRegion E -1074.618819979914
  C      39.033171     19.096355     44.055677
  H      39.797191     18.459924     43.615734
  H      39.100249     20.177258     43.934203
  C      38.183520     18.561306     45.024540
  C      37.241740     19.435795     45.879007
  O      37.307385     20.684042     45.756939
  O      36.483377     18.830510     46.676074
  O      38.072128     17.302449     45.160970
  C      36.764927     16.567618     43.614763
  H      36.731275     15.558105     44.026999
  C      37.727740     16.888232     42.675388
  H      38.545334     16.196465     42.481207
  C      37.803169     18.185884     42.165154
  C      36.658614     19.084051     42.358953
  H      36.702784     20.063009     41.877110
  C      35.626158     18.747467     43.147230
  H      34.831163     19.468914     43.343314
  C      35.511551     17.396243     43.803686
  H      35.346376     17.543668     44.882758
  O      34.425465     16.688971     43.213277
  H      33.812692     16.292959     43.901598
  C      38.760925     18.439847     41.005129
  O      39.949076     18.009024     41.052064
  O      38.266660     19.039942     40.025060
24
Coordinates from ORCA-job neb_MEP.QMRegion E -1074.624021419786
  C      38.956741     19.055394     43.915513
  H      39.820292     18.457233     43.633494
  H      39.068765     20.143879     43.866862
  C      38.183739     18.552585     45.021236
  C      37.245757     19.439135     45.879897
  O      37.317604     20.683356     45.750917
  O      36.490883     18.832877     46.678048
  O      38.147966     17.331848     45.225572
  C      36.732509     16.538894     43.551015
  H      36.713398     15.540499     43.990963
  C      37.728947     16.893193     42.700451
  H      38.546379     16.202900     42.493596
  C      37.877891     18.262456     42.278617
  C      36.666328     19.103133     42.381872
  H      36.700053     20.075525     41.886219
  C      35.624690     18.745771     43.143022
  H      34.820546     19.460371     43.328713
  C      35.508296     17.389747     43.792908
  H      35.353398     17.533656     44.875612
  O      34.404537     16.702725     43.211510
  H      33.804662     16.295467     43.903072
  C      38.776006     18.459179     41.039191
  O      39.958743     18.011773     41.055322
  O      38.256065     19.031896     40.056245
24
Coordinates from ORCA-job neb_MEP.QMRegion E -1074.644059178086
  C      38.870273     18.992029     43.760253
  H      39.822027     18.460395     43.652424
  H      39.016881     20.087767     43.771184
  C      38.174767     18.542236     45.005312
  C      37.250544     19.441514     45.878351
  O      37.333942     20.684597     45.745042
  O      36.503134     18.837745     46.678143
  O      38.229327     17.360205     45.295938
  C      36.709529     16.519772     43.494987
  H      36.687495     15.518414     43.931682
  C      37.739928     16.906833     42.730035
  H      38.552851     16.213991     42.510309
  C      37.965192     18.347053     42.404223
  C      36.685385     19.127552     42.415239
  H      36.700060     20.092847     41.903672
  C      35.629631     18.745360     43.141176
  H      34.808262     19.446593     43.303317
  C      35.506446     17.383420     43.781648
  H      35.362896     17.521339     44.868461
  O      34.382479     16.722586     43.210457
  H      33.795828     16.301327     43.904002
  C      38.791798     18.482386     41.080386
  O      39.970893     18.020710     41.064049
  O      38.241677     19.024533     40.098633
24
Coordinates from ORCA-job neb_MEP.QMRegion E -1074.662800460191
  C      38.888000     18.980000     43.746000
  H      39.886000     18.534000     43.671000
  H      38.938000     20.075000     43.679000
  C      38.298000     18.540000     45.064000
  C      37.327000     19.436000     45.884000
  O      37.426000     20.674000     45.736000
  O      36.549000     18.840000     46.664000
  O      38.554000     17.428000     45.473000
  C      36.614000     16.490000     43.313000
  H      36.481000     15.424000     43.512000
  C      37.756000     16.936000     42.784000
  H      38.578000     16.248000     42.584000
  C      38.031000     18.402000     42.553000
  C      36.752000     19.196000     42.543000
  H      36.817000     20.218000     42.161000
  C      35.621000     18.760000     43.099000
  H      34.770000     19.438000     43.176000
  C      35.449000     17.375000     43.671000
  H      35.392000     17.472000     44.773000
  O      34.249000     16.810000     43.174000
  H      33.709000     16.370000     43.891000
  C      38.825000     18.535000     41.211000
  O      40.023000     18.122000     41.182000
  O      38.225000     19.029000     40.236000
