24
Coordinates from ORCA-job neb_initial_path.QMRegion E   0.000000000000
  C      45.331000     29.762000     68.304000
  H      45.885000     28.823000     68.346000
  H      45.713000     30.629000     68.839000
  C      44.202000     29.873000     67.595000
  C      43.427000     31.187000     67.518000
  O      43.958000     32.195000     68.032000
  O      42.300000     31.164000     66.953000
  O      43.677000     28.783000     66.933000
  C      44.098000     28.496000     65.547000
  H      43.767000     27.462000     65.393000
  C      45.590000     28.628000     65.465000
  H      46.216000     27.840000     65.889000
  C      46.159000     29.780000     65.055000
  C      45.325000     30.830000     64.461000
  H      45.830000     31.760000     64.193000
  C      44.019000     30.640000     64.213000
  H      43.442000     31.419000     63.713000
  C      43.289000     29.374000     64.562000
  H      42.384000     29.664000     65.114000
  O      42.940000     28.671000     63.380000
  H      41.971000     28.406000     63.425000
  C      47.649000     30.065000     65.228000
  O      48.380000     29.185000     65.741000
  O      48.029000     31.218000     64.863000
24
Coordinates from ORCA-job neb_initial_path.QMRegion E   0.000000000000
  C      45.385500     29.773333     68.190667
  H      45.930167     28.831000     68.247667
  H      45.793167     30.639500     68.698667
  C      44.211667     29.867833     67.575000
  C      43.434167     31.184667     67.514333
  O      43.968167     32.191167     68.028500
  O      42.301833     31.162333     66.961833
  O      43.674667     28.782667     66.965500
  C      44.112000     28.459000     65.476667
  H      43.763167     27.431333     65.357333
  C      45.581167     28.600000     65.434000
  H      46.211167     27.806167     65.838000
  C      46.138833     29.780333     65.112167
  C      45.308000     30.833667     64.517333
  H      45.807833     31.771333     64.277500
  C      44.014333     30.636000     64.230833
  H      43.443000     31.414500     63.724000
  C      43.288000     29.362333     64.547500
  H      42.390833     29.633667     65.118167
  O      42.922167     28.696833     63.352833
  H      41.955333     28.423167     63.404500
  C      47.632500     30.063500     65.270333
  O      48.365667     29.181833     65.776667
  O      48.012667     31.211833     64.893333
24
Coordinates from ORCA-job neb_initial_path.QMRegion E   0.000000000000
  C      45.440000     29.784667     68.077333
  H      45.975333     28.839000     68.149333
  H      45.873333     30.650000     68.558333
  C      44.221333     29.862667     67.555000
  C      43.441333     31.182333     67.510667
  O      43.978333     32.187333     68.025000
  O      42.303667     31.160667     66.970667
  O      43.672333     28.782333     66.998000
  C      44.126000     28.422000     65.406333
  H      43.759333     27.400667     65.321667
  C      45.572333     28.572000     65.403000
  H      46.206333     27.772333     65.787000
  C      46.118667     29.780667     65.169333
  C      45.291000     30.837333     64.573667
  H      45.785667     31.782667     64.362000
  C      44.009667     30.632000     64.248667
  H      43.444000     31.410000     63.735000
  C      43.287000     29.350667     64.533000
  H      42.397667     29.603333     65.122333
  O      42.904333     28.722667     63.325667
  H      41.939667     28.440333     63.384000
  C      47.616000     30.062000     65.312667
  O      48.351333     29.178667     65.812333
  O      47.996333     31.205667     64.923667
24
Coordinates from ORCA-job neb_initial_path.QMRegion E   0.000000000000
  C      45.494500     29.796000     67.964000
  H      46.020500     28.847000     68.051000
  H      45.953500     30.660500     68.418000
  C      44.231000     29.857500     67.535000
  C      43.448500     31.180000     67.507000
  O      43.988500     32.183500     68.021500
  O      42.305500     31.159000     66.979500
  O      43.670000     28.782000     67.030500
  C      44.140000     28.385000     65.336000
  H      43.755500     27.370000     65.286000
  C      45.563500     28.544000     65.372000
  H      46.201500     27.738500     65.736000
  C      46.098500     29.781000     65.226500
  C      45.274000     30.841000     64.630000
  H      45.763500     31.794000     64.446500
  C      44.005000     30.628000     64.266500
  H      43.445000     31.405500     63.746000
  C      43.286000     29.339000     64.518500
  H      42.404500     29.573000     65.126500
  O      42.886500     28.748500     63.298500
  H      41.924000     28.457500     63.363500
  C      47.599500     30.060500     65.355000
  O      48.337000     29.175500     65.848000
  O      47.980000     31.199500     64.954000
24
Coordinates from ORCA-job neb_initial_path.QMRegion E   0.000000000000
  C      45.549000     29.807333     67.850667
  H      46.065667     28.855000     67.952667
  H      46.033667     30.671000     68.277667
  C      44.240667     29.852333     67.515000
  C      43.455667     31.177667     67.503333
  O      43.998667     32.179667     68.018000
  O      42.307333     31.157333     66.988333
  O      43.667667     28.781667     67.063000
  C      44.154000     28.348000     65.265667
  H      43.751667     27.339333     65.250333
  C      45.554667     28.516000     65.341000
  H      46.196667     27.704667     65.685000
  C      46.078333     29.781333     65.283667
  C      45.257000     30.844667     64.686333
  H      45.741333     31.805333     64.531000
  C      44.000333     30.624000     64.284333
  H      43.446000     31.401000     63.757000
  C      43.285000     29.327333     64.504000
  H      42.411333     29.542667     65.130667
  O      42.868667     28.774333     63.271333
  H      41.908333     28.474667     63.343000
  C      47.583000     30.059000     65.397333
  O      48.322667     29.172333     65.883667
  O      47.963667     31.193333     64.984333
24
Coordinates from ORCA-job neb_initial_path.QMRegion E   0.000000000000
  C      45.603500     29.818667     67.737333
  H      46.110833     28.863000     67.854333
  H      46.113833     30.681500     68.137333
  C      44.250333     29.847167     67.495000
  C      43.462833     31.175333     67.499667
  O      44.008833     32.175833     68.014500
  O      42.309167     31.155667     66.997167
  O      43.665333     28.781333     67.095500
  C      44.168000     28.311000     65.195333
  H      43.747833     27.308667     65.214667
  C      45.545833     28.488000     65.310000
  H      46.191833     27.670833     65.634000
  C      46.058167     29.781667     65.340833
  C      45.240000     30.848333     64.742667
  H      45.719167     31.816667     64.615500
  C      43.995667     30.620000     64.302167
  H      43.447000     31.396500     63.768000
  C      43.284000     29.315667     64.489500
  H      42.418167     29.512333     65.134833
  O      42.850833     28.800167     63.244167
  H      41.892667     28.491833     63.322500
  C      47.566500     30.057500     65.439667
  O      48.308333     29.169167     65.919333
  O      47.947333     31.187167     65.014667
24
Coordinates from ORCA-job neb_initial_path.QMRegion E   0.000000000000
  C      45.658000     29.830000     67.624000
  H      46.156000     28.871000     67.756000
  H      46.194000     30.692000     67.997000
  C      44.260000     29.842000     67.475000
  C      43.470000     31.173000     67.496000
  O      44.019000     32.172000     68.011000
  O      42.311000     31.154000     67.006000
  O      43.663000     28.781000     67.128000
  C      44.182000     28.274000     65.125000
  H      43.744000     27.278000     65.179000
  C      45.537000     28.460000     65.279000
  H      46.187000     27.637000     65.583000
  C      46.038000     29.782000     65.398000
  C      45.223000     30.852000     64.799000
  H      45.697000     31.828000     64.700000
  C      43.991000     30.616000     64.320000
  H      43.448000     31.392000     63.779000
  C      43.283000     29.304000     64.475000
  H      42.425000     29.482000     65.139000
  O      42.833000     28.826000     63.217000
  H      41.877000     28.509000     63.302000
  C      47.550000     30.056000     65.482000
  O      48.294000     29.166000     65.955000
  O      47.931000     31.181000     65.045000
24
Coordinates from ORCA-job neb_initial_path.QMRegion E   0.000000000000
  C      45.684667     29.824667     67.495333
  H      46.171667     28.885000     67.724667
  H      46.189667     30.692000     67.902000
  C      44.260000     29.824000     67.495333
  C      43.466333     31.156000     67.494667
  O      44.021667     32.159667     67.991667
  O      42.305333     31.125667     67.015667
  O      43.672333     28.769667     67.355000
  C      44.256000     28.248667     64.981333
  H      43.852333     27.250000     64.935333
  C      45.561333     28.454333     65.256333
  H      46.230333     27.637000     65.529333
  C      46.029667     29.795000     65.492667
  C      45.218000     30.861333     64.854000
  H      45.678000     31.845333     64.782333
  C      44.011000     30.615667     64.330333
  H      43.474000     31.392333     63.783333
  C      43.317667     29.290667     64.445667
  H      42.494667     29.418000     65.158667
  O      42.806000     28.877000     63.196667
  H      41.855667     28.554667     63.301333
  C      47.549000     30.065667     65.493667
  O      48.302333     29.172000     65.943333
  O      47.921333     31.187000     65.042333
24
Coordinates from ORCA-job neb_initial_path.QMRegion E   0.000000000000
  C      45.711333     29.819333     67.366667
  H      46.187333     28.899000     67.693333
  H      46.185333     30.692000     67.807000
  C      44.260000     29.806000     67.515667
  C      43.462667     31.139000     67.493333
  O      44.024333     32.147333     67.972333
  O      42.299667     31.097333     67.025333
  O      43.681667     28.758333     67.582000
  C      44.330000     28.223333     64.837667
  H      43.960667     27.222000     64.691667
  C      45.585667     28.448667     65.233667
  H      46.273667     27.637000     65.475667
  C      46.021333     29.808000     65.587333
  C      45.213000     30.870667     64.909000
  H      45.659000     31.862667     64.864667
  C      44.031000     30.615333     64.340667
  H      43.500000     31.392667     63.787667
  C      43.352333     29.277333     64.416333
  H      42.564333     29.354000     65.178333
  O      42.779000     28.928000     63.176333
  H      41.834333     28.600333     63.300667
  C      47.548000     30.075333     65.505333
  O      48.310667     29.178000     65.931667
  O      47.911667     31.193000     65.039667
24
Coordinates from ORCA-job neb_initial_path.QMRegion E   0.000000000000
  C      45.738000     29.814000     67.238000
  H      46.203000     28.913000     67.662000
  H      46.181000     30.692000     67.712000
  C      44.260000     29.788000     67.536000
  C      43.459000     31.122000     67.492000
  O      44.027000     32.135000     67.953000
  O      42.294000     31.069000     67.035000
  O      43.691000     28.747000     67.809000
  C      44.404000     28.198000     64.694000
  H      44.069000     27.194000     64.448000
  C      45.610000     28.443000     65.211000
  H      46.317000     27.637000     65.422000
  C      46.013000     29.821000     65.682000
  C      45.208000     30.880000     64.964000
  H      45.640000     31.880000     64.947000
  C      44.051000     30.615000     64.351000
  H      43.526000     31.393000     63.792000
  C      43.387000     29.264000     64.387000
  H      42.634000     29.290000     65.198000
  O      42.752000     28.979000     63.156000
  H      41.813000     28.646000     63.300000
  C      47.547000     30.085000     65.517000
  O      48.319000     29.184000     65.920000
  O      47.902000     31.199000     65.037000
