24
Coordinates from ORCA-job neb_MEP.QMRegion E -1075.675924706763
  C      45.331000     29.762000     68.304000
  H      45.885000     28.823000     68.346000
  H      45.713000     30.629000     68.839000
  C      44.202000     29.873000     67.595000
  C      43.427000     31.187000     67.518000
  O      43.958000     32.195000     68.032000
  O      42.300000     31.164000     66.953000
  O      43.677000     28.783000     66.933000
  C      44.098000     28.496000     65.547000
  H      43.767000     27.462000     65.393000
  C      45.590000     28.628000     65.465000
  H      46.216000     27.840000     65.889000
  C      46.159000     29.780000     65.055000
  C      45.325000     30.830000     64.461000
  H      45.830000     31.760000     64.193000
  C      44.019000     30.640000     64.213000
  H      43.442000     31.419000     63.713000
  C      43.289000     29.374000     64.562000
  H      42.384000     29.664000     65.114000
  O      42.940000     28.671000     63.380000
  H      41.971000     28.406000     63.425000
  C      47.649000     30.065000     65.228000
  O      48.380000     29.185000     65.741000
  O      48.029000     31.218000     64.863000
24
Coordinates from ORCA-job neb_MEP.QMRegion E -1075.677839285172
  C      45.396281     29.767402     68.188408
  H      45.969492     28.838932     68.177208
  H      45.808984     30.632471     68.705271
  C      44.222548     29.864454     67.553840
  C      43.434741     31.175251     67.510064
  O      43.968898     32.180336     68.027105
  O      42.299992     31.153146     66.960244
  O      43.680968     28.771598     66.908506
  C      44.088491     28.469114     65.518874
  H      43.743574     27.437881     65.372480
  C      45.582267     28.591440     65.419040
  H      46.209530     27.781534     65.800600
  C      46.144809     29.769289     65.073669
  C      45.303921     30.835946     64.520971
  H      45.800270     31.781798     64.303972
  C      44.004208     30.641928     64.242730
  H      43.426442     31.427146     63.755192
  C      43.278204     29.363761     64.549559
  H      42.374607     29.636500     65.113381
  O      42.926816     28.691394     63.352146
  H      41.958346     28.421482     63.397891
  C      47.629449     30.061508     65.262636
  O      48.357131     29.185493     65.787046
  O      48.009986     31.212015     64.889672
24
Coordinates from ORCA-job neb_MEP.QMRegion E -1075.675475292180
  C      45.493516     29.771638     67.997673
  H      46.081197     28.855736     67.922107
  H      45.963192     30.643667     68.444706
  C      44.257204     29.848136     67.487197
  C      43.454905     31.152593     67.493755
  O      43.991288     32.153991     68.017371
  O      42.304333     31.135144     66.975987
  O      43.685574     28.749702     66.881656
  C      44.086144     28.419804     65.456483
  H      43.718822     27.394229     65.333496
  C      45.572962     28.533937     65.345482
  H      46.203002     27.697020     65.658436
  C      46.122542     29.746323     65.108919
  C      45.272265     30.836520     64.621986
  H      45.753873     31.804831     64.492657
  C      43.987336     30.636994     64.286213
  H      43.413519     31.429269     63.806703
  C      43.267135     29.343253     64.526546
  H      42.370518     29.589654     65.114524
  O      42.901906     28.725960     63.306758
  H      41.935156     28.447264     63.358333
  C      47.599971     30.051216     65.325676
  O      48.324034     29.180393     65.865180
  O      47.978575     31.202790     64.955440
24
Coordinates from ORCA-job neb_MEP.QMRegion E -1075.668483340806
  C      45.550204     29.782267     67.876339
  H      46.129036     28.861893     67.802838
  H      46.067315     30.660750     68.248733
  C      44.271612     29.836521     67.460693
  C      43.467690     31.145615     67.487815
  O      44.006415     32.147786     68.009268
  O      42.310236     31.132449     66.984560
  O      43.686546     28.736523     66.894567
  C      44.102104     28.374965     65.386025
  H      43.721309     27.352481     65.289253
  C      45.569533     28.501539     65.304236
  H      46.204581     27.658796     65.587190
  C      46.101426     29.741333     65.163455
  C      45.249890     30.838315     64.695988
  H      45.723336     31.815172     64.606966
  C      43.981875     30.628701     64.307422
  H      43.415279     31.419170     63.816657
  C      43.268263     29.325797     64.505887
  H      42.386584     29.544690     65.125094
  O      42.875789     28.762749     63.269742
  H      41.910866     28.472729     63.330912
  C      47.578294     30.049530     65.382320
  O      48.305767     29.175658     65.912140
  O      47.956244     31.198565     65.005319
24
Coordinates from ORCA-job neb_MEP.QMRegion E -1075.655842126125
  C      45.587623     29.804106     67.799766
  H      46.136926     28.864052     67.787013
  H      46.125405     30.679066     68.145960
  C      44.261490     29.832860     67.481778
  C      43.469268     31.158476     67.494303
  O      44.010482     32.164025     68.006899
  O      42.313656     31.144691     66.987868
  O      43.666846     28.751350     67.005901
  C      44.146227     28.320691     65.255674
  H      43.736674     27.308760     65.240791
  C      45.562778     28.482819     65.286264
  H      46.205822     27.650943     65.580664
  C      46.076063     29.757810     65.250240
  C      45.237935     30.845029     64.741780
  H      45.712616     31.820785     64.647682
  C      43.986064     30.621503     64.309906
  H      43.427484     31.405437     63.799005
  C      43.279694     29.312498     64.485506
  H      42.417028     29.506585     65.138588
  O      42.851381     28.795977     63.239063
  H      41.890762     28.489896     63.316311
  C      47.564611     30.056446     65.430356
  O      48.301431     29.172881     65.927660
  O      47.943285     31.195246     65.024677
24
Coordinates from ORCA-job neb_MEP.QMRegion E -1075.653248617043
  C      45.620645     29.819112     67.733431
  H      46.137622     28.863285     67.790228
  H      46.147696     30.685315     68.110892
  C      44.246648     29.835765     67.507350
  C      43.465388     31.171935     67.498875
  O      44.011324     32.176404     68.005757
  O      42.313734     31.152621     66.988793
  O      43.640954     28.775488     67.146158
  C      44.187471     28.276694     65.124601
  H      43.746121     27.284976     65.204950
  C      45.549274     28.468047     65.277433
  H      46.200833     27.649125     65.587470
  C      46.055665     29.778196     65.324679
  C      45.234084     30.849676     64.758308
  H      45.710506     31.823900     64.654885
  C      43.990169     30.617573     64.306742
  H      43.433842     31.399732     63.789156
  C      43.289428     29.303460     64.470512
  H      42.435754     29.486646     65.141543
  O      42.835829     28.814134     63.219393
  H      41.881121     28.494614     63.310352
  C      47.557820     30.061867     65.452259
  O      48.299399     29.171710     65.929118
  O      47.938103     31.192831     65.026792
24
Coordinates from ORCA-job neb_MEP.QMRegion E -1075.655132397941
  C      45.652051     29.830272     67.638922
  H      46.139702     28.867310     67.781132
  H      46.160120     30.683461     68.071001
  C      44.243960     29.840523     67.503368
  C      43.463277     31.177132     67.499529
  O      44.013453     32.177946     68.007543
  O      42.310894     31.154523     66.995404
  O      43.635115     28.785318     67.211687
  C      44.204630     28.261187     65.080442
  H      43.755059     27.275067     65.177551
  C      45.541330     28.461642     65.285414
  H      46.196967     27.645354     65.594242
  C      46.040572     29.794248     65.408006
  C      45.229646     30.853797     64.782802
  H      45.708632     31.826073     64.666809
  C      43.996272     30.614970     64.309106
  H      43.444241     31.394698     63.781430
  C      43.294180     29.299749     64.468286
  H      42.442122     29.478116     65.142438
  O      42.830665     28.823952     63.214677
  H      41.878450     28.498936     63.308125
  C      47.555250     30.065087     65.470307
  O      48.301746     29.171604     65.932773
  O      47.934814     31.190187     65.029425
24
Coordinates from ORCA-job neb_MEP.QMRegion E -1075.661209331710
  C      45.687252     29.839353     67.523461
  H      46.139296     28.873224     67.771281
  H      46.168142     30.679430     68.028567
  C      44.240142     29.842599     67.495246
  C      43.459116     31.182824     67.499053
  O      44.015074     32.178828     68.009997
  O      42.306141     31.154325     67.002317
  O      43.626122     28.792079     67.278157
  C      44.222359     28.248779     65.040514
  H      43.767003     27.265062     65.144105
  C      45.535465     28.457308     65.293936
  H      46.194210     27.641408     65.599481
  C      46.026274     29.812718     65.508588
  C      45.224426     30.856664     64.810731
  H      45.705442     31.825619     64.679445
  C      44.003688     30.611362     64.313155
  H      43.456766     31.386659     63.772719
  C      43.298799     29.296323     64.465619
  H      42.448757     29.468114     65.144963
  O      42.825230     28.834162     63.208692
  H      41.875509     28.503737     63.306833
  C      47.552947     30.067743     65.485814
  O      48.303313     29.170425     65.934506
  O      47.929796     31.187138     65.029904
24
Coordinates from ORCA-job neb_MEP.QMRegion E -1075.675848385391
  C      45.716595     29.856106     67.369317
  H      46.119551     28.899665     67.747109
  H      46.169160     30.673386     67.952780
  C      44.230527     29.857180     67.483455
  C      43.449711     31.197246     67.502256
  O      44.014354     32.186001     68.017135
  O      42.297252     31.163329     67.013916
  O      43.616332     28.813525     67.389766
  C      44.237903     28.238088     65.011255
  H      43.781193     27.254729     65.107939
  C      45.527088     28.455082     65.323361
  H      46.182029     27.637463     65.632422
  C      46.009302     29.835817     65.649314
  C      45.220023     30.861150     64.855705
  H      45.710530     31.820633     64.683968
  C      44.017683     30.605070     64.321571
  H      43.485538     31.372244     63.752920
  C      43.306809     29.291462     64.466380
  H      42.458142     29.459661     65.148966
  O      42.822537     28.842872     63.207101
  H      41.877015     28.501571     63.308888
  C      47.549403     30.069455     65.504231
  O      48.307056     29.167247     65.929944
  O      47.923793     31.177864     65.021695
24
Coordinates from ORCA-job neb_MEP.QMRegion E -1075.697985971542
  C      45.738000     29.814000     67.238000
  H      46.203000     28.913000     67.662000
  H      46.181000     30.692000     67.712000
  C      44.260000     29.788000     67.536000
  C      43.459000     31.122000     67.492000
  O      44.027000     32.135000     67.953000
  O      42.294000     31.069000     67.035000
  O      43.691000     28.747000     67.809000
  C      44.404000     28.198000     64.694000
  H      44.069000     27.194000     64.448000
  C      45.610000     28.443000     65.211000
  H      46.317000     27.637000     65.422000
  C      46.013000     29.821000     65.682000
  C      45.208000     30.880000     64.964000
  H      45.640000     31.880000     64.947000
  C      44.051000     30.615000     64.351000
  H      43.526000     31.393000     63.792000
  C      43.387000     29.264000     64.387000
  H      42.634000     29.290000     65.198000
  O      42.752000     28.979000     63.156000
  H      41.813000     28.646000     63.300000
  C      47.547000     30.085000     65.517000
  O      48.319000     29.184000     65.920000
  O      47.902000     31.199000     65.037000
