70
Image 0. Energy: -22755.212459523085 
C  51.36678604878739 33.435934420145266 72.83856329270978
H  51.36169665417317 34.28147214663696 73.53177969673858
H  50.884915449741385 32.502878049395235 73.13472555420599
C  51.89293158727988 33.55038831534984 71.60970001946694
C  51.81226136111864 32.4097167562269 70.57736720539793
O  52.168752105316955 31.248772797483095 70.98017351984124
O  51.40785791143014 32.711725746474464 69.45206524232867
O  52.42948184797731 34.74805651412504 71.2153032704634
C  53.531647840911624 34.68537077639438 70.29753476150094
H  53.20379852284403 34.16185017564289 69.38753679387204
C  54.69845450306147 34.00158655529629 70.91425384269877
H  54.57869979683471 32.898882268927245 71.12398736037105
C  55.84770840540722 34.52569462045063 71.34346280687902
C  56.01502778404207 35.9771137436508 71.19862653210478
H  56.91136972872406 36.410206615991136 71.6448911518029
C  55.09381003894401 36.7172611866135 70.55659032293224
H  55.22625234944597 37.79932387294438 70.45816673363159
C  53.90401726798884 36.1129839143505 69.84801658035863
H  53.00389531487151 36.73105951359153 70.02790999907175
O  54.179216771076696 35.996363098559016 68.45896240638416
H  54.479793790478304 36.852837113150414 68.11986606072699
C  56.94781094716087 33.69925114525428 72.05384250368942
O  56.88165284004656 32.43227760463323 71.96573175818281
O  57.79850185233095 34.35457543872168 72.66115167465244
C  64.6102 24.44 41.4106
O  65.794025 24.501776 41.014063
O  63.898916 23.412617 41.443159
H  64.152221 25.37585 41.763361
C  69.3436 25.6591 42.9439
O  70.527425 25.720876 42.547363
O  68.632316 24.631717 42.976459
H  68.885621 26.59495 43.296661
C  72.8725 25.3149 47.3319
O  74.056325 25.376676 46.935363
O  72.161216 24.287517 47.364459
H  72.414521 26.25075 47.684661
C  71.5926 30.793 42.9586
O  72.776425 30.854776 42.562063
O  70.881316 29.765617 42.991159
H  71.134621 31.72885 43.311361
C  69.019 21.2206 47.3221
O  70.202825 21.282376 46.925563
O  68.307716 20.193217 47.354659
H  68.561021 22.15645 47.674861
C  66.3002 28.8655 40.0252
O  67.484025 28.927276 39.628663
O  65.588916 27.838117 40.057759
H  65.842221 29.80135 40.377961
C  63.7309 20.001 45.6405
O  64.914725 20.062776 45.243963
O  63.019616 18.973617 45.673059
H  63.272921 20.93685 45.993261
C  54.7585 30.7735 71.6461
N  54.909077 31.15872 70.382046
H  54.59856 31.821222 71.0783
H  55.105246 30.203682 70.645713
N  54.349601 31.645904 72.562949
H  54.54577 30.690866 72.826616
H  54.463949 31.93844 71.603028
N  55.016821 29.515876 71.993305
H  55.13117 29.808411 71.033384
H  54.706304 30.178378 72.689559
C  60.7949 27.0852 39.7506
O  61.978725 27.146976 39.354063
O  60.083616 26.057817 39.783159
H  60.336921 28.02105 40.103361
C  74.4961 30.5802 46.9785
O  75.679925 30.641976 46.581963
O  73.784816 29.552817 47.011059
H  74.038121 31.51605 47.331261
70
Image 1. Energy: -22754.787940480484 
C  51.873116409275774 33.70609530853024 72.63657283615889
H  52.008365590191346 34.764051293447764 72.87518641195093
H  51.71320037584244 32.98207552403296 73.4340946629358
C  51.9251973859426 33.29983404175428 71.36224453486969
C  51.89810831818387 31.818434105327338 70.94333660952678
O  51.767219235251204 30.958519095871303 71.86282908775482
O  52.13512085905932 31.58207976641645 69.7384976699962
O  52.10588895876208 34.24104618793276 70.37766563524146
C  53.40480466289217 34.36792467349145 69.7867683338646
H  53.44044867362417 33.78457649435728 68.8497465872568
C  54.50891099848188 33.94854191068456 70.67799205894302
H  54.59411314487191 32.8669150025272 70.99267264846499
C  55.43291478730732 34.681938743270486 71.29773800900722
C  55.27387676466053 36.138536922652015 71.22582292799935
H  55.887036518495115 36.730883811769644 71.90733586545004
C  54.3578405330295 36.679356219184506 70.40135413460393
H  54.18371641084969 37.759046823765054 70.39165224413493
C  53.62741313988964 35.844612546058244 69.37375074733556
H  52.61824394422095 36.25812549168728 69.19065308839494
O  54.380008868525515 35.79048593885435 68.17110110090589
H  54.936785776842434 36.5793097841939 68.10241341046331
C  56.557801727054404 34.038576987357914 72.14392273439314
O  56.72567337190816 32.78341358788366 72.02069173675419
O  57.20063926483026 34.81029210893579 72.8634958835793
C  64.6102 24.44 41.4106
O  65.794025 24.501776 41.014063
O  63.898916 23.412617 41.443159
H  64.152221 25.37585 41.763361
C  69.3436 25.6591 42.9439
O  70.527425 25.720876 42.547363
O  68.632316 24.631717 42.976459
H  68.885621 26.59495 43.296661
C  72.8725 25.3149 47.3319
O  74.056325 25.376676 46.935363
O  72.161216 24.287517 47.364459
H  72.414521 26.25075 47.684661
C  71.5926 30.793 42.9586
O  72.776425 30.854776 42.562063
O  70.881316 29.765617 42.991159
H  71.134621 31.72885 43.311361
C  69.019 21.2206 47.3221
O  70.202825 21.282376 46.925563
O  68.307716 20.193217 47.354659
H  68.561021 22.15645 47.674861
C  66.3002 28.8655 40.0252
O  67.484025 28.927276 39.628663
O  65.588916 27.838117 40.057759
H  65.842221 29.80135 40.377961
C  63.7309 20.001 45.6405
O  64.914725 20.062776 45.243963
O  63.019616 18.973617 45.673059
H  63.272921 20.93685 45.993261
C  54.7585 30.7735 71.6461
N  54.909077 31.15872 70.382046
H  54.59856 31.821222 71.0783
H  55.105246 30.203682 70.645713
N  54.349601 31.645904 72.562949
H  54.54577 30.690866 72.826616
H  54.463949 31.93844 71.603028
N  55.016821 29.515876 71.993305
H  55.13117 29.808411 71.033384
H  54.706304 30.178378 72.689559
C  60.7949 27.0852 39.7506
O  61.978725 27.146976 39.354063
O  60.083616 26.057817 39.783159
H  60.336921 28.02105 40.103361
C  74.4961 30.5802 46.9785
O  75.679925 30.641976 46.581963
O  73.784816 29.552817 47.011059
H  74.038121 31.51605 47.331261
70
Image 2. Energy: -22754.592169575215 
C  52.08992828262791 33.87656718321329 72.17174830581867
H  52.34213808756374 34.93619526122292 72.11622781261336
H  51.899592189057564 33.425488543630195 73.14590556520488
C  52.02760155857728 33.09011505682655 71.08483701781496
C  51.810576287715215 31.55842184943661 71.24833026528837
O  51.411190530990005 31.154033948015556 72.36287899449651
O  52.20315054501442 30.83514039975958 70.29281681993663
O  52.268518484400616 33.50359487169845 69.80744229400165
C  53.43333195703979 34.28383659108967 69.40965392941423
H  53.52949955841547 34.02034679904458 68.34548964536644
C  54.66042764803341 33.86330786960477 70.14538347836601
H  55.111986856971036 32.91021048597109 69.84080331149143
C  55.26352188290126 34.598116240413894 71.10489440449975
C  54.79036634696708 35.95541263708564 71.3754236547543
H  55.276305158900364 36.49420059961123 72.19059866860667
C  53.825472717301146 36.51494477779141 70.61903583439266
H  53.50675860645339 37.54715034791303 70.7884664494932
C  53.24076378943685 35.81478105449021 69.41639221647618
H  52.16151092244819 36.015981176880196 69.33338603353704
O  53.82239080097617 36.36696056491133 68.23890117411908
H  54.78712169057353 36.28189566679829 68.30619090949644
C  56.40850940976156 34.00393868405883 71.95810868735713
O  56.68487940656699 32.77582068039682 71.76292216942184
O  56.93100806130706 34.757301050141855 72.78903119803984
C  64.6102 24.44 41.4106
O  65.794025 24.501776 41.014063
O  63.898916 23.412617 41.443159
H  64.152221 25.37585 41.763361
C  69.3436 25.6591 42.9439
O  70.527425 25.720876 42.547363
O  68.632316 24.631717 42.976459
H  68.885621 26.59495 43.296661
C  72.8725 25.3149 47.3319
O  74.056325 25.376676 46.935363
O  72.161216 24.287517 47.364459
H  72.414521 26.25075 47.684661
C  71.5926 30.793 42.9586
O  72.776425 30.854776 42.562063
O  70.881316 29.765617 42.991159
H  71.134621 31.72885 43.311361
C  69.019 21.2206 47.3221
O  70.202825 21.282376 46.925563
O  68.307716 20.193217 47.354659
H  68.561021 22.15645 47.674861
C  66.3002 28.8655 40.0252
O  67.484025 28.927276 39.628663
O  65.588916 27.838117 40.057759
H  65.842221 29.80135 40.377961
C  63.7309 20.001 45.6405
O  64.914725 20.062776 45.243963
O  63.019616 18.973617 45.673059
H  63.272921 20.93685 45.993261
C  54.7585 30.7735 71.6461
N  54.909077 31.15872 70.382046
H  54.59856 31.821222 71.0783
H  55.105246 30.203682 70.645713
N  54.349601 31.645904 72.562949
H  54.54577 30.690866 72.826616
H  54.463949 31.93844 71.603028
N  55.016821 29.515876 71.993305
H  55.13117 29.808411 71.033384
H  54.706304 30.178378 72.689559
C  60.7949 27.0852 39.7506
O  61.978725 27.146976 39.354063
O  60.083616 26.057817 39.783159
H  60.336921 28.02105 40.103361
C  74.4961 30.5802 46.9785
O  75.679925 30.641976 46.581963
O  73.784816 29.552817 47.011059
H  74.038121 31.51605 47.331261
70
Image 3. Energy: -22754.37731777431 
C  52.24229109639961 33.670315103122256 72.0930149154838
H  52.72860594256784 34.641062882313165 72.06652846766036
H  51.823716900225655 33.328558672095916 73.04310874793205
C  52.14559513688851 32.83315775329448 71.03951450608037
C  51.571405957396635 31.39891945696303 71.36265602846773
O  50.555526024645424 31.34338702103714 72.06069279645473
O  52.281897049509574 30.411830581754856 70.98716810163803
O  52.583974079910895 33.036757561513056 69.7586264607734
C  53.574957318095755 34.060957041316854 69.22390479345444
H  53.681864750315384 33.69528790734286 68.19326186874996
C  54.82993655422693 33.92932776829878 69.99796805508413
H  55.44294072556831 33.035528937130046 69.83902339972181
C  55.167785471302494 34.78108831964382 70.98885303656614
C  54.49117893864341 36.07601443615032 71.09731495684447
H  54.80718597682778 36.742494465262766 71.90288830537334
C  53.52682777684898 36.428851480636 70.22338015194221
H  53.07037535016167 37.42338666173003 70.25207813243264
C  53.07127957952804 35.523107957586106 69.10646132277017
H  51.97167360481542 35.4806574060721 69.0890711947732
O  53.433521036709514 36.0793483027375 67.84617077331984
H  54.356223455189365 36.38042182463095 67.86830254350143
C  56.14255519163899 34.29286924632826 72.07618732703203
O  56.575836900271426 33.10348218076296 71.93299004544858
O  56.339500982318164 35.05603932227658 73.03303278845937
C  64.6102 24.44 41.4106
O  65.794025 24.501776 41.014063
O  63.898916 23.412617 41.443159
H  64.152221 25.37585 41.763361
C  69.3436 25.6591 42.9439
O  70.527425 25.720876 42.547363
O  68.632316 24.631717 42.976459
H  68.885621 26.59495 43.296661
C  72.8725 25.3149 47.3319
O  74.056325 25.376676 46.935363
O  72.161216 24.287517 47.364459
H  72.414521 26.25075 47.684661
C  71.5926 30.793 42.9586
O  72.776425 30.854776 42.562063
O  70.881316 29.765617 42.991159
H  71.134621 31.72885 43.311361
C  69.019 21.2206 47.3221
O  70.202825 21.282376 46.925563
O  68.307716 20.193217 47.354659
H  68.561021 22.15645 47.674861
C  66.3002 28.8655 40.0252
O  67.484025 28.927276 39.628663
O  65.588916 27.838117 40.057759
H  65.842221 29.80135 40.377961
C  63.7309 20.001 45.6405
O  64.914725 20.062776 45.243963
O  63.019616 18.973617 45.673059
H  63.272921 20.93685 45.993261
C  54.7585 30.7735 71.6461
N  54.909077 31.15872 70.382046
H  54.59856 31.821222 71.0783
H  55.105246 30.203682 70.645713
N  54.349601 31.645904 72.562949
H  54.54577 30.690866 72.826616
H  54.463949 31.93844 71.603028
N  55.016821 29.515876 71.993305
H  55.13117 29.808411 71.033384
H  54.706304 30.178378 72.689559
C  60.7949 27.0852 39.7506
O  61.978725 27.146976 39.354063
O  60.083616 26.057817 39.783159
H  60.336921 28.02105 40.103361
C  74.4961 30.5802 46.9785
O  75.679925 30.641976 46.581963
O  73.784816 29.552817 47.011059
H  74.038121 31.51605 47.331261
70
Image 4. Energy: -22753.431460758784 
C  52.08558208549246 33.41372736143915 72.11919365236835
H  52.67807024187709 34.32260001450651 72.0905848393874
H  51.66885166925193 33.125169192158154 73.08549507234052
C  51.96661074842676 32.54438407511903 71.05727639914828
C  51.45924592491835 31.1021025596554 71.47870110424245
O  50.34812599845632 31.016723215922735 72.0036597175061
O  52.292431389178546 30.15797436664006 71.29150057196249
O  52.30560941496004 32.712301925758815 69.81980284312843
C  53.768274039092894 34.22343214893069 68.85704399371488
H  53.65169373263728 33.61177273257589 67.9614420918416
C  54.817263638221135 34.00106683427497 69.74275558550428
H  55.430275537191775 33.10333432048617 69.6424366794655
C  55.01303542342916 34.827884732762584 70.83735779700054
C  54.291769770452504 36.07258762670234 70.94567340867161
H  54.51041997521733 36.709714632600644 71.80419266755315
C  53.390716382412066 36.43345126395481 69.99912283208845
H  52.887937192757256 37.40457697578252 70.02595351543219
C  53.0531171046036 35.54728950482353 68.83408732729139
H  51.973240107345646 35.321340203155565 68.87698157042371
O  53.235261966997555 36.20457102166283 67.5851688945704
H  54.16392671959197 36.47524713463921 67.49681301807408
C  55.914547972982625 34.337526102674154 71.97737805435226
O  56.42898032642135 33.18510945755893 71.8035821656155
O  56.01177343809106 35.06805487621547 72.97332480832593
C  64.6102 24.44 41.4106
O  65.794025 24.501776 41.014063
O  63.898916 23.412617 41.443159
H  64.152221 25.37585 41.763361
C  69.3436 25.6591 42.9439
O  70.527425 25.720876 42.547363
O  68.632316 24.631717 42.976459
H  68.885621 26.59495 43.296661
C  72.8725 25.3149 47.3319
O  74.056325 25.376676 46.935363
O  72.161216 24.287517 47.364459
H  72.414521 26.25075 47.684661
C  71.5926 30.793 42.9586
O  72.776425 30.854776 42.562063
O  70.881316 29.765617 42.991159
H  71.134621 31.72885 43.311361
C  69.019 21.2206 47.3221
O  70.202825 21.282376 46.925563
O  68.307716 20.193217 47.354659
H  68.561021 22.15645 47.674861
C  66.3002 28.8655 40.0252
O  67.484025 28.927276 39.628663
O  65.588916 27.838117 40.057759
H  65.842221 29.80135 40.377961
C  63.7309 20.001 45.6405
O  64.914725 20.062776 45.243963
O  63.019616 18.973617 45.673059
H  63.272921 20.93685 45.993261
C  54.7585 30.7735 71.6461
N  54.909077 31.15872 70.382046
H  54.59856 31.821222 71.0783
H  55.105246 30.203682 70.645713
N  54.349601 31.645904 72.562949
H  54.54577 30.690866 72.826616
H  54.463949 31.93844 71.603028
N  55.016821 29.515876 71.993305
H  55.13117 29.808411 71.033384
H  54.706304 30.178378 72.689559
C  60.7949 27.0852 39.7506
O  61.978725 27.146976 39.354063
O  60.083616 26.057817 39.783159
H  60.336921 28.02105 40.103361
C  74.4961 30.5802 46.9785
O  75.679925 30.641976 46.581963
O  73.784816 29.552817 47.011059
H  74.038121 31.51605 47.331261
70
Image 5. Energy: -22752.714941717135 
C  51.986403006847524 33.26460669108992 72.08600338078543
H  52.91346593419744 33.80959452221934 72.25685884204192
H  51.376855661662646 33.13592855897352 72.98151979390943
C  51.796263491954456 32.37951024661333 71.00496812997922
C  51.364858195003976 30.928800423352907 71.47277692560827
O  50.21372840558297 30.72856535025359 71.8574394045247
O  52.3181443768021 30.086434219858365 71.4413409487593
O  52.07196601324388 32.51987209175042 69.77919563574508
C  53.750452747181626 34.243242282653526 68.61965734542643
H  53.651903884725776 33.61308647111535 67.73309621266876
C  54.68314063738556 33.97496184219528 69.59504798450071
H  55.28454716498796 33.066078261475184 69.52606808460301
C  54.84476145722433 34.81283204552178 70.70626475643037
C  54.09629952923525 36.0272229191558 70.79815598626513
H  54.26699112368402 36.65917208411032 71.67053317017783
C  53.24158055667518 36.393887048121265 69.80383364884743
H  52.73696348740871 37.36425037363655 69.81282942276114
C  52.96633424809102 35.51658842255053 68.61913036968338
H  51.90481608817661 35.20524028619452 68.7026714500137
O  53.046873087935865 36.20591470691019 67.38157302801164
H  53.97110278704869 36.463985216798136 67.2339440901388
C  55.725386959655886 34.361640334712874 71.86958335590421
O  56.34033344832803 33.25836387603681 71.6962922928666
O  55.723693566965 35.07125394470761 72.88807423033455
C  64.6102 24.44 41.4106
O  65.794025 24.501776 41.014063
O  63.898916 23.412617 41.443159
H  64.152221 25.37585 41.763361
C  69.3436 25.6591 42.9439
O  70.527425 25.720876 42.547363
O  68.632316 24.631717 42.976459
H  68.885621 26.59495 43.296661
C  72.8725 25.3149 47.3319
O  74.056325 25.376676 46.935363
O  72.161216 24.287517 47.364459
H  72.414521 26.25075 47.684661
C  71.5926 30.793 42.9586
O  72.776425 30.854776 42.562063
O  70.881316 29.765617 42.991159
H  71.134621 31.72885 43.311361
C  69.019 21.2206 47.3221
O  70.202825 21.282376 46.925563
O  68.307716 20.193217 47.354659
H  68.561021 22.15645 47.674861
C  66.3002 28.8655 40.0252
O  67.484025 28.927276 39.628663
O  65.588916 27.838117 40.057759
H  65.842221 29.80135 40.377961
C  63.7309 20.001 45.6405
O  64.914725 20.062776 45.243963
O  63.019616 18.973617 45.673059
H  63.272921 20.93685 45.993261
C  54.7585 30.7735 71.6461
N  54.909077 31.15872 70.382046
H  54.59856 31.821222 71.0783
H  55.105246 30.203682 70.645713
N  54.349601 31.645904 72.562949
H  54.54577 30.690866 72.826616
H  54.463949 31.93844 71.603028
N  55.016821 29.515876 71.993305
H  55.13117 29.808411 71.033384
H  54.706304 30.178378 72.689559
C  60.7949 27.0852 39.7506
O  61.978725 27.146976 39.354063
O  60.083616 26.057817 39.783159
H  60.336921 28.02105 40.103361
C  74.4961 30.5802 46.9785
O  75.679925 30.641976 46.581963
O  73.784816 29.552817 47.011059
H  74.038121 31.51605 47.331261
70
Image 6. Energy: -22751.849481414578 
C  51.92800386428807 33.24135352251854 71.93435381217184
H  52.94894665181884 33.26662920143136 72.36178192814286
H  51.17428800763655 33.31943643094952 72.72025670953074
C  51.65269115025309 32.27986288253107 70.88293925147299
C  51.29663196960384 30.836195493602013 71.39239159609141
O  50.142322852458875 30.575467230866536 71.71201225667701
O  52.313800662048806 30.070315798840426 71.4149686221355
O  51.76827555070538 32.43752423951075 69.66713648629506
C  53.63526500971247 34.18469330030029 68.48166802347974
H  53.56033712148753 33.56060045570529 67.58776308831908
C  54.52356522319364 33.89899780688734 69.48865050831276
H  55.118687118345605 32.98424031183134 69.42732330694913
C  54.69287245410851 34.74644455669144 70.6000306194181
C  53.93608842655328 35.945545876525664 70.68431755128587
H  54.09350028127375 36.581884449797286 71.5556393511731
C  53.09786455341131 36.318328509294986 69.67213560334301
H  52.619263364203896 37.3021356407686 69.66057310934302
C  52.83533385262 35.4452551170062 68.48189227106012
H  51.77836672126899 35.12001786966489 68.5722617319474
O  52.895478164086185 36.1421330653044 67.24762707436805
H  53.81829768289734 36.39183241856503 67.08183546677243
C  55.57547665464106 34.32807134906073 71.76063326047934
O  56.243036360588384 33.24937963986715 71.59291611158699
O  55.55857719279475 35.03377706248408 72.78308059963553
C  64.6102 24.44 41.4106
O  65.794025 24.501776 41.014063
O  63.898916 23.412617 41.443159
H  64.152221 25.37585 41.763361
C  69.3436 25.6591 42.9439
O  70.527425 25.720876 42.547363
O  68.632316 24.631717 42.976459
H  68.885621 26.59495 43.296661
C  72.8725 25.3149 47.3319
O  74.056325 25.376676 46.935363
O  72.161216 24.287517 47.364459
H  72.414521 26.25075 47.684661
C  71.5926 30.793 42.9586
O  72.776425 30.854776 42.562063
O  70.881316 29.765617 42.991159
H  71.134621 31.72885 43.311361
C  69.019 21.2206 47.3221
O  70.202825 21.282376 46.925563
O  68.307716 20.193217 47.354659
H  68.561021 22.15645 47.674861
C  66.3002 28.8655 40.0252
O  67.484025 28.927276 39.628663
O  65.588916 27.838117 40.057759
H  65.842221 29.80135 40.377961
C  63.7309 20.001 45.6405
O  64.914725 20.062776 45.243963
O  63.019616 18.973617 45.673059
H  63.272921 20.93685 45.993261
C  54.7585 30.7735 71.6461
N  54.909077 31.15872 70.382046
H  54.59856 31.821222 71.0783
H  55.105246 30.203682 70.645713
N  54.349601 31.645904 72.562949
H  54.54577 30.690866 72.826616
H  54.463949 31.93844 71.603028
N  55.016821 29.515876 71.993305
H  55.13117 29.808411 71.033384
H  54.706304 30.178378 72.689559
C  60.7949 27.0852 39.7506
O  61.978725 27.146976 39.354063
O  60.083616 26.057817 39.783159
H  60.336921 28.02105 40.103361
C  74.4961 30.5802 46.9785
O  75.679925 30.641976 46.581963
O  73.784816 29.552817 47.011059
H  74.038121 31.51605 47.331261
70
Image 7. Energy: -22752.200626212067 
C  51.96018328292028 33.145549531326694 71.79154050656307
H  52.773863332505684 32.85474819091369 72.46637281079661
H  51.13975882972476 33.559570230276144 72.40705337169383
C  51.54701132315087 32.17233320909421 70.75493972357367
C  51.25541276587442 30.735182790175177 71.27284432411638
O  50.087469247996864 30.475988192135045 71.5704997128052
O  52.27744166702476 29.978959950208473 71.35897685740821
O  51.41952715413843 32.43274406833809 69.5654841379958
C  53.54464121825452 34.13423285441214 68.33598220812941
H  53.46711989401642 33.50841771201987 67.44455078974532
C  54.34922693453886 33.800468277404775 69.37220093576843
H  54.96410313453593 32.89771347036579 69.322010984305
C  54.40338629062379 34.59753663027746 70.55813346158365
C  53.75591964260451 35.87254420486713 70.57236666307762
H  53.94238512671681 36.50505490011997 71.4400250961993
C  52.99375344246021 36.26740941958964 69.5262676441017
H  52.52069739834438 37.25015352667034 69.51014409137251
C  52.715719523476075 35.37237893718352 68.35970709496297
H  51.66097322053787 35.016272227615936 68.48103020740166
O  52.74579718513749 36.0593576753841 67.11950120486783
H  53.66706097194281 36.31520863402774 66.94944838065506
C  55.39801612415247 34.259334984108 71.671568865735
O  56.128465303514936 33.23030307354801 71.47002417239034
O  55.419142895793065 34.98774947994217 72.67084495474083
C  64.6102 24.44 41.4106
O  65.794025 24.501776 41.014063
O  63.898916 23.412617 41.443159
H  64.152221 25.37585 41.763361
C  69.3436 25.6591 42.9439
O  70.527425 25.720876 42.547363
O  68.632316 24.631717 42.976459
H  68.885621 26.59495 43.296661
C  72.8725 25.3149 47.3319
O  74.056325 25.376676 46.935363
O  72.161216 24.287517 47.364459
H  72.414521 26.25075 47.684661
C  71.5926 30.793 42.9586
O  72.776425 30.854776 42.562063
O  70.881316 29.765617 42.991159
H  71.134621 31.72885 43.311361
C  69.019 21.2206 47.3221
O  70.202825 21.282376 46.925563
O  68.307716 20.193217 47.354659
H  68.561021 22.15645 47.674861
C  66.3002 28.8655 40.0252
O  67.484025 28.927276 39.628663
O  65.588916 27.838117 40.057759
H  65.842221 29.80135 40.377961
C  63.7309 20.001 45.6405
O  64.914725 20.062776 45.243963
O  63.019616 18.973617 45.673059
H  63.272921 20.93685 45.993261
C  54.7585 30.7735 71.6461
N  54.909077 31.15872 70.382046
H  54.59856 31.821222 71.0783
H  55.105246 30.203682 70.645713
N  54.349601 31.645904 72.562949
H  54.54577 30.690866 72.826616
H  54.463949 31.93844 71.603028
N  55.016821 29.515876 71.993305
H  55.13117 29.808411 71.033384
H  54.706304 30.178378 72.689559
C  60.7949 27.0852 39.7506
O  61.978725 27.146976 39.354063
O  60.083616 26.057817 39.783159
H  60.336921 28.02105 40.103361
C  74.4961 30.5802 46.9785
O  75.679925 30.641976 46.581963
O  73.784816 29.552817 47.011059
H  74.038121 31.51605 47.331261
70
Image 8. Energy: -22752.836053294595 
C  51.96590586300224 33.02037374092951 71.66237116226725
H  52.53568153520216 32.57372798273171 72.48212645226144
H  51.226194152829926 33.73482292016292 72.0499919043893
C  51.45101745758696 32.10235687088887 70.65122226868417
C  51.225485077615105 30.652729913166056 71.15386432589665
O  50.05833786449931 30.339769280404937 71.40331921899404
O  52.28054605953495 29.949278258001137 71.29509740011957
O  51.15135327331201 32.425949158237145 69.50011976397792
C  53.4036274527367 34.04430826681456 68.2172964103445
H  53.35018273991598 33.42948863553302 67.31502843679175
C  54.17469548467061 33.6973425460935 69.27337493742455
H  54.79825217850206 32.79970651987704 69.22323273497183
C  54.17590776635697 34.467643857135904 70.48635486887618
C  53.56468276871118 35.76761040925329 70.46828187024593
H  53.76404076725195 36.40849326543432 71.32766895123828
C  52.84217029255852 36.17719093995672 69.40186201353302
H  52.393421055577264 37.172458753848346 69.36878627583823
C  52.56677823649937 35.28012827146214 68.23431126167304
H  51.518609601609135 34.91514488099021 68.36396597868504
O  52.59359623937125 35.96572943559359 66.99647467588478
H  53.51551824818326 36.219173743729996 66.82878232554047
C  55.23213007599437 34.22102486227863 71.58289905465047
O  56.05585454599096 33.27224826618906 71.36058673853755
O  55.22319219249149 34.96160138129306 72.57182903913704
C  64.6102 24.44 41.4106
O  65.794025 24.501776 41.014063
O  63.898916 23.412617 41.443159
H  64.152221 25.37585 41.763361
C  69.3436 25.6591 42.9439
O  70.527425 25.720876 42.547363
O  68.632316 24.631717 42.976459
H  68.885621 26.59495 43.296661
C  72.8725 25.3149 47.3319
O  74.056325 25.376676 46.935363
O  72.161216 24.287517 47.364459
H  72.414521 26.25075 47.684661
C  71.5926 30.793 42.9586
O  72.776425 30.854776 42.562063
O  70.881316 29.765617 42.991159
H  71.134621 31.72885 43.311361
C  69.019 21.2206 47.3221
O  70.202825 21.282376 46.925563
O  68.307716 20.193217 47.354659
H  68.561021 22.15645 47.674861
C  66.3002 28.8655 40.0252
O  67.484025 28.927276 39.628663
O  65.588916 27.838117 40.057759
H  65.842221 29.80135 40.377961
C  63.7309 20.001 45.6405
O  64.914725 20.062776 45.243963
O  63.019616 18.973617 45.673059
H  63.272921 20.93685 45.993261
C  54.7585 30.7735 71.6461
N  54.909077 31.15872 70.382046
H  54.59856 31.821222 71.0783
H  55.105246 30.203682 70.645713
N  54.349601 31.645904 72.562949
H  54.54577 30.690866 72.826616
H  54.463949 31.93844 71.603028
N  55.016821 29.515876 71.993305
H  55.13117 29.808411 71.033384
H  54.706304 30.178378 72.689559
C  60.7949 27.0852 39.7506
O  61.978725 27.146976 39.354063
O  60.083616 26.057817 39.783159
H  60.336921 28.02105 40.103361
C  74.4961 30.5802 46.9785
O  75.679925 30.641976 46.581963
O  73.784816 29.552817 47.011059
H  74.038121 31.51605 47.331261
70
Image 9. Energy: -22753.291634412628 
C  51.98762268650889 32.94462758590462 71.51740245301964
H  52.36281824252758 32.469992010546854 72.43708099276076
H  51.39649028111405 33.844611277125956 71.7299844209387
C  51.36667078205427 32.04410690881226 70.5508127421849
C  51.19679471859857 30.574393199095702 71.02882691179235
O  50.04372204469422 30.1731413087732 71.20620847067273
O  52.28853696176638 29.93968073351887 71.22379228304035
O  50.96368866222617 32.400212868862575 69.43983493334727
C  53.2484249157061 33.93699525624986 68.10959211174266
H  53.23262525456557 33.334298307382205 67.19699919182108
C  53.99093727904703 33.58558583107417 69.18167757602407
H  54.61857795862778 32.68983540740407 69.14019875132826
C  53.94318133066205 34.3350871133785 70.4159837233276
C  53.342264697882825 35.64766101190659 70.36991086097365
H  53.53680860978142 36.29460560904229 71.22595894298836
C  52.66198872017054 36.06622947431696 69.28230071274734
H  52.250331782615916 37.077074677260974 69.22544440176809
C  52.40252206640391 35.170204005045505 68.10965479198296
H  51.35483848989567 34.80657562772411 68.22610817561757
O  52.44612839539574 35.85711013683292 66.87397897423469
H  53.36843152035212 36.11222730523501 66.71227902867562
C  55.047540775404485 34.19312890816676 71.4965315757673
O  55.96083556974522 33.33458681559104 71.26442336813373
O  54.98550422424346 34.93542078074388 72.48119252509974
C  64.6102 24.44 41.4106
O  65.794025 24.501776 41.014063
O  63.898916 23.412617 41.443159
H  64.152221 25.37585 41.763361
C  69.3436 25.6591 42.9439
O  70.527425 25.720876 42.547363
O  68.632316 24.631717 42.976459
H  68.885621 26.59495 43.296661
C  72.8725 25.3149 47.3319
O  74.056325 25.376676 46.935363
O  72.161216 24.287517 47.364459
H  72.414521 26.25075 47.684661
C  71.5926 30.793 42.9586
O  72.776425 30.854776 42.562063
O  70.881316 29.765617 42.991159
H  71.134621 31.72885 43.311361
C  69.019 21.2206 47.3221
O  70.202825 21.282376 46.925563
O  68.307716 20.193217 47.354659
H  68.561021 22.15645 47.674861
C  66.3002 28.8655 40.0252
O  67.484025 28.927276 39.628663
O  65.588916 27.838117 40.057759
H  65.842221 29.80135 40.377961
C  63.7309 20.001 45.6405
O  64.914725 20.062776 45.243963
O  63.019616 18.973617 45.673059
H  63.272921 20.93685 45.993261
C  54.7585 30.7735 71.6461
N  54.909077 31.15872 70.382046
H  54.59856 31.821222 71.0783
H  55.105246 30.203682 70.645713
N  54.349601 31.645904 72.562949
H  54.54577 30.690866 72.826616
H  54.463949 31.93844 71.603028
N  55.016821 29.515876 71.993305
H  55.13117 29.808411 71.033384
H  54.706304 30.178378 72.689559
C  60.7949 27.0852 39.7506
O  61.978725 27.146976 39.354063
O  60.083616 26.057817 39.783159
H  60.336921 28.02105 40.103361
C  74.4961 30.5802 46.9785
O  75.679925 30.641976 46.581963
O  73.784816 29.552817 47.011059
H  74.038121 31.51605 47.331261
70
Image 10. Energy: -22754.061346484414 
C  52.1597952822206 33.05240039360836 71.23791701069851
H  52.44885081555309 32.53751128754935 72.1843848843019
H  51.40803523829464 33.79931988364017 71.54944104983501
C  51.34258808260608 32.03790623806119 70.4013973549118
C  51.16161812866185 30.566198303908664 70.94186478078433
O  50.029745310231434 30.12132706325627 71.06276226511854
O  52.27832827709961 29.972002926173126 71.1605432637543
O  50.81956440465641 32.34337005118872 69.34868919501385
C  53.11782466208124 33.82833183222769 68.00661485199073
H  53.18702996731392 33.26975361483116 67.06753406562815
C  53.758138375965686 33.42750457078433 69.10927473376931
H  54.42554640123087 32.55819887869497 69.06217677811442
C  53.49988647935032 34.03700893324219 70.46374529481648
C  53.05281132228315 35.46720073858597 70.3005228501295
H  53.28649696716527 36.13150463994163 71.1355646708093
C  52.49031177868362 35.92511444364058 69.17763459951114
H  52.17139208421238 36.968048953667356 69.088754001308
C  52.23172796911777 35.04302865597331 67.98696325939173
H  51.185707056609374 34.68881989832718 68.05559962016287
O  52.31968056492036 35.74586000759236 66.75896077604493
H  53.24698982079419 35.993769137329764 66.61950626607654
C  54.78750198202107 34.127890333958995 71.4255375680952
O  55.79526945712687 33.40257596248704 71.13763333002305
O  54.722550571785305 34.89183536132953 72.39048534974863
C  64.6102 24.44 41.4106
O  65.794025 24.501776 41.014063
O  63.898916 23.412617 41.443159
H  64.152221 25.37585 41.763361
C  69.3436 25.6591 42.9439
O  70.527425 25.720876 42.547363
O  68.632316 24.631717 42.976459
H  68.885621 26.59495 43.296661
C  72.8725 25.3149 47.3319
O  74.056325 25.376676 46.935363
O  72.161216 24.287517 47.364459
H  72.414521 26.25075 47.684661
C  71.5926 30.793 42.9586
O  72.776425 30.854776 42.562063
O  70.881316 29.765617 42.991159
H  71.134621 31.72885 43.311361
C  69.019 21.2206 47.3221
O  70.202825 21.282376 46.925563
O  68.307716 20.193217 47.354659
H  68.561021 22.15645 47.674861
C  66.3002 28.8655 40.0252
O  67.484025 28.927276 39.628663
O  65.588916 27.838117 40.057759
H  65.842221 29.80135 40.377961
C  63.7309 20.001 45.6405
O  64.914725 20.062776 45.243963
O  63.019616 18.973617 45.673059
H  63.272921 20.93685 45.993261
C  54.7585 30.7735 71.6461
N  54.909077 31.15872 70.382046
H  54.59856 31.821222 71.0783
H  55.105246 30.203682 70.645713
N  54.349601 31.645904 72.562949
H  54.54577 30.690866 72.826616
H  54.463949 31.93844 71.603028
N  55.016821 29.515876 71.993305
H  55.13117 29.808411 71.033384
H  54.706304 30.178378 72.689559
C  60.7949 27.0852 39.7506
O  61.978725 27.146976 39.354063
O  60.083616 26.057817 39.783159
H  60.336921 28.02105 40.103361
C  74.4961 30.5802 46.9785
O  75.679925 30.641976 46.581963
O  73.784816 29.552817 47.011059
H  74.038121 31.51605 47.331261
70
Image 11. Energy: -22754.823072234187 
C  52.16587181543181 33.015993666500734 71.12932517832309
H  52.66768488486756 32.4026861320208 71.90075757551152
H  51.467868707589616 33.661511543342 71.68714233828204
C  51.27655274728946 32.05282692105936 70.32751786247846
C  51.196594606109954 30.572446992685055 70.84014778473643
O  50.086666341003856 30.04486416017346 70.89856817324558
O  52.323075467510876 30.046201705136692 71.12697876862582
O  50.64173786153066 32.396544840684825 69.35917905670867
C  53.05419537311819 33.68986673990998 67.88436455181137
H  53.245297562452826 33.12662702592126 66.96508164394761
C  53.577612060815376 33.31002951571261 69.05165982072963
H  54.218469150166584 32.420885049578004 69.08772131538036
C  53.21626886441739 33.9588014225052 70.36986173755496
C  52.67324867977256 35.341779256113846 70.14162839207023
H  52.74764324236632 35.99871334237648 71.00940358274642
C  52.241676048406966 35.776697859213456 68.9584188457293
H  51.92610442068728 36.81496689031191 68.82835042015643
C  52.146541053344954 34.88286067484287 67.7523118432004
H  51.10605787431978 34.50889874540582 67.69405177641758
O  52.36639483776653 35.58241463532973 66.53954066740262
H  53.297605177412926 35.85055053899992 66.51994642545463
C  54.44120668631497 34.18369200119456 71.3675412756504
O  55.51301723415789 33.53286135429562 71.13104882778555
O  54.260105343154635 34.93285105669573 72.33028982604438
C  64.6102 24.44 41.4106
O  65.794025 24.501776 41.014063
O  63.898916 23.412617 41.443159
H  64.152221 25.37585 41.763361
C  69.3436 25.6591 42.9439
O  70.527425 25.720876 42.547363
O  68.632316 24.631717 42.976459
H  68.885621 26.59495 43.296661
C  72.8725 25.3149 47.3319
O  74.056325 25.376676 46.935363
O  72.161216 24.287517 47.364459
H  72.414521 26.25075 47.684661
C  71.5926 30.793 42.9586
O  72.776425 30.854776 42.562063
O  70.881316 29.765617 42.991159
H  71.134621 31.72885 43.311361
C  69.019 21.2206 47.3221
O  70.202825 21.282376 46.925563
O  68.307716 20.193217 47.354659
H  68.561021 22.15645 47.674861
C  66.3002 28.8655 40.0252
O  67.484025 28.927276 39.628663
O  65.588916 27.838117 40.057759
H  65.842221 29.80135 40.377961
C  63.7309 20.001 45.6405
O  64.914725 20.062776 45.243963
O  63.019616 18.973617 45.673059
H  63.272921 20.93685 45.993261
C  54.7585 30.7735 71.6461
N  54.909077 31.15872 70.382046
H  54.59856 31.821222 71.0783
H  55.105246 30.203682 70.645713
N  54.349601 31.645904 72.562949
H  54.54577 30.690866 72.826616
H  54.463949 31.93844 71.603028
N  55.016821 29.515876 71.993305
H  55.13117 29.808411 71.033384
H  54.706304 30.178378 72.689559
C  60.7949 27.0852 39.7506
O  61.978725 27.146976 39.354063
O  60.083616 26.057817 39.783159
H  60.336921 28.02105 40.103361
C  74.4961 30.5802 46.9785
O  75.679925 30.641976 46.581963
O  73.784816 29.552817 47.011059
H  74.038121 31.51605 47.331261
70
Image 12. Energy: -22755.018292541303 
C  52.451884925299176 32.79105501294137 71.01327601167972
H  53.284076096087865 31.993595485157396 71.15253735636094
H  52.34374379836646 33.199325900079316 72.03218020453967
C  51.21960814528421 31.98075769071727 70.66021984421066
C  51.187927167346665 30.450382355085733 71.04434284136889
O  50.073699006413456 29.93808490122091 71.0889857417419
O  52.306981083823224 29.885008615192056 71.28443786183476
O  50.262232522727636 32.523082038129466 70.16891861818661
C  52.52743454668768 33.69584266104081 67.62873368627896
H  52.57603612445022 33.17489291004593 66.66856304493943
C  53.130664020446595 33.19626227403156 68.7068222572662
H  53.67045545284411 32.242978432412386 68.6609434800264
C  53.06061705738273 33.82530766572466 70.0647153336978
C  52.32005435973579 35.13069503514078 70.08609913627609
H  52.30681409200555 35.65204968498902 71.04819874659513
C  51.81610887406716 35.68784825779628 68.98160884812674
H  51.38249710184463 36.691593776326826 69.01843542494524
C  51.82375441307369 35.02511430734221 67.62944365055594
H  50.77466651300948 34.87938165786587 67.31373181584954
O  52.38727097355439 35.88126665843826 66.63960470303603
H  53.33964114103922 35.928758753357606 66.81754445749971
C  54.513123449222256 34.12477049814798 70.65473939069304
O  55.47484082630217 34.02144395834775 69.87199119198034
O  54.55346935898745 34.35516351048014 71.89209390230455
C  64.6102 24.44 41.4106
O  65.794025 24.501776 41.014063
O  63.898916 23.412617 41.443159
H  64.152221 25.37585 41.763361
C  69.3436 25.6591 42.9439
O  70.527425 25.720876 42.547363
O  68.632316 24.631717 42.976459
H  68.885621 26.59495 43.296661
C  72.8725 25.3149 47.3319
O  74.056325 25.376676 46.935363
O  72.161216 24.287517 47.364459
H  72.414521 26.25075 47.684661
C  71.5926 30.793 42.9586
O  72.776425 30.854776 42.562063
O  70.881316 29.765617 42.991159
H  71.134621 31.72885 43.311361
C  69.019 21.2206 47.3221
O  70.202825 21.282376 46.925563
O  68.307716 20.193217 47.354659
H  68.561021 22.15645 47.674861
C  66.3002 28.8655 40.0252
O  67.484025 28.927276 39.628663
O  65.588916 27.838117 40.057759
H  65.842221 29.80135 40.377961
C  63.7309 20.001 45.6405
O  64.914725 20.062776 45.243963
O  63.019616 18.973617 45.673059
H  63.272921 20.93685 45.993261
C  54.7585 30.7735 71.6461
N  54.909077 31.15872 70.382046
H  54.59856 31.821222 71.0783
H  55.105246 30.203682 70.645713
N  54.349601 31.645904 72.562949
H  54.54577 30.690866 72.826616
H  54.463949 31.93844 71.603028
N  55.016821 29.515876 71.993305
H  55.13117 29.808411 71.033384
H  54.706304 30.178378 72.689559
C  60.7949 27.0852 39.7506
O  61.978725 27.146976 39.354063
O  60.083616 26.057817 39.783159
H  60.336921 28.02105 40.103361
C  74.4961 30.5802 46.9785
O  75.679925 30.641976 46.581963
O  73.784816 29.552817 47.011059
H  74.038121 31.51605 47.331261
70
Image 13. Energy: -22755.997206176617 
C  52.31462924789848 32.55125018317373 70.81443548634671
H  53.2505925089611 31.970007302678304 71.04532651158087
H  52.06768323005924 32.973031372565096 71.8073631604119
C  51.207919205106066 31.569726949273623 70.47249357758417
C  51.17541547676769 30.23903198585375 71.29745306748647
O  50.06917102124233 29.74724507977889 71.50261663998296
O  52.30542483672807 29.793426533037337 71.6852202803755
O  50.357584007007155 31.833192245566213 69.66141328139369
C  52.73609071188501 33.826785802315605 67.35703361641211
H  53.03200613159357 33.45627512753888 66.37090896448096
C  53.00103744244332 33.11889126580591 68.4598539851655
H  53.52846434667439 32.15901288032611 68.41024189694767
C  52.68732421516708 33.65610349002262 69.84044595263317
C  51.588287279918106 34.69167346912071 69.80251601864725
H  51.06397813434425 34.8946049060269 70.74215818527388
C  51.299789074975514 35.37258254234474 68.69080453524714
H  50.531344068911004 36.15159623915207 68.69662781966053
C  52.10551449361455 35.19945009934623 67.42652518618416
H  51.46762663952075 35.35802768710883 66.54268473850244
O  53.112338267441004 36.21166169225764 67.36345769420649
H  53.62147761421823 36.109515653140484 68.19445353579319
C  54.05525613938488 34.36522289069017 70.2883164146173
O  54.277354114028896 35.49885034873292 69.86290650701919
O  54.86139786210537 33.696586284144516 71.02024037405235
C  64.6102 24.44 41.4106
O  65.794025 24.501776 41.014063
O  63.898916 23.412617 41.443159
H  64.152221 25.37585 41.763361
C  69.3436 25.6591 42.9439
O  70.527425 25.720876 42.547363
O  68.632316 24.631717 42.976459
H  68.885621 26.59495 43.296661
C  72.8725 25.3149 47.3319
O  74.056325 25.376676 46.935363
O  72.161216 24.287517 47.364459
H  72.414521 26.25075 47.684661
C  71.5926 30.793 42.9586
O  72.776425 30.854776 42.562063
O  70.881316 29.765617 42.991159
H  71.134621 31.72885 43.311361
C  69.019 21.2206 47.3221
O  70.202825 21.282376 46.925563
O  68.307716 20.193217 47.354659
H  68.561021 22.15645 47.674861
C  66.3002 28.8655 40.0252
O  67.484025 28.927276 39.628663
O  65.588916 27.838117 40.057759
H  65.842221 29.80135 40.377961
C  63.7309 20.001 45.6405
O  64.914725 20.062776 45.243963
O  63.019616 18.973617 45.673059
H  63.272921 20.93685 45.993261
C  54.7585 30.7735 71.6461
N  54.909077 31.15872 70.382046
H  54.59856 31.821222 71.0783
H  55.105246 30.203682 70.645713
N  54.349601 31.645904 72.562949
H  54.54577 30.690866 72.826616
H  54.463949 31.93844 71.603028
N  55.016821 29.515876 71.993305
H  55.13117 29.808411 71.033384
H  54.706304 30.178378 72.689559
C  60.7949 27.0852 39.7506
O  61.978725 27.146976 39.354063
O  60.083616 26.057817 39.783159
H  60.336921 28.02105 40.103361
C  74.4961 30.5802 46.9785
O  75.679925 30.641976 46.581963
O  73.784816 29.552817 47.011059
H  74.038121 31.51605 47.331261
