70
-2 1 -836.2386031939509
C       51.38338723    33.42554218    72.85343051
H       51.38444047    34.27191016    73.54600840
H       50.90683626    32.49144091    73.15527369
C       51.89740502    33.54229608    71.61959367
C       51.81468969    32.40242543    70.58600286
O       52.16554350    31.24001238    70.98908675
O       51.41509264    32.70715279    69.45951957
O       52.42466106    34.74304534    71.22256533
C       53.52337000    34.68781905    70.30103018
H       53.19367177    34.16785898    69.38986215
C       54.69425081    34.00331027    70.90991795
H       54.57345233    32.90075274    71.12095653
C       55.84689801    34.52774452    71.33059792
C       56.01226431    35.97987627    71.18845671
H       56.91277005    36.41282959    71.62720382
C       55.08429088    36.72112381    70.55836530
H       55.21483813    37.80364072    70.46393534
C       53.89081133    36.11810221    69.85563817
H       52.99091516    36.73410705    70.04265605
O       54.15863487    36.00755516    68.46468358
H       54.47135722    36.86237663    68.13154991
C       56.95773379    33.70223477    72.02557993
O       56.87846996    32.43445843    71.95764784
O       57.83055623    34.35796692    72.60064693
C       64.61020000    24.44000000    41.41060000
O       65.79402500    24.50177600    41.01406300
O       63.89891600    23.41261700    41.44315900
H       64.15222100    25.37585000    41.76336100
C       69.34360000    25.65910000    42.94390000
O       70.52742500    25.72087600    42.54736300
O       68.63231600    24.63171700    42.97645900
H       68.88562100    26.59495000    43.29666100
C       72.87250000    25.31490000    47.33190000
O       74.05632500    25.37667600    46.93536300
O       72.16121600    24.28751700    47.36445900
H       72.41452100    26.25075000    47.68466100
C       71.59260000    30.79300000    42.95860000
O       72.77642500    30.85477600    42.56206300
O       70.88131600    29.76561700    42.99115900
H       71.13462100    31.72885000    43.31136100
C       69.01900000    21.22060000    47.32210000
O       70.20282500    21.28237600    46.92556300
O       68.30771600    20.19321700    47.35465900
H       68.56102100    22.15645000    47.67486100
C       66.30020000    28.86550000    40.02520000
O       67.48402500    28.92727600    39.62866300
O       65.58891600    27.83811700    40.05775900
H       65.84222100    29.80135000    40.37796100
C       63.73090000    20.00100000    45.64050000
O       64.91472500    20.06277600    45.24396300
O       63.01961600    18.97361700    45.67305900
H       63.27292100    20.93685000    45.99326100
C       54.75850000    30.77350000    71.64610000
N       54.90907700    31.15872000    70.38204600
H       54.59856000    31.82122200    71.07830000
H       55.10524600    30.20368200    70.64571300
N       54.34960100    31.64590400    72.56294900
H       54.54577000    30.69086600    72.82661600
H       54.46394900    31.93844000    71.60302800
N       55.01682100    29.51587600    71.99330500
H       55.13117000    29.80841100    71.03338400
H       54.70630400    30.17837800    72.68955900
C       60.79490000    27.08520000    39.75060000
O       61.97872500    27.14697600    39.35406300
O       60.08361600    26.05781700    39.78315900
H       60.33692100    28.02105000    40.10336100
C       74.49610000    30.58020000    46.97850000
O       75.67992500    30.64197600    46.58196300
O       73.78481600    29.55281700    47.01105900
H       74.03812100    31.51605000    47.33126100
