70
-2 1 -836.2674286508433
C       52.31469736    32.55739305    70.81815510
H       53.24789650    31.97056120    71.04540631
H       52.07339030    32.98460226    71.81016022
C       51.20051015    31.58249575    70.48670832
C       51.17886529    30.24738954    71.29808441
O       50.07365765    29.78390846    71.56845442
O       52.31849058    29.76890156    71.61119014
O       50.33297815    31.85830673    69.69217132
C       52.73410773    33.81947511    67.35636940
H       53.03019032    33.44570542    66.37160733
C       53.00192189    33.11617063    68.46127492
H       53.53241861    32.15759152    68.41549515
C       52.68929023    33.65783923    69.83991429
C       51.59007230    34.69301981    69.80055586
H       51.06702135    34.89486863    70.74123312
C       51.29660659    35.36773571    68.68625899
H       50.52496706    36.14297848    68.68941943
C       52.10278128    35.19177112    67.42263145
H       51.46606034    35.34845560    66.53744862
O       53.11044564    36.20367570    67.36011295
H       53.62139853    36.09756397    68.18998702
C       54.05952020    34.36391350    70.28384342
O       54.28892358    35.49119162    69.84594797
O       54.86149444    33.69823743    71.02306727
C       64.61020000    24.44000000    41.41060000
O       65.79402500    24.50177600    41.01406300
O       63.89891600    23.41261700    41.44315900
H       64.15222100    25.37585000    41.76336100
C       69.34360000    25.65910000    42.94390000
O       70.52742500    25.72087600    42.54736300
O       68.63231600    24.63171700    42.97645900
H       68.88562100    26.59495000    43.29666100
C       72.87250000    25.31490000    47.33190000
O       74.05632500    25.37667600    46.93536300
O       72.16121600    24.28751700    47.36445900
H       72.41452100    26.25075000    47.68466100
C       71.59260000    30.79300000    42.95860000
O       72.77642500    30.85477600    42.56206300
O       70.88131600    29.76561700    42.99115900
H       71.13462100    31.72885000    43.31136100
C       69.01900000    21.22060000    47.32210000
O       70.20282500    21.28237600    46.92556300
O       68.30771600    20.19321700    47.35465900
H       68.56102100    22.15645000    47.67486100
C       66.30020000    28.86550000    40.02520000
O       67.48402500    28.92727600    39.62866300
O       65.58891600    27.83811700    40.05775900
H       65.84222100    29.80135000    40.37796100
C       63.73090000    20.00100000    45.64050000
O       64.91472500    20.06277600    45.24396300
O       63.01961600    18.97361700    45.67305900
H       63.27292100    20.93685000    45.99326100
C       54.75850000    30.77350000    71.64610000
N       54.90907700    31.15872000    70.38204600
H       54.59856000    31.82122200    71.07830000
H       55.10524600    30.20368200    70.64571300
N       54.34960100    31.64590400    72.56294900
H       54.54577000    30.69086600    72.82661600
H       54.46394900    31.93844000    71.60302800
N       55.01682100    29.51587600    71.99330500
H       55.13117000    29.80841100    71.03338400
H       54.70630400    30.17837800    72.68955900
C       60.79490000    27.08520000    39.75060000
O       61.97872500    27.14697600    39.35406300
O       60.08361600    26.05781700    39.78315900
H       60.33692100    28.02105000    40.10336100
C       74.49610000    30.58020000    46.97850000
O       75.67992500    30.64197600    46.58196300
O       73.78481600    29.55281700    47.01105900
H       74.03812100    31.51605000    47.33126100
