24
Coordinates from ORCA-job neb.QMRegion
  C          46.19487648265991     26.60885512051200     55.27018183920508
  H          47.02861015599636     25.93932806499434     55.09038289223641
  H          46.39622252535015     27.66093785339795     55.46837405967835
  C          44.92707885604073     26.09892172058395     55.51290132858222
  C          43.80874005824489     27.06381192236374     55.96150178637961
  O          44.13219908079753     28.25143505874861     56.21937661425964
  O          42.64431822524808     26.60427702515484     56.05843802224979
  O          44.63318269151448     24.86899133639815     55.27589588220081
  C          44.38008903340214     24.57682501525083     53.14775606528391
  H          44.17483474621972     23.50984629918399     53.24461860135361
  C          45.66432942809062     25.01029336525521     52.85530108831779
  H          46.51354387909216     24.32571164052451     52.86567714757842
  C          45.92543087517105     26.37342664437805     52.75661013225284
  C          44.80647601562414     27.31768545804361     52.68780097689172
  H          45.04362667681110     28.37494358341924     52.58332279376614
  C          43.53420005534683     26.89822242691891     52.76997963783440
  H          42.70710498638270     27.61000059403523     52.76128517486375
  C          43.17421928996681     25.44448049010082     52.86297329229865
  H          42.45723432125795     25.32377017055745     53.68535546724880
  O          42.60513154817903     25.00010215416871     51.62963971943153
  H          41.60373785711085     24.93783854902840     51.71970929704248
  C          47.30077385094899     26.83676226944130     52.28322889799476
  O          48.30099871733947     26.07265301284477     52.39540902911614
  O          47.31145718743722     27.96542908306202     51.74045934968584
