24
Coordinates from ORCA-job neb.QMRegion E -1076.023900078785
  C      46.182312     26.606533     55.226409
  H      47.012081     25.931375     55.052950
  H      46.390200     27.660881     55.399383
  C      44.915782     26.104479     55.495779
  C      43.802666     27.068100     55.953030
  O      44.131008     28.253325     56.214351
  O      42.638117     26.609056     56.056636
  O      44.617086     24.874991     55.263492
  C      44.368729     24.601100     53.176295
  H      44.155964     23.536031     53.273129
  C      45.652028     25.024556     52.864657
  H      46.497911     24.336120     52.876739
  C      45.922099     26.386801     52.775480
  C      44.807355     27.338464     52.696106
  H      45.050414     28.393584     52.583822
  C      43.534178     26.925917     52.779327
  H      42.710523     27.640940     52.760188
  C      43.167991     25.474367     52.886281
  H      42.446190     25.366755     53.706614
  O      42.608775     25.019709     51.653322
  H      41.607482     24.948668     51.739729
  C      47.297995     26.841528     52.292135
  O      48.296410     26.074551     52.399237
  O      47.309807     27.968272     51.745712
24
Coordinates from ORCA-job neb.QMRegion E -1076.024209056871
  C      46.186889     26.606311     55.241677
  H      47.017073     25.931848     55.068621
  H      46.395031     27.659063     55.424553
  C      44.918739     26.103533     55.501347
  C      43.804346     27.066787     55.956328
  O      44.131284     28.252734     56.216291
  O      42.639708     26.607657     56.057632
  O      44.620629     24.874058     55.265610
  C      44.370099     24.597820     53.170613
  H      44.158205     23.532437     53.266684
  C      45.652819     25.021906     52.857293
  H      46.498984     24.333741     52.867706
  C      45.921955     26.384252     52.769723
  C      44.806479     27.335242     52.691973
  H      45.048631     28.390803     52.581856
  C      43.533551     26.921748     52.775136
  H      42.709565     27.636387     52.758000
  C      43.168254     25.469908     52.880319
  H      42.446835     25.360703     53.700595
  O      42.607927     25.016751     51.647079
  H      41.606337     24.946604     51.734097
  C      47.298445     26.840554     52.289714
  O      48.297179     26.074186     52.398668
  O      47.310607     27.967649     51.743926
24
Coordinates from ORCA-job neb.QMRegion E -1076.024363591919
  C      46.188619     26.606067     55.247987
  H      47.019381     25.931789     55.076837
  H      46.396275     27.657967     55.437262
  C      44.919885     26.102133     55.504674
  C      43.804987     27.065955     55.958050
  O      44.131499     28.252227     56.217200
  O      42.640418     26.606790     56.058337
  O      44.622996     24.873113     55.270238
  C      44.372489     24.594724     53.169510
  H      44.161630     23.529231     53.267668
  C      45.655323     25.020508     52.861528
  H      46.502268     24.333171     52.870744
  C      45.923053     26.383498     52.770018
  C      44.806814     27.333096     52.693492
  H      45.047961     28.388833     52.583619
  C      43.534191     26.918438     52.777633
  H      42.709848     27.632737     52.761861
  C      43.169799     25.466257     52.881352
  H      42.449059     25.355564     53.702098
  O      42.608193     25.013956     51.648049
  H      41.606492     24.944702     51.734999
  C      47.299001     26.840162     52.289075
  O      48.297733     26.073873     52.398327
  O      47.310780     27.967164     51.743045
24
Coordinates from ORCA-job neb.QMRegion E -1076.024539225727
  C      46.190047     26.607280     55.254710
  H      47.021802     25.933982     55.083487
  H      46.396093     27.658729     55.449408
  C      44.921489     26.101260     55.508133
  C      43.805801     27.065572     55.959715
  O      44.131882     28.252125     56.218138
  O      42.641246     26.606413     56.059296
  O      44.625841     24.872325     55.273819
  C      44.375018     24.590222     53.164062
  H      44.165440     23.524522     53.263537
  C      45.658221     25.017958     52.861847
  H      46.505899     24.331621     52.872026
  C      45.924445     26.381305     52.768225
  C      44.807480     27.329382     52.692979
  H      45.047567     28.385539     52.584197
  C      43.534975     26.913450     52.776843
  H      42.709982     27.627184     52.763293
  C      43.171617     25.460969     52.877535
  H      42.451706     25.347886     53.698432
  O      42.608070     25.011151     51.644025
  H      41.606469     24.943354     51.731881
  C      47.299881     26.839231     52.287738
  O      48.298796     26.073324     52.397618
  O      47.311233     27.966389     51.741948
24
Coordinates from ORCA-job neb.QMRegion E -1076.024797829903
  C      46.194334     26.608867     55.263111
  H      47.027303     25.936799     55.093524
  H      46.397866     27.659629     55.464635
  C      44.925388     26.099596     55.513375
  C      43.807873     27.064630     55.962194
  O      44.132595     28.251891     56.219454
  O      42.643492     26.605112     56.059990
  O      44.632011     24.871210     55.281035
  C      44.378298     24.581437     53.148841
  H      44.171042     23.515362     53.250407
  C      45.660827     25.012188     52.854295
  H      46.509754     24.327335     52.865299
  C      45.925457     26.377058     52.764258
  C      44.806850     27.322441     52.689096
  H      45.045102     28.379369     52.582964
  C      43.534664     26.903951     52.770328
  H      42.708416     27.616467     52.759304
  C      43.173501     25.450683     52.866330
  H      42.455237     25.333462     53.688045
  O      42.606618     25.004157     51.632902
  H      41.605301     24.938723     51.722613
  C      47.300812     26.837644     52.285799
  O      48.300309     26.072562     52.396527
  O      47.311676     27.965065     51.740438
24
Coordinates from ORCA-job neb.QMRegion E -1076.024875226373
  C      46.194876     26.608855     55.270182
  H      47.028610     25.939328     55.090383
  H      46.396223     27.660938     55.468374
  C      44.927079     26.098922     55.512901
  C      43.808740     27.063812     55.961502
  O      44.132199     28.251435     56.219377
  O      42.644318     26.604277     56.058438
  O      44.633183     24.868991     55.275896
  C      44.380089     24.576825     53.147756
  H      44.174835     23.509846     53.244619
  C      45.664329     25.010293     52.855301
  H      46.513544     24.325712     52.865677
  C      45.925431     26.373427     52.756610
  C      44.806476     27.317685     52.687801
  H      45.043627     28.374944     52.583323
  C      43.534200     26.898222     52.769980
  H      42.707105     27.610001     52.761285
  C      43.174219     25.444480     52.862973
  H      42.457234     25.323770     53.685355
  O      42.605132     25.000102     51.629640
  H      41.603738     24.937839     51.719709
  C      47.300774     26.836762     52.283229
  O      48.300999     26.072653     52.395409
  O      47.311457     27.965429     51.740459
