24
Coordinates from ORCA-job neb_MEP.QMRegion E -1076.029326667849
  C      46.089000     26.523000     55.691000
  H      46.912000     25.890000     55.367000
  H      46.312000     27.496000     56.129000
  C      44.809000     26.159000     55.554000
  C      43.683000     27.078000     56.018000
  O      43.989000     28.269000     56.284000
  O      42.528000     26.594000     56.114000
  O      44.454000     24.925000     55.022000
  C      44.361000     24.803000     53.552000
  H      44.096000     23.749000     53.391000
  C      45.703000     25.118000     52.966000
  H      46.514000     24.394000     53.069000
  C      45.965000     26.344000     52.472000
  C      44.896000     27.351000     52.402000
  H      45.191000     28.361000     52.119000
  C      43.622000     27.058000     52.708000
  H      42.852000     27.831000     52.712000
  C      43.194000     25.645000     52.994000
  H      42.421000     25.661000     53.773000
  O      42.703000     25.045000     51.799000
  H      41.703000     24.996000     51.828000
  C      47.366000     26.789000     52.084000
  O      48.356000     26.028000     52.288000
  O      47.427000     27.944000     51.603000
24
Coordinates from ORCA-job neb_MEP.QMRegion E -1076.032215275265
  C      46.101477     26.530075     55.626648
  H      46.923863     25.899516     55.294415
  H      46.324771     27.519105     56.025997
  C      44.821320     26.154120     55.526393
  C      43.700670     27.073308     56.002649
  O      44.011642     28.262061     56.270943
  O      42.544610     26.594033     56.103718
  O      44.462022     24.914626     55.011452
  C      44.362018     24.779693     53.538453
  H      44.105990     23.721696     53.387926
  C      45.697820     25.105910     52.949260
  H      46.511807     24.381968     53.031078
  C      45.954940     26.345554     52.490320
  C      44.881074     27.348542     52.444932
  H      45.168086     28.369451     52.197342
  C      43.605972     27.036965     52.725645
  H      42.826476     27.800542     52.729254
  C      43.187998     25.616539     52.987159
  H      42.414930     25.615821     53.766114
  O      42.698740     25.030146     51.784715
  H      41.698491     24.983204     51.815422
  C      47.354503     26.796701     52.104855
  O      48.347429     26.037372     52.300888
  O      47.410284     27.953838     51.626850
24
Coordinates from ORCA-job neb_MEP.QMRegion E -1076.034039756034
  C      46.112801     26.536209     55.569364
  H      46.933618     25.907894     55.230492
  H      46.334648     27.539058     55.933118
  C      44.833353     26.149711     55.501615
  C      43.717789     27.069325     55.987588
  O      44.032292     28.256294     56.259368
  O      42.560801     26.592870     56.093741
  O      44.469900     24.905724     55.000770
  C      44.363352     24.758473     53.525901
  H      44.114653     23.697731     53.384424
  C      45.693609     25.093587     52.932998
  H      46.510152     24.370782     52.996114
  C      45.946728     26.345487     52.506534
  C      44.867702     27.344473     52.482625
  H      45.147680     28.374719     52.268461
  C      43.591854     27.016781     52.740883
  H      42.804110     27.771945     52.744561
  C      43.183072     25.590103     52.980560
  H      42.410977     25.575093     53.760129
  O      42.693981     25.016836     51.772214
  H      41.693541     24.972544     51.804508
  C      47.343627     26.803933     52.123373
  O      48.339694     26.046711     52.313532
  O      47.394439     27.962538     51.648584
24
Coordinates from ORCA-job neb_MEP.QMRegion E -1076.036325965709
  C      46.123354     26.541498     55.517192
  H      46.942975     25.915063     55.173420
  H      46.342830     27.556872     55.845959
  C      44.845179     26.145582     55.478406
  C      43.734212     27.065433     55.973200
  O      44.052129     28.250661     56.248428
  O      42.576448     26.591484     56.084232
  O      44.478293     24.897726     54.990183
  C      44.365166     24.739113     53.514103
  H      44.123568     23.675889     53.380956
  C      45.689858     25.082614     52.917106
  H      46.509022     24.361517     52.962729
  C      45.938824     26.345212     52.521023
  C      44.854824     27.339935     52.517523
  H      45.127873     28.378089     52.335575
  C      43.578677     26.997640     52.754635
  H      42.783418     27.744874     52.758148
  C      43.178663     25.565551     52.974215
  H      42.407603     25.536878     53.754258
  O      42.689444     25.004610     51.760542
  H      41.688812     24.962994     51.794450
  C      47.333270     26.810354     52.140437
  O      48.332133     26.055257     52.325933
  O      47.379675     27.970123     51.668227
24
Coordinates from ORCA-job neb_MEP.QMRegion E -1076.039161413610
  C      46.134963     26.546966     55.461921
  H      46.953961     25.922945     55.114195
  H      46.350940     27.576466     55.747203
  C      44.858760     26.141078     55.451560
  C      43.752908     27.060914     55.957203
  O      44.074603     28.244081     56.236371
  O      42.594126     26.590082     56.073527
  O      44.488450     24.889457     54.975850
  C      44.367752     24.718727     53.501805
  H      44.134342     23.653279     53.376466
  C      45.685874     25.071560     52.900083
  H      46.508081     24.353103     52.925396
  C      45.929565     26.344838     52.537109
  C      44.840075     27.334596     52.556665
  H      45.104975     28.380598     52.410616
  C      43.563909     26.976437     52.769227
  H      42.760343     27.714894     52.771001
  C      43.173951     25.538753     52.967096
  H      42.403775     25.494542     53.747121
  O      42.683577     24.992734     51.747403
  H      41.682537     24.953859     51.783097
  C      47.321452     26.817291     52.159944
  O      48.323346     26.064791     52.341570
  O      47.363445     27.977804     51.689623
24
Coordinates from ORCA-job neb_MEP.QMRegion E -1076.037361089203
  C      46.157221     26.567994     55.364114
  H      46.979230     25.936828     55.041256
  H      46.368401     27.622660     55.547871
  C      44.888560     26.130289     55.429003
  C      43.786256     27.057595     55.939196
  O      44.112340     28.239684     56.219339
  O      42.623645     26.594994     56.057433
  O      44.523151     24.867794     54.972151
  C      44.372352     24.676133     53.460401
  H      44.152130     23.603721     53.346502
  C      45.677918     25.054813     52.874531
  H      46.505352     24.343243     52.873206
  C      45.917434     26.353215     52.605956
  C      44.816121     27.330957     52.637723
  H      45.065551     28.386085     52.534047
  C      43.540193     26.943211     52.786852
  H      42.722422     27.665345     52.774579
  C      43.166134     25.496725     52.941407
  H      42.408784     25.418678     53.728521
  O      42.656661     24.992972     51.709405
  H      41.652635     24.947259     51.758929
  C      47.301642     26.830382     52.217235
  O      48.306933     26.077910     52.377761
  O      47.332114     27.982963     51.727475
24
Coordinates from ORCA-job neb_MEP.QMRegion E -1076.027526091203
  C      46.170718     26.590570     55.296120
  H      46.997073     25.936224     55.039470
  H      46.381466     27.648137     55.453020
  C      44.907437     26.117188     55.462999
  C      43.799260     27.062778     55.945226
  O      44.123931     28.247869     56.215343
  O      42.633631     26.603730     56.054491
  O      44.572147     24.865538     55.102594
  C      44.370792     24.635332     53.325643
  H      44.155395     23.561287     53.308013
  C      45.666410     25.040205     52.863240
  H      46.501516     24.339185     52.868696
  C      45.917663     26.367973     52.692031
  C      44.809017     27.334335     52.676053
  H      45.054005     28.390291     52.571342
  C      43.534436     26.931840     52.784678
  H      42.712271     27.648452     52.767232
  C      43.165231     25.482272     52.911130
  H      42.428754     25.384870     53.715719
  O      42.629671     25.007194     51.676828
  H      41.625626     24.947356     51.746480
  C      47.297875     26.837054     52.261357
  O      48.300090     26.077484     52.392355
  O      47.317300     27.975809     51.740318
24
Coordinates from ORCA-job neb_MEP.QMRegion E -1076.023553796010
  C      46.182312     26.606533     55.226409
  H      47.012081     25.931375     55.052950
  H      46.390200     27.660881     55.399383
  C      44.915782     26.104479     55.495779
  C      43.802666     27.068100     55.953030
  O      44.131008     28.253325     56.214351
  O      42.638117     26.609056     56.056636
  O      44.617086     24.874991     55.263492
  C      44.368729     24.601100     53.176295
  H      44.155964     23.536031     53.273129
  C      45.652028     25.024556     52.864657
  H      46.497911     24.336120     52.876739
  C      45.922099     26.386801     52.775480
  C      44.807355     27.338464     52.696106
  H      45.050414     28.393584     52.583822
  C      43.534178     26.925917     52.779327
  H      42.710523     27.640940     52.760188
  C      43.167991     25.474367     52.886281
  H      42.446190     25.366755     53.706614
  O      42.608775     25.019709     51.653322
  H      41.607482     24.948668     51.739729
  C      47.297995     26.841528     52.292135
  O      48.296410     26.074551     52.399237
  O      47.309807     27.968272     51.745712
24
Coordinates from ORCA-job neb_MEP.QMRegion E -1076.027331129842
  C      46.174741     26.610738     55.012382
  H      47.017580     25.921558     55.076404
  H      46.388378     27.641559     55.315521
  C      44.907146     26.093801     55.481188
  C      43.801097     27.069580     55.954058
  O      44.142522     28.249846     56.212812
  O      42.641451     26.607692     56.066296
  O      44.640688     24.883896     55.380284
  C      44.375376     24.582927     53.086796
  H      44.158486     23.524698     53.233908
  C      45.642939     25.016187     52.891681
  H      46.494953     24.332917     52.892887
  C      45.948521     26.426745     52.966555
  C      44.808597     27.348854     52.730381
  H      45.046589     28.401208     52.586652
  C      43.540802     26.922803     52.774544
  H      42.713956     27.634903     52.739051
  C      43.173593     25.469183     52.875802
  H      42.456297     25.357770     53.702327
  O      42.596614     25.030557     51.644068
  H      41.597797     24.950428     51.739011
  C      47.301057     26.849108     52.337660
  O      48.294446     26.071262     52.405156
  O      47.298391     27.954465     51.749755
24
Coordinates from ORCA-job neb_MEP.QMRegion E -1076.073859814310
  C      46.248000     26.643000     54.761000
  H      47.132000     26.067000     55.052000
  H      46.410000     27.705000     54.980000
  C      45.074000     26.127000     55.555000
  C      43.982000     27.124000     56.034000
  O      44.386000     28.244000     56.404000
  O      42.795000     26.712000     56.023000
  O      44.970000     24.931000     55.787000
  C      44.400000     24.546000     52.749000
  H      44.205000     23.479000     52.636000
  C      45.641000     24.994000     52.956000
  H      46.488000     24.305000     53.008000
  C      45.967000     26.440000     53.213000
  C      44.793000     27.334000     52.891000
  H      44.976000     28.408000     52.902000
  C      43.551000     26.879000     52.710000
  H      42.721000     27.580000     52.609000
  C      43.188000     25.425000     52.642000
  H      42.516000     25.204000     53.491000
  O      42.515000     25.140000     51.418000
  H      41.529000     25.030000     51.587000
  C      47.257000     26.846000     52.413000
  O      48.260000     26.078000     52.440000
  O      47.205000     27.927000     51.787000
