24
Coordinates from ORCA-job neb_initial_path.QMRegion E   0.000000000000
  C      46.089000     26.523000     55.691000
  H      46.912000     25.890000     55.367000
  H      46.312000     27.496000     56.129000
  C      44.809000     26.159000     55.554000
  C      43.683000     27.078000     56.018000
  O      43.989000     28.269000     56.284000
  O      42.528000     26.594000     56.114000
  O      44.454000     24.925000     55.022000
  C      44.361000     24.803000     53.552000
  H      44.096000     23.749000     53.391000
  C      45.703000     25.118000     52.966000
  H      46.514000     24.394000     53.069000
  C      45.965000     26.344000     52.472000
  C      44.896000     27.351000     52.402000
  H      45.191000     28.361000     52.119000
  C      43.622000     27.058000     52.708000
  H      42.852000     27.831000     52.712000
  C      43.194000     25.645000     52.994000
  H      42.421000     25.661000     53.773000
  O      42.703000     25.045000     51.799000
  H      41.703000     24.996000     51.828000
  C      47.366000     26.789000     52.084000
  O      48.356000     26.028000     52.288000
  O      47.427000     27.944000     51.603000
24
Coordinates from ORCA-job neb_initial_path.QMRegion E   0.000000000000
  C      46.101429     26.534571     55.607571
  H      46.927286     25.895571     55.318429
  H      46.322429     27.518714     56.011429
  C      44.823857     26.150571     55.539286
  C      43.701286     27.076000     56.006714
  O      44.012286     28.265286     56.273714
  O      42.545000     26.595857     56.106143
  O      44.476571     24.918286     55.048429
  C      44.362714     24.774286     53.502143
  H      44.105714     23.718000     53.373429
  C      45.695000     25.105143     52.953143
  H      46.510857     24.386000     53.040286
  C      45.959714     26.352429     52.529429
  C      44.882286     27.350143     52.449714
  H      45.168571     28.366857     52.190286
  C      43.608857     27.038429     52.719857
  H      42.830571     27.802143     52.717714
  C      43.190000     25.619571     52.980000
  H      42.423286     25.617143     53.763571
  O      42.690286     25.040571     51.779000
  H      41.690000     24.988571     51.815429
  C      47.355286     26.797286     52.118714
  O      48.346571     26.035000     52.306143
  O      47.408000     27.946571     51.625286
24
Coordinates from ORCA-job neb_initial_path.QMRegion E   0.000000000000
  C      46.113857     26.546143     55.524143
  H      46.942571     25.901143     55.269857
  H      46.332857     27.541429     55.893857
  C      44.838714     26.142143     55.524571
  C      43.719571     27.074000     55.995429
  O      44.035571     28.261571     56.263429
  O      42.562000     26.597714     56.098286
  O      44.499143     24.911571     55.074857
  C      44.364429     24.745571     53.452286
  H      44.115429     23.687000     53.355857
  C      45.687000     25.092286     52.940286
  H      46.507714     24.378000     53.011571
  C      45.954429     26.360857     52.586857
  C      44.868571     27.349286     52.497429
  H      45.146143     28.372714     52.261571
  C      43.595714     27.018857     52.731714
  H      42.809143     27.773286     52.723429
  C      43.186000     25.594143     52.966000
  H      42.425571     25.573286     53.754143
  O      42.677571     25.036143     51.759000
  H      41.677000     24.981143     51.802857
  C      47.344571     26.805571     52.153429
  O      48.337143     26.042000     52.324286
  O      47.389000     27.949143     51.647571
24
Coordinates from ORCA-job neb_initial_path.QMRegion E   0.000000000000
  C      46.126286     26.557714     55.440714
  H      46.957857     25.906714     55.221286
  H      46.343286     27.564143     55.776286
  C      44.853571     26.133714     55.509857
  C      43.737857     27.072000     55.984143
  O      44.058857     28.257857     56.253143
  O      42.579000     26.599571     56.090429
  O      44.521714     24.904857     55.101286
  C      44.366143     24.716857     53.402429
  H      44.125143     23.656000     53.338286
  C      45.679000     25.079429     52.927429
  H      46.504571     24.370000     52.982857
  C      45.949143     26.369286     52.644286
  C      44.854857     27.348429     52.545143
  H      45.123714     28.378571     52.332857
  C      43.582571     26.999286     52.743571
  H      42.787714     27.744429     52.729143
  C      43.182000     25.568714     52.952000
  H      42.427857     25.529429     53.744714
  O      42.664857     25.031714     51.739000
  H      41.664000     24.973714     51.790286
  C      47.333857     26.813857     52.188143
  O      48.327714     26.049000     52.342429
  O      47.370000     27.951714     51.669857
24
Coordinates from ORCA-job neb_initial_path.QMRegion E   0.000000000000
  C      46.138714     26.569286     55.357286
  H      46.973143     25.912286     55.172714
  H      46.353714     27.586857     55.658714
  C      44.868429     26.125286     55.495143
  C      43.756143     27.070000     55.972857
  O      44.082143     28.254143     56.242857
  O      42.596000     26.601429     56.082571
  O      44.544286     24.898143     55.127714
  C      44.367857     24.688143     53.352571
  H      44.134857     23.625000     53.320714
  C      45.671000     25.066571     52.914571
  H      46.501429     24.362000     52.954143
  C      45.943857     26.377714     52.701714
  C      44.841143     27.347571     52.592857
  H      45.101286     28.384429     52.404143
  C      43.569429     26.979714     52.755429
  H      42.766286     27.715571     52.734857
  C      43.178000     25.543286     52.938000
  H      42.430143     25.485571     53.735286
  O      42.652143     25.027286     51.719000
  H      41.651000     24.966286     51.777714
  C      47.323143     26.822143     52.222857
  O      48.318286     26.056000     52.360571
  O      47.351000     27.954286     51.692143
24
Coordinates from ORCA-job neb_initial_path.QMRegion E   0.000000000000
  C      46.151143     26.580857     55.273857
  H      46.988429     25.917857     55.124143
  H      46.364143     27.609571     55.541143
  C      44.883286     26.116857     55.480429
  C      43.774429     27.068000     55.961571
  O      44.105429     28.250429     56.232571
  O      42.613000     26.603286     56.074714
  O      44.566857     24.891429     55.154143
  C      44.369571     24.659429     53.302714
  H      44.144571     23.594000     53.303143
  C      45.663000     25.053714     52.901714
  H      46.498286     24.354000     52.925429
  C      45.938571     26.386143     52.759143
  C      44.827429     27.346714     52.640571
  H      45.078857     28.390286     52.475429
  C      43.556286     26.960143     52.767286
  H      42.744857     27.686714     52.740571
  C      43.174000     25.517857     52.924000
  H      42.432429     25.441714     53.725857
  O      42.639429     25.022857     51.699000
  H      41.638000     24.958857     51.765143
  C      47.312429     26.830429     52.257571
  O      48.308857     26.063000     52.378714
  O      47.332000     27.956857     51.714429
24
Coordinates from ORCA-job neb_initial_path.QMRegion E   0.000000000000
  C      46.163571     26.592429     55.190429
  H      47.003714     25.923429     55.075571
  H      46.374571     27.632286     55.423571
  C      44.898143     26.108429     55.465714
  C      43.792714     27.066000     55.950286
  O      44.128714     28.246714     56.222286
  O      42.630000     26.605143     56.066857
  O      44.589429     24.884714     55.180571
  C      44.371286     24.630714     53.252857
  H      44.154286     23.563000     53.285571
  C      45.655000     25.040857     52.888857
  H      46.495143     24.346000     52.896714
  C      45.933286     26.394571     52.816571
  C      44.813714     27.345857     52.688286
  H      45.056429     28.396143     52.546714
  C      43.543143     26.940571     52.779143
  H      42.723429     27.657857     52.746286
  C      43.170000     25.492429     52.910000
  H      42.434714     25.397857     53.716429
  O      42.626714     25.018429     51.679000
  H      41.625000     24.951429     51.752571
  C      47.301714     26.838714     52.292286
  O      48.299429     26.070000     52.396857
  O      47.313000     27.959429     51.736714
24
Coordinates from ORCA-job neb_initial_path.QMRegion E   0.000000000000
  C      46.176000     26.604000     55.107000
  H      47.019000     25.929000     55.027000
  H      46.385000     27.655000     55.306000
  C      44.913000     26.100000     55.451000
  C      43.811000     27.064000     55.939000
  O      44.152000     28.243000     56.212000
  O      42.647000     26.607000     56.059000
  O      44.612000     24.878000     55.207000
  C      44.373000     24.602000     53.203000
  H      44.164000     23.532000     53.268000
  C      45.647000     25.028000     52.876000
  H      46.492000     24.338000     52.868000
  C      45.928000     26.403000     52.874000
  C      44.800000     27.345000     52.736000
  H      45.034000     28.402000     52.618000
  C      43.530000     26.921000     52.791000
  H      42.702000     27.629000     52.752000
  C      43.166000     25.467000     52.896000
  H      42.437000     25.354000     53.707000
  O      42.614000     25.014000     51.659000
  H      41.612000     24.944000     51.740000
  C      47.291000     26.847000     52.327000
  O      48.290000     26.077000     52.415000
  O      47.294000     27.962000     51.759000
24
Coordinates from ORCA-job neb_initial_path.QMRegion E   0.000000000000
  C      46.212000     26.623500     54.934000
  H      47.075500     25.998000     55.039500
  H      46.397500     27.680000     55.143000
  C      44.993500     26.113500     55.503000
  C      43.896500     27.094000     55.986500
  O      44.269000     28.243500     56.308000
  O      42.721000     26.659500     56.041000
  O      44.791000     24.904500     55.497000
  C      44.386500     24.574000     52.976000
  H      44.184500     23.505500     52.952000
  C      45.644000     25.011000     52.916000
  H      46.490000     24.321500     52.938000
  C      45.947500     26.421500     53.043500
  C      44.796500     27.339500     52.813500
  H      45.005000     28.405000     52.760000
  C      43.540500     26.900000     52.750500
  H      42.711500     27.604500     52.680500
  C      43.177000     25.446000     52.769000
  H      42.476500     25.279000     53.599000
  O      42.564500     25.077000     51.538500
  H      41.570500     24.987000     51.663500
  C      47.274000     26.846500     52.370000
  O      48.275000     26.077500     52.427500
  O      47.249500     27.944500     51.773000
24
Coordinates from ORCA-job neb_initial_path.QMRegion E   0.000000000000
  C      46.248000     26.643000     54.761000
  H      47.132000     26.067000     55.052000
  H      46.410000     27.705000     54.980000
  C      45.074000     26.127000     55.555000
  C      43.982000     27.124000     56.034000
  O      44.386000     28.244000     56.404000
  O      42.795000     26.712000     56.023000
  O      44.970000     24.931000     55.787000
  C      44.400000     24.546000     52.749000
  H      44.205000     23.479000     52.636000
  C      45.641000     24.994000     52.956000
  H      46.488000     24.305000     53.008000
  C      45.967000     26.440000     53.213000
  C      44.793000     27.334000     52.891000
  H      44.976000     28.408000     52.902000
  C      43.551000     26.879000     52.710000
  H      42.721000     27.580000     52.609000
  C      43.188000     25.425000     52.642000
  H      42.516000     25.204000     53.491000
  O      42.515000     25.140000     51.418000
  H      41.529000     25.030000     51.587000
  C      47.257000     26.846000     52.413000
  O      48.260000     26.078000     52.440000
  O      47.205000     27.927000     51.787000
