24
Coordinates from ORCA-job neb_MEP.QMRegion E -1076.036255983692
  C      44.196000     17.030000     38.776000
  H      44.673000     16.604000     37.896000
  H      44.678000     17.845000     39.313000
  C      43.029000     16.565000     39.238000
  C      42.384000     17.133000     40.495000
  O      42.935000     18.116000     41.043000
  O      41.342000     16.559000     40.916000
  O      42.377000     15.503000     38.648000
  C      41.523000     15.726000     37.466000
  H      41.158000     14.718000     37.223000
  C      42.382000     16.277000     36.370000
  H      43.067000     15.612000     35.841000
  C      42.471000     17.609000     36.183000
  C      41.571000     18.507000     36.916000
  H      41.762000     19.575000     36.797000
  C      40.583000     18.049000     37.705000
  H      39.949000     18.754000     38.250000
  C      40.292000     16.576000     37.850000
  H      40.092000     16.356000     38.910000
  O      39.170000     16.234000     37.048000
  H      38.541000     15.653000     37.553000
  C      43.615000     18.219000     35.376000
  O      44.382000     17.456000     34.741000
  O      43.741000     19.469000     35.473000
24
Coordinates from ORCA-job neb_MEP.QMRegion E -1076.039042007160
  C      44.170954     17.004010     38.678072
  H      44.618303     16.573331     37.783965
  H      44.652311     17.848713     39.167426
  C      43.022403     16.537665     39.182439
  C      42.400212     17.125012     40.443331
  O      42.969410     18.105502     40.977158
  O      41.358362     16.564878     40.884724
  O      42.362998     15.464616     38.622930
  C      41.484609     15.669727     37.445224
  H      41.129703     14.656212     37.212626
  C      42.326789     16.233022     36.345555
  H      42.982229     15.570839     35.775840
  C      42.454193     17.569125     36.218075
  C      41.581750     18.455350     37.000134
  H      41.806562     19.521977     36.945859
  C      40.576834     17.987688     37.762280
  H      39.952520     18.680780     38.334398
  C      40.260256     16.515559     37.853720
  H      40.061769     16.267118     38.907550
  O      39.132446     16.208830     37.046898
  H      38.491461     15.635728     37.548771
  C      43.615714     18.177351     35.433224
  O      44.367470     17.415130     34.781519
  O      43.774427     19.421559     35.564015
24
Coordinates from ORCA-job neb_MEP.QMRegion E -1076.034666045442
  C      44.131037     16.995804     38.545532
  H      44.584879     16.527090     37.674401
  H      44.560247     17.923151     38.922028
  C      43.018673     16.505163     39.114567
  C      42.422634     17.127770     40.376702
  O      43.016316     18.101901     40.896236
  O      41.382131     16.585485     40.847286
  O      42.355367     15.413996     38.591542
  C      41.439187     15.604318     37.393483
  H      41.096631     14.585546     37.155511
  C      42.275758     16.190347     36.314824
  H      42.894418     15.542222     35.690802
  C      42.473097     17.524661     36.299544
  C      41.618687     18.392240     37.122681
  H      41.875996     19.452057     37.147391
  C      40.567376     17.915001     37.813162
  H      39.920964     18.594973     38.376614
  C      40.223814     16.447653     37.841920
  H      40.055619     16.156609     38.888955
  O      39.065014     16.202799     37.060462
  H      38.414075     15.637466     37.566084
  C      43.639874     18.129944     35.526164
  O      44.373244     17.356274     34.861017
  O      43.815953     19.369490     35.655409
24
Coordinates from ORCA-job neb_MEP.QMRegion E -1076.021519817074
  C      44.108596     17.038922     38.492804
  H      44.605854     16.526831     37.671449
  H      44.497914     18.005113     38.811610
  C      43.039379     16.493422     39.120725
  C      42.436020     17.140116     40.375551
  O      43.029184     18.114761     40.892981
  O      41.389723     16.604592     40.845593
  O      42.419479     15.390599     38.643271
  C      41.378260     15.594492     37.288490
  H      41.067592     14.559066     37.085858
  C      42.269520     16.178962     36.308059
  H      42.890256     15.541157     35.677463
  C      42.532111     17.509139     36.388458
  C      41.651571     18.380458     37.176407
  H      41.902516     19.441893     37.201776
  C      40.565381     17.903628     37.808869
  H      39.895769     18.582191     38.343837
  C      40.209964     16.441109     37.814347
  H      40.082807     16.127467     38.858972
  O      39.016927     16.230487     37.075293
  H      38.377588     15.649814     37.584067
  C      43.673068     18.117921     35.580508
  O      44.381446     17.342961     34.894974
  O      43.827682     19.363833     35.670853
24
Coordinates from ORCA-job neb_MEP.QMRegion E -1076.013994359977
  C      44.094945     17.060446     38.456390
  H      44.613088     16.515770     37.671009
  H      44.482225     18.027213     38.771256
  C      43.058877     16.475384     39.141566
  C      42.441681     17.144717     40.383621
  O      43.031155     18.126111     40.893191
  O      41.391294     16.613194     40.844726
  O      42.502509     15.369665     38.727385
  C      41.307330     15.597770     37.183669
  H      41.044297     14.543314     37.052959
  C      42.251489     16.166177     36.306083
  H      42.885302     15.536945     35.680288
  C      42.557539     17.502671     36.437659
  C      41.655855     18.377538     37.191883
  H      41.906185     19.438647     37.215074
  C      40.561101     17.899596     37.807565
  H      39.891105     18.577075     38.342373
  C      40.201286     16.439140     37.800146
  H      40.089925     16.113773     38.844171
  O      38.992755     16.243285     37.079230
  H      38.365275     15.648306     37.585803
  C      43.681910     18.112335     35.600394
  O      44.376208     17.338187     34.902734
  O      43.826612     19.360870     35.673715
24
Coordinates from ORCA-job neb_MEP.QMRegion E -1076.012232849185
  C      44.067662     17.089754     38.406266
  H      44.628675     16.507874     37.679530
  H      44.469196     18.044612     38.738860
  C      43.071862     16.467616     39.157387
  C      42.444549     17.150008     40.392581
  O      43.034831     18.133489     40.897192
  O      41.393771     16.617958     40.847319
  O      42.578646     15.351492     38.801331
  C      41.254743     15.602346     37.102800
  H      41.019403     14.539274     37.015604
  C      42.245854     16.154294     36.314731
  H      42.886383     15.533800     35.687234
  C      42.595140     17.497454     36.495501
  C      41.660764     18.377534     37.201717
  H      41.907602     19.439198     37.219895
  C      40.557955     17.898562     37.800469
  H      39.886464     18.575512     38.334182
  C      40.195125     16.438961     37.785210
  H      40.097755     16.105327     38.829529
  O      38.970917     16.258385     37.084367
  H      38.354586     15.649829     37.588097
  C      43.690426     18.110093     35.617961
  O      44.372218     17.335428     34.907761
  O      43.823582     19.360758     35.673087
24
Coordinates from ORCA-job neb_MEP.QMRegion E -1076.014655226251
  C      44.007156     17.123572     38.315699
  H      44.636892     16.497407     37.687910
  H      44.437241     18.054990     38.686782
  C      43.069815     16.463277     39.157861
  C      42.446732     17.152595     40.395796
  O      43.039799     18.136138     40.894674
  O      41.399361     16.619621     40.851277
  O      42.633173     15.335595     38.856198
  C      41.224179     15.603615     37.050825
  H      40.997295     14.537707     36.979734
  C      42.249440     16.142527     36.333774
  H      42.889254     15.530207     35.697259
  C      42.660166     17.486550     36.585706
  C      41.672733     18.376195     37.222698
  H      41.909839     19.440734     37.228653
  C      40.559234     17.896725     37.796244
  H      39.879661     18.575435     38.319518
  C      40.192824     16.436039     37.775956
  H      40.101703     16.098275     38.820345
  O      38.957756     16.269577     37.090422
  H      38.349671     15.650699     37.590234
  C      43.703437     18.107888     35.639455
  O      44.368484     17.334101     34.912985
  O      43.821286     19.360353     35.673675
24
Coordinates from ORCA-job neb_MEP.QMRegion E -1076.021989241622
  C      43.934218     17.151824     38.212800
  H      44.634369     16.491150     37.696809
  H      44.399541     18.053669     38.634905
  C      43.059594     16.460271     39.150460
  C      42.449255     17.153138     40.397101
  O      43.046435     18.136411     40.890027
  O      41.405375     16.619507     40.853853
  O      42.672756     15.322977     38.898221
  C      41.208034     15.604650     37.015443
  H      40.980081     14.537911     36.946511
  C      42.257872     16.132665     36.352634
  H      42.892602     15.526589     35.704082
  C      42.736086     17.474133     36.682641
  C      41.687496     18.372149     37.244850
  H      41.911329     19.440298     37.237852
  C      40.563687     17.892956     37.794536
  H      39.874375     18.573855     38.305594
  C      40.193725     16.430730     37.770723
  H      40.103988     16.090275     38.815168
  O      38.951168     16.275842     37.095085
  H      38.347912     15.651521     37.592287
  C      43.715658     18.105923     35.657155
  O      44.363744     17.333987     34.914750
  O      43.818721     19.359945     35.673252
24
Coordinates from ORCA-job neb_MEP.QMRegion E -1076.036718331753
  C      43.857680     17.177258     38.110663
  H      44.629844     16.503374     37.713865
  H      44.344813     18.059589     38.560112
  C      43.047780     16.467735     39.143062
  C      42.456354     17.159726     40.402391
  O      43.059138     18.139129     40.891348
  O      41.416710     16.620275     40.860838
  O      42.724345     15.309012     38.947549
  C      41.187430     15.612302     36.966344
  H      40.938353     14.552936     36.867629
  C      42.279306     16.122213     36.379088
  H      42.906173     15.520518     35.718106
  C      42.820110     17.458956     36.783299
  C      41.714358     18.363660     37.273641
  H      41.923608     19.435330     37.258066
  C      40.571400     17.888711     37.785027
  H      39.867811     18.573192     38.273774
  C      40.191709     16.428129     37.755672
  H      40.115575     16.079645     38.800864
  O      38.934594     16.292639     37.104579
  H      38.339322     15.659031     37.599402
  C      43.733126     18.100747     35.681716
  O      44.360632     17.330908     34.920211
  O      43.818128     19.355911     35.677387
24
Coordinates from ORCA-job neb_MEP.QMRegion E -1076.052352461377
  C      43.847000     17.138000     38.036000
  H      44.676000     16.499000     37.702000
  H      44.241000     18.089000     38.408000
  C      43.123000     16.406000     39.136000
  C      42.496000     17.127000     40.366000
  O      43.089000     18.128000     40.821000
  O      41.466000     16.585000     40.841000
  O      42.992000     15.202000     39.057000
  C      41.139000     15.590000     36.682000
  H      40.787000     14.621000     36.323000
  C      42.330000     16.066000     36.309000
  H      42.985000     15.507000     35.639000
  C      42.873000     17.380000     36.804000
  C      41.760000     18.266000     37.310000
  H      41.984000     19.328000     37.398000
  C      40.583000     17.780000     37.715000
  H      39.845000     18.448000     38.167000
  C      40.191000     16.329000     37.593000
  H      40.232000     15.888000     38.607000
  O      38.872000     16.246000     37.083000
  H      38.291000     15.644000     37.626000
  C      43.752000     18.074000     35.702000
  O      44.369000     17.341000     34.898000
  O      43.823000     19.328000     35.740000
