24
Coordinates from ORCA-job neb_initial_path.QMRegion E   0.000000000000
  C      44.196000     17.030000     38.776000
  H      44.673000     16.604000     37.896000
  H      44.678000     17.845000     39.313000
  C      43.029000     16.565000     39.238000
  C      42.384000     17.133000     40.495000
  O      42.935000     18.116000     41.043000
  O      41.342000     16.559000     40.916000
  O      42.377000     15.503000     38.648000
  C      41.523000     15.726000     37.466000
  H      41.158000     14.718000     37.223000
  C      42.382000     16.277000     36.370000
  H      43.067000     15.612000     35.841000
  C      42.471000     17.609000     36.183000
  C      41.571000     18.507000     36.916000
  H      41.762000     19.575000     36.797000
  C      40.583000     18.049000     37.705000
  H      39.949000     18.754000     38.250000
  C      40.292000     16.576000     37.850000
  H      40.092000     16.356000     38.910000
  O      39.170000     16.234000     37.048000
  H      38.541000     15.653000     37.553000
  C      43.615000     18.219000     35.376000
  O      44.382000     17.456000     34.741000
  O      43.741000     19.469000     35.473000
24
Coordinates from ORCA-job neb_initial_path.QMRegion E   0.000000000000
  C      44.154800     17.044400     38.684200
  H      44.659000     16.581800     37.848200
  H      44.622200     17.887000     39.180200
  C      43.030000     16.546200     39.215800
  C      42.394200     17.136000     40.471400
  O      42.955600     18.118200     41.009400
  O      41.353000     16.569200     40.903800
  O      42.405800     15.475400     38.670200
  C      41.476200     15.701000     37.405400
  H      41.133800     14.683000     37.188400
  C      42.356200     16.253400     36.364800
  H      43.029800     15.597800     35.813200
  C      42.506400     17.584800     36.262000
  C      41.592400     18.481200     36.981200
  H      41.792400     19.548600     36.887400
  C      40.579600     18.019400     37.727800
  H      39.934400     18.720000     38.264200
  C      40.274400     16.548800     37.842600
  H      40.089200     16.307400     38.899200
  O      39.135400     16.238000     37.055200
  H      38.507400     15.651800     37.558200
  C      43.632600     18.196800     35.430600
  O      44.380200     17.431400     34.778600
  O      43.756800     19.447400     35.514600
24
Coordinates from ORCA-job neb_initial_path.QMRegion E   0.000000000000
  C      44.113600     17.058800     38.592400
  H      44.645000     16.559600     37.800400
  H      44.566400     17.929000     39.047400
  C      43.031000     16.527400     39.193600
  C      42.404400     17.139000     40.447800
  O      42.976200     18.120400     40.975800
  O      41.364000     16.579400     40.891600
  O      42.434600     15.447800     38.692400
  C      41.429400     15.676000     37.344800
  H      41.109600     14.648000     37.153800
  C      42.330400     16.229800     36.359600
  H      42.992600     15.583600     35.785400
  C      42.541800     17.560600     36.341000
  C      41.613800     18.455400     37.046400
  H      41.822800     19.522200     36.977800
  C      40.576200     17.989800     37.750600
  H      39.919800     18.686000     38.278400
  C      40.256800     16.521600     37.835200
  H      40.086400     16.258800     38.888400
  O      39.100800     16.242000     37.062400
  H      38.473800     15.650600     37.563400
  C      43.650200     18.174600     35.485200
  O      44.378400     17.406800     34.816200
  O      43.772600     19.425800     35.556200
24
Coordinates from ORCA-job neb_initial_path.QMRegion E   0.000000000000
  C      44.072400     17.073200     38.500600
  H      44.631000     16.537400     37.752600
  H      44.510600     17.971000     38.914600
  C      43.032000     16.508600     39.171400
  C      42.414600     17.142000     40.424200
  O      42.996800     18.122600     40.942200
  O      41.375000     16.589600     40.879400
  O      42.463400     15.420200     38.714600
  C      41.382600     15.651000     37.284200
  H      41.085400     14.613000     37.119200
  C      42.304600     16.206200     36.354400
  H      42.955400     15.569400     35.757600
  C      42.577200     17.536400     36.420000
  C      41.635200     18.429600     37.111600
  H      41.853200     19.495800     37.068200
  C      40.572800     17.960200     37.773400
  H      39.905200     18.652000     38.292600
  C      40.239200     16.494400     37.827800
  H      40.083600     16.210200     38.877600
  O      39.066200     16.246000     37.069600
  H      38.440200     15.649400     37.568600
  C      43.667800     18.152400     35.539800
  O      44.376600     17.382200     34.853800
  O      43.788400     19.404200     35.597800
24
Coordinates from ORCA-job neb_initial_path.QMRegion E   0.000000000000
  C      44.031200     17.087600     38.408800
  H      44.617000     16.515200     37.704800
  H      44.454800     18.013000     38.781800
  C      43.033000     16.489800     39.149200
  C      42.424800     17.145000     40.400600
  O      43.017400     18.124800     40.908600
  O      41.386000     16.599800     40.867200
  O      42.492200     15.392600     38.736800
  C      41.335800     15.626000     37.223600
  H      41.061200     14.578000     37.084600
  C      42.278800     16.182600     36.349200
  H      42.918200     15.555200     35.729800
  C      42.612600     17.512200     36.499000
  C      41.656600     18.403800     37.176800
  H      41.883600     19.469400     37.158600
  C      40.569400     17.930600     37.796200
  H      39.890600     18.618000     38.306800
  C      40.221600     16.467200     37.820400
  H      40.080800     16.161600     38.866800
  O      39.031600     16.250000     37.076800
  H      38.406600     15.648200     37.573800
  C      43.685400     18.130200     35.594400
  O      44.374800     17.357600     34.891400
  O      43.804200     19.382600     35.639400
24
Coordinates from ORCA-job neb_initial_path.QMRegion E   0.000000000000
  C      43.990000     17.102000     38.317000
  H      44.603000     16.493000     37.657000
  H      44.399000     18.055000     38.649000
  C      43.034000     16.471000     39.127000
  C      42.435000     17.148000     40.377000
  O      43.038000     18.127000     40.875000
  O      41.397000     16.610000     40.855000
  O      42.521000     15.365000     38.759000
  C      41.289000     15.601000     37.163000
  H      41.037000     14.543000     37.050000
  C      42.253000     16.159000     36.344000
  H      42.881000     15.541000     35.702000
  C      42.648000     17.488000     36.578000
  C      41.678000     18.378000     37.242000
  H      41.914000     19.443000     37.249000
  C      40.566000     17.901000     37.819000
  H      39.876000     18.584000     38.321000
  C      40.204000     16.440000     37.813000
  H      40.078000     16.113000     38.856000
  O      38.997000     16.254000     37.084000
  H      38.373000     15.647000     37.579000
  C      43.703000     18.108000     35.649000
  O      44.373000     17.333000     34.929000
  O      43.820000     19.361000     35.681000
24
Coordinates from ORCA-job neb_initial_path.QMRegion E   0.000000000000
  C      43.954250     17.111000     38.246750
  H      44.621250     16.494500     37.668250
  H      44.359500     18.063500     38.588750
  C      43.056250     16.454750     39.129250
  C      42.450250     17.142750     40.374250
  O      43.050750     18.127250     40.861500
  O      41.414250     16.603750     40.851500
  O      42.638750     15.324250     38.833500
  C      41.251500     15.598250     37.042750
  H      40.974500     14.562500     36.868250
  C      42.272250     16.135750     36.335250
  H      42.907000     15.532500     35.686250
  C      42.704250     17.461000     36.634500
  C      41.698500     18.350000     37.259000
  H      41.931500     19.414250     37.286250
  C      40.570250     17.870750     37.793000
  H      39.868250     18.550000     38.282500
  C      40.200750     16.412250     37.758000
  H      40.116500     16.056750     38.793750
  O      38.965750     16.252000     37.083750
  H      38.352500     15.646250     37.590750
  C      43.715250     18.099500     35.662250
  O      44.372000     17.335000     34.921250
  O      43.820750     19.352750     35.695750
24
Coordinates from ORCA-job neb_initial_path.QMRegion E   0.000000000000
  C      43.918500     17.120000     38.176500
  H      44.639500     16.496000     37.679500
  H      44.320000     18.072000     38.528500
  C      43.078500     16.438500     39.131500
  C      42.465500     17.137500     40.371500
  O      43.063500     18.127500     40.848000
  O      41.431500     16.597500     40.848000
  O      42.756500     15.283500     38.908000
  C      41.214000     15.595500     36.922500
  H      40.912000     14.582000     36.686500
  C      42.291500     16.112500     36.326500
  H      42.933000     15.524000     35.670500
  C      42.760500     17.434000     36.691000
  C      41.719000     18.322000     37.276000
  H      41.949000     19.385500     37.323500
  C      40.574500     17.840500     37.767000
  H      39.860500     18.516000     38.244000
  C      40.197500     16.384500     37.703000
  H      40.155000     16.000500     38.731500
  O      38.934500     16.250000     37.083500
  H      38.332000     15.645500     37.602500
  C      43.727500     18.091000     35.675500
  O      44.371000     17.337000     34.913500
  O      43.821500     19.344500     35.710500
24
Coordinates from ORCA-job neb_initial_path.QMRegion E   0.000000000000
  C      43.882750     17.129000     38.106250
  H      44.657750     16.497500     37.690750
  H      44.280500     18.080500     38.468250
  C      43.100750     16.422250     39.133750
  C      42.480750     17.132250     40.368750
  O      43.076250     18.127750     40.834500
  O      41.448750     16.591250     40.844500
  O      42.874250     15.242750     38.982500
  C      41.176500     15.592750     36.802250
  H      40.849500     14.601500     36.504750
  C      42.310750     16.089250     36.317750
  H      42.959000     15.515500     35.654750
  C      42.816750     17.407000     36.747500
  C      41.739500     18.294000     37.293000
  H      41.966500     19.356750     37.360750
  C      40.578750     17.810250     37.741000
  H      39.852750     18.482000     38.205500
  C      40.194250     16.356750     37.648000
  H      40.193500     15.944250     38.669250
  O      38.903250     16.248000     37.083250
  H      38.311500     15.644750     37.614250
  C      43.739750     18.082500     35.688750
  O      44.370000     17.339000     34.905750
  O      43.822250     19.336250     35.725250
24
Coordinates from ORCA-job neb_initial_path.QMRegion E   0.000000000000
  C      43.847000     17.138000     38.036000
  H      44.676000     16.499000     37.702000
  H      44.241000     18.089000     38.408000
  C      43.123000     16.406000     39.136000
  C      42.496000     17.127000     40.366000
  O      43.089000     18.128000     40.821000
  O      41.466000     16.585000     40.841000
  O      42.992000     15.202000     39.057000
  C      41.139000     15.590000     36.682000
  H      40.787000     14.621000     36.323000
  C      42.330000     16.066000     36.309000
  H      42.985000     15.507000     35.639000
  C      42.873000     17.380000     36.804000
  C      41.760000     18.266000     37.310000
  H      41.984000     19.328000     37.398000
  C      40.583000     17.780000     37.715000
  H      39.845000     18.448000     38.167000
  C      40.191000     16.329000     37.593000
  H      40.232000     15.888000     38.607000
  O      38.872000     16.246000     37.083000
  H      38.291000     15.644000     37.626000
  C      43.752000     18.074000     35.702000
  O      44.369000     17.341000     34.898000
  O      43.823000     19.328000     35.740000
