25
Coordinates from ORCA-job job
  C          45.07341375246326     21.42281322328590     40.18965779890318
  H          45.23161987243775     21.13686587177649     39.14803570939796
  H          45.81827104817501     22.03053307570743     40.70767006801002
  C          43.96255821615996     21.11634914743440     40.88441741242306
  C          43.76489939443480     21.66149113488397     42.33819135078103
  O          44.81613820435278     21.98710004234728     42.94574960378298
  O          42.58088001844763     21.74544282259927     42.73071270724753
  O          42.97152533588756     20.29179090525449     40.41339834547800
  C          42.10705711056181     20.61204248313638     39.28639762382065
  H          41.57114029196288     19.66220968489823     39.12479780599828
  C          42.89200000000000     20.97500000000000     38.05400000000000
  H          43.50205774164725     20.21284191030895     37.56038916656463
  C          42.96900000000000     22.24400000000000     37.60500000000000
  C          42.11800000000000     23.28100000000000     38.20199999999999
  H          42.25955883816787     24.28439266134293     37.79062659551778
  C          41.18800000000000     23.00200000000000     39.13000000000000
  H          40.52650734564695     23.78368384790927     39.52490692110062
  C          40.98911315695398     21.61997351960022     39.71115770233375
  H          41.09282621562151     21.68546656779951     40.81182709635192
  O          39.69053160792370     21.15678125193760     39.33610889835323
  H          39.21154963938321     20.74625702464330     40.08591750320334
  C          43.87555772500750     22.62058113334691     36.39794952305221
  O          44.61229745044167     21.71029624299529     35.94579537814067
  O          43.78104151714294     23.80838125755395     35.99166212507670
  N          37.43598037999999     19.72154179000000     41.19694341000000
