25
Coordinates from ORCA-job job E -836.019307321079
  C      44.842000     22.068000     40.142000
  H      45.265000     21.440000     39.358000
  H      45.368000     22.976000     40.435000
  C      43.689000     21.758000     40.746000
  C      43.115000     22.623000     41.859000
  O      43.577000     23.785000     42.012000
  O      42.221000     22.117000     42.579000
  O      42.985000     20.610000     40.433000
  C      42.079000     20.646000     39.270000
  H      41.683000     19.622000     39.219000
  C      42.892000     20.975000     38.054000
  H      43.551000     20.209000     37.638000
  C      42.969000     22.244000     37.605000
  C      42.118000     23.281000     38.202000
  H      42.307000     24.301000     37.867000
  C      41.188000     23.002000     39.130000
  H      40.598000     23.809000     39.575000
  C      40.887000     21.588000     39.553000
  H      40.742000     21.566000     40.644000
  O      39.715000     21.144000     38.884000
  H      39.068000     20.737000     39.535000
  C      44.024000     22.694000     36.600000
  O      44.937000     21.905000     36.259000
  O      43.944000     23.900000     36.236000
  N      37.435980     19.721542     41.196943
25
Coordinates from ORCA-job job E -836.026683186398
  C      44.958410     21.948951     40.283094
  H      45.346156     21.375482     39.437811
  H      45.525003     22.804040     40.653607
  C      43.779570     21.663961     40.855524
  C      43.267472     22.466887     42.065206
  O      43.874950     23.538894     42.330363
  O      42.344257     21.944510     42.738023
  O      43.029086     20.573029     40.453083
  C      42.112578     20.653117     39.299725
  H      41.703899     19.631848     39.254829
  C      42.892000     20.975000     38.054000
  H      43.538378     20.208067     37.617416
  C      42.969000     22.244000     37.605000
  C      42.118000     23.281000     38.202000
  H      42.295659     24.296952     37.845639
  C      41.188000     23.002000     39.130000
  H      40.586479     23.805353     39.568866
  C      40.913286     21.589533     39.590452
  H      40.787254     21.581616     40.686120
  O      39.730816     21.113976     38.945151
  H      39.110811     20.726172     39.594798
  C      43.986134     22.657036     36.525481
  O      44.795847     21.785995     36.117983
  O      43.856513     23.826805     36.065101
  N      37.435980     19.721542     41.196943
25
Coordinates from ORCA-job job E -836.029130265237
  C      45.060545     21.843364     40.283089
  H      45.390282     21.294443     39.394453
  H      45.672375     22.657300     40.676750
  C      43.878227     21.604737     40.877592
  C      43.452566     22.391565     42.157807
  O      44.152611     23.406720     42.412838
  O      42.470556     21.927977     42.786441
  O      43.079134     20.562163     40.450130
  C      42.144938     20.660089     39.326538
  H      41.726492     19.640561     39.301765
  C      42.892000     20.975000     38.054000
  H      43.529713     20.211285     37.598485
  C      42.969000     22.244000     37.605000
  C      42.118000     23.281000     38.202000
  H      42.283507     24.292309     37.820891
  C      41.188000     23.002000     39.130000
  H      40.570561     23.799319     39.561615
  C      40.942169     21.593272     39.628622
  H      40.839007     21.600990     40.728802
  O      39.747616     21.085858     39.015765
  H      39.155896     20.716403     39.673834
  C      43.945139     22.622254     36.454106
  O      44.768884     21.730881     36.119627
  O      43.878543     23.812897     36.038084
  N      37.435980     19.721542     41.196943
25
Coordinates from ORCA-job job E -836.032243458781
  C      45.078014     21.851273     40.119750
  H      45.334407     21.311938     39.202090
  H      45.710901     22.667565     40.473029
  C      43.936661     21.619158     40.793723
  C      43.594663     22.412234     42.107633
  O      44.414442     23.318685     42.396734
  O      42.575436     22.031748     42.722268
  O      43.120798     20.574469     40.424221
  C      42.166083     20.663047     39.339626
  H      41.739463     19.647191     39.331148
  C      42.892000     20.975000     38.054000
  H      43.518966     20.213681     37.582509
  C      42.969000     22.244000     37.605000
  C      42.118000     23.281000     38.202000
  H      42.265094     24.286867     37.795812
  C      41.188000     23.002000     39.130000
  H      40.549063     23.792649     39.543624
  C      40.973904     21.601629     39.669716
  H      40.914995     21.630991     40.772522
  O      39.758514     21.071697     39.118044
  H      39.177379     20.704995     39.811790
  C      43.864908     22.604935     36.378383
  O      44.586631     21.674995     35.938744
  O      43.740504     23.775538     35.933107
  N      37.435980     19.721542     41.196943
25
Coordinates from ORCA-job job E -836.033609917186
  C      45.070388     21.812067     40.276268
  H      45.376078     21.316385     39.352507
  H      45.682857     22.608962     40.701611
  C      43.895820     21.549480     40.876357
  C      43.478426     22.282460     42.200247
  O      44.331565     23.080497     42.658796
  O      42.379028     21.948198     42.687636
  O      43.092238     20.520040     40.437077
  C      42.158575     20.653444     39.331967
  H      41.707058     19.649717     39.289376
  C      42.892000     20.975000     38.054000
  H      43.508444     20.212001     37.571448
  C      42.969000     22.244000     37.605000
  C      42.118000     23.281000     38.202000
  H      42.262040     24.285579     37.794367
  C      41.188000     23.002000     39.130000
  H      40.540603     23.789659     39.534436
  C      40.979995     21.605070     39.678734
  H      40.953183     21.642185     40.781477
  O      39.747553     21.079230     39.166931
  H      39.177161     20.707814     39.882324
  C      43.839670     22.610343     36.365034
  O      44.566185     21.698565     35.901132
  O      43.718505     23.788180     35.943471
  N      37.435980     19.721542     41.196943
25
Coordinates from ORCA-job job E -836.031217075859
  C      45.095578     21.695531     40.349497
  H      45.404861     21.226505     39.415275
  H      45.725812     22.449405     40.824340
  C      43.905419     21.440549     40.918598
  C      43.473485     22.150319     42.247671
  O      44.330315     22.919846     42.746865
  O      42.264351     22.067560     42.544594
  O      43.069357     20.452154     40.443503
  C      42.151444     20.642927     39.323892
  H      41.668639     19.656619     39.242016
  C      42.892000     20.975000     38.054000
  H      43.496952     20.210400     37.557747
  C      42.969000     22.244000     37.605000
  C      42.118000     23.281000     38.202000
  H      42.260504     24.284323     37.793969
  C      41.188000     23.002000     39.130000
  H      40.529069     23.785186     39.523202
  C      40.988509     21.610758     39.693158
  H      41.010320     21.661211     40.795305
  O      39.732557     21.090481     39.238055
  H      39.188624     20.715820     39.976902
  C      43.825175     22.618989     36.360173
  O      44.511123     21.708259     35.839700
  O      43.677490     23.792570     35.936657
  N      37.435980     19.721542     41.196943
25
Coordinates from ORCA-job job E -836.035160094649
  C      45.120448     21.626533     40.205025
  H      45.346966     21.162602     39.242416
  H      45.804992     22.352846     40.647225
  C      43.969471     21.392659     40.857808
  C      43.647884     22.116361     42.213997
  O      44.608857     22.739391     42.730775
  O      42.474344     22.024192     42.630887
  O      43.080881     20.433926     40.425549
  C      42.149921     20.640880     39.322514
  H      41.659089     19.658439     39.237953
  C      42.892000     20.975000     38.054000
  H      43.496569     20.211191     37.554605
  C      42.969000     22.244000     37.605000
  C      42.118000     23.281000     38.202000
  H      42.261140     24.284174     37.792390
  C      41.188000     23.002000     39.130000
  H      40.525084     23.783675     39.521099
  C      40.991478     21.613790     39.701238
  H      41.032475     21.671777     40.803808
  O      39.726528     21.095179     39.264162
  H      39.200621     20.722973     40.004193
  C      43.833724     22.617299     36.362738
  O      44.541312     21.706509     35.869908
  O      43.732266     23.807072     35.967325
  N      37.435980     19.721542     41.196943
25
Coordinates from ORCA-job job E -836.035574998692
  C      45.079932     21.586519     40.219152
  H      45.289312     21.180346     39.226832
  H      45.772719     22.284882     40.692362
  C      43.942655     21.310951     40.880562
  C      43.637022     21.977339     42.266380
  O      44.625173     22.506424     42.835392
  O      42.452290     21.924295     42.659492
  O      43.041358     20.380845     40.417236
  C      42.131539     20.630066     39.307148
  H      41.623731     19.658685     39.195981
  C      42.892000     20.975000     38.054000
  H      43.497671     20.212846     37.554042
  C      42.969000     22.244000     37.605000
  C      42.118000     23.281000     38.202000
  H      42.264120     24.285047     37.794543
  C      41.188000     23.002000     39.130000
  H      40.524764     23.783328     39.522198
  C      40.988524     21.615686     39.701814
  H      41.054081     21.677145     40.804354
  O      39.713267     21.111863     39.285860
  H      39.205856     20.732930     40.032898
  C      43.850748     22.619016     36.376378
  O      44.555205     21.702665     35.888333
  O      43.769009     23.814450     35.990805
  N      37.435980     19.721542     41.196943
25
Coordinates from ORCA-job job E -836.035807762308
  C      45.091845     21.458325     40.194496
  H      45.262955     21.094815     39.179159
  H      45.824966     22.101541     40.684738
  C      43.963896     21.189831     40.876333
  C      43.720724     21.816640     42.287766
  O      44.754736     22.201285     42.891572
  O      42.530440     21.887419     42.663585
  O      43.007206     20.318732     40.410379
  C      42.117709     20.619619     39.294407
  H      41.589681     19.662720     39.152872
  C      42.892000     20.975000     38.054000
  H      43.499251     20.214090     37.554603
  C      42.969000     22.244000     37.605000
  C      42.118000     23.281000     38.202000
  H      42.264908     24.285302     37.794915
  C      41.188000     23.002000     39.130000
  H      40.524950     23.783117     39.523529
  C      40.991037     21.619158     39.709975
  H      41.088494     21.689040     40.811166
  O      39.702407     21.131708     39.325809
  H      39.216271     20.741925     40.082624
  C      43.872220     22.621831     36.395252
  O      44.583028     21.703942     35.918025
  O      43.803095     23.819801     36.012991
  N      37.435980     19.721542     41.196943
25
Coordinates from ORCA-job job E -836.035874152078
  C      45.063551     21.455518     40.213769
  H      45.230945     21.142840     39.181050
  H      45.795390     22.083442     40.725317
  C      43.944695     21.147221     40.894890
  C      43.711442     21.715183     42.330418
  O      44.746968     22.077456     42.945420
  O      42.520765     21.777391     42.708236
  O      42.983500     20.293389     40.408379
  C      42.108779     20.614077     39.286422
  H      41.575137     19.662218     39.130575
  C      42.892000     20.975000     38.054000
  H      43.501396     20.214246     37.557568
  C      42.969000     22.244000     37.605000
  C      42.118000     23.281000     38.202000
  H      42.264123     24.285342     37.794306
  C      41.188000     23.002000     39.130000
  H      40.528020     23.784109     39.526755
  C      40.989203     21.619345     39.708975
  H      41.092703     21.689580     40.809725
  O      39.696754     21.145077     39.328940
  H      39.217078     20.747743     40.084519
  C      43.879666     22.620817     36.401700
  O      44.597217     21.702626     35.934260
  O      43.808873     23.816654     36.013241
  N      37.435980     19.721542     41.196943
25
Coordinates from ORCA-job job E -836.035912295940
  C      45.071488     21.427483     40.206876
  H      45.236708     21.122306     39.171614
  H      45.808805     22.047474     40.720466
  C      43.952495     21.124950     40.890871
  C      43.729941     21.688534     42.330502
  O      44.770018     22.030562     42.948741
  O      42.539346     21.770725     42.704669
  O      42.977131     20.286074     40.408979
  C      42.107717     20.612144     39.285748
  H      41.571507     19.662290     39.125786
  C      42.892000     20.975000     38.054000
  H      43.502138     20.214028     37.558865
  C      42.969000     22.244000     37.605000
  C      42.118000     23.281000     38.202000
  H      42.261060     24.284553     37.791165
  C      41.188000     23.002000     39.130000
  H      40.527974     23.784149     39.526550
  C      40.991201     21.619730     39.713057
  H      41.099315     21.691034     40.813159
  O      39.694456     21.150015     39.341366
  H      39.217668     20.747868     40.096935
  C      43.877362     22.619429     36.399260
  O      44.601906     21.703278     35.938621
  O      43.795791     23.811025     36.001323
  N      37.435980     19.721542     41.196943
25
Coordinates from ORCA-job job E -836.035932745923
  C      45.074878     21.416307     40.194770
  H      45.234922     21.120576     39.156030
  H      45.818288     22.028838     40.708930
  C      43.959811     21.115070     40.885311
  C      43.753400     21.668191     42.333048
  O      44.799369     22.001977     42.945024
  O      42.566333     21.752884     42.717381
  O      42.974486     20.285359     40.410242
  C      42.107313     20.611426     39.285852
  H      41.570276     19.662365     39.123741
  C      42.892000     20.975000     38.054000
  H      43.502386     20.213359     37.559996
  C      42.969000     22.244000     37.605000
  C      42.118000     23.281000     38.202000
  H      42.259138     24.284096     37.789639
  C      41.188000     23.002000     39.130000
  H      40.527443     23.783985     39.525799
  C      40.991619     21.619965     39.713957
  H      41.099358     21.689805     40.813911
  O      39.692605     21.154588     39.344082
  H      39.216111     20.748233     40.097482
  C      43.874291     22.619341     36.396476
  O      44.607253     21.707350     35.941290
  O      43.782145     23.807474     35.991394
  N      37.435980     19.721542     41.196943
25
Coordinates from ORCA-job job E -836.035939563295
  C      45.075190     21.416118     40.191797
  H      45.234835     21.124687     39.151850
  H      45.819571     22.026514     40.707305
  C      43.961700     21.113977     40.884283
  C      43.759894     21.664057     42.334985
  O      44.808223     21.994603     42.944519
  O      42.574241     21.747569     42.723551
  O      42.972887     20.287544     40.411609
  C      42.107082     20.611526     39.286093
  H      41.570191     19.662412     39.123699
  C      42.892000     20.975000     38.054000
  H      43.502328     20.212979     37.560463
  C      42.969000     22.244000     37.605000
  C      42.118000     23.281000     38.202000
  H      42.258856     24.284111     37.789607
  C      41.188000     23.002000     39.130000
  H      40.526896     23.783801     39.525253
  C      40.990920     21.620091     39.713166
  H      41.097076     21.688001     40.813404
  O      39.691479     21.156647     39.341917
  H      39.214232     20.748096     40.093683
  C      43.874085     22.619755     36.396317
  O      44.610720     21.709374     35.944057
  O      43.778117     23.806803     35.988714
  N      37.435980     19.721542     41.196943
25
Coordinates from ORCA-job job E -836.035943319863
  C      45.073639     21.421267     40.190084
  H      45.232166     21.134376     39.148736
  H      45.818287     22.030038     40.707185
  C      43.962338     21.115492     40.884379
  C      43.763710     21.661531     42.337691
  O      44.814049     21.989397     42.945360
  O      42.579321     21.744078     42.729755
  O      42.972257     20.290158     40.412736
  C      42.107125     20.611865     39.286425
  H      41.570673     19.662417     39.124401
  C      42.892000     20.975000     38.054000
  H      43.502086     20.212798     37.560456
  C      42.969000     22.244000     37.605000
  C      42.118000     23.281000     38.202000
  H      42.259060     24.284219     37.790017
  C      41.188000     23.002000     39.130000
  H      40.526483     23.783664     39.524866
  C      40.990011     21.620131     39.712258
  H      41.095024     21.686599     40.812731
  O      39.690684     21.157053     39.339424
  H      39.212527     20.747166     40.090162
  C      43.874604     22.620258     36.396936
  O      44.611801     21.710216     35.945057
  O      43.778783     23.807582     35.989749
  N      37.435980     19.721542     41.196943
25
Coordinates from ORCA-job job E -836.035945443250
  C      45.073414     21.422813     40.189658
  H      45.231620     21.136866     39.148036
  H      45.818271     22.030533     40.707670
  C      43.962558     21.116349     40.884417
  C      43.764899     21.661491     42.338191
  O      44.816138     21.987100     42.945750
  O      42.580880     21.745443     42.730713
  O      42.971525     20.291791     40.413398
  C      42.107057     20.612042     39.286398
  H      41.571140     19.662210     39.124798
  C      42.892000     20.975000     38.054000
  H      43.502058     20.212842     37.560389
  C      42.969000     22.244000     37.605000
  C      42.118000     23.281000     38.202000
  H      42.259559     24.284393     37.790627
  C      41.188000     23.002000     39.130000
  H      40.526507     23.783684     39.524907
  C      40.989113     21.619974     39.711158
  H      41.092826     21.685467     40.811827
  O      39.690532     21.156781     39.336109
  H      39.211550     20.746257     40.085918
  C      43.875558     22.620581     36.397950
  O      44.612297     21.710296     35.945795
  O      43.781042     23.808381     35.991662
  N      37.435980     19.721542     41.196943
