24
frame 48292 P, aligned onto 20000 on 8 atoms
C      48.11481282    28.36475704    55.99217069
H      49.03299586    27.80618337    56.20370402
H      48.10027379    29.31925792    56.53645157
C      46.99589931    27.43851635    56.43973490
C      45.66445148    27.93149359    57.10158769
O      45.62451183    29.09099514    57.57345631
O      44.73594562    27.09489147    57.14585691
O      47.12387106    26.24389646    56.26482764
C      46.58197677    26.93057992    53.33075328
H      46.44143087    25.96039648    52.84985002
C      47.79601264    27.33334422    53.71169266
H      48.67259949    26.69950972    53.58920868
C      48.04261803    28.63475443    54.42625424
C      46.88670475    29.58345296    54.24289774
H      47.08137771    30.62734363    54.49799908
C      45.66354701    29.17121473    53.90122714
H      44.83371802    29.88061483    53.89629233
C      45.33272854    27.74597091    53.53214695
H      44.74797584    27.30174943    54.36419355
O      44.55513654    27.73893147    52.34741992
H      43.76576840    27.11877489    52.42552729
C      49.39400369    29.25495490    53.88363174
O      50.41923788    28.51737799    53.79889004
O      49.37308208    30.45190678    53.52619716
