24
frame 48292 R, aligned onto 20000 on 8 atoms
C      47.82849133    28.12183787    56.86535353
H      48.77127681    27.80248737    56.42460779
H      47.82618576    28.92740764    57.60064192
C      46.66489524    27.56269110    56.51964697
C      45.35336534    27.94928964    57.18057957
O      45.29853845    29.08866262    57.71844221
O      44.42206965    27.11025835    57.16382162
O      46.58259437    26.55670023    55.57282812
C      46.57176473    26.97761305    54.17000628
H      46.37911423    26.04999327    53.61120280
C      47.92659553    27.51868960    53.82812375
H      48.75961062    26.81798745    53.77457613
C      48.16021888    28.84075228    53.72051142
C      47.04819834    29.78461279    53.89024843
H      47.30862013    30.84329955    53.95690305
C      45.77391789    29.37559946    54.02313347
H      44.97935183    30.10279008    54.21362646
C      45.38181503    27.92634150    53.87350156
H      44.59439435    27.67323652    54.60398944
O      44.90124010    27.72834299    52.54961095
H      44.09300037    27.13904021    52.55048551
C      49.56392081    29.37535598    53.48511229
O      50.55376738    28.60882834    53.69258554
O      49.67050934    30.56255992    53.09367559
