24
frame 48292 TS, aligned onto 20000 on 8 atoms
C      48.03187853    28.23287994    56.43199546
H      48.96036281    27.73086751    56.17683665
H      48.06187461    29.20301940    56.92878745
C      46.86104011    27.47127887    56.42714464
C      45.54916249    27.95095518    57.08382073
O      45.50605481    29.10613183    57.58411649
O      44.59951339    27.13272364    57.10673898
O      46.81223385    26.36864395    55.79219028
C      46.54701969    26.87326109    53.67859226
H      46.37491275    25.83668234    53.38304432
C      47.82417084    27.39594919    53.64443822
H      48.68957986    26.75348773    53.50080921
C      48.05725413    28.72279452    54.01265675
C      46.91388915    29.63460261    54.12950258
H      47.13581312    30.68069962    54.34704935
C      45.65147152    29.19085727    54.01913617
H      44.81359246    29.87541241    54.16679838
C      45.31639670    27.75417429    53.71212406
H      44.63413376    27.37242832    54.49179788
O      44.69121862    27.69085444    52.43389037
H      43.87912478    27.09265017    52.45863622
C      49.45203043    29.29878885    53.73716657
O      50.45881711    28.53144904    53.74600313
O      49.50065669    30.51347034    53.43612040
