25
Coordinates from ORCA-job job
  C          44.92159365493475     19.99149621596015     40.35176200157456
  H          45.08712499319844     19.78525467092111     39.29278261747196
  H          45.76841771244596     20.21888334330579     41.00077817086092
  C          43.69357508441244     20.00930320006699     40.88847942567801
  C          43.49561777985733     20.39814575837815     42.37681644901781
  O          44.44527315297079     20.18697253663405     43.14313696297570
  O          42.37657411719779     20.92908362858471     42.68560202717722
  O          42.57015974314967     19.65249956987717     40.16674206604879
  C          41.99527059073151     20.59027868829248     39.20646686078663
  H          41.12423514594825     20.01739798001981     38.82528160388586
  C          42.89200000000000     20.97500000000000     38.05400000000000
  H          43.44817836277436     20.20394689847899     37.51310242819667
  C          42.96900000000000     22.24400000000000     37.60500000000000
  C          42.11800000000000     23.28100000000000     38.20199999999999
  H          42.16485714011070     24.24118550001545     37.67909607854053
  C          41.18800000000000     23.00200000000000     39.13000000000000
  H          40.49858606203183     23.75403332316442     39.53186563152398
  C          41.47142256659040     21.79475413770201     39.99299683336929
  H          42.33729964393486     22.12088446544628     40.60390632711292
  O          40.45649868803498     21.42117046934614     40.90094329114462
  H          41.02451709544061     21.17886156044275     41.68117020112491
  C          43.85897845706442     22.61746070528682     36.38035762983364
  O          44.48181764323055     21.67181205188141     35.85176718056046
  O          43.84046196462766     23.83222478373465     36.06776372003602
  N          40.83200000000000     18.75000000000000     42.55100000000000
