25
Coordinates from ORCA-job job E -836.240335906897
  C      44.842000     22.068000     40.142000
  H      45.265000     21.440000     39.358000
  H      45.368000     22.976000     40.435000
  C      43.689000     21.758000     40.746000
  C      43.115000     22.623000     41.859000
  O      43.577000     23.785000     42.012000
  O      42.221000     22.117000     42.579000
  O      42.985000     20.610000     40.433000
  C      42.079000     20.646000     39.270000
  H      41.683000     19.622000     39.219000
  C      42.892000     20.975000     38.054000
  H      43.551000     20.209000     37.638000
  C      42.969000     22.244000     37.605000
  C      42.118000     23.281000     38.202000
  H      42.307000     24.301000     37.867000
  C      41.188000     23.002000     39.130000
  H      40.598000     23.809000     39.575000
  C      40.887000     21.588000     39.553000
  H      40.742000     21.566000     40.644000
  O      39.715000     21.144000     38.884000
  H      39.068000     20.737000     39.535000
  C      44.024000     22.694000     36.600000
  O      44.937000     21.905000     36.259000
  O      43.944000     23.900000     36.236000
  N      40.832000     18.750000     42.551000
25
Coordinates from ORCA-job job E -836.261908695570
  C      44.677329     21.954255     40.651764
  H      45.212253     21.485022     39.823913
  H      45.130584     22.800515     41.167431
  C      43.465556     21.538214     41.040528
  C      42.706022     22.161230     42.216145
  O      43.111940     23.264988     42.651245
  O      41.735543     21.488018     42.666818
  O      42.821804     20.460845     40.466197
  C      42.037548     20.607496     39.233019
  H      41.631995     19.588414     39.110827
  C      42.892000     20.975000     38.054000
  H      43.551068     20.214756     37.627068
  C      42.969000     22.244000     37.605000
  C      42.118000     23.281000     38.202000
  H      42.319104     24.300973     37.872119
  C      41.188000     23.002000     39.130000
  H      40.596851     23.803496     39.584390
  C      40.860368     21.573354     39.508341
  H      40.689296     21.509645     40.597342
  O      39.684039     21.162019     38.801394
  H      39.054087     20.761916     39.425289
  C      44.032503     22.677243     36.589942
  O      44.904360     21.838998     36.258304
  O      43.948211     23.873078     36.198012
  N      40.832000     18.750000     42.551000
25
Coordinates from ORCA-job job E -836.211833561289
  C      44.451921     21.806795     40.921413
  H      45.020533     21.520248     40.032688
  H      44.849206     22.567112     41.594920
  C      43.253223     21.279818     41.196871
  C      42.422847     21.629583     42.455316
  O      42.772965     22.633943     43.103089
  O      41.477795     20.824068     42.724882
  O      42.681088     20.292528     40.431263
  C      41.986688     20.567305     39.180974
  H      41.565777     19.566165     38.979606
  C      42.892000     20.975000     38.054000
  H      43.551216     20.222543     37.612543
  C      42.969000     22.244000     37.605000
  C      42.118000     23.281000     38.202000
  H      42.331938     24.301212     37.876194
  C      41.188000     23.002000     39.130000
  H      40.595223     23.796660     39.594888
  C      40.829630     21.563102     39.459190
  H      40.627955     21.453433     40.539302
  O      39.649342     21.201692     38.713387
  H      39.025430     20.802739     39.324261
  C      44.035975     22.668399     36.573428
  O      44.880291     21.800612     36.253756
  O      43.954466     23.861305     36.182005
  N      40.832000     18.750000     42.551000
25
Coordinates from ORCA-job job E -836.266716713097
  C      44.549647     21.896970     40.670020
  H      45.074540     21.440136     39.826398
  H      44.999096     22.741383     41.194238
  C      43.339466     21.481695     41.061705
  C      42.597261     22.115661     42.268791
  O      43.057538     23.190211     42.695343
  O      41.602818     21.476760     42.718499
  O      42.729477     20.399765     40.451963
  C      41.999983     20.602302     39.209554
  H      41.561981     19.600172     39.051581
  C      42.892000     20.975000     38.054000
  H      43.550366     20.217389     37.619950
  C      42.969000     22.244000     37.605000
  C      42.118000     23.281000     38.202000
  H      42.326596     24.300125     37.868645
  C      41.188000     23.002000     39.130000
  H      40.594394     23.798852     39.590234
  C      40.841899     21.584410     39.486972
  H      40.657973     21.504242     40.573095
  O      39.656274     21.195754     38.760197
  H      39.048068     20.805974     39.387475
  C      44.025533     22.662317     36.557191
  O      44.856067     21.784870     36.228660
  O      43.937276     23.851545     36.157286
  N      40.832000     18.750000     42.551000
25
Coordinates from ORCA-job job E -836.269075708663
  C      44.605486     21.649709     40.778991
  H      45.138948     21.157511     39.961671
  H      45.081493     22.460320     41.332936
  C      43.341947     21.336024     41.090083
  C      42.572301     22.026625     42.257143
  O      43.139524     22.997594     42.781455
  O      41.439782     21.538323     42.542903
  O      42.688342     20.307717     40.433414
  C      41.985308     20.585223     39.192864
  H      41.519757     19.603494     38.989428
  C      42.892000     20.975000     38.054000
  H      43.547523     20.222674     37.607035
  C      42.969000     22.244000     37.605000
  C      42.118000     23.281000     38.202000
  H      42.326611     24.298474     37.861684
  C      41.188000     23.002000     39.130000
  H      40.589328     23.794489     39.591808
  C      40.838701     21.583144     39.479598
  H      40.650333     21.489136     40.563435
  O      39.640879     21.209304     38.753618
  H      39.045088     20.815960     39.398116
  C      43.986716     22.648689     36.501565
  O      44.769824     21.746777     36.130655
  O      43.882553     23.831301     36.095067
  N      40.832000     18.750000     42.551000
25
Coordinates from ORCA-job job E -836.270353235996
  C      44.643959     21.596454     40.768757
  H      45.150300     21.125258     39.923972
  H      45.137148     22.388912     41.333320
  C      43.383367     21.285878     41.098487
  C      42.657880     21.957221     42.304826
  O      43.303901     22.834728     42.900843
  O      41.534257     21.469229     42.615928
  O      42.710967     20.271836     40.428672
  C      41.989727     20.584555     39.197799
  H      41.498579     19.619341     38.974117
  C      42.892000     20.975000     38.054000
  H      43.543713     20.224784     37.598306
  C      42.969000     22.244000     37.605000
  C      42.118000     23.281000     38.202000
  H      42.322539     24.296634     37.854209
  C      41.188000     23.002000     39.130000
  H      40.584826     23.792731     39.589427
  C      40.846636     21.586886     39.491454
  H      40.664621     21.501124     40.576312
  O      39.640097     21.205985     38.776921
  H      39.054842     20.811117     39.441050
  C      43.948401     22.639561     36.457617
  O      44.717378     21.736099     36.062657
  O      43.847605     23.826158     36.066140
  N      40.832000     18.750000     42.551000
25
Coordinates from ORCA-job job E -836.270737452406
  C      44.633615     21.629319     40.703266
  H      45.086058     21.237344     39.791588
  H      45.140610     22.396218     41.289252
  C      43.414269     21.241523     41.102805
  C      42.781414     21.811945     42.407284
  O      43.437275     22.703974     42.979015
  O      41.642574     21.370785     42.715336
  O      42.745398     20.229034     40.414085
  C      41.991628     20.587420     39.202503
  H      41.462212     19.649699     38.950920
  C      42.892000     20.975000     38.054000
  H      43.540367     20.226634     37.589820
  C      42.969000     22.244000     37.605000
  C      42.118000     23.281000     38.202000
  H      42.318868     24.294800     37.847705
  C      41.188000     23.002000     39.130000
  H      40.580109     23.791751     39.585694
  C      40.858196     21.595271     39.512868
  H      40.694216     21.529047     40.601113
  O      39.637650     21.201393     38.821808
  H      39.072648     20.805434     39.509342
  C      43.899512     22.631379     36.410162
  O      44.641084     21.727560     35.966991
  O      43.803003     23.824159     36.038450
  N      40.832000     18.750000     42.551000
25
Coordinates from ORCA-job job E -836.272513482777
  C      44.603018     21.540171     40.712400
  H      45.064734     21.130981     39.810897
  H      45.115428     22.294623     41.310172
  C      43.370628     21.176522     41.092462
  C      42.706086     21.777276     42.373134
  O      43.420431     22.550512     43.034531
  O      41.522607     21.414688     42.617458
  O      42.695427     20.182977     40.391225
  C      41.976015     20.577471     39.185288
  H      41.434072     19.654767     38.909316
  C      42.892000     20.975000     38.054000
  H      43.545678     20.229992     37.590299
  C      42.969000     22.244000     37.605000
  C      42.118000     23.281000     38.202000
  H      42.322149     24.295105     37.848251
  C      41.188000     23.002000     39.130000
  H      40.578759     23.790627     39.586388
  C      40.863131     21.596407     39.521369
  H      40.724799     21.529373     40.614218
  O      39.620452     21.207234     38.862405
  H      39.089341     20.808687     39.558119
  C      43.889536     22.627065     36.400293
  O      44.563137     21.696306     35.909589
  O      43.781296     23.816631     36.021620
  N      40.832000     18.750000     42.551000
25
Coordinates from ORCA-job job E -836.272167618730
  C      44.590192     21.468484     40.768320
  H      45.078885     21.037215     39.891059
  H      45.096690     22.215502     41.380687
  C      43.335954     21.136747     41.103340
  C      42.622184     21.767783     42.342811
  O      43.333357     22.493117     43.055992
  O      41.410095     21.453414     42.518326
  O      42.654523     20.162305     40.386887
  C      41.967626     20.571672     39.175609
  H      41.424636     19.653151     38.887739
  C      42.892000     20.975000     38.054000
  H      43.547201     20.230203     37.591960
  C      42.969000     22.244000     37.605000
  C      42.118000     23.281000     38.202000
  H      42.325064     24.295735     37.851298
  C      41.188000     23.002000     39.130000
  H      40.579689     23.790993     39.587145
  C      40.863556     21.595789     39.523199
  H      40.736763     21.526228     40.618717
  O      39.609271     21.211736     38.882413
  H      39.090871     20.810502     39.579184
  C      43.897831     22.626851     36.409678
  O      44.635323     21.711702     35.986289
  O      43.863869     23.839704     36.092695
  N      40.832000     18.750000     42.551000
25
Coordinates from ORCA-job job E -836.273775844536
  C      44.626450     21.407674     40.725026
  H      45.073126     21.008907     39.812112
  H      45.165874     22.124747     41.344784
  C      43.385747     21.068020     41.101405
  C      42.739242     21.655911     42.394081
  O      43.495262     22.335611     43.108435
  O      41.526649     21.369545     42.606563
  O      42.661477     20.126608     40.378184
  C      41.967525     20.570399     39.175678
  H      41.409546     19.665953     38.871533
  C      42.892000     20.975000     38.054000
  H      43.544334     20.229156     37.590208
  C      42.969000     22.244000     37.605000
  C      42.118000     23.281000     38.202000
  H      42.325539     24.295762     37.853005
  C      41.188000     23.002000     39.130000
  H      40.579837     23.792573     39.584686
  C      40.870770     21.599799     39.538299
  H      40.765369     21.542121     40.636530
  O      39.601393     21.214140     38.929998
  H      39.094395     20.808111     39.642941
  C      43.914586     22.632792     36.427327
  O      44.626201     21.711564     35.972393
  O      43.852778     23.837296     36.080714
  N      40.832000     18.750000     42.551000
25
Coordinates from ORCA-job job E -836.274344466383
  C      44.642702     21.315471     40.703291
  H      45.058330     20.946465     39.763564
  H      45.211535     21.996223     41.337381
  C      43.406248     20.983131     41.098780
  C      42.802215     21.538043     42.425932
  O      43.600978     22.130166     43.171194
  O      41.569369     21.333698     42.622633
  O      42.642959     20.083690     40.363866
  C      41.961936     20.565358     39.168652
  H      41.391591     19.675468     38.844597
  C      42.892000     20.975000     38.054000
  H      43.541977     20.228485     37.588105
  C      42.969000     22.244000     37.605000
  C      42.118000     23.281000     38.202000
  H      42.322882     24.295306     37.850004
  C      41.188000     23.002000     39.130000
  H      40.578462     23.793376     39.581815
  C      40.878992     21.603251     39.553709
  H      40.804307     21.553878     40.654842
  O      39.588948     21.220631     38.988051
  H      39.108330     20.808489     39.714791
  C      43.922782     22.634311     36.435893
  O      44.618464     21.707415     35.967761
  O      43.862907     23.838778     36.088997
  N      40.832000     18.750000     42.551000
25
Coordinates from ORCA-job job E -836.274931799225
  C      44.661709     21.201003     40.690261
  H      45.048156     20.879543     39.721358
  H      45.261452     21.831712     41.347216
  C      43.428318     20.872988     41.098230
  C      42.866605     21.377897     42.461395
  O      43.707405     21.829647     43.258034
  O      41.613987     21.298217     42.626980
  O      42.619826     20.031686     40.346165
  C      41.956223     20.560258     39.160568
  H      41.369858     19.689736     38.813447
  C      42.892000     20.975000     38.054000
  H      43.535772     20.225525     37.584575
  C      42.969000     22.244000     37.605000
  C      42.118000     23.281000     38.202000
  H      42.316875     24.294508     37.844591
  C      41.188000     23.002000     39.130000
  H      40.577001     23.795094     39.577179
  C      40.895141     21.609426     39.580895
  H      40.874011     21.575848     40.685319
  O      39.576388     21.229505     39.089335
  H      39.137976     20.805145     39.838280
  C      43.933045     22.637338     36.447897
  O      44.624966     21.710235     35.973564
  O      43.884363     23.844611     36.109023
  N      40.832000     18.750000     42.551000
25
Coordinates from ORCA-job job E -836.275364099395
  C      44.689969     21.105946     40.669053
  H      45.047959     20.832865     39.674448
  H      45.319045     21.688601     41.343076
  C      43.461190     20.780198     41.092435
  C      42.941228     21.235240     42.489519
  O      43.812738     21.535714     43.323076
  O      41.683182     21.284902     42.634845
  O      42.614032     19.989879     40.332082
  C      41.958119     20.556178     39.159506
  H      41.357486     19.700818     38.798764
  C      42.892000     20.975000     38.054000
  H      43.527625     20.223033     37.577368
  C      42.969000     22.244000     37.605000
  C      42.118000     23.281000     38.202000
  H      42.307988     24.292836     37.834943
  C      41.188000     23.002000     39.130000
  H      40.572898     23.795046     39.572073
  C      40.919106     21.615551     39.612593
  H      40.954831     21.600451     40.717560
  O      39.576008     21.231000     39.200247
  H      39.190443     20.798083     39.969892
  C      43.928787     22.635239     36.442994
  O      44.615127     21.705125     35.966205
  O      43.889227     23.844498     36.111553
  N      40.832000     18.750000     42.551000
25
Coordinates from ORCA-job job E -836.275882655659
  C      44.723681     21.002346     40.634743
  H      45.051491     20.802042     39.613067
  H      45.382715     21.527961     41.327273
  C      43.505839     20.658115     41.076090
  C      43.030221     21.048411     42.504168
  O      43.913049     21.158268     43.372872
  O      41.785892     21.249729     42.637298
  O      42.613465     19.931710     40.308459
  C      41.960827     20.554631     39.160259
  H      41.331655     19.727684     38.782669
  C      42.892000     20.975000     38.054000
  H      43.513182     20.217802     37.566772
  C      42.969000     22.244000     37.605000
  C      42.118000     23.281000     38.202000
  H      42.293787     24.290188     37.821289
  C      41.188000     23.002000     39.130000
  H      40.566628     23.795003     39.563620
  C      40.963772     21.630084     39.668510
  H      41.101198     21.653739     40.766902
  O      39.590525     21.235552     39.402432
  H      39.295306     20.790595     40.206864
  C      43.921276     22.634203     36.437027
  O      44.608132     21.705848     35.957351
  O      43.887872     23.845408     36.112286
  N      40.832000     18.750000     42.551000
25
Coordinates from ORCA-job job E -836.276740136013
  C      44.790914     20.800754     40.559209
  H      45.064778     20.701166     39.507377
  H      45.509963     21.222221     41.264133
  C      43.583994     20.459391     41.033225
  C      43.195502     20.749988     42.506964
  O      44.072977     20.579243     43.370580
  O      42.010074     21.168878     42.677561
  O      42.609858     19.844728     40.273338
  C      41.968515     20.555817     39.167400
  H      41.290797     19.776271     38.772352
  C      42.892000     20.975000     38.054000
  H      43.489732     20.210487     37.549215
  C      42.969000     22.244000     37.605000
  C      42.118000     23.281000     38.202000
  H      42.270474     24.284751     37.797800
  C      41.188000     23.002000     39.130000
  H      40.554831     23.791791     39.552968
  C      41.048417     21.658474     39.755372
  H      41.347397     21.747332     40.820180
  O      39.657732     21.249323     39.738928
  H      39.522554     20.802232     40.583005
  C      43.904958     22.628913     36.421141
  O      44.591652     21.698997     35.944803
  O      43.872423     23.840238     36.097231
  N      40.832000     18.750000     42.551000
25
Coordinates from ORCA-job job E -836.278290707018
  C      44.831412     20.652449     40.510370
  H      45.080262     20.620823     39.448340
  H      45.583931     21.002875     41.219950
  C      43.628738     20.313764     40.997585
  C      43.282098     20.549329     42.487081
  O      44.111138     20.191643     43.341719
  O      42.166285     21.122445     42.681136
  O      42.602994     19.782984     40.247144
  C      41.977435     20.565897     39.179117
  H      41.248644     19.836264     38.778543
  C      42.892000     20.975000     38.054000
  H      43.467105     20.202038     37.536367
  C      42.969000     22.244000     37.605000
  C      42.118000     23.281000     38.202000
  H      42.244452     24.277730     37.772540
  C      41.188000     23.002000     39.130000
  H      40.543903     23.787539     39.544784
  C      41.147530     21.696479     39.838583
  H      41.609548     21.855227     40.836107
  O      39.786263     21.283184     40.089589
  H      39.823477     20.849750     40.953309
  C      43.888332     22.625059     36.406956
  O      44.568816     21.694761     35.922733
  O      43.851320     23.835360     36.079773
  N      40.832000     18.750000     42.551000
25
Coordinates from ORCA-job job E -836.281140066972
  C      44.847610     20.563653     40.486573
  H      45.086383     20.562817     39.421739
  H      45.616306     20.878160     41.196175
  C      43.645588     20.231414     40.980257
  C      43.313379     20.452739     42.473378
  O      44.111806     20.025221     43.324870
  O      42.227287     21.078287     42.675662
  O      42.591923     19.751174     40.236837
  C      41.984540     20.579809     39.192338
  H      41.212996     19.890860     38.797184
  C      42.892000     20.975000     38.054000
  H      43.450041     20.194974     37.528657
  C      42.969000     22.244000     37.605000
  C      42.118000     23.281000     38.202000
  H      42.220983     24.270191     37.749359
  C      41.188000     23.002000     39.130000
  H      40.535582     23.783279     39.540361
  C      41.239328     21.734651     39.899996
  H      41.831374     21.951233     40.814391
  O      39.945843     21.326583     40.380209
  H      40.142103     20.937415     41.244585
  C      43.870920     22.620039     36.391853
  O      44.546040     21.687993     35.903682
  O      43.835430     23.830564     36.065376
  N      40.832000     18.750000     42.551000
25
Coordinates from ORCA-job job E -836.285627717951
  C      44.876433     20.603422     40.502077
  H      45.118048     20.610958     39.437971
  H      45.640274     20.927829     41.212775
  C      43.679917     20.250505     40.994626
  C      43.337510     20.474888     42.484348
  O      44.129305     20.056257     43.345896
  O      42.245261     21.094633     42.676128
  O      42.629609     19.762419     40.253505
  C      42.011773     20.600738     39.222891
  H      41.205451     19.932898     38.860345
  C      42.892000     20.975000     38.054000
  H      43.434057     20.187809     37.523030
  C      42.969000     22.244000     37.605000
  C      42.118000     23.281000     38.202000
  H      42.193349     24.260031     37.722302
  C      41.188000     23.002000     39.130000
  H      40.527753     23.778989     39.536270
  C      41.345534     21.781314     39.958348
  H      42.052488     22.062622     40.765391
  O      40.162472     21.385302     40.659408
  H      40.527364     21.085395     41.509488
  C      43.849259     22.614555     36.374012
  O      44.515269     21.680648     35.877166
  O      43.809629     23.823832     36.043958
  N      40.832000     18.750000     42.551000
25
Coordinates from ORCA-job job E -836.288721205905
  C      44.868560     20.664306     40.531358
  H      45.114240     20.677758     39.468024
  H      45.620647     21.006431     41.246240
  C      43.678900     20.280691     41.017476
  C      43.321219     20.499522     42.506349
  O      44.131469     20.125180     43.369610
  O      42.199524     21.065037     42.702110
  O      42.645802     19.772383     40.264995
  C      42.022833     20.612201     39.238316
  H      41.197182     19.956545     38.895321
  C      42.892000     20.975000     38.054000
  H      43.429543     20.185502     37.521894
  C      42.969000     22.244000     37.605000
  C      42.118000     23.281000     38.202000
  H      42.176692     24.252793     37.704849
  C      41.188000     23.002000     39.130000
  H      40.522502     23.776414     39.532776
  C      41.405042     21.807632     39.985371
  H      42.179107     22.126508     40.710775
  O      40.315474     21.422349     40.816761
  H      40.801449     21.207519     41.638464
  C      43.839292     22.611439     36.365382
  O      44.501417     21.675568     35.867132
  O      43.802053     23.821026     36.036134
  N      40.832000     18.750000     42.551000
25
Coordinates from ORCA-job job E -836.289525184383
  C      44.879824     20.632028     40.500596
  H      45.095011     20.643759     39.430203
  H      45.651430     20.957218     41.201795
  C      43.695315     20.261050     41.007729
  C      43.394334     20.421370     42.522013
  O      44.263713     20.051047     43.323553
  O      42.272500     20.951839     42.812023
  O      42.660787     19.751718     40.249750
  C      42.027482     20.599608     39.235947
  H      41.195011     19.949310     38.896373
  C      42.892000     20.975000     38.054000
  H      43.439848     20.194165     37.519486
  C      42.969000     22.244000     37.605000
  C      42.118000     23.281000     38.202000
  H      42.170417     24.248272     37.693847
  C      41.188000     23.002000     39.130000
  H      40.517614     23.773332     39.530044
  C      41.423470     21.793091     39.984265
  H      42.223587     22.125503     40.672380
  O      40.372134     21.381912     40.837136
  H      40.920293     21.225262     41.649797
  C      43.846921     22.613046     36.370036
  O      44.504941     21.673863     35.872923
  O      43.806137     23.821577     36.037350
  N      40.832000     18.750000     42.551000
25
Coordinates from ORCA-job job E -836.290040808488
  C      44.943760     20.480749     40.465424
  H      45.160026     20.438504     39.396429
  H      45.734731     20.778898     41.157071
  C      43.736584     20.204353     40.977805
  C      43.451210     20.415128     42.483872
  O      44.290872     20.009334     43.298686
  O      42.368971     21.037789     42.756206
  O      42.678202     19.727485     40.232754
  C      42.042979     20.604509     39.244467
  H      41.187862     19.977836     38.918653
  C      42.892000     20.975000     38.054000
  H      43.433778     20.193205     37.514521
  C      42.969000     22.244000     37.605000
  C      42.118000     23.281000     38.202000
  H      42.156009     24.241254     37.679238
  C      41.188000     23.002000     39.130000
  H      40.507610     23.766333     39.525470
  C      41.490767     21.812278     40.007745
  H      42.348274     22.173350     40.608520
  O      40.513546     21.415400     40.948634
  H      41.123241     21.248694     41.728309
  C      43.852941     22.617429     36.376967
  O      44.501186     21.679080     35.865465
  O      43.794172     23.821894     36.031585
  N      40.832000     18.750000     42.551000
25
Coordinates from ORCA-job job E -836.290756895776
  C      44.914274     20.379389     40.433381
  H      45.130969     20.300864     39.366659
  H      45.709315     20.677712     41.119885
  C      43.696379     20.151665     40.944010
  C      43.406197     20.411632     42.437325
  O      44.253121     20.052330     43.266802
  O      42.302113     21.005153     42.685802
  O      42.628678     19.695374     40.197519
  C      42.012142     20.590582     39.215515
  H      41.163513     19.972603     38.857336
  C      42.892000     20.975000     38.054000
  H      43.446521     20.198951     37.518601
  C      42.969000     22.244000     37.605000
  C      42.118000     23.281000     38.202000
  H      42.166338     24.244853     37.686879
  C      41.188000     23.002000     39.130000
  H      40.504658     23.764350     39.523275
  C      41.441619     21.784828     39.988140
  H      42.279681     22.117970     40.634007
  O      40.395501     21.383221     40.858150
  H      40.922966     21.168897     41.679890
  C      43.869848     22.620664     36.391515
  O      44.524321     21.683462     35.885571
  O      43.817793     23.826849     36.049229
  N      40.832000     18.750000     42.551000
25
Coordinates from ORCA-job job E -836.290974556425
  C      44.913240     20.296619     40.399708
  H      45.105945     20.253256     39.326295
  H      45.729210     20.551762     41.078972
  C      43.699077     20.086411     40.928095
  C      43.446560     20.307305     42.436397
  O      44.304009     19.902050     43.232274
  O      42.363115     20.919407     42.728506
  O      42.604171     19.681462     40.191271
  C      42.006344     20.594105     39.214462
  H      41.148923     19.990414     38.851540
  C      42.892000     20.975000     38.054000
  H      43.443530     20.198223     37.516313
  C      42.969000     22.244000     37.605000
  C      42.118000     23.281000     38.202000
  H      42.164502     24.243179     37.683326
  C      41.188000     23.002000     39.130000
  H      40.501380     23.760801     39.524319
  C      41.455959     21.795481     39.992118
  H      42.309812     22.129803     40.617540
  O      40.429779     21.416774     40.889980
  H      40.982052     21.201384     41.684874
  C      43.863513     22.615554     36.383523
  O      44.524971     21.675762     35.892039
  O      43.826430     23.824620     36.051359
  N      40.832000     18.750000     42.551000
25
Coordinates from ORCA-job job E -836.291242916052
  C      44.928741     20.342882     40.422046
  H      45.129447     20.263028     39.352216
  H      45.734988     20.629997     41.099741
  C      43.710902     20.139909     40.944294
  C      43.442792     20.396774     42.446441
  O      44.326362     20.074653     43.251492
  O      42.326709     20.955401     42.724649
  O      42.633423     19.697750     40.201314
  C      42.017858     20.592147     39.221142
  H      41.162318     19.979469     38.868548
  C      42.892000     20.975000     38.054000
  H      43.448206     20.201734     37.516497
  C      42.969000     22.244000     37.605000
  C      42.118000     23.281000     38.202000
  H      42.162930     24.241824     37.680218
  C      41.188000     23.002000     39.130000
  H      40.501731     23.759887     39.526230
  C      41.466591     21.793473     39.993338
  H      42.320093     22.130079     40.615327
  O      40.448921     21.406631     40.890415
  H      41.016543     21.200095     41.680463
  C      43.862627     22.615778     36.382173
  O      44.517192     21.675014     35.883584
  O      43.819047     23.823143     36.045662
  N      40.832000     18.750000     42.551000
25
Coordinates from ORCA-job job E -836.291330480263
  C      44.929673     20.233222     40.391255
  H      45.120246     20.131878     39.321372
  H      45.750964     20.493540     41.061413
  C      43.706995     20.087081     40.920772
  C      43.460090     20.367196     42.421438
  O      44.341901     20.030089     43.222794
  O      42.363865     20.961673     42.703486
  O      42.611347     19.677277     40.185977
  C      42.011047     20.591019     39.214956
  H      41.147689     19.995065     38.853363
  C      42.892000     20.975000     38.054000
  H      43.447421     20.202331     37.514668
  C      42.969000     22.244000     37.605000
  C      42.118000     23.281000     38.202000
  H      42.162359     24.241008     37.678555
  C      41.188000     23.002000     39.130000
  H      40.498973     23.756813     39.527066
  C      41.474431     21.794115     39.994296
  H      42.337263     22.128090     40.605281
  O      40.461322     21.413467     40.900069
  H      41.027826     21.185404     41.687939
  C      43.864813     22.617139     36.384517
  O      44.514315     21.676611     35.878819
  O      43.820268     23.824561     36.048067
  N      40.832000     18.750000     42.551000
25
Coordinates from ORCA-job job E -836.291430501505
  C      44.934379     20.195896     40.386929
  H      45.121848     20.077382     39.318267
  H      45.759583     20.451740     41.053831
  C      43.709080     20.077018     40.917304
  C      43.469105     20.373032     42.416101
  O      44.369041     20.070964     43.211170
  O      42.360286     20.940042     42.703121
  O      42.609459     19.674679     40.183703
  C      42.009975     20.590793     39.215031
  H      41.146283     19.996273     38.852060
  C      42.892000     20.975000     38.054000
  H      43.448110     20.203273     37.513695
  C      42.969000     22.244000     37.605000
  C      42.118000     23.281000     38.202000
  H      42.162141     24.240226     37.677031
  C      41.188000     23.002000     39.130000
  H      40.498010     23.755506     39.527653
  C      41.472079     21.794764     39.994504
  H      42.333720     22.127386     40.608589
  O      40.451610     21.418909     40.895809
  H      41.008673     21.194410     41.690034
  C      43.863104     22.616280     36.383052
  O      44.512615     21.675400     35.878108
  O      43.822534     23.824712     36.049563
  N      40.832000     18.750000     42.551000
25
Coordinates from ORCA-job job E -836.291509513581
  C      44.927237     20.107106     40.376896
  H      45.107249     19.954693     39.311208
  H      45.760903     20.349156     41.037970
  C      43.698085     20.045953     40.908105
  C      43.473480     20.378071     42.403595
  O      44.396419     20.118820     43.187340
  O      42.358372     20.926403     42.700098
  O      42.590785     19.662810     40.174779
  C      42.003052     20.589300     39.210316
  H      41.134972     20.005850     38.839434
  C      42.892000     20.975000     38.054000
  H      43.449230     20.205135     37.512086
  C      42.969000     22.244000     37.605000
  C      42.118000     23.281000     38.202000
  H      42.163187     24.239656     37.675834
  C      41.188000     23.002000     39.130000
  H      40.496801     23.752899     39.530367
  C      41.472640     21.793589     39.992930
  H      42.337382     22.120779     40.605201
  O      40.452816     21.419885     40.895338
  H      41.013020     21.177361     41.681355
  C      43.860566     22.615811     36.380485
  O      44.500851     21.672892     35.867870
  O      43.826863     23.826167     36.053318
  N      40.832000     18.750000     42.551000
25
Coordinates from ORCA-job job E -836.291543679667
  C      44.932729     20.008738     40.358044
  H      45.098721     19.810743     39.297496
  H      45.778428     20.238131     41.007797
  C      43.704191     20.017640     40.893958
  C      43.502310     20.397497     42.383401
  O      44.451321     20.188328     43.150828
  O      42.381573     20.927315     42.690706
  O      42.584324     19.654794     40.169426
  C      42.002836     20.588651     39.210328
  H      41.130942     20.012399     38.836511
  C      42.892000     20.975000     38.054000
  H      43.448311     20.206238     37.509700
  C      42.969000     22.244000     37.605000
  C      42.118000     23.281000     38.202000
  H      42.163183     24.238933     37.674423
  C      41.188000     23.002000     39.130000
  H      40.496400     23.750880     39.533382
  C      41.479409     21.795188     39.994137
  H      42.346336     22.121624     40.603298
  O      40.463613     21.424110     40.901007
  H      41.028645     21.184146     41.684173
  C      43.856582     22.615626     36.377331
  O      44.484446     21.670330     35.854096
  O      43.829941     23.828059     36.057104
  N      40.832000     18.750000     42.551000
25
Coordinates from ORCA-job job E -836.291563021162
  C      44.921883     19.992046     40.353290
  H      45.087236     19.790277     39.293357
  H      45.768697     20.217567     41.002936
  C      43.693531     20.006942     40.889542
  C      43.494187     20.391264     42.378350
  O      44.441070     20.174257     43.146597
  O      42.376527     20.926152     42.685853
  O      42.571357     19.651008     40.165502
  C      41.996648     20.589716     39.206845
  H      41.123721     20.018370     38.827544
  C      42.892000     20.975000     38.054000
  H      43.448153     20.205251     37.511051
  C      42.969000     22.244000     37.605000
  C      42.118000     23.281000     38.202000
  H      42.164476     24.239857     37.676375
  C      41.188000     23.002000     39.130000
  H      40.496750     23.751274     39.533506
  C      41.476255     21.795517     39.993461
  H      42.344407     22.120702     40.601643
  O      40.463167     21.424711     40.904142
  H      41.031369     21.181899     41.683864
  C      43.857763     22.616736     36.378960
  O      44.482276     21.671416     35.851813
  O      43.835805     23.830618     36.063210
  N      40.832000     18.750000     42.551000
25
Coordinates from ORCA-job job E -836.291568559816
  C      44.920816     19.990600     40.352932
  H      45.086375     19.785979     39.293624
  H      45.767634     20.216787     41.002381
  C      43.692526     20.007331     40.889181
  C      43.493815     20.393693     42.377907
  O      44.441483     20.177590     43.145419
  O      42.375861     20.927165     42.686191
  O      42.569891     19.651413     40.165798
  C      41.995507     20.589754     39.206269
  H      41.123664     20.017779     38.825444
  C      42.892000     20.975000     38.054000
  H      43.448394     20.204789     37.512035
  C      42.969000     22.244000     37.605000
  C      42.118000     23.281000     38.202000
  H      42.165169     24.240585     37.677885
  C      41.188000     23.002000     39.130000
  H      40.497654     23.752342     39.533241
  C      41.473065     21.794677     39.992845
  H      42.339414     22.119578     40.603693
  O      40.457997     21.421927     40.901003
  H      41.025240     21.177861     41.680912
  C      43.858636     22.617335     36.380024
  O      44.482256     21.671940     35.851954
  O      43.838734     23.831806     36.066281
  N      40.832000     18.750000     42.551000
25
Coordinates from ORCA-job job E -836.291570676697
  C      44.921195     19.990237     40.352184
  H      45.086866     19.783731     39.293279
  H      45.768030     20.217200     41.001346
  C      43.693022     20.008435     40.888546
  C      43.494637     20.396913     42.376881
  O      44.443466     20.183988     43.143789
  O      42.376037     20.928968     42.685202
  O      42.569785     19.652065     40.166341
  C      41.995132     20.590055     39.206244
  H      41.124022     20.017399     38.824895
  C      42.892000     20.975000     38.054000
  H      43.448347     20.204199     37.512890
  C      42.969000     22.244000     37.605000
  C      42.118000     23.281000     38.202000
  H      42.165169     24.241077     37.678895
  C      41.188000     23.002000     39.130000
  H      40.498360     23.753478     39.532474
  C      41.471476     21.794536     39.992810
  H      42.337191     22.120202     40.604139
  O      40.456227     21.420810     40.900489
  H      41.023796     21.178327     41.680933
  C      43.859222     22.617640     36.380702
  O      44.482280     21.672157     35.852088
  O      43.840602     23.832441     36.068107
  N      40.832000     18.750000     42.551000
25
Coordinates from ORCA-job job E -836.291571148246
  C      44.921594     19.991496     40.351762
  H      45.087125     19.785255     39.292783
  H      45.768418     20.218883     41.000778
  C      43.693575     20.009303     40.888479
  C      43.495618     20.398146     42.376816
  O      44.445273     20.186973     43.143137
  O      42.376574     20.929084     42.685602
  O      42.570160     19.652500     40.166742
  C      41.995271     20.590279     39.206467
  H      41.124235     20.017398     38.825282
  C      42.892000     20.975000     38.054000
  H      43.448178     20.203947     37.513102
  C      42.969000     22.244000     37.605000
  C      42.118000     23.281000     38.202000
  H      42.164857     24.241186     37.679096
  C      41.188000     23.002000     39.130000
  H      40.498586     23.754033     39.531866
  C      41.471423     21.794754     39.992997
  H      42.337300     22.120884     40.603906
  O      40.456499     21.421170     40.900943
  H      41.024517     21.178862     41.681170
  C      43.858978     22.617461     36.380358
  O      44.481818     21.671812     35.851767
  O      43.840462     23.832225     36.067764
  N      40.832000     18.750000     42.551000
