24
Coordinates from ORCA-job neb_initial_path.QMRegion E   0.000000000000
  C      41.479000     20.230000     44.956000
  H      42.264000     19.675000     44.444000
  H      41.653000     21.271000     45.220000
  C      40.304000     19.669000     45.266000
  C      39.200000     20.415000     46.007000
  O      39.355000     21.639000     46.217000
  O      38.197000     19.744000     46.364000
  O      40.039000     18.343000     44.999000
  C      39.596000     17.948000     43.655000
  H      39.417000     16.868000     43.752000
  C      40.722000     18.229000     42.716000
  H      41.607000     17.595000     42.756000
  C      40.751000     19.360000     41.986000
  C      39.589000     20.256000     41.990000
  H      39.709000     21.220000     41.492000
  C      38.434000     19.921000     42.595000
  H      37.586000     20.613000     42.577000
  C      38.242000     18.596000     43.290000
  H      37.716000     18.762000     44.246000
  O      37.487000     17.741000     42.449000
  H      36.995000     17.063000     43.022000
  C      42.023000     19.761000     41.258000
  O      42.970000     18.937000     41.204000
  O      42.047000     20.924000     40.771000
24
Coordinates from ORCA-job neb_initial_path.QMRegion E   0.000000000000
  C      41.484600     20.203600     44.843800
  H      42.287400     19.636200     44.393800
  H      41.655000     21.252200     45.054200
  C      40.331600     19.642800     45.236800
  C      39.231000     20.403400     45.975000
  O      39.402000     21.620400     46.203600
  O      38.218600     19.742600     46.323000
  O      40.084000     18.329400     45.017000
  C      39.578400     17.896800     43.584600
  H      39.417800     16.821800     43.715600
  C      40.702800     18.209800     42.696800
  H      41.587000     17.577200     42.709200
  C      40.757200     19.388600     42.062000
  C      39.582800     20.270600     42.056200
  H      39.700200     21.247200     41.586600
  C      38.421800     19.905000     42.621000
  H      37.565000     20.585000     42.599000
  C      38.232000     18.565600     43.283400
  H      37.732400     18.712800     44.253800
  O      37.446800     17.739800     42.444400
  H      36.962000     17.053000     43.014000
  C      42.017000     19.789000     41.308800
  O      42.966000     18.968600     41.246800
  O      42.022600     20.939000     40.796800
24
Coordinates from ORCA-job neb_initial_path.QMRegion E   0.000000000000
  C      41.490200     20.177200     44.731600
  H      42.310800     19.597400     44.343600
  H      41.657000     21.233400     44.888400
  C      40.359200     19.616600     45.207600
  C      39.262000     20.391800     45.943000
  O      39.449000     21.601800     46.190200
  O      38.240200     19.741200     46.282000
  O      40.129000     18.315800     45.035000
  C      39.560800     17.845600     43.514200
  H      39.418600     16.775600     43.679200
  C      40.683600     18.190600     42.677600
  H      41.567000     17.559400     42.662400
  C      40.763400     19.417200     42.138000
  C      39.576600     20.285200     42.122400
  H      39.691400     21.274400     41.681200
  C      38.409600     19.889000     42.647000
  H      37.544000     20.557000     42.621000
  C      38.222000     18.535200     43.276800
  H      37.748800     18.663600     44.261600
  O      37.406600     17.738600     42.439800
  H      36.929000     17.043000     43.006000
  C      42.011000     19.817000     41.359600
  O      42.962000     19.000200     41.289600
  O      41.998200     20.954000     40.822600
24
Coordinates from ORCA-job neb_initial_path.QMRegion E   0.000000000000
  C      41.495800     20.150800     44.619400
  H      42.334200     19.558600     44.293400
  H      41.659000     21.214600     44.722600
  C      40.386800     19.590400     45.178400
  C      39.293000     20.380200     45.911000
  O      39.496000     21.583200     46.176800
  O      38.261800     19.739800     46.241000
  O      40.174000     18.302200     45.053000
  C      39.543200     17.794400     43.443800
  H      39.419400     16.729400     43.642800
  C      40.664400     18.171400     42.658400
  H      41.547000     17.541600     42.615600
  C      40.769600     19.445800     42.214000
  C      39.570400     20.299800     42.188600
  H      39.682600     21.301600     41.775800
  C      38.397400     19.873000     42.673000
  H      37.523000     20.529000     42.643000
  C      38.212000     18.504800     43.270200
  H      37.765200     18.614400     44.269400
  O      37.366400     17.737400     42.435200
  H      36.896000     17.033000     42.998000
  C      42.005000     19.845000     41.410400
  O      42.958000     19.031800     41.332400
  O      41.973800     20.969000     40.848400
24
Coordinates from ORCA-job neb_initial_path.QMRegion E   0.000000000000
  C      41.501400     20.124400     44.507200
  H      42.357600     19.519800     44.243200
  H      41.661000     21.195800     44.556800
  C      40.414400     19.564200     45.149200
  C      39.324000     20.368600     45.879000
  O      39.543000     21.564600     46.163400
  O      38.283400     19.738400     46.200000
  O      40.219000     18.288600     45.071000
  C      39.525600     17.743200     43.373400
  H      39.420200     16.683200     43.606400
  C      40.645200     18.152200     42.639200
  H      41.527000     17.523800     42.568800
  C      40.775800     19.474400     42.290000
  C      39.564200     20.314400     42.254800
  H      39.673800     21.328800     41.870400
  C      38.385200     19.857000     42.699000
  H      37.502000     20.501000     42.665000
  C      38.202000     18.474400     43.263600
  H      37.781600     18.565200     44.277200
  O      37.326200     17.736200     42.430600
  H      36.863000     17.023000     42.990000
  C      41.999000     19.873000     41.461200
  O      42.954000     19.063400     41.375200
  O      41.949400     20.984000     40.874200
24
Coordinates from ORCA-job neb_initial_path.QMRegion E   0.000000000000
  C      41.507000     20.098000     44.395000
  H      42.381000     19.481000     44.193000
  H      41.663000     21.177000     44.391000
  C      40.442000     19.538000     45.120000
  C      39.355000     20.357000     45.847000
  O      39.590000     21.546000     46.150000
  O      38.305000     19.737000     46.159000
  O      40.264000     18.275000     45.089000
  C      39.508000     17.692000     43.303000
  H      39.421000     16.637000     43.570000
  C      40.626000     18.133000     42.620000
  H      41.507000     17.506000     42.522000
  C      40.782000     19.503000     42.366000
  C      39.558000     20.329000     42.321000
  H      39.665000     21.356000     41.965000
  C      38.373000     19.841000     42.725000
  H      37.481000     20.473000     42.687000
  C      38.192000     18.444000     43.257000
  H      37.798000     18.516000     44.285000
  O      37.286000     17.735000     42.426000
  H      36.830000     17.013000     42.982000
  C      41.993000     19.901000     41.512000
  O      42.950000     19.095000     41.418000
  O      41.925000     20.999000     40.900000
24
Coordinates from ORCA-job neb_initial_path.QMRegion E   0.000000000000
  C      41.493750     20.110000     44.299250
  H      42.407500     19.557750     44.179750
  H      41.609500     21.192750     44.293500
  C      40.494500     19.550250     45.131750
  C      39.380500     20.351250     45.839500
  O      39.605250     21.538500     46.153500
  O      38.332250     19.720250     46.126000
  O      40.438500     18.332250     45.223750
  C      39.500000     17.662500     43.208500
  H      39.404500     16.601250     43.434500
  C      40.639750     18.128250     42.649250
  H      41.525750     17.505750     42.569500
  C      40.813250     19.527000     42.431750
  C      39.572750     20.328000     42.321000
  H      39.679750     21.354250     41.962750
  C      38.382500     19.825000     42.671750
  H      37.486000     20.443750     42.594750
  C      38.195250     18.427000     43.200000
  H      37.832500     18.502750     44.239000
  O      37.250750     17.741250     42.400250
  H      36.807250     17.018750     42.963000
  C      42.000250     19.901250     41.525000
  O      42.949250     19.088750     41.418250
  O      41.926500     20.994250     40.905750
24
Coordinates from ORCA-job neb_initial_path.QMRegion E   0.000000000000
  C      41.480500     20.122000     44.203500
  H      42.434000     19.634500     44.166500
  H      41.556000     21.208500     44.196000
  C      40.547000     19.562500     45.143500
  C      39.406000     20.345500     45.832000
  O      39.620500     21.531000     46.157000
  O      38.359500     19.703500     46.093000
  O      40.613000     18.389500     45.358500
  C      39.492000     17.633000     43.114000
  H      39.388000     16.565500     43.299000
  C      40.653500     18.123500     42.678500
  H      41.544500     17.505500     42.617000
  C      40.844500     19.551000     42.497500
  C      39.587500     20.327000     42.321000
  H      39.694500     21.352500     41.960500
  C      38.392000     19.809000     42.618500
  H      37.491000     20.414500     42.502500
  C      38.198500     18.410000     43.143000
  H      37.867000     18.489500     44.193000
  O      37.215500     17.747500     42.374500
  H      36.784500     17.024500     42.944000
  C      42.007500     19.901500     41.538000
  O      42.948500     19.082500     41.418500
  O      41.928000     20.989500     40.911500
24
Coordinates from ORCA-job neb_initial_path.QMRegion E   0.000000000000
  C      41.467250     20.134000     44.107750
  H      42.460500     19.711250     44.153250
  H      41.502500     21.224250     44.098500
  C      40.599500     19.574750     45.155250
  C      39.431500     20.339750     45.824500
  O      39.635750     21.523500     46.160500
  O      38.386750     19.686750     46.060000
  O      40.787500     18.446750     45.493250
  C      39.484000     17.603500     43.019500
  H      39.371500     16.529750     43.163500
  C      40.667250     18.118750     42.707750
  H      41.563250     17.505250     42.664500
  C      40.875750     19.575000     42.563250
  C      39.602250     20.326000     42.321000
  H      39.709250     21.350750     41.958250
  C      38.401500     19.793000     42.565250
  H      37.496000     20.385250     42.410250
  C      38.201750     18.393000     43.086000
  H      37.901500     18.476250     44.147000
  O      37.180250     17.753750     42.348750
  H      36.761750     17.030250     42.925000
  C      42.014750     19.901750     41.551000
  O      42.947750     19.076250     41.418750
  O      41.929500     20.984750     40.917250
24
Coordinates from ORCA-job neb_initial_path.QMRegion E   0.000000000000
  C      41.454000     20.146000     44.012000
  H      42.487000     19.788000     44.140000
  H      41.449000     21.240000     44.001000
  C      40.652000     19.587000     45.167000
  C      39.457000     20.334000     45.817000
  O      39.651000     21.516000     46.164000
  O      38.414000     19.670000     46.027000
  O      40.962000     18.504000     45.628000
  C      39.476000     17.574000     42.925000
  H      39.355000     16.494000     43.028000
  C      40.681000     18.114000     42.737000
  H      41.582000     17.505000     42.712000
  C      40.907000     19.599000     42.629000
  C      39.617000     20.325000     42.321000
  H      39.724000     21.349000     41.956000
  C      38.411000     19.777000     42.512000
  H      37.501000     20.356000     42.318000
  C      38.205000     18.376000     43.029000
  H      37.936000     18.463000     44.101000
  O      37.145000     17.760000     42.323000
  H      36.739000     17.036000     42.906000
  C      42.022000     19.902000     41.564000
  O      42.947000     19.070000     41.419000
  O      41.931000     20.980000     40.923000
