24
Coordinates from ORCA-job neb_MEP.QMRegion E -1074.716995444143
  C      41.479000     20.230000     44.956000
  H      42.264000     19.675000     44.444000
  H      41.653000     21.271000     45.220000
  C      40.304000     19.669000     45.266000
  C      39.200000     20.415000     46.007000
  O      39.355000     21.639000     46.217000
  O      38.197000     19.744000     46.364000
  O      40.039000     18.343000     44.999000
  C      39.596000     17.948000     43.655000
  H      39.417000     16.868000     43.752000
  C      40.722000     18.229000     42.716000
  H      41.607000     17.595000     42.756000
  C      40.751000     19.360000     41.986000
  C      39.589000     20.256000     41.990000
  H      39.709000     21.220000     41.492000
  C      38.434000     19.921000     42.595000
  H      37.586000     20.613000     42.577000
  C      38.242000     18.596000     43.290000
  H      37.716000     18.762000     44.246000
  O      37.487000     17.741000     42.449000
  H      36.995000     17.063000     43.022000
  C      42.023000     19.761000     41.258000
  O      42.970000     18.937000     41.204000
  O      42.047000     20.924000     40.771000
24
Coordinates from ORCA-job neb_MEP.QMRegion E -1074.717082051705
  C      41.542190     20.128106     44.789303
  H      42.298688     19.551138     44.256941
  H      41.732511     21.182086     44.986745
  C      40.377171     19.584839     45.164715
  C      39.299976     20.357585     45.920077
  O      39.506635     21.561066     46.186026
  O      38.262621     19.720717     46.240405
  O      40.087020     18.257842     44.927118
  C      39.578649     17.853722     43.600860
  H      39.419555     16.771715     43.704276
  C      40.661606     18.166191     42.627558
  H      41.544649     17.532747     42.595903
  C      40.691092     19.358123     41.999829
  C      39.535144     20.258714     42.100777
  H      39.653292     21.266780     41.696880
  C      38.388522     19.875237     42.695995
  H      37.539116     20.563873     42.747254
  C      38.212047     18.505066     43.305912
  H      37.713345     18.617372     44.282891
  O      37.437293     17.696297     42.438227
  H      36.935420     17.010526     42.993613
  C      41.966489     19.800147     41.304648
  O      42.937033     19.002262     41.275048
  O      41.974445     20.963513     40.819945
24
Coordinates from ORCA-job neb_MEP.QMRegion E -1074.711072498561
  C      41.557255     20.116344     44.660538
  H      42.335088     19.522354     44.179453
  H      41.715024     21.195137     44.710670
  C      40.420120     19.557996     45.112845
  C      39.343151     20.344064     45.868318
  O      39.558279     21.540701     46.157790
  O      38.292022     19.719651     46.172585
  O      40.138477     18.221492     44.901687
  C      39.576394     17.794859     43.545139
  H      39.429457     16.708468     43.651161
  C      40.649995     18.144754     42.595343
  H      41.524770     17.505857     42.522195
  C      40.705961     19.393722     42.089730
  C      39.544383     20.285435     42.206828
  H      39.663223     21.314693     41.860018
  C      38.376024     19.848036     42.714971
  H      37.503738     20.508328     42.735380
  C      38.204306     18.463130     43.287711
  H      37.759207     18.563774     44.288827
  O      37.365268     17.701280     42.438640
  H      36.868224     17.005122     42.992902
  C      41.970470     19.848181     41.390612
  O      42.950652     19.061858     41.356109
  O      41.952693     20.994221     40.869208
24
Coordinates from ORCA-job neb_MEP.QMRegion E -1074.698546083913
  C      41.554126     20.133387     44.599027
  H      42.365638     19.531545     44.187983
  H      41.693233     21.215464     44.570149
  C      40.439288     19.560343     45.115869
  C      39.350055     20.350346     45.855297
  O      39.565373     21.544411     46.156447
  O      38.299297     19.723653     46.159907
  O      40.191813     18.237230     44.964195
  C      39.551893     17.754306     43.452240
  H      39.427016     16.674081     43.604698
  C      40.649693     18.141134     42.598207
  H      41.522636     17.501849     42.520854
  C      40.731517     19.425338     42.170437
  C      39.555356     20.299455     42.253958
  H      39.671551     21.328558     41.907173
  C      38.375458     19.841679     42.711454
  H      37.491425     20.484967     42.696496
  C      38.196454     18.453186     43.265907
  H      37.789762     18.543045     44.285004
  O      37.315497     17.720277     42.432048
  H      36.831946     17.012993     42.987615
  C      41.984006     19.867864     41.439862
  O      42.955393     19.073673     41.385298
  O      41.949374     20.997564     40.884957
24
Coordinates from ORCA-job neb_MEP.QMRegion E -1074.688905440254
  C      41.552348     20.144346     44.556876
  H      42.376379     19.529395     44.197292
  H      41.688338     21.224393     44.531415
  C      40.456444     19.559340     45.144836
  C      39.349953     20.360328     45.860437
  O      39.558942     21.555997     46.158919
  O      38.299318     19.730706     46.155758
  O      40.261916     18.269340     45.065759
  C      39.515849     17.707856     43.338445
  H      39.417912     16.646537     43.583798
  C      40.636572     18.128958     42.600708
  H      41.518064     17.500226     42.528390
  C      40.742582     19.445338     42.220256
  C      39.555604     20.305225     42.261306
  H      39.672728     21.333871     41.913793
  C      38.372437     19.839670     42.701484
  H      37.488204     20.482897     42.688503
  C      38.192357     18.447785     43.245746
  H      37.806786     18.534173     44.275582
  O      37.286113     17.728574     42.425010
  H      36.823114     17.012710     42.986886
  C      41.988260     19.875267     41.458290
  O      42.951941     19.074040     41.389112
  O      41.946321     20.996582     40.887820
24
Coordinates from ORCA-job neb_MEP.QMRegion E -1074.686612989832
  C      41.541259     20.149964     44.490239
  H      42.392439     19.531127     44.211909
  H      41.683254     21.228847     44.487093
  C      40.466414     19.560999     45.160206
  C      39.349051     20.367477     45.863404
  O      39.557829     21.562744     46.160721
  O      38.301324     19.733976     46.155069
  O      40.321226     18.297706     45.153663
  C      39.489561     17.672525     43.250125
  H      39.407457     16.626750     43.552087
  C      40.628186     18.120799     42.613714
  H      41.514654     17.498638     42.538471
  C      40.761037     19.472469     42.286405
  C      39.557978     20.311942     42.273519
  H      39.672643     21.338216     41.918841
  C      38.371666     19.836288     42.692847
  H      37.486210     20.477989     42.677248
  C      38.189895     18.441075     43.227605
  H      37.821513     18.524694     44.265599
  O      37.256890     17.739128     42.419984
  H      36.812439     17.013572     42.984317
  C      41.992265     19.882537     41.478567
  O      42.947571     19.073211     41.393096
  O      41.942922     20.994403     40.890655
24
Coordinates from ORCA-job neb_MEP.QMRegion E -1074.689160373246
  C      41.512632     20.137573     44.381694
  H      42.402477     19.528886     44.224532
  H      41.672166     21.216052     44.428693
  C      40.465536     19.558256     45.157613
  C      39.348905     20.371531     45.862915
  O      39.563620     21.563330     46.160782
  O      38.304973     19.734827     46.158152
  O      40.361063     18.317223     45.214816
  C      39.477149     17.652140     43.196268
  H      39.399230     16.612706     43.519636
  C      40.625720     18.119215     42.633504
  H      41.513107     17.498893     42.548856
  C      40.792906     19.511759     42.381956
  C      39.562124     20.321293     42.292680
  H      39.671512     21.343946     41.926592
  C      38.373587     19.833701     42.687960
  H      37.484978     20.471386     42.663195
  C      38.189646     18.435923     43.218484
  H      37.829448     18.517212     44.260233
  O      37.238950     17.748288     42.418372
  H      36.806787     17.015455     42.981551
  C      41.997336     19.892397     41.502385
  O      42.943393     19.074602     41.398485
  O      41.937358     20.992218     40.893685
24
Coordinates from ORCA-job neb_MEP.QMRegion E -1074.697772003838
  C      41.474976     20.111207     44.252412
  H      42.400717     19.526266     44.233923
  H      41.655430     21.190141     44.373427
  C      40.457938     19.554416     45.148208
  C      39.347608     20.371938     45.863791
  O      39.572395     21.561357     46.161062
  O      38.307742     19.733896     46.162196
  O      40.394397     18.335984     45.274952
  C      39.470796     17.638504     43.153577
  H      39.391696     16.600930     43.487045
  C      40.625718     18.120994     42.656084
  H      41.511573     17.498982     42.557473
  C      40.834783     19.559782     42.494587
  C      39.568365     20.331140     42.314993
  H      39.670095     21.349185     41.932368
  C      38.379437     19.831639     42.686917
  H      37.486589     20.464700     42.651284
  C      38.190495     18.431021     43.213468
  H      37.834352     18.511874     44.257454
  O      37.226636     17.755513     42.417763
  H      36.804177     17.016965     42.979607
  C      42.002197     19.901952     41.525593
  O      42.937022     19.075088     41.402311
  O      41.929091     20.988938     40.894795
24
Coordinates from ORCA-job neb_MEP.QMRegion E -1074.716271750227
  C      41.427240     20.075410     44.109537
  H      42.380124     19.538469     44.245213
  H      41.607884     21.155409     44.241387
  C      40.450238     19.558911     45.133619
  C      39.349298     20.381243     45.862182
  O      39.584945     21.567834     46.160860
  O      38.316324     19.741184     46.167698
  O      40.462447     18.365940     45.370696
  C      39.468392     17.628421     43.104847
  H      39.382965     16.581356     43.406069
  C      40.637643     18.130072     42.694919
  H      41.521540     17.505307     42.589397
  C      40.882342     19.609405     42.613339
  C      39.586473     20.349451     42.359052
  H      39.673860     21.363299     41.958614
  C      38.393949     19.832522     42.686260
  H      37.492461     20.449959     42.602747
  C      38.195959     18.428232     43.202362
  H      37.851936     18.501046     44.251667
  O      37.204765     17.778116     42.419667
  H      36.798002     17.028853     42.975718
  C      42.010651     19.916902     41.558392
  O      42.935692     19.082640     41.414266
  O      41.922853     20.989168     40.905559
24
Coordinates from ORCA-job neb_MEP.QMRegion E -1074.731537260766
  C      41.454000     20.146000     44.012000
  H      42.487000     19.788000     44.140000
  H      41.449000     21.240000     44.001000
  C      40.652000     19.587000     45.167000
  C      39.457000     20.334000     45.817000
  O      39.651000     21.516000     46.164000
  O      38.414000     19.670000     46.027000
  O      40.962000     18.504000     45.628000
  C      39.476000     17.574000     42.925000
  H      39.355000     16.494000     43.028000
  C      40.681000     18.114000     42.737000
  H      41.582000     17.505000     42.712000
  C      40.907000     19.599000     42.629000
  C      39.617000     20.325000     42.321000
  H      39.724000     21.349000     41.956000
  C      38.411000     19.777000     42.512000
  H      37.501000     20.356000     42.318000
  C      38.205000     18.376000     43.029000
  H      37.936000     18.463000     44.101000
  O      37.145000     17.760000     42.323000
  H      36.739000     17.036000     42.906000
  C      42.022000     19.902000     41.564000
  O      42.947000     19.070000     41.419000
  O      41.931000     20.980000     40.923000
