24
Coordinates from ORCA-job neb_NEB-CI_converged.QMRegion
  C          53.18218686961164     30.19732308519312     61.43580805177949
  H          53.61820447423236     29.32570985031984     61.91922121363681
  H          53.75831676545678     31.12157172360909     61.40294689182048
  C          51.78553470330418     30.35728140752446     61.45309690898178
  C          51.13241703633424     31.72831829598483     61.13849340156776
  O          51.85955960985887     32.67149373290827     60.72402980817294
  O          49.89775073861922     31.80927305173786     61.30465318491445
  O          51.01663272705437     29.37897795750519     61.62292566696102
  C          50.92170993959661     28.38143435346482     59.49489254630716
  H          50.11369694974582     27.70764140206343     59.78709203903778
  C          52.22764984010775     28.03077905860813     59.68776982993239
  H          52.50292861571590     27.11876341802118     60.21215478680475
  C          53.27387890117387     28.90668327078456     59.32552900561102
  C          52.95909036199900     30.04423034876853     58.46155929343429
  H          53.81860594258293     30.59547255431890     58.07660615492986
  C          51.69013089105695     30.35548849837480     58.14782877680891
  H          51.45641846666926     31.20072611230470     57.49388521416599
  C          50.51348738961942     29.56747948714766     58.65793782732091
  H          49.89040255565622     30.22934752913568     59.28806725597205
  O          49.75368961766977     29.09591913959726     57.55186381795323
  H          48.77378229598491     29.31099149630152     57.70220177078265
  C          54.69577035043130     28.29389785902915     59.23954471223877
  O          54.87582732719251     27.18105896336521     59.79111234617380
  O          55.54858740757694     28.91888109614464     58.56463767435920
