24
Coordinates from ORCA-job neb_MEP.QMRegion E -1075.997046336319
  C      53.016000     30.448000     61.832000
  H      53.463000     29.481000     62.067000
  H      53.595000     31.356000     62.011000
  C      51.761000     30.537000     61.381000
  C      51.058000     31.858000     61.116000
  O      51.769000     32.857000     60.828000
  O      49.811000     31.870000     61.189000
  O      50.980000     29.413000     61.200000
  C      51.016000     28.777000     59.881000
  H      50.215000     28.026000     59.932000
  C      52.353000     28.128000     59.725000
  H      52.571000     27.230000     60.304000
  C      53.341000     28.705000     59.014000
  C      53.075000     29.940000     58.267000
  H      53.947000     30.417000     57.812000
  C      51.835000     30.450000     58.157000
  H      51.647000     31.366000     57.587000
  C      50.633000     29.751000     58.743000
  H      49.943000     30.492000     59.178000
  O      49.977000     29.035000     57.701000
  H      48.986000     29.186000     57.796000
  C      54.763000     28.143000     59.076000
  O      54.927000     27.068000     59.707000
  O      55.669000     28.819000     58.529000
24
Coordinates from ORCA-job neb_MEP.QMRegion E -1076.001798703828
  C      53.023478     30.376019     61.845002
  H      53.458981     29.404015     62.079903
  H      53.612039     31.277668     62.025027
  C      51.767960     30.479492     61.397802
  C      51.076720     31.808176     61.140624
  O      51.789423     32.798489     60.830561
  O      49.831576     31.834202     61.246493
  O      50.974371     29.363368     61.225023
  C      50.981744     28.722247     59.906615
  H      50.186586     27.966344     59.979563
  C      52.322057     28.083524     59.724857
  H      52.556241     27.182309     60.291597
  C      53.296604     28.681692     59.012363
  C      53.000671     29.919389     58.280759
  H      53.858606     30.415668     57.821707
  C      51.752487     30.413471     58.186267
  H      51.548143     31.331969     57.625870
  C      50.565880     29.697586     58.782744
  H      49.881809     30.428354     59.243216
  O      49.890952     28.985625     57.749476
  H      48.909635     29.196905     57.813307
  C      54.731013     28.144479     59.063242
  O      54.920699     27.073852     59.694715
  O      55.620177     28.838391     58.510021
24
Coordinates from ORCA-job neb_MEP.QMRegion E -1075.991840163962
  C      53.083796     30.263985     61.622489
  H      53.572290     29.321489     61.864675
  H      53.680957     31.176643     61.617169
  C      51.777893     30.366355     61.337118
  C      51.116358     31.720787     61.111406
  O      51.837700     32.691831     60.756521
  O      49.880601     31.791125     61.289137
  O      50.951911     29.266569     61.216605
  C      50.933504     28.606430     59.835225
  H      50.146818     27.839806     59.918016
  C      52.285921     28.025433     59.678398
  H      52.531701     27.098861     60.193081
  C      53.275458     28.739547     59.105787
  C      52.962640     29.983941     58.394920
  H      53.819336     30.549462     58.021984
  C      51.693590     30.376383     58.184158
  H      51.462891     31.248102     57.563347
  C      50.512046     29.626199     58.743488
  H      49.853171     30.330010     59.273614
  O      49.795936     29.019367     57.673810
  H      48.818798     29.265836     57.756733
  C      54.711859     28.218001     59.146022
  O      54.914036     27.142742     59.765535
  O      55.587416     28.897519     58.555501
24
Coordinates from ORCA-job neb_MEP.QMRegion E -1075.972079325246
  C      53.124340     30.253047     61.571792
  H      53.601067     29.325092     61.884373
  H      53.723517     31.161962     61.517463
  C      51.783952     30.359453     61.392313
  C      51.126631     31.720631     61.125641
  O      51.848445     32.681886     60.740569
  O      49.889612     31.800705     61.294862
  O      50.976336     29.292292     61.357735
  C      50.922426     28.512654     59.702372
  H      50.125811     27.776141     59.871572
  C      52.266063     28.018501     59.671922
  H      52.519335     27.099657     60.193851
  C      53.271073     28.796589     59.184202
  C      52.958730     30.012763     58.430647
  H      53.818253     30.574020     58.058381
  C      51.689174     30.367675     58.167095
  H      51.456747     31.225443     57.528216
  C      50.509455     29.599928     58.702576
  H      49.869604     30.279926     59.284746
  O      49.773567     29.055295     57.613003
  H      48.792951     29.291404     57.725289
  C      54.704061     28.252068     59.188513
  O      54.899782     27.162385     59.781705
  O      55.569456     28.909347     58.560142
24
Coordinates from ORCA-job neb_MEP.QMRegion E -1075.962906035018
  C      53.153727     30.236183     61.521349
  H      53.609547     29.324836     61.902283
  H      53.744479     31.148585     61.467360
  C      51.782707     30.360527     61.432221
  C      51.129383     31.725961     61.132662
  O      51.853526     32.678364     60.731463
  O      49.892707     31.806280     61.296297
  O      50.998626     29.343339     61.506196
  C      50.921249     28.434405     59.577440
  H      50.116134     27.742914     59.837211
  C      52.244729     28.021105     59.674562
  H      52.511094     27.107483     60.199678
  C      53.271977     28.844930     59.242870
  C      52.959446     30.026791     58.443584
  H      53.818864     30.583359     58.065545
  C      51.689179     30.362358     58.157473
  H      51.455827     31.215658     57.514022
  C      50.512205     29.582851     58.678629
  H      49.881443     30.253040     59.287867
  O      49.762574     29.075255     57.580538
  H      48.782127     29.300407     57.714115
  C      54.700788     28.271075     59.211638
  O      54.888310     27.170388     59.785642
  O      55.560660     28.912942     58.561485
24
Coordinates from ORCA-job neb_MEP.QMRegion E -1075.960558294757
  C      53.182187     30.197323     61.435808
  H      53.618204     29.325710     61.919221
  H      53.758317     31.121572     61.402947
  C      51.785535     30.357281     61.453097
  C      51.132417     31.728318     61.138493
  O      51.859560     32.671494     60.724030
  O      49.897751     31.809273     61.304653
  O      51.016633     29.378978     61.622926
  C      50.921710     28.381434     59.494893
  H      50.113697     27.707641     59.787092
  C      52.227650     28.030779     59.687770
  H      52.502929     27.118763     60.212155
  C      53.273879     28.906683     59.325529
  C      52.959090     30.044230     58.461559
  H      53.818606     30.595473     58.076606
  C      51.690131     30.355488     58.147829
  H      51.456418     31.200726     57.493885
  C      50.513487     29.567479     58.657938
  H      49.890403     30.229348     59.288067
  O      49.753690     29.095919     57.551864
  H      48.773782     29.310991     57.702202
  C      54.695770     28.293898     59.239545
  O      54.875827     27.181059     59.791112
  O      55.548587     28.918881     58.564638
24
Coordinates from ORCA-job neb_MEP.QMRegion E -1075.964747864411
  C      53.203349     30.114137     61.287534
  H      53.610104     29.324609     61.921481
  H      53.753432     31.063941     61.325002
  C      51.783581     30.344071     61.441998
  C      51.134826     31.729535     61.141156
  O      51.866212     32.665597     60.724679
  O      49.903163     31.809778     61.315550
  O      51.025994     29.407752     61.702547
  C      50.927975     28.352127     59.451631
  H      50.117714     27.682537     59.748784
  C      52.215904     28.046007     59.709810
  H      52.498187     27.128941     60.223363
  C      53.279592     28.996072     59.455406
  C      52.957919     30.065364     58.485827
  H      53.817424     30.605736     58.085028
  C      51.693102     30.350620     58.146498
  H      51.459252     31.182598     57.474649
  C      50.513619     29.561052     58.653149
  H      49.890991     30.218750     59.289368
  O      49.752154     29.109323     57.540148
  H      48.772951     29.316557     57.697432
  C      54.691274     28.320475     59.274049
  O      54.862520     27.192975     59.796457
  O      55.533490     28.925325     58.568988
24
Coordinates from ORCA-job neb_MEP.QMRegion E -1075.979467839240
  C      53.213521     30.013760     61.131241
  H      53.593709     29.326153     61.900480
  H      53.740446     30.983649     61.219597
  C      51.780034     30.327186     61.419103
  C      51.139531     31.730188     61.142947
  O      51.873750     32.661147     60.727210
  O      49.910717     31.808894     61.327325
  O      51.038074     29.439144     61.785948
  C      50.936588     28.330155     59.417495
  H      50.126981     27.651442     59.699438
  C      52.208127     28.065972     59.738620
  H      52.495455     27.143127     60.240103
  C      53.283573     29.090292     59.595053
  C      52.957435     30.090669     58.520871
  H      53.816730     30.617707     58.100172
  C      51.697826     30.348255     58.150126
  H      51.466531     31.159025     57.449803
  C      50.514067     29.556594     58.650611
  H      49.889009     30.207008     59.293348
  O      49.753686     29.125372     57.529375
  H      48.774589     29.319606     57.694050
  C      54.683694     28.350731     59.313110
  O      54.845397     27.208798     59.804818
  O      55.512945     28.935765     58.576535
24
Coordinates from ORCA-job neb_MEP.QMRegion E -1075.992907191735
  C      53.196650     29.950370     60.991874
  H      53.639702     29.354249     61.802794
  H      53.673866     30.933995     60.935718
  C      51.788471     30.293828     61.423019
  C      51.148245     31.699648     61.139450
  O      51.884319     32.620539     60.705556
  O      49.928032     31.794598     61.365864
  O      51.120015     29.467768     62.003232
  C      50.928597     28.280321     59.336533
  H      50.132717     27.560366     59.539775
  C      52.178788     28.060505     59.741664
  H      52.466740     27.157702     60.277552
  C      53.249631     29.108912     59.621882
  C      52.938134     30.093081     58.524836
  H      53.801357     30.633209     58.130353
  C      51.690722     30.315427     58.107747
  H      51.471250     31.087368     57.364062
  C      50.505527     29.524052     58.600544
  H      49.900886     30.162638     59.277890
  O      49.722984     29.147404     57.481440
  H      48.747042     29.346493     57.665561
  C      54.649487     28.378649     59.329744
  O      54.826530     27.242113     59.827266
  O      55.467724     28.964981     58.581306
24
Coordinates from ORCA-job neb_MEP.QMRegion E -1075.997318840934
  C      53.216000     29.976000     60.830000
  H      53.828000     29.506000     61.615000
  H      53.569000     30.982000     60.579000
  C      51.857000     30.261000     61.431000
  C      51.181000     31.654000     61.169000
  O      51.890000     32.573000     60.686000
  O      49.975000     31.752000     61.461000
  O      51.289000     29.447000     62.124000
  C      50.881000     28.213000     59.263000
  H      50.096000     27.473000     59.434000
  C      52.129000     28.016000     59.690000
  H      52.419000     27.124000     60.243000
  C      53.201000     29.056000     59.525000
  C      52.877000     30.000000     58.396000
  H      53.737000     30.533000     57.986000
  C      51.627000     30.218000     57.984000
  H      51.406000     30.975000     57.226000
  C      50.447000     29.452000     58.526000
  H      49.887000     30.106000     59.228000
  O      49.606000     29.080000     57.451000
  H      48.649000     29.350000     57.647000
  C      54.615000     28.350000     59.281000
  O      54.800000     27.224000     59.800000
  O      55.453000     28.958000     58.573000
