24
Coordinates from ORCA-job neb_initial_path.QMRegion E   0.000000000000
  C      53.016000     30.448000     61.832000
  H      53.463000     29.481000     62.067000
  H      53.595000     31.356000     62.011000
  C      51.761000     30.537000     61.381000
  C      51.058000     31.858000     61.116000
  O      51.769000     32.857000     60.828000
  O      49.811000     31.870000     61.189000
  O      50.980000     29.413000     61.200000
  C      51.016000     28.777000     59.881000
  H      50.215000     28.026000     59.932000
  C      52.353000     28.128000     59.725000
  H      52.571000     27.230000     60.304000
  C      53.341000     28.705000     59.014000
  C      53.075000     29.940000     58.267000
  H      53.947000     30.417000     57.812000
  C      51.835000     30.450000     58.157000
  H      51.647000     31.366000     57.587000
  C      50.633000     29.751000     58.743000
  H      49.943000     30.492000     59.178000
  O      49.977000     29.035000     57.701000
  H      48.986000     29.186000     57.796000
  C      54.763000     28.143000     59.076000
  O      54.927000     27.068000     59.707000
  O      55.669000     28.819000     58.529000
24
Coordinates from ORCA-job neb_initial_path.QMRegion E   0.000000000000
  C      53.038222     30.395556     61.720667
  H      53.503556     29.483778     62.016778
  H      53.592111     31.314444     61.851889
  C      51.771667     30.506333     61.386556
  C      51.071667     31.835333     61.121889
  O      51.782444     32.825444     60.812222
  O      49.829222     31.856889     61.219222
  O      51.014333     29.416778     61.302667
  C      51.001000     28.714333     59.812333
  H      50.201778     27.964556     59.876667
  C      52.328111     28.115556     59.721111
  H      52.554111     27.218222     60.297222
  C      53.325444     28.744000     59.070778
  C      53.053000     29.946667     58.281333
  H      53.923667     30.429889     57.831333
  C      51.811889     30.424222     58.137778
  H      51.620222     31.322556     57.546889
  C      50.612333     29.717778     58.718889
  H      49.936778     30.449111     59.183556
  O      49.935778     29.040000     57.673222
  H      48.948556     29.204222     57.779444
  C      54.746556     28.166000     59.098778
  O      54.912889     27.085333     59.717333
  O      55.645000     28.834444     58.533889
24
Coordinates from ORCA-job neb_initial_path.QMRegion E   0.000000000000
  C      53.060444     30.343111     61.609333
  H      53.544111     29.486556     61.966556
  H      53.589222     31.272889     61.692778
  C      51.782333     30.475667     61.392111
  C      51.085333     31.812667     61.127778
  O      51.795889     32.793889     60.796444
  O      49.847444     31.843778     61.249444
  O      51.048667     29.420556     61.405333
  C      50.986000     28.651667     59.743667
  H      50.188556     27.903111     59.821333
  C      52.303222     28.103111     59.717222
  H      52.537222     27.206444     60.290444
  C      53.309889     28.783000     59.127556
  C      53.031000     29.953333     58.295667
  H      53.900333     30.442778     57.850667
  C      51.788778     30.398444     58.118556
  H      51.593444     31.279111     57.506778
  C      50.591667     29.684556     58.694778
  H      49.930556     30.406222     59.189111
  O      49.894556     29.045000     57.645444
  H      48.911111     29.222444     57.762889
  C      54.730111     28.189000     59.121556
  O      54.898778     27.102667     59.727667
  O      55.621000     28.849889     58.538778
24
Coordinates from ORCA-job neb_initial_path.QMRegion E   0.000000000000
  C      53.082667     30.290667     61.498000
  H      53.584667     29.489333     61.916333
  H      53.586333     31.231333     61.533667
  C      51.793000     30.445000     61.397667
  C      51.099000     31.790000     61.133667
  O      51.809333     32.762333     60.780667
  O      49.865667     31.830667     61.279667
  O      51.083000     29.424333     61.508000
  C      50.971000     28.589000     59.675000
  H      50.175333     27.841667     59.766000
  C      52.278333     28.090667     59.713333
  H      52.520333     27.194667     60.283667
  C      53.294333     28.822000     59.184333
  C      53.009000     29.960000     58.310000
  H      53.877000     30.455667     57.870000
  C      51.765667     30.372667     58.099333
  H      51.566667     31.235667     57.466667
  C      50.571000     29.651333     58.670667
  H      49.924333     30.363333     59.194667
  O      49.853333     29.050000     57.617667
  H      48.873667     29.240667     57.746333
  C      54.713667     28.212000     59.144333
  O      54.884667     27.120000     59.738000
  O      55.597000     28.865333     58.543667
24
Coordinates from ORCA-job neb_initial_path.QMRegion E   0.000000000000
  C      53.104889     30.238222     61.386667
  H      53.625222     29.492111     61.866111
  H      53.583444     31.189778     61.374556
  C      51.803667     30.414333     61.403222
  C      51.112667     31.767333     61.139556
  O      51.822778     32.730778     60.764889
  O      49.883889     31.817556     61.309889
  O      51.117333     29.428111     61.610667
  C      50.956000     28.526333     59.606333
  H      50.162111     27.780222     59.710667
  C      52.253444     28.078222     59.709444
  H      52.503444     27.182889     60.276889
  C      53.278778     28.861000     59.241111
  C      52.987000     29.966667     58.324333
  H      53.853667     30.468556     57.889333
  C      51.742556     30.346889     58.080111
  H      51.539889     31.192222     57.426556
  C      50.550333     29.618111     58.646556
  H      49.918111     30.320444     59.200222
  O      49.812111     29.055000     57.589889
  H      48.836222     29.258889     57.729778
  C      54.697222     28.235000     59.167111
  O      54.870556     27.137333     59.748333
  O      55.573000     28.880778     58.548556
24
Coordinates from ORCA-job neb_initial_path.QMRegion E   0.000000000000
  C      53.127111     30.185778     61.275333
  H      53.665778     29.494889     61.815889
  H      53.580556     31.148222     61.215444
  C      51.814333     30.383667     61.408778
  C      51.126333     31.744667     61.145444
  O      51.836222     32.699222     60.749111
  O      49.902111     31.804444     61.340111
  O      51.151667     29.431889     61.713333
  C      50.941000     28.463667     59.537667
  H      50.148889     27.718778     59.655333
  C      52.228556     28.065778     59.705556
  H      52.486556     27.171111     60.270111
  C      53.263222     28.900000     59.297889
  C      52.965000     29.973333     58.338667
  H      53.830333     30.481444     57.908667
  C      51.719444     30.321111     58.060889
  H      51.513111     31.148778     57.386444
  C      50.529667     29.584889     58.622444
  H      49.911889     30.277556     59.205778
  O      49.770889     29.060000     57.562111
  H      48.798778     29.277111     57.713222
  C      54.680778     28.258000     59.189889
  O      54.856444     27.154667     59.758667
  O      55.549000     28.896222     58.553444
24
Coordinates from ORCA-job neb_initial_path.QMRegion E   0.000000000000
  C      53.149333     30.133333     61.164000
  H      53.706333     29.497667     61.765667
  H      53.577667     31.106667     61.056333
  C      51.825000     30.353000     61.414333
  C      51.140000     31.722000     61.151333
  O      51.849667     32.667667     60.733333
  O      49.920333     31.791333     61.370333
  O      51.186000     29.435667     61.816000
  C      50.926000     28.401000     59.469000
  H      50.135667     27.657333     59.600000
  C      52.203667     28.053333     59.701667
  H      52.469667     27.159333     60.263333
  C      53.247667     28.939000     59.354667
  C      52.943000     29.980000     58.353000
  H      53.807000     30.494333     57.928000
  C      51.696333     30.295333     58.041667
  H      51.486333     31.105333     57.346333
  C      50.509000     29.551667     58.598333
  H      49.905667     30.234667     59.211333
  O      49.729667     29.065000     57.534333
  H      48.761333     29.295333     57.696667
  C      54.664333     28.281000     59.212667
  O      54.842333     27.172000     59.769000
  O      55.525000     28.911667     58.558333
24
Coordinates from ORCA-job neb_initial_path.QMRegion E   0.000000000000
  C      53.171556     30.080889     61.052667
  H      53.746889     29.500444     61.715444
  H      53.574778     31.065111     60.897222
  C      51.835667     30.322333     61.419889
  C      51.153667     31.699333     61.157222
  O      51.863111     32.636111     60.717556
  O      49.938556     31.778222     61.400556
  O      51.220333     29.439444     61.918667
  C      50.911000     28.338333     59.400333
  H      50.122444     27.595889     59.544667
  C      52.178778     28.040889     59.697778
  H      52.452778     27.147556     60.256556
  C      53.232111     28.978000     59.411444
  C      52.921000     29.986667     58.367333
  H      53.783667     30.507222     57.947333
  C      51.673222     30.269556     58.022444
  H      51.459556     31.061889     57.306222
  C      50.488333     29.518444     58.574222
  H      49.899444     30.191778     59.216889
  O      49.688444     29.070000     57.506556
  H      48.723889     29.313556     57.680111
  C      54.647889     28.304000     59.235444
  O      54.828222     27.189333     59.779333
  O      55.501000     28.927111     58.563222
24
Coordinates from ORCA-job neb_initial_path.QMRegion E   0.000000000000
  C      53.193778     30.028444     60.941333
  H      53.787444     29.503222     61.665222
  H      53.571889     31.023556     60.738111
  C      51.846333     30.291667     61.425444
  C      51.167333     31.676667     61.163111
  O      51.876556     32.604556     60.701778
  O      49.956778     31.765111     61.430778
  O      51.254667     29.443222     62.021333
  C      50.896000     28.275667     59.331667
  H      50.109222     27.534444     59.489333
  C      52.153889     28.028444     59.693889
  H      52.435889     27.135778     60.249778
  C      53.216556     29.017000     59.468222
  C      52.899000     29.993333     58.381667
  H      53.760333     30.520111     57.966667
  C      51.650111     30.243778     58.003222
  H      51.432778     31.018444     57.266111
  C      50.467667     29.485222     58.550111
  H      49.893222     30.148889     59.222444
  O      49.647222     29.075000     57.478778
  H      48.686444     29.331778     57.663556
  C      54.631444     28.327000     59.258222
  O      54.814111     27.206667     59.789667
  O      55.477000     28.942556     58.568111
24
Coordinates from ORCA-job neb_initial_path.QMRegion E   0.000000000000
  C      53.216000     29.976000     60.830000
  H      53.828000     29.506000     61.615000
  H      53.569000     30.982000     60.579000
  C      51.857000     30.261000     61.431000
  C      51.181000     31.654000     61.169000
  O      51.890000     32.573000     60.686000
  O      49.975000     31.752000     61.461000
  O      51.289000     29.447000     62.124000
  C      50.881000     28.213000     59.263000
  H      50.096000     27.473000     59.434000
  C      52.129000     28.016000     59.690000
  H      52.419000     27.124000     60.243000
  C      53.201000     29.056000     59.525000
  C      52.877000     30.000000     58.396000
  H      53.737000     30.533000     57.986000
  C      51.627000     30.218000     57.984000
  H      51.406000     30.975000     57.226000
  C      50.447000     29.452000     58.526000
  H      49.887000     30.106000     59.228000
  O      49.606000     29.080000     57.451000
  H      48.649000     29.350000     57.647000
  C      54.615000     28.350000     59.281000
  O      54.800000     27.224000     59.800000
  O      55.453000     28.958000     58.573000
