24
frame 34991 P, aligned onto 20000 on 8 atoms
C      47.95614875    28.29010721    56.05425501
H      48.92693837    27.81840883    56.24495673
H      47.85687899    29.19554518    56.66823839
C      46.88601059    27.30570655    56.46570811
C      45.59333923    27.75539463    57.22825017
O      45.56244489    28.89712604    57.75049908
O      44.68188299    26.90764193    57.28423121
O      47.00465260    26.13255695    56.17377473
C      46.46766748    26.97107539    53.26462626
H      46.37034183    26.04314958    52.69590366
C      47.65967443    27.38087181    53.70497534
H      48.55913482    26.78954206    53.53887253
C      47.85096531    28.64267722    54.50598215
C      46.65797255    29.55702682    54.37219846
H      46.80482905    30.58949417    54.69215056
C      45.45797399    29.12877828    53.97767135
H      44.60256200    29.80964732    53.98865662
C      45.18754152    27.72512577    53.50607311
H      44.61761512    27.20267900    54.30213484
O      44.41488881    27.76284799    52.31754553
H      43.59239299    27.18546830    52.42088143
C      49.17857945    29.33857580    53.99004140
O      50.24330569    28.67060274    53.97636562
O      49.06636249    30.52298598    53.59551654
