24
frame 34991 R, aligned onto 20000 on 8 atoms
C      47.85449089    28.08192346    56.89752199
H      48.79410822    27.80347063    56.42414658
H      47.86284602    28.83352741    57.68678222
C      46.68592278    27.53171509    56.54984494
C      45.38937791    27.86355036    57.27350628
O      45.33402342    28.93781926    57.93035651
O      44.46417469    27.02739468    57.18680752
O      46.57886756    26.55630468    55.57603401
C      46.56841568    26.98440426    54.17111462
H      46.37030896    26.05541235    53.61664120
C      47.92526872    27.52097779    53.83412250
H      48.76005302    26.81939483    53.78047072
C      48.15957859    28.84286767    53.72985354
C      47.04416785    29.78935619    53.87054594
H      47.30777185    30.84814397    53.89960414
C      45.76842144    29.38409759    53.99910556
H      44.96426347    30.11237130    54.13479777
C      45.37935737    27.93327671    53.86737889
H      44.59370211    27.68299542    54.60089446
O      44.90251747    27.73630922    52.54292296
H      44.06413051    27.18533332    52.54748989
C      49.57320808    29.39527734    53.53868547
O      50.55574258    28.62347588    53.71870063
O      49.63749274    30.61345511    53.23476376
