24
frame 34991 TS, aligned onto 20000 on 8 atoms
C      47.96581095    28.12825425    56.44444755
H      48.89464084    27.67760032    56.11850330
H      48.00340059    29.04607283    57.02964871
C      46.79855302    27.37580486    56.42089276
C      45.52311248    27.82098983    57.15991081
O      45.50561228    28.92428572    57.76837335
O      44.57030300    27.01011174    57.14018558
O      46.71224455    26.31435184    55.70962228
C      46.44860979    26.88344798    53.68818350
H      46.30735616    25.85729403    53.34408806
C      47.70680128    27.45953575    53.64096746
H      48.59310438    26.85785272    53.45233961
C      47.89236699    28.76611914    54.08198231
C      46.71903378    29.63399341    54.25295428
H      46.90147059    30.67863620    54.51022868
C      45.47309842    29.15325248    54.12450181
H      44.60767217    29.80284913    54.27614055
C      45.19027160    27.72572761    53.74420630
H      44.50997250    27.28454603    54.49230309
O      44.58828426    27.71013439    52.45251725
H      43.75124992    27.14358911    52.47510539
C      49.27318128    29.39744826    53.85739046
O      50.30405656    28.67801228    53.90460984
O      49.24456144    30.61982699    53.57119955
