24
Coordinates from ORCA-job neb_initial_path.QMRegion E   0.000000000000
  C      53.016000     30.448000     61.832000
  H      53.463000     29.481000     62.067000
  H      53.595000     31.356000     62.011000
  C      51.761000     30.537000     61.381000
  C      51.058000     31.858000     61.116000
  O      51.769000     32.857000     60.828000
  O      49.811000     31.870000     61.189000
  O      50.980000     29.413000     61.200000
  C      51.016000     28.777000     59.881000
  H      50.215000     28.026000     59.932000
  C      52.353000     28.128000     59.725000
  H      52.571000     27.230000     60.304000
  C      53.341000     28.705000     59.014000
  C      53.075000     29.940000     58.267000
  H      53.947000     30.417000     57.812000
  C      51.835000     30.450000     58.157000
  H      51.647000     31.366000     57.587000
  C      50.633000     29.751000     58.743000
  H      49.943000     30.492000     59.178000
  O      49.977000     29.035000     57.701000
  H      48.986000     29.186000     57.796000
  C      54.763000     28.143000     59.076000
  O      54.927000     27.068000     59.707000
  O      55.669000     28.819000     58.529000
24
Coordinates from ORCA-job neb_initial_path.QMRegion E   0.000000000000
  C      53.037750     30.397250     61.729250
  H      53.480000     29.434750     61.981500
  H      53.627000     31.302500     61.877250
  C      51.762250     30.512000     61.369500
  C      51.069500     31.843250     61.117500
  O      51.782000     32.839500     60.823000
  O      49.823750     31.865750     61.207000
  O      50.967750     29.407750     61.227750
  C      50.995750     28.740750     59.846750
  H      50.190250     28.001000     59.925250
  C      52.332500     28.119250     59.721500
  H      52.553500     27.210500     60.279750
  C      53.330500     28.748000     59.082250
  C      53.062250     29.971750     58.318000
  H      53.936250     30.455000     57.875000
  C      51.818500     30.452750     58.169500
  H      51.626500     31.354500     57.580500
  C      50.616750     29.740750     58.738000
  H      49.927500     30.471250     59.190250
  O      49.962000     29.048000     57.681750
  H      48.969750     29.195250     57.780500
  C      54.750500     28.171750     59.113500
  O      54.915750     27.088000     59.727500
  O      55.648500     28.835250     58.541250
24
Coordinates from ORCA-job neb_initial_path.QMRegion E   0.000000000000
  C      53.059500     30.346500     61.626500
  H      53.497000     29.388500     61.896000
  H      53.659000     31.249000     61.743500
  C      51.763500     30.487000     61.358000
  C      51.081000     31.828500     61.119000
  O      51.795000     32.822000     60.818000
  O      49.836500     31.861500     61.225000
  O      50.955500     29.402500     61.255500
  C      50.975500     28.704500     59.812500
  H      50.165500     27.976000     59.918500
  C      52.312000     28.110500     59.718000
  H      52.536000     27.191000     60.255500
  C      53.320000     28.791000     59.150500
  C      53.049500     30.003500     58.369000
  H      53.925500     30.493000     57.938000
  C      51.802000     30.455500     58.182000
  H      51.606000     31.343000     57.574000
  C      50.600500     29.730500     58.733000
  H      49.912000     30.450500     59.202500
  O      49.947000     29.061000     57.662500
  H      48.953500     29.204500     57.765000
  C      54.738000     28.200500     59.151000
  O      54.904500     27.108000     59.748000
  O      55.628000     28.851500     58.553500
24
Coordinates from ORCA-job neb_initial_path.QMRegion E   0.000000000000
  C      53.081250     30.295750     61.523750
  H      53.514000     29.342250     61.810500
  H      53.691000     31.195500     61.609750
  C      51.764750     30.462000     61.346500
  C      51.092500     31.813750     61.120500
  O      51.808000     32.804500     60.813000
  O      49.849250     31.857250     61.243000
  O      50.943250     29.397250     61.283250
  C      50.955250     28.668250     59.778250
  H      50.140750     27.951000     59.911750
  C      52.291500     28.101750     59.714500
  H      52.518500     27.171500     60.231250
  C      53.309500     28.834000     59.218750
  C      53.036750     30.035250     58.420000
  H      53.914750     30.531000     58.001000
  C      51.785500     30.458250     58.194500
  H      51.585500     31.331500     57.567500
  C      50.584250     29.720250     58.728000
  H      49.896500     30.429750     59.214750
  O      49.932000     29.074000     57.643250
  H      48.937250     29.213750     57.749500
  C      54.725500     28.229250     59.188500
  O      54.893250     27.128000     59.768500
  O      55.607500     28.867750     58.565750
24
Coordinates from ORCA-job neb_initial_path.QMRegion E   0.000000000000
  C      53.103000     30.245000     61.421000
  H      53.531000     29.296000     61.725000
  H      53.723000     31.142000     61.476000
  C      51.766000     30.437000     61.335000
  C      51.104000     31.799000     61.122000
  O      51.821000     32.787000     60.808000
  O      49.862000     31.853000     61.261000
  O      50.931000     29.392000     61.311000
  C      50.935000     28.632000     59.744000
  H      50.116000     27.926000     59.905000
  C      52.271000     28.093000     59.711000
  H      52.501000     27.152000     60.207000
  C      53.299000     28.877000     59.287000
  C      53.024000     30.067000     58.471000
  H      53.904000     30.569000     58.064000
  C      51.769000     30.461000     58.207000
  H      51.565000     31.320000     57.561000
  C      50.568000     29.710000     58.723000
  H      49.881000     30.409000     59.227000
  O      49.917000     29.087000     57.624000
  H      48.921000     29.223000     57.734000
  C      54.713000     28.258000     59.226000
  O      54.882000     27.148000     59.789000
  O      55.587000     28.884000     58.578000
24
Coordinates from ORCA-job neb_initial_path.QMRegion E   0.000000000000
  C      53.125600     30.191200     61.302800
  H      53.590400     29.338000     61.703000
  H      53.692200     31.110000     61.296600
  C      51.784200     30.401800     61.354200
  C      51.119400     31.770000     61.131400
  O      51.834800     32.744200     60.783600
  O      49.884600     31.832800     61.301000
  O      51.002600     29.403000     61.473600
  C      50.924200     28.548200     59.647800
  H      50.112000     27.835400     59.810800
  C      52.242600     28.077600     59.706800
  H      52.484600     27.146400     60.214200
  C      53.279400     28.912800     59.334600
  C      52.994600     30.053600     58.456000
  H      53.870600     30.561800     58.048400
  C      51.740600     30.412400     58.162400
  H      51.533200     31.251000     57.494000
  C      50.543800     29.658400     58.683600
  H      49.882200     30.348400     59.227200
  O      49.854800     29.085600     57.589400
  H      48.866600     29.248400     57.716600
  C      54.693400     28.276400     59.237000
  O      54.865600     27.163200     59.791200
  O      55.560200     28.898800     58.577000
24
Coordinates from ORCA-job neb_initial_path.QMRegion E   0.000000000000
  C      53.148200     30.137400     61.184600
  H      53.649800     29.380000     61.681000
  H      53.661400     31.078000     61.117200
  C      51.802400     30.366600     61.373400
  C      51.134800     31.741000     61.140800
  O      51.848600     32.701400     60.759200
  O      49.907200     31.812600     61.341000
  O      51.074200     29.414000     61.636200
  C      50.913400     28.464400     59.551600
  H      50.108000     27.744800     59.716600
  C      52.214200     28.062200     59.702600
  H      52.468200     27.140800     60.221400
  C      53.259800     28.948600     59.382200
  C      52.965200     30.040200     58.441000
  H      53.837200     30.554600     58.032800
  C      51.712200     30.363800     58.117800
  H      51.501400     31.182000     57.427000
  C      50.519600     29.606800     58.644200
  H      49.883400     30.287800     59.227400
  O      49.792600     29.084200     57.554800
  H      48.812200     29.273800     57.699200
  C      54.673800     28.294800     59.248000
  O      54.849200     27.178400     59.793400
  O      55.533400     28.913600     58.576000
24
Coordinates from ORCA-job neb_initial_path.QMRegion E   0.000000000000
  C      53.170800     30.083600     61.066400
  H      53.709200     29.422000     61.659000
  H      53.630600     31.046000     60.937800
  C      51.820600     30.331400     61.392600
  C      51.150200     31.712000     61.150200
  O      51.862400     32.658600     60.734800
  O      49.929800     31.792400     61.381000
  O      51.145800     29.425000     61.798800
  C      50.902600     28.380600     59.455400
  H      50.104000     27.654200     59.622400
  C      52.185800     28.046800     59.698400
  H      52.451800     27.135200     60.228600
  C      53.240200     28.984400     59.429800
  C      52.935800     30.026800     58.426000
  H      53.803800     30.547400     58.017200
  C      51.683800     30.315200     58.073200
  H      51.469600     31.113000     57.360000
  C      50.495400     29.555200     58.604800
  H      49.884600     30.227200     59.227600
  O      49.730400     29.082800     57.520200
  H      48.757800     29.299200     57.681800
  C      54.654200     28.313200     59.259000
  O      54.832800     27.193600     59.795600
  O      55.506600     28.928400     58.575000
24
Coordinates from ORCA-job neb_initial_path.QMRegion E   0.000000000000
  C      53.193400     30.029800     60.948200
  H      53.768600     29.464000     61.637000
  H      53.599800     31.014000     60.758400
  C      51.838800     30.296200     61.411800
  C      51.165600     31.683000     61.159600
  O      51.876200     32.615800     60.710400
  O      49.952400     31.772200     61.421000
  O      51.217400     29.436000     61.961400
  C      50.891800     28.296800     59.359200
  H      50.100000     27.563600     59.528200
  C      52.157400     28.031400     59.694200
  H      52.435400     27.129600     60.235800
  C      53.220600     29.020200     59.477400
  C      52.906400     30.013400     58.411000
  H      53.770400     30.540200     58.001600
  C      51.655400     30.266600     58.028600
  H      51.437800     31.044000     57.293000
  C      50.471200     29.503600     58.565400
  H      49.885800     30.166600     59.227800
  O      49.668200     29.081400     57.485600
  H      48.703400     29.324600     57.664400
  C      54.634600     28.331600     59.270000
  O      54.816400     27.208800     59.797800
  O      55.479800     28.943200     58.574000
24
Coordinates from ORCA-job neb_initial_path.QMRegion E   0.000000000000
  C      53.216000     29.976000     60.830000
  H      53.828000     29.506000     61.615000
  H      53.569000     30.982000     60.579000
  C      51.857000     30.261000     61.431000
  C      51.181000     31.654000     61.169000
  O      51.890000     32.573000     60.686000
  O      49.975000     31.752000     61.461000
  O      51.289000     29.447000     62.124000
  C      50.881000     28.213000     59.263000
  H      50.096000     27.473000     59.434000
  C      52.129000     28.016000     59.690000
  H      52.419000     27.124000     60.243000
  C      53.201000     29.056000     59.525000
  C      52.877000     30.000000     58.396000
  H      53.737000     30.533000     57.986000
  C      51.627000     30.218000     57.984000
  H      51.406000     30.975000     57.226000
  C      50.447000     29.452000     58.526000
  H      49.887000     30.106000     59.228000
  O      49.606000     29.080000     57.451000
  H      48.649000     29.350000     57.647000
  C      54.615000     28.350000     59.281000
  O      54.800000     27.224000     59.800000
  O      55.453000     28.958000     58.573000
