24
Coordinates from ORCA-job neb_MEP.QMRegion E -1075.997046336319
  C      53.016000     30.448000     61.832000
  H      53.463000     29.481000     62.067000
  H      53.595000     31.356000     62.011000
  C      51.761000     30.537000     61.381000
  C      51.058000     31.858000     61.116000
  O      51.769000     32.857000     60.828000
  O      49.811000     31.870000     61.189000
  O      50.980000     29.413000     61.200000
  C      51.016000     28.777000     59.881000
  H      50.215000     28.026000     59.932000
  C      52.353000     28.128000     59.725000
  H      52.571000     27.230000     60.304000
  C      53.341000     28.705000     59.014000
  C      53.075000     29.940000     58.267000
  H      53.947000     30.417000     57.812000
  C      51.835000     30.450000     58.157000
  H      51.647000     31.366000     57.587000
  C      50.633000     29.751000     58.743000
  H      49.943000     30.492000     59.178000
  O      49.977000     29.035000     57.701000
  H      48.986000     29.186000     57.796000
  C      54.763000     28.143000     59.076000
  O      54.927000     27.068000     59.707000
  O      55.669000     28.819000     58.529000
24
Coordinates from ORCA-job neb_MEP.QMRegion E -1075.999511851122
  C      53.055685     30.351751     61.674949
  H      53.528392     29.390653     61.869861
  H      53.648658     31.261842     61.766739
  C      51.766576     30.456126     61.336617
  C      51.083771     31.798575     61.127857
  O      51.797385     32.787780     60.813863
  O      49.842337     31.838303     61.267843
  O      50.955140     29.348188     61.188582
  C      50.963050     28.707651     59.859279
  H      50.162494     27.956955     59.923196
  C      52.302833     28.071787     59.689221
  H      52.527187     27.156930     60.235947
  C      53.296842     28.705800     59.035259
  C      53.015768     29.956422     58.321264
  H      53.885974     30.474466     57.911580
  C      51.764397     30.429912     58.180030
  H      51.564072     31.341237     57.607118
  C      50.568518     29.702891     58.743031
  H      49.882886     30.426217     59.212179
  O      49.902602     29.026228     57.683299
  H      48.914179     29.208110     57.767478
  C      54.728760     28.168136     59.097779
  O      54.913310     27.095479     59.726549
  O      55.621729     28.852365     58.538014
24
Coordinates from ORCA-job neb_MEP.QMRegion E -1075.988972483210
  C      53.097624     30.275932     61.549851
  H      53.603284     29.344964     61.794778
  H      53.686920     31.189757     61.488687
  C      51.781769     30.373416     61.308008
  C      51.118562     31.731183     61.108162
  O      51.834784     32.708175     60.759690
  O      49.884406     31.800563     61.300505
  O      50.955968     29.273509     61.202512
  C      50.928025     28.618403     59.813596
  H      50.136271     27.857701     59.895637
  C      52.276774     28.036074     59.665223
  H      52.513884     27.105866     60.175167
  C      53.272436     28.759402     59.111205
  C      52.968161     30.000913     58.391423
  H      53.830374     30.555390     58.013321
  C      51.701369     30.390602     58.163848
  H      51.474959     31.244676     57.516822
  C      50.517024     29.641601     58.719214
  H      49.855202     30.342692     59.247576
  O      49.812562     29.040114     57.639971
  H      48.826823     29.262073     57.724400
  C      54.706336     28.235331     59.156947
  O      54.905413     27.159735     59.775761
  O      55.582479     28.905075     58.555120
24
Coordinates from ORCA-job neb_MEP.QMRegion E -1075.969905763136
  C      53.128011     30.275196     61.528816
  H      53.618181     29.355845     61.845968
  H      53.712029     31.185050     61.421025
  C      51.785828     30.384776     61.371923
  C      51.121290     31.741509     61.123819
  O      51.841658     32.707657     60.749911
  O      49.883169     31.814149     61.291678
  O      50.981365     29.317428     61.345840
  C      50.926993     28.552222     59.694863
  H      50.120903     27.823846     59.852085
  C      52.267227     28.050694     59.678795
  H      52.510248     27.121567     60.185433
  C      53.279766     28.822228     59.193810
  C      52.987414     30.033897     58.426454
  H      53.853233     30.590834     58.059176
  C      51.721211     30.393302     58.154443
  H      51.497066     31.247044     57.510346
  C      50.532798     29.635384     58.682729
  H      49.882547     30.318317     59.249514
  O      49.818571     29.088923     57.580581
  H      48.824925     29.274245     57.699091
  C      54.703583     28.265881     59.200002
  O      54.889654     27.172717     59.788563
  O      55.571235     28.911454     58.561275
24
Coordinates from ORCA-job neb_MEP.QMRegion E -1075.962406058056
  C      53.159780     30.270343     61.483130
  H      53.632867     29.358758     61.843328
  H      53.732911     31.191010     61.391902
  C      51.786897     30.384720     61.414628
  C      51.122392     31.745133     61.131471
  O      51.844390     32.704485     60.740977
  O      49.886307     31.817866     61.297550
  O      51.008658     29.365270     61.494064
  C      50.922531     28.464064     59.562186
  H      50.104736     27.790900     59.830687
  C      52.242250     28.040159     59.665969
  H      52.501449     27.123674     60.189432
  C      53.276171     28.852895     59.228184
  C      52.979698     30.029189     58.414119
  H      53.845915     30.576643     58.034909
  C      51.713206     30.380347     58.134524
  H      51.486410     31.240235     57.497692
  C      50.528868     29.613138     58.659071
  H      49.891341     30.292761     59.253172
  O      49.796791     29.092235     57.555673
  H      48.807116     29.279337     57.692072
  C      54.700808     28.273304     59.208335
  O      54.881215     27.172639     59.783935
  O      55.564372     28.908535     58.555423
24
Coordinates from ORCA-job neb_MEP.QMRegion E -1075.960087495764
  C      53.180983     30.224989     61.390035
  H      53.642865     29.364676     61.867475
  H      53.738387     31.158830     61.334930
  C      51.786920     30.374876     61.426426
  C      51.128363     31.747720     61.133974
  O      51.848375     32.702744     60.734528
  O      49.893803     31.820851     61.306526
  O      51.021007     29.388818     61.589029
  C      50.924476     28.424706     59.499840
  H      50.107027     27.757910     59.782329
  C      52.228248     28.048911     59.674706
  H      52.492329     27.136261     60.203684
  C      53.279507     28.913577     59.310586
  C      52.977175     30.051258     58.440421
  H      53.842912     30.588277     58.050426
  C      51.712670     30.377829     58.128401
  H      51.486381     31.223864     57.472907
  C      50.530398     29.603184     58.643786
  H      49.895667     30.274724     59.250747
  O      49.791729     29.109413     57.533695
  H      48.804076     29.292151     57.681934
  C      54.699121     28.295764     59.237026
  O      54.871847     27.182611     59.789958
  O      55.556064     28.914099     58.560881
24
Coordinates from ORCA-job neb_MEP.QMRegion E -1075.965340075151
  C      53.202622     30.124973     61.219659
  H      53.631298     29.365873     61.873685
  H      53.734102     31.085813     61.234517
  C      51.783893     30.358057     61.424469
  C      51.133709     31.750872     61.139579
  O      51.856766     32.696769     60.732522
  O      49.901440     31.821247     61.314875
  O      51.037536     29.424661     61.698399
  C      50.928772     28.394282     59.453487
  H      50.115280     27.722338     59.727086
  C      52.213066     28.067541     59.702592
  H      52.487671     27.150029     60.217156
  C      53.282988     29.014274     59.453077
  C      52.974372     30.078920     58.471651
  H      53.840413     30.599985     58.061194
  C      51.715963     30.373151     58.127871
  H      51.490627     31.199989     57.447643
  C      50.531814     29.594402     58.635136
  H      49.898148     30.256309     59.250976
  O      49.789363     29.130371     57.515449
  H      48.801343     29.298339     57.674552
  C      54.691375     28.326216     59.273049
  O      54.855859     27.198814     59.798352
  O      55.538325     28.924105     58.568584
24
Coordinates from ORCA-job neb_MEP.QMRegion E -1075.983809857648
  C      53.209946     30.015334     61.056933
  H      53.611880     29.367188     61.849047
  H      53.712069     30.998611     61.084718
  C      51.787770     30.342286     61.414903
  C      51.140029     31.748972     61.146326
  O      51.867765     32.683687     60.727599
  O      49.910524     31.819948     61.327280
  O      51.068203     29.464702     61.835505
  C      50.936945     28.357638     59.402451
  H      50.124001     27.667847     59.653376
  C      52.196457     28.080577     59.720079
  H      52.484335     27.165009     60.242527
  C      53.277838     29.106321     59.586447
  C      52.967876     30.101896     58.500384
  H      53.836077     30.615357     58.080321
  C      51.717450     30.366037     58.121180
  H      51.495555     31.169163     57.408073
  C      50.528966     29.582675     58.621106
  H      49.898804     30.231091     59.256445
  O      49.783873     29.155468     57.491250
  H      48.797931     29.308678     57.664785
  C      54.677603     28.359959     59.312003
  O      54.837992     27.219806     59.810722
  O      55.512367     28.939005     58.578973
24
Coordinates from ORCA-job neb_MEP.QMRegion E -1075.993660638351
  C      53.202488     29.976755     60.941353
  H      53.701600     29.431767     61.754392
  H      53.633781     30.973201     60.810022
  C      51.808701     30.300009     61.421908
  C      51.153856     31.700536     61.146720
  O      51.877608     32.623224     60.704089
  O      49.930470     31.788343     61.378403
  O      51.172171     29.468278     62.041493
  C      50.918535     28.290411     59.312412
  H      50.121159     27.564091     59.488011
  C      52.162315     28.064687     59.728393
  H      52.443682     27.164019     60.273698
  C      53.238921     29.106115     59.600555
  C      52.938425     30.085066     58.495208
  H      53.808941     30.619943     58.109152
  C      51.697322     30.316427     58.071904
  H      51.487127     31.090273     57.326410
  C      50.508050     29.534112     58.567918
  H      49.903612     30.174986     59.242477
  O      49.729676     29.158562     57.448536
  H      48.750788     29.338660     57.641035
  C      54.641324     28.375333     59.323314
  O      54.817885     27.238758     59.822790
  O      55.466154     28.960724     58.582884
24
Coordinates from ORCA-job neb_MEP.QMRegion E -1075.997318840934
  C      53.216000     29.976000     60.830000
  H      53.828000     29.506000     61.615000
  H      53.569000     30.982000     60.579000
  C      51.857000     30.261000     61.431000
  C      51.181000     31.654000     61.169000
  O      51.890000     32.573000     60.686000
  O      49.975000     31.752000     61.461000
  O      51.289000     29.447000     62.124000
  C      50.881000     28.213000     59.263000
  H      50.096000     27.473000     59.434000
  C      52.129000     28.016000     59.690000
  H      52.419000     27.124000     60.243000
  C      53.201000     29.056000     59.525000
  C      52.877000     30.000000     58.396000
  H      53.737000     30.533000     57.986000
  C      51.627000     30.218000     57.984000
  H      51.406000     30.975000     57.226000
  C      50.447000     29.452000     58.526000
  H      49.887000     30.106000     59.228000
  O      49.606000     29.080000     57.451000
  H      48.649000     29.350000     57.647000
  C      54.615000     28.350000     59.281000
  O      54.800000     27.224000     59.800000
  O      55.453000     28.958000     58.573000
