24
Coordinates from ORCA-job neb_MEP.QMRegion E -1076.562566883287
  C      44.641000     17.848000     34.555000
  H      44.941000     17.378000     33.618000
  H      45.195000     18.717000     34.911000
  C      43.590000     17.422000     35.265000
  C      43.186000     18.052000     36.585000
  O      43.629000     19.203000     36.841000
  O      42.445000     17.380000     37.340000
  O      42.813000     16.349000     34.881000
  C      41.751000     16.601000     33.889000
  H      41.198000     15.652000     33.859000
  C      42.445000     16.878000     32.600000
  H      42.919000     16.036000     32.102000
  C      42.686000     18.136000     32.187000
  C      42.058000     19.257000     32.900000
  H      42.347000     20.261000     32.582000
  C      41.199000     19.070000     33.919000
  H      40.760000     19.926000     34.439000
  C      40.762000     17.691000     34.357000
  H      40.738000     17.639000     35.459000
  O      39.472000     17.446000     33.821000
  H      38.941000     16.847000     34.431000
  C      43.679000     18.410000     31.060000
  O      44.501000     17.495000     30.769000
  O      43.632000     19.543000     30.525000
24
Coordinates from ORCA-job neb_MEP.QMRegion E -1076.565418934309
  C      44.637127     17.832558     34.522835
  H      44.930884     17.359312     33.586505
  H      45.187214     18.709927     34.864523
  C      43.591994     17.408223     35.244465
  C      43.194354     18.050210     36.561398
  O      43.645558     19.197795     36.813219
  O      42.447711     17.387920     37.320662
  O      42.812982     16.333836     34.871823
  C      41.740809     16.584295     33.887437
  H      41.193285     15.632622     33.857813
  C      42.430327     16.870835     32.598468
  H      42.896611     16.032675     32.088488
  C      42.682935     18.133077     32.205648
  C      42.061323     19.248647     32.933774
  H      42.359923     20.254937     32.632153
  C      41.196862     19.052495     33.946519
  H      40.759496     19.905190     34.475137
  C      40.754245     17.670724     34.367336
  H      40.728329     17.606795     35.469270
  O      39.463170     17.434452     33.828196
  H      38.927933     16.839226     34.439358
  C      43.684235     18.414003     31.088401
  O      44.497785     17.495673     30.782741
  O      43.653517     19.555748     30.572129
24
Coordinates from ORCA-job neb_MEP.QMRegion E -1076.568150489200
  C      44.632796     17.816220     34.490030
  H      44.919821     17.335882     33.555310
  H      45.179197     18.702231     34.815119
  C      43.594556     17.394881     35.223589
  C      43.203657     18.047768     36.537366
  O      43.666537     19.190917     36.785878
  O      42.448625     17.396635     37.298823
  O      42.812716     16.318646     34.862043
  C      41.730370     16.567150     33.885290
  H      41.187859     15.612719     33.856129
  C      42.413416     16.864057     32.596002
  H      42.873758     16.030898     32.072573
  C      42.680200     18.130380     32.226018
  C      42.066133     19.239828     32.970696
  H      42.376581     20.248379     32.689058
  C      41.193766     19.034187     33.974904
  H      40.756673     19.881689     34.512146
  C      40.745397     17.649104     34.377925
  H      40.721718     17.572657     35.478934
  O      39.453073     17.422862     33.838420
  H      38.913678     16.830168     34.448977
  C      43.691106     18.418364     31.119038
  O      44.492789     17.495041     30.796657
  O      43.679673     19.570957     30.627503
24
Coordinates from ORCA-job neb_MEP.QMRegion E -1076.572260071988
  C      44.625639     17.796591     34.440122
  H      44.910454     17.301584     33.512754
  H      45.157283     18.702597     34.732595
  C      43.599968     17.376606     35.193255
  C      43.218604     18.046838     36.501535
  O      43.702182     19.181590     36.745900
  O      42.449798     17.413514     37.265899
  O      42.814980     16.297141     34.848030
  C      41.714073     16.544551     33.878277
  H      41.179431     15.585664     33.847860
  C      42.391919     16.857171     32.592996
  H      42.843052     16.032495     32.048923
  C      42.685417     18.128629     32.262641
  C      42.078851     19.228917     33.027673
  H      42.406589     20.239843     32.775817
  C      41.188158     19.010152     34.012777
  H      40.743392     19.850120     34.555538
  C      40.731944     17.620868     34.390219
  H      40.715863     17.525244     35.489367
  O      39.435379     17.412117     33.855136
  H      38.890919     16.821750     34.464955
  C      43.707721     18.425152     31.169745
  O      44.489529     17.494642     30.819491
  O      43.722341     19.591714     30.714357
24
Coordinates from ORCA-job neb_MEP.QMRegion E -1076.564483200538
  C      44.598684     17.802840     34.317523
  H      44.938896     17.244043     33.446975
  H      45.032551     18.792681     34.482088
  C      43.631285     17.342090     35.139026
  C      43.255083     18.057802     36.430707
  O      43.780165     19.174821     36.669452
  O      42.455608     17.463716     37.199751
  O      42.866494     16.247017     34.831408
  C      41.651528     16.510451     33.820386
  H      41.146152     15.533448     33.792359
  C      42.364498     16.855047     32.592055
  H      42.794578     16.049672     32.005721
  C      42.764615     18.130044     32.395247
  C      42.142144     19.217563     33.166674
  H      42.500684     20.230337     32.968718
  C      41.168679     18.979202     34.063585
  H      40.662332     19.805666     34.572476
  C      40.695154     17.584910     34.391168
  H      40.729269     17.437519     35.481851
  O      39.370424     17.440521     33.906620
  H      38.824100     16.838737     34.511752
  C      43.782098     18.435177     31.307396
  O      44.510379     17.492296     30.884568
  O      43.813424     19.616814     30.898040
24
Coordinates from ORCA-job neb_MEP.QMRegion E -1076.551509988137
  C      44.579522     17.833670     34.274798
  H      44.965049     17.236082     33.450912
  H      45.005286     18.825827     34.433149
  C      43.664198     17.321340     35.155686
  C      43.264658     18.062291     36.435063
  O      43.783755     19.182906     36.668437
  O      42.457476     17.473108     37.199904
  O      43.000159     16.214103     34.904281
  C      41.543180     16.521888     33.714188
  H      41.115240     15.516414     33.765290
  C      42.352307     16.848476     32.602657
  H      42.790951     16.049311     32.014499
  C      42.817141     18.130120     32.460355
  C      42.155033     19.221516     33.187437
  H      42.509193     20.233726     32.982003
  C      41.159487     18.982215     34.058237
  H      40.648345     19.807012     34.563330
  C      40.676681     17.589903     34.372598
  H      40.738761     17.422409     35.460656
  O      39.337243     17.468325     33.919446
  H      38.806616     16.845267     34.518717
  C      43.803040     18.434214     31.335952
  O      44.511971     17.488904     30.891135
  O      43.807953     19.610519     30.911297
24
Coordinates from ORCA-job neb_MEP.QMRegion E -1076.549335465942
  C      44.552851     17.857651     34.229842
  H      44.984460     17.228703     33.455014
  H      44.985991     18.843729     34.400402
  C      43.682917     17.307838     35.166975
  C      43.269842     18.064448     36.440432
  O      43.786217     19.187046     36.666578
  O      42.459769     17.477016     37.201020
  O      43.099399     16.190866     34.961818
  C      41.468309     16.529727     33.639844
  H      41.091540     15.510722     33.744007
  C      42.344777     16.840508     32.616885
  H      42.789459     16.048226     32.023024
  C      42.862790     18.131196     32.514262
  C      42.162750     19.224556     33.199933
  H      42.512943     20.236633     32.989115
  C      41.153543     18.983262     34.053621
  H      40.640167     19.807287     34.557362
  C      40.664689     17.591276     34.358337
  H      40.743541     17.412964     35.445567
  O      39.314641     17.487572     33.929289
  H      38.796339     16.848613     34.522437
  C      43.815915     18.433579     31.354468
  O      44.512430     17.486929     30.895355
  O      43.803416     19.605865     30.918832
24
Coordinates from ORCA-job neb_MEP.QMRegion E -1076.552172558448
  C      44.482081     17.887577     34.142911
  H      45.003284     17.217447     33.462398
  H      44.949939     18.853953     34.352552
  C      43.684184     17.301224     35.165521
  C      43.273877     18.066331     36.442526
  O      43.793508     19.187537     36.661274
  O      42.466640     17.478451     37.202839
  O      43.170622     16.173845     35.005972
  C      41.423400     16.536010     33.589593
  H      41.067127     15.512507     33.716063
  C      42.350308     16.834754     32.638522
  H      42.792363     16.048925     32.032720
  C      42.943375     18.130845     32.597676
  C      42.176499     19.228188     33.218143
  H      42.516714     20.241444     32.997466
  C      41.151756     18.983745     34.049125
  H      40.628882     19.807376     34.544138
  C      40.658059     17.591336     34.348801
  H      40.746076     17.406276     35.435509
  O      39.300645     17.504277     33.938805
  H      38.790802     16.852836     34.524529
  C      43.834288     18.434136     31.377032
  O      44.515585     17.486180     30.898991
  O      43.797370     19.600531     30.927881
24
Coordinates from ORCA-job neb_MEP.QMRegion E -1076.562551393371
  C      44.383950     17.914413     34.033876
  H      45.013222     17.214502     33.479081
  H      44.900977     18.850578     34.295672
  C      43.673711     17.300591     35.157994
  C      43.278813     18.069336     36.443736
  O      43.804001     19.187099     36.656740
  O      42.476225     17.477892     37.203409
  O      43.233348     16.159005     35.045730
  C      41.396449     16.541884     33.553496
  H      41.040717     15.517611     33.682465
  C      42.361943     16.831163     32.661734
  H      42.797289     16.050472     32.043289
  C      43.045149     18.129233     32.696235
  C      42.197479     19.229605     33.241643
  H      42.519753     20.245361     33.005968
  C      41.154217     18.982437     34.045032
  H      40.617272     19.805824     34.526624
  C      40.653519     17.590462     34.340663
  H      40.748226     17.399345     35.425690
  O      39.289675     17.520680     33.949351
  H      38.787146     16.856439     34.526228
  C      43.852682     18.435039     31.399396
  O      44.518958     17.486043     30.902186
  O      43.789012     19.594697     30.937601
24
Coordinates from ORCA-job neb_MEP.QMRegion E -1076.590772651322
  C      44.327000     17.929000     33.870000
  H      45.077000     17.243000     33.450000
  H      44.783000     18.903000     34.091000
  C      43.759000     17.297000     35.109000
  C      43.386000     18.131000     36.359000
  O      44.067000     19.155000     36.570000
  O      42.469000     17.662000     37.078000
  O      43.551000     16.100000     35.136000
  C      41.239000     16.622000     33.309000
  H      40.711000     15.670000     33.217000
  C      42.380000     16.837000     32.651000
  H      42.809000     16.062000     32.021000
  C      43.174000     18.109000     32.793000
  C      42.296000     19.232000     33.287000
  H      42.681000     20.241000     33.129000
  C      41.155000     19.018000     33.949000
  H      40.573000     19.859000     34.339000
  C      40.598000     17.641000     34.214000
  H      40.821000     17.379000     35.270000
  O      39.198000     17.671000     34.019000
  H      38.741000     16.967000     34.574000
  C      43.897000     18.432000     31.437000
  O      44.538000     17.490000     30.897000
  O      43.811000     19.596000     30.996000
