24
Coordinates from ORCA-job neb_initial_path.QMRegion E   0.000000000000
  C      44.641000     17.848000     34.555000
  H      44.941000     17.378000     33.618000
  H      45.195000     18.717000     34.911000
  C      43.590000     17.422000     35.265000
  C      43.186000     18.052000     36.585000
  O      43.629000     19.203000     36.841000
  O      42.445000     17.380000     37.340000
  O      42.813000     16.349000     34.881000
  C      41.751000     16.601000     33.889000
  H      41.198000     15.652000     33.859000
  C      42.445000     16.878000     32.600000
  H      42.919000     16.036000     32.102000
  C      42.686000     18.136000     32.187000
  C      42.058000     19.257000     32.900000
  H      42.347000     20.261000     32.582000
  C      41.199000     19.070000     33.919000
  H      40.760000     19.926000     34.439000
  C      40.762000     17.691000     34.357000
  H      40.738000     17.639000     35.459000
  O      39.472000     17.446000     33.821000
  H      38.941000     16.847000     34.431000
  C      43.679000     18.410000     31.060000
  O      44.501000     17.495000     30.769000
  O      43.632000     19.543000     30.525000
24
Coordinates from ORCA-job neb_initial_path.QMRegion E   0.000000000000
  C      44.615000     17.850333     34.493667
  H      44.942333     17.352167     33.588167
  H      45.151333     18.737833     34.820000
  C      43.598667     17.404500     35.246000
  C      43.197333     18.053667     36.559833
  O      43.653333     19.199500     36.811333
  O      42.448167     17.394000     37.318000
  O      42.847333     16.326000     34.889000
  C      41.712500     16.588667     33.856000
  H      41.184333     15.629333     33.843167
  C      42.430500     16.873333     32.604500
  H      42.897500     16.039833     32.088667
  C      42.722333     18.134833     32.248833
  C      42.077667     19.252000     32.953167
  H      42.374500     20.257667     32.650667
  C      41.193167     19.055833     33.943500
  H      40.738833     19.906500     34.457667
  C      40.748500     17.674333     34.360667
  H      40.737167     17.602500     35.460500
  O      39.450333     17.450167     33.837167
  H      38.919833     16.846167     34.444333
  C      43.703667     18.414000     31.111833
  O      44.504333     17.493833     30.791667
  O      43.659167     19.552667     30.591167
24
Coordinates from ORCA-job neb_initial_path.QMRegion E   0.000000000000
  C      44.589000     17.852667     34.432333
  H      44.943667     17.326333     33.558333
  H      45.107667     18.758667     34.729000
  C      43.607333     17.387000     35.227000
  C      43.208667     18.055333     36.534667
  O      43.677667     19.196000     36.781667
  O      42.451333     17.408000     37.296000
  O      42.881667     16.303000     34.897000
  C      41.674000     16.576333     33.823000
  H      41.170667     15.606667     33.827333
  C      42.416000     16.868667     32.609000
  H      42.876000     16.043667     32.075333
  C      42.758667     18.133667     32.310667
  C      42.097333     19.247000     33.006333
  H      42.402000     20.254333     32.719333
  C      41.187333     19.041667     33.968000
  H      40.717667     19.887000     34.476333
  C      40.735000     17.657667     34.364333
  H      40.736333     17.566000     35.462000
  O      39.428667     17.454333     33.853333
  H      38.898667     16.845333     34.457667
  C      43.728333     18.418000     31.163667
  O      44.507667     17.492667     30.814333
  O      43.686333     19.562333     30.657333
24
Coordinates from ORCA-job neb_initial_path.QMRegion E   0.000000000000
  C      44.563000     17.855000     34.371000
  H      44.945000     17.300500     33.528500
  H      45.064000     18.779500     34.638000
  C      43.616000     17.369500     35.208000
  C      43.220000     18.057000     36.509500
  O      43.702000     19.192500     36.752000
  O      42.454500     17.422000     37.274000
  O      42.916000     16.280000     34.905000
  C      41.635500     16.564000     33.790000
  H      41.157000     15.584000     33.811500
  C      42.401500     16.864000     32.613500
  H      42.854500     16.047500     32.062000
  C      42.795000     18.132500     32.372500
  C      42.117000     19.242000     33.059500
  H      42.429500     20.251000     32.788000
  C      41.181500     19.027500     33.992500
  H      40.696500     19.867500     34.495000
  C      40.721500     17.641000     34.368000
  H      40.735500     17.529500     35.463500
  O      39.407000     17.458500     33.869500
  H      38.877500     16.844500     34.471000
  C      43.753000     18.422000     31.215500
  O      44.511000     17.491500     30.837000
  O      43.713500     19.572000     30.723500
24
Coordinates from ORCA-job neb_initial_path.QMRegion E   0.000000000000
  C      44.537000     17.857333     34.309667
  H      44.946333     17.274667     33.498667
  H      45.020333     18.800333     34.547000
  C      43.624667     17.352000     35.189000
  C      43.231333     18.058667     36.484333
  O      43.726333     19.189000     36.722333
  O      42.457667     17.436000     37.252000
  O      42.950333     16.257000     34.913000
  C      41.597000     16.551667     33.757000
  H      41.143333     15.561333     33.795667
  C      42.387000     16.859333     32.618000
  H      42.833000     16.051333     32.048667
  C      42.831333     18.131333     32.434333
  C      42.136667     19.237000     33.112667
  H      42.457000     20.247667     32.856667
  C      41.175667     19.013333     34.017000
  H      40.675333     19.848000     34.513667
  C      40.708000     17.624333     34.371667
  H      40.734667     17.493000     35.465000
  O      39.385333     17.462667     33.885667
  H      38.856333     16.843667     34.484333
  C      43.777667     18.426000     31.267333
  O      44.514333     17.490333     30.859667
  O      43.740667     19.581667     30.789667
24
Coordinates from ORCA-job neb_initial_path.QMRegion E   0.000000000000
  C      44.511000     17.859667     34.248333
  H      44.947667     17.248833     33.468833
  H      44.976667     18.821167     34.456000
  C      43.633333     17.334500     35.170000
  C      43.242667     18.060333     36.459167
  O      43.750667     19.185500     36.692667
  O      42.460833     17.450000     37.230000
  O      42.984667     16.234000     34.921000
  C      41.558500     16.539333     33.724000
  H      41.129667     15.538667     33.779833
  C      42.372500     16.854667     32.622500
  H      42.811500     16.055167     32.035333
  C      42.867667     18.130167     32.496167
  C      42.156333     19.232000     33.165833
  H      42.484500     20.244333     32.925333
  C      41.169833     18.999167     34.041500
  H      40.654167     19.828500     34.532333
  C      40.694500     17.607667     34.375333
  H      40.733833     17.456500     35.466500
  O      39.363667     17.466833     33.901833
  H      38.835167     16.842833     34.497667
  C      43.802333     18.430000     31.319167
  O      44.517667     17.489167     30.882333
  O      43.767833     19.591333     30.855833
24
Coordinates from ORCA-job neb_initial_path.QMRegion E   0.000000000000
  C      44.485000     17.862000     34.187000
  H      44.949000     17.223000     33.439000
  H      44.933000     18.842000     34.365000
  C      43.642000     17.317000     35.151000
  C      43.254000     18.062000     36.434000
  O      43.775000     19.182000     36.663000
  O      42.464000     17.464000     37.208000
  O      43.019000     16.211000     34.929000
  C      41.520000     16.527000     33.691000
  H      41.116000     15.516000     33.764000
  C      42.358000     16.850000     32.627000
  H      42.790000     16.059000     32.022000
  C      42.904000     18.129000     32.558000
  C      42.176000     19.227000     33.219000
  H      42.512000     20.241000     32.994000
  C      41.164000     18.985000     34.066000
  H      40.633000     19.809000     34.551000
  C      40.681000     17.591000     34.379000
  H      40.733000     17.420000     35.468000
  O      39.342000     17.471000     33.918000
  H      38.814000     16.842000     34.511000
  C      43.827000     18.434000     31.371000
  O      44.521000     17.488000     30.905000
  O      43.795000     19.601000     30.922000
24
Coordinates from ORCA-job neb_initial_path.QMRegion E   0.000000000000
  C      44.432333     17.884333     34.081333
  H      44.991667     17.229667     33.442667
  H      44.883000     18.862333     34.273667
  C      43.681000     17.310333     35.137000
  C      43.298000     18.085000     36.409000
  O      43.872333     19.173000     36.632000
  O      42.465667     17.530000     37.164667
  O      43.196333     16.174000     34.998000
  C      41.426333     16.558667     33.563667
  H      40.981000     15.567333     33.581667
  C      42.365333     16.845667     32.635000
  H      42.796333     16.060000     32.021667
  C      42.994000     18.122333     32.636333
  C      42.216000     19.228667     33.241667
  H      42.568333     20.241000     33.039000
  C      41.161000     18.996000     34.027000
  H      40.613000     19.825667     34.480333
  C      40.653333     17.607667     34.324000
  H      40.762333     17.406333     35.402000
  O      39.294000     17.537667     33.951667
  H      38.789667     16.883667     34.532000
  C      43.850333     18.433333     31.393000
  O      44.526667     17.488667     30.902333
  O      43.800333     19.599333     30.946667
24
Coordinates from ORCA-job neb_initial_path.QMRegion E   0.000000000000
  C      44.379667     17.906667     33.975667
  H      45.034333     17.236333     33.446333
  H      44.833000     18.882667     34.182333
  C      43.720000     17.303667     35.123000
  C      43.342000     18.108000     36.384000
  O      43.969667     19.164000     36.601000
  O      42.467333     17.596000     37.121333
  O      43.373667     16.137000     35.067000
  C      41.332667     16.590333     33.436333
  H      40.846000     15.618667     33.399333
  C      42.372667     16.841333     32.643000
  H      42.802667     16.061000     32.021333
  C      43.084000     18.115667     32.714667
  C      42.256000     19.230333     33.264333
  H      42.624667     20.241000     33.084000
  C      41.158000     19.007000     33.988000
  H      40.593000     19.842333     34.409667
  C      40.625667     17.624333     34.269000
  H      40.791667     17.392667     35.336000
  O      39.246000     17.604333     33.985333
  H      38.765333     16.925333     34.553000
  C      43.873667     18.432667     31.415000
  O      44.532333     17.489333     30.899667
  O      43.805667     19.597667     30.971333
24
Coordinates from ORCA-job neb_initial_path.QMRegion E   0.000000000000
  C      44.327000     17.929000     33.870000
  H      45.077000     17.243000     33.450000
  H      44.783000     18.903000     34.091000
  C      43.759000     17.297000     35.109000
  C      43.386000     18.131000     36.359000
  O      44.067000     19.155000     36.570000
  O      42.469000     17.662000     37.078000
  O      43.551000     16.100000     35.136000
  C      41.239000     16.622000     33.309000
  H      40.711000     15.670000     33.217000
  C      42.380000     16.837000     32.651000
  H      42.809000     16.062000     32.021000
  C      43.174000     18.109000     32.793000
  C      42.296000     19.232000     33.287000
  H      42.681000     20.241000     33.129000
  C      41.155000     19.018000     33.949000
  H      40.573000     19.859000     34.339000
  C      40.598000     17.641000     34.214000
  H      40.821000     17.379000     35.270000
  O      39.198000     17.671000     34.019000
  H      38.741000     16.967000     34.574000
  C      43.897000     18.432000     31.437000
  O      44.538000     17.490000     30.897000
  O      43.811000     19.596000     30.996000
