37
frame 41786 substrate + arm c (free)
C      44.84200000    22.06800000    40.14200000
H      45.26500000    21.44000000    39.35800000
H      45.36800000    22.97600000    40.43500000
C      43.68900000    21.75800000    40.74600000
C      43.11500000    22.62300000    41.85900000
O      43.57700000    23.78500000    42.01200000
O      42.22100000    22.11700000    42.57900000
O      42.98500000    20.61000000    40.43300000
C      42.07900000    20.64600000    39.27000000
H      41.68300000    19.62200000    39.21900000
C      42.89200000    20.97500000    38.05400000
H      43.55100000    20.20900000    37.63800000
C      42.96900000    22.24400000    37.60500000
C      42.11800000    23.28100000    38.20200000
H      42.30700000    24.30100000    37.86700000
C      41.18800000    23.00200000    39.13000000
H      40.59800000    23.80900000    39.57500000
C      40.88700000    21.58800000    39.55300000
H      40.74200000    21.56600000    40.64400000
O      39.71500000    21.14400000    38.88400000
H      39.06800000    20.73700000    39.53500000
C      44.02400000    22.69400000    36.60000000
O      44.93700000    21.90500000    36.25900000
O      43.94400000    23.90000000    36.23600000
C      39.38800000    20.55700000    43.51300000
H      39.58792509    20.54988523    44.58448464
H      38.48100000    19.98900000    43.30300000
H      39.22800000    21.58500000    43.18400000
N      40.52600000    20.00900000    42.76500000
H      41.20800000    20.69200000    42.43100000
C      40.83200000    18.75000000    42.55100000
N      40.09600000    17.78000000    43.00900000
H      39.25400000    17.99900000    43.49700000
H      40.38400000    16.83000000    42.80400000
N      41.89400000    18.43200000    41.87300000
H      42.45100000    19.18100000    41.46200000
H      42.09400000    17.46400000    41.68800000
