37
Coordinates from ORCA-job job
  C          43.40242694735679     17.69302510078737     38.58526597200024
  H          44.09527121065518     16.86302338420402     38.73499446764239
  H          43.11921283225057     17.98514568619282     37.57282218338135
  C          42.85874772106406     18.36538911814902     39.60601328962857
  C          41.81258728787802     19.47582214082251     39.39278594375945
  O          41.92520500643110     20.20091007285126     38.40309404739681
  O          40.89405630546579     19.53005987028522     40.28378308202877
  O          43.18954533664007     18.14354273094105     40.93223487097017
  C          42.89920270336951     16.88472615144573     41.57346506252564
  H          43.04199400473897     17.12526120591210     42.65433017152437
  C          43.82171771724217     15.75014568272298     41.23487503419916
  H          44.83569124072591     15.93917035806400     40.87255190577071
  C          43.47175493080244     14.48763623731741     41.55351902489547
  C          42.14174393541956     14.23910332207869     42.12650391654353
  H          41.98981812826030     13.23250449787922     42.52370098415609
  C          41.17922085161855     15.18121479941943     42.10852258122245
  H          40.16070544835475     14.99575379180646     42.46697897559454
  C          41.42139010802229     16.51201390579402     41.44092040330972
  H          41.21223772027032     16.39277990226185     40.35329431375413
  O          40.58686082423203     17.52288201353202     41.97283809825311
  H          40.66355482705145     18.28764333659594     41.32532459703930
  C          44.47222220510765     13.30141278396756     41.41225455558980
  O          45.55593375957734     13.57525215274784     40.85963794628393
  O          44.05972793476740     12.22217144936779     41.89692640132536
  C          39.38800000000000     20.55700000000000     43.51300000000000
  H          39.58792508999999     20.54988523000000     44.58448464000000
  H          38.85478199657642     19.63222656950357     43.25121741718105
  H          38.73710530369958     21.40948898634211     43.28093416021026
  N          40.63908672441288     20.64547714861352     42.74273828922479
  H          40.49895177513881     20.56699927280771     41.72648811309426
  C          41.84359806677944     20.24776513153003     43.14035327792548
  N          41.93096735052418     19.13169167303262     43.84346756393276
  H          41.28769346630824     18.39391137249434     43.54419338669942
  H          42.83954869687016     18.74297832112304     44.03797796700737
  N          42.85396832376281     20.51078330997534     42.33214196638843
  H          42.70042902852973     21.19298950605672     41.60467861397241
  H          43.32725654292179     19.69853018361336     41.93127805054851
