37
Coordinates from ORCA-job job E -836.392772778953
  C      44.842000     22.068000     40.142000
  H      45.265000     21.440000     39.358000
  H      45.368000     22.976000     40.435000
  C      43.689000     21.758000     40.746000
  C      43.115000     22.623000     41.859000
  O      43.577000     23.785000     42.012000
  O      42.221000     22.117000     42.579000
  O      42.985000     20.610000     40.433000
  C      42.079000     20.646000     39.270000
  H      41.683000     19.622000     39.219000
  C      42.892000     20.975000     38.054000
  H      43.551000     20.209000     37.638000
  C      42.969000     22.244000     37.605000
  C      42.118000     23.281000     38.202000
  H      42.307000     24.301000     37.867000
  C      41.188000     23.002000     39.130000
  H      40.598000     23.809000     39.575000
  C      40.887000     21.588000     39.553000
  H      40.742000     21.566000     40.644000
  O      39.715000     21.144000     38.884000
  H      39.068000     20.737000     39.535000
  C      44.024000     22.694000     36.600000
  O      44.937000     21.905000     36.259000
  O      43.944000     23.900000     36.236000
  C      39.388000     20.557000     43.513000
  H      39.587925     20.549885     44.584485
  H      38.481000     19.989000     43.303000
  H      39.228000     21.585000     43.184000
  N      40.526000     20.009000     42.765000
  H      41.208000     20.692000     42.431000
  C      40.832000     18.750000     42.551000
  N      40.096000     17.780000     43.009000
  H      39.254000     17.999000     43.497000
  H      40.384000     16.830000     42.804000
  N      41.894000     18.432000     41.873000
  H      42.451000     19.181000     41.462000
  H      42.094000     17.464000     41.688000
37
Coordinates from ORCA-job job E -836.404392826936
  C      44.790790     22.107320     40.152783
  H      45.209962     21.503962     39.345035
  H      45.296180     23.025659     40.449911
  C      43.644917     21.782378     40.761871
  C      43.063818     22.633300     41.897715
  O      43.548158     23.771916     42.060692
  O      42.167752     22.096259     42.610653
  O      42.952816     20.621368     40.435876
  C      42.035202     20.635446     39.279892
  H      41.638743     19.603860     39.264551
  C      42.790961     20.928501     38.023552
  H      43.436753     20.153994     37.601721
  C      42.840531     22.175566     37.519208
  C      42.015153     23.230591     38.117997
  H      42.184910     24.235902     37.730023
  C      41.119814     22.978563     39.090177
  H      40.531027     23.790509     39.528358
  C      40.844562     21.576326     39.562558
  H      40.712106     21.566571     40.658267
  O      39.656450     21.094336     38.922805
  H      39.071727     20.710012     39.587188
  C      43.829626     22.556228     36.411248
  O      44.637638     21.675057     36.035092
  O      43.683049     23.714877     35.938389
  C      39.388000     20.557000     43.513000
  H      39.587925     20.549885     44.584485
  H      38.470440     19.997069     43.304507
  H      39.234674     21.594518     43.190581
  N      40.528123     20.000828     42.768951
  H      41.207520     20.702792     42.443349
  C      40.850825     18.739453     42.548292
  N      40.118468     17.749476     43.009042
  H      39.270163     17.950269     43.507504
  H      40.392672     16.798632     42.818786
  N      41.929522     18.454346     41.860773
  H      42.469092     19.216267     41.446388
  H      42.182602     17.506679     41.650234
37
Coordinates from ORCA-job job E -836.407293431381
  C      44.741379     22.117469     40.111539
  H      45.134063     21.521563     39.283446
  H      45.245608     23.039618     40.400545
  C      43.611970     21.797760     40.751782
  C      43.052987     22.649401     41.917409
  O      43.562990     23.763743     42.067380
  O      42.155001     22.098666     42.631967
  O      42.920247     20.628334     40.429651
  C      41.993909     20.626268     39.288270
  H      41.599734     19.589545     39.301836
  C      42.704272     20.896022     38.006261
  H      43.344542     20.121680     37.575052
  C      42.720636     22.123897     37.456666
  C      41.907836     23.188101     38.054039
  H      42.052263     24.179402     37.618776
  C      41.045755     22.956788     39.062806
  H      40.451627     23.767143     39.497235
  C      40.804701     21.565242     39.575938
  H      40.686238     21.564320     40.674417
  O      39.598637     21.042148     38.972733
  H      39.072867     20.674589     39.667282
  C      43.643046     22.445270     36.257437
  O      44.478040     21.553876     35.985736
  O      43.535683     23.615070     35.816621
  C      39.388000     20.557000     43.513000
  H      39.587925     20.549885     44.584485
  H      38.459237     20.008575     43.306375
  H      39.245528     21.603242     43.198417
  N      40.527711     19.988057     42.775028
  H      41.209389     20.708703     42.458663
  C      40.861025     18.722841     42.550162
  N      40.124593     17.718072     43.014608
  H      39.271674     17.904300     43.521328
  H      40.375075     16.761212     42.844141
  N      41.957022     18.467326     41.855910
  H      42.482097     19.240610     41.435553
  H      42.265431     17.544754     41.616616
37
Coordinates from ORCA-job job E -836.407768421545
  C      44.615811     22.147934     39.957237
  H      44.954779     21.547912     39.109195
  H      45.118622     23.084196     40.203750
  C      43.535389     21.829149     40.676265
  C      43.030399     22.693723     41.874565
  O      43.562356     23.792393     41.995581
  O      42.143668     22.148536     42.609736
  O      42.853806     20.639298     40.402489
  C      41.907917     20.597038     39.293074
  H      41.513591     19.562979     39.359280
  C      42.575037     20.818020     37.982486
  H      43.209356     20.037774     37.552810
  C      42.539753     22.012244     37.360420
  C      41.740243     23.095965     37.939314
  H      41.852287     24.062264     37.439542
  C      40.924457     22.909746     38.994542
  H      40.329674     23.727180     39.414642
  C      40.724300     21.542854     39.576116
  H      40.631519     21.572942     40.674470
  O      39.496824     20.970697     39.039357
  H      39.021654     20.619976     39.799572
  C      43.353211     22.251784     36.045896
  O      44.028457     21.264658     35.686687
  O      43.088815     23.326402     35.468765
  C      39.388000     20.557000     43.513000
  H      39.587925     20.549885     44.584485
  H      38.461174     20.004706     43.306235
  H      39.240378     21.606320     43.209666
  N      40.534164     19.996710     42.780036
  H      41.205900     20.739378     42.468470
  C      40.892501     18.733246     42.560387
  N      40.168225     17.714445     43.037631
  H      39.315375     17.880628     43.552904
  H      40.411407     16.751205     42.891974
  N      42.003167     18.508480     41.864486
  H      42.500558     19.293676     41.423522
  H      42.370815     17.610925     41.611848
37
Coordinates from ORCA-job job E -836.410406204235
  C      44.571145     22.180996     39.927299
  H      44.928713     21.585285     39.085862
  H      45.054387     23.128457     40.169308
  C      43.495682     21.835714     40.643393
  C      42.977251     22.689861     41.833371
  O      43.506564     23.798604     41.978851
  O      42.102708     22.143548     42.572177
  O      42.832815     20.634806     40.383344
  C      41.870939     20.570943     39.279722
  H      41.471859     19.542547     39.366364
  C      42.527465     20.762130     37.954073
  H      43.154453     19.969994     37.535616
  C      42.472458     21.940611     37.303354
  C      41.683113     23.038138     37.870851
  H      41.789445     23.995728     37.355436
  C      40.884177     22.875088     38.941539
  H      40.299417     23.704861     39.350859
  C      40.685788     21.520124     39.552320
  H      40.601194     21.573056     40.649713
  O      39.460084     20.946282     39.030198
  H      38.974574     20.595320     39.792887
  C      43.241923     22.161882     35.965350
  O      43.968397     21.212518     35.598497
  O      43.016014     23.260324     35.409060
  C      39.388000     20.557000     43.513000
  H      39.587925     20.549885     44.584485
  H      38.473908     19.988763     43.304202
  H      39.224146     21.600287     43.208201
  N      40.540148     20.017215     42.776161
  H      41.195767     20.754278     42.455768
  C      40.908350     18.759011     42.568520
  N      40.202269     17.745280     43.055118
  H      39.354078     17.912406     43.570595
  H      40.471225     16.786444     42.906994
  N      42.010158     18.522514     41.877966
  H      42.499008     19.303024     41.425141
  H      42.361251     17.610258     41.651469
37
Coordinates from ORCA-job job E -836.411023900941
  C      44.522700     22.199231     39.798490
  H      44.863170     21.590920     38.959047
  H      45.010178     23.149796     40.018199
  C      43.470272     21.856863     40.549581
  C      42.991740     22.721182     41.747632
  O      43.532055     23.829598     41.868429
  O      42.123649     22.197591     42.507680
  O      42.805384     20.649531     40.326562
  C      41.822786     20.555276     39.241752
  H      41.431229     19.526685     39.357097
  C      42.445870     20.718512     37.894851
  H      43.073690     19.924692     37.479895
  C      42.337596     21.869503     37.203571
  C      41.548242     22.972717     37.758757
  H      41.624839     23.915203     37.211466
  C      40.784311     22.831415     38.857542
  H      40.197389     23.663594     39.258683
  C      40.625718     21.491801     39.511320
  H      40.555231     21.568740     40.608160
  O      39.402262     20.882488     39.023279
  H      38.947842     20.530633     39.795039
  C      43.040918     22.055375     35.826447
  O      43.775636     21.112156     35.461791
  O      42.795210     23.144618     35.259408
  C      39.388000     20.557000     43.513000
  H      39.587925     20.549885     44.584485
  H      38.477569     19.983366     43.303681
  H      39.219363     21.599340     43.208507
  N      40.542937     20.022929     42.776377
  H      41.190844     20.764224     42.444194
  C      40.922979     18.765871     42.586311
  N      40.229592     17.753854     43.088391
  H      39.382808     17.919434     43.605759
  H      40.510684     16.796461     42.953439
  N      42.027136     18.527154     41.903795
  H      42.502040     19.306272     41.430945
  H      42.387765     17.614158     41.696009
37
Coordinates from ORCA-job job E -836.411908171634
  C      44.383727     22.231629     39.642142
  H      44.706137     21.612447     38.803344
  H      44.855938     23.197162     39.826944
  C      43.376865     21.875508     40.447382
  C      42.932700     22.745001     41.655272
  O      43.481254     23.851361     41.755406
  O      42.075347     22.232533     42.432856
  O      42.735296     20.648065     40.279681
  C      41.723184     20.501431     39.233951
  H      41.344784     19.474841     39.401988
  C      42.291478     20.613605     37.857359
  H      42.918248     19.814966     37.449477
  C      42.106028     21.715598     37.105447
  C      41.319901     22.831648     37.637610
  H      41.350497     23.743924     37.036951
  C      40.613630     22.735829     38.778907
  H      40.027867     23.575263     39.166398
  C      40.517149     21.428499     39.504070
  H      40.479514     21.552199     40.598276
  O      39.289632     20.767390     39.091372
  H      38.892408     20.421122     39.894370
  C      42.713217     21.830904     35.675172
  O      43.428431     20.873005     35.313751
  O      42.419357     22.887616     35.071984
  C      39.388000     20.557000     43.513000
  H      39.587925     20.549885     44.584485
  H      38.487254     19.968697     43.301857
  H      39.203101     21.597784     43.212442
  N      40.551881     20.042940     42.776267
  H      41.176772     20.797250     42.432024
  C      40.963781     18.792096     42.607390
  N      40.298702     17.772616     43.131340
  H      39.452794     17.924244     43.654358
  H      40.602051     16.819560     43.015115
  N      42.074843     18.568402     41.931222
  H      42.516769     19.347936     41.429554
  H      42.465920     17.663735     41.742316
37
Coordinates from ORCA-job job E -836.413171676630
  C      44.065207     22.284228     39.298384
  H      44.333820     21.648590     38.452829
  H      44.503602     23.276316     39.410081
  C      43.166808     21.907075     40.214754
  C      42.803976     22.789612     41.440393
  O      43.394429     23.876685     41.511140
  O      41.982748     22.297295     42.266711
  O      42.574674     20.647677     40.160314
  C      41.506040     20.398000     39.205187
  H      41.162857     19.380388     39.477169
  C      41.958910     20.402815     37.780974
  H      42.585569     19.596005     37.389194
  C      41.626633     21.398006     36.936321
  C      40.838115     22.532763     37.421828
  H      40.769945     23.374358     36.728184
  C      40.245244     22.532711     38.629960
  H      39.659358     23.384389     38.989416
  C      40.283307     21.304519     39.484363
  H      40.316538     21.530087     40.562059
  O      39.059229     20.550150     39.239722
  H      38.788962     20.210871     40.099581
  C      42.069117     21.372387     35.441379
  O      42.750555     20.384704     35.098964
  O      41.675930     22.353794     34.771022
  C      39.388000     20.557000     43.513000
  H      39.587925     20.549885     44.584485
  H      38.506329     19.941141     43.297894
  H      39.170603     21.593850     43.219481
  N      40.566584     20.083355     42.772221
  H      41.145037     20.861046     42.401394
  C      41.043502     18.849366     42.642129
  N      40.438650     17.815334     43.208007
  H      39.596243     17.938440     43.744506
  H      40.788938     16.875606     43.120691
  N      42.165766     18.660285     41.973526
  H      42.535823     19.435678     41.411532
  H      42.612575     17.775030     41.819623
37
Coordinates from ORCA-job job E -836.414034091515
  C      43.829868     22.298108     39.060881
  H      44.045295     21.650941     38.208869
  H      44.249275     23.302669     39.120009
  C      43.018046     21.917331     40.053350
  C      42.723376     22.815163     41.285182
  O      43.313615     23.904733     41.308975
  O      41.918572     22.348372     42.142147
  O      42.457336     20.644036     40.080192
  C      41.352958     20.324058     39.195997
  H      41.042990     19.316409     39.538472
  C      41.729233     20.251801     37.751148
  H      42.359889     19.440427     37.375463
  C      41.312765     21.174521     36.862378
  C      40.513454     22.315421     37.315263
  H      40.378873     23.104171     36.571113
  C      39.990301     22.381175     38.553915
  H      39.400303     23.239051     38.891088
  C      40.121492     21.217317     39.485180
  H      40.205948     21.519605     40.541168
  O      38.908579     20.414131     39.363750
  H      38.729983     20.081674     40.251185
  C      41.677221     21.063035     35.350853
  O      42.360008     20.067473     35.034297
  O      41.223987     21.989947     34.640634
  C      39.388000     20.557000     43.513000
  H      39.587925     20.549885     44.584485
  H      38.522121     19.919629     43.294942
  H      39.143766     21.589110     43.222884
  N      40.576620     20.115640     42.767973
  H      41.120602     20.907169     42.376851
  C      41.103265     18.899198     42.661236
  N      40.545157     17.853353     43.252948
  H      39.704654     17.953843     43.797678
  H      40.932068     16.927321     43.177379
  N      42.231299     18.741164     41.993492
  H      42.548392     19.508935     41.391077
  H      42.712482     17.870745     41.861083
37
Coordinates from ORCA-job job E -836.415504229341
  C      43.467552     22.290016     38.727392
  H      43.588395     21.628202     37.868120
  H      43.864573     23.305210     38.714172
  C      42.790400     21.915617     39.818228
  C      42.601730     22.840329     41.049743
  O      43.214945     23.916335     41.016597
  O      41.835832     22.408742     41.961355
  O      42.271521     20.632651     39.954595
  C      41.119988     20.223643     39.182629
  H      40.867127     19.235654     39.619064
  C      41.389319     20.044618     37.723326
  H      42.029749     19.230676     37.370151
  C      40.869040     20.870547     36.794286
  C      40.047046     22.010478     37.209510
  H      39.817885     22.721527     36.411942
  C      39.618269     22.166043     38.476731
  H      39.017969     23.027795     38.784242
  C      39.884743     21.104317     39.497041
  H      40.048457     21.520747     40.504533
  O      38.697895     20.257497     39.564534
  H      38.661913     19.934704     40.473908
  C      41.151253     20.655005     35.277741
  O      41.856459     19.662708     34.998904
  O      40.618311     21.502484     34.523779
  C      39.388000     20.557000     43.513000
  H      39.587925     20.549885     44.584485
  H      38.543983     19.891619     43.290949
  H      39.106581     21.580978     43.226390
  N      40.587762     20.159770     42.760728
  H      41.085541     20.965494     42.341257
  C      41.181668     18.972791     42.679539
  N      40.688125     17.910515     43.301225
  H      39.850747     17.978949     43.856632
  H      41.121021     17.005060     43.229669
  N      42.312241     18.862643     42.004250
  H      42.553299     19.613023     41.346395
  H      42.833052     18.012827     41.891686
37
Coordinates from ORCA-job job E -836.417374196486
  C      42.884488     22.232942     38.294569
  H      42.883144     21.537275     37.453959
  H      43.236581     23.257831     38.174293
  C      42.414245     21.889900     39.498587
  C      42.369447     22.871014     40.699043
  O      42.994895     23.930971     40.564055
  O      41.674137     22.496389     41.692012
  O      41.979190     20.603398     39.794369
  C      40.773857     20.060256     39.216159
  H      40.633404     19.122143     39.792601
  C      40.885439     19.704780     37.768383
  H      41.551607     18.897022     37.450486
  C      40.204288     20.363920     36.809601
  C      39.334670     21.486581     37.174852
  H      38.949150     22.056300     36.325414
  C      39.050902     21.792944     38.455335
  H      38.418486     22.646732     38.717324
  C      39.538127     20.924122     39.572394
  H      39.816473     21.519530     40.458567
  O      38.431609     20.055517     39.949435
  H      38.623699     19.768647     40.852760
  C      40.361323     19.981220     35.309383
  O      41.123350     19.017549     35.078407
  O      39.694061     20.685602     34.516301
  C      39.388000     20.557000     43.513000
  H      39.587925     20.549885     44.584485
  H      38.588099     19.840988     43.284523
  H      39.037727     21.561334     43.233002
  N      40.605842     20.242762     42.750840
  H      41.023546     21.067465     42.286466
  C      41.311319     19.117349     42.701479
  N      40.928099     18.032234     43.363653
  H      40.096570     18.042560     43.932058
  H      41.430959     17.163833     43.288331
  N      42.434736     19.093084     42.002387
  H      42.553111     19.803129     41.267772
  H      43.016729     18.281967     41.906943
37
Coordinates from ORCA-job job E -836.399152443223
  C      41.424404     21.911761     37.604681
  H      41.127792     21.128994     36.884989
  H      41.655955     22.924965     37.243104
  C      41.484275     21.700593     38.954952
  C      41.773221     22.838491     39.998360
  O      42.436873     23.816008     39.610967
  O      41.242543     22.639991     41.148437
  O      41.271089     20.455898     39.568050
  C      40.014532     19.694098     39.479803
  H      40.162308     18.944626     40.315507
  C      39.801220     18.923830     38.189478
  H      40.532472     18.153356     37.922929
  C      38.764037     19.169574     37.315376
  C      37.779071     20.218184     37.630894
  H      37.029028     20.406041     36.815061
  C      37.820105     20.904729     38.813952
  H      37.094999     21.703158     39.015849
  C      38.840818     20.589772     39.928722
  H      39.359826     21.545286     40.301765
  O      38.096667     19.940391     41.060506
  H      38.820480     19.705336     41.728212
  C      38.612578     18.378507     35.959003
  O      39.485124     17.498736     35.767236
  O      37.637650     18.728934     35.219436
  C      39.388000     20.557000     43.513000
  H      39.587925     20.549885     44.584485
  H      38.718879     19.719127     43.262720
  H      38.861200     21.491529     43.256252
  N      40.639350     20.474700     42.736462
  H      40.860326     21.310462     42.168274
  C      41.609164     19.549380     42.726773
  N      41.506167     18.425247     43.443594
  H      40.698899     18.268965     44.029796
  H      42.145452     17.654090     43.308161
  N      42.665760     19.747447     41.929305
  H      42.483571     20.302747     41.053099
  H      43.373105     19.040450     41.820150
37
Coordinates from ORCA-job job E -836.414347717042
  C      41.975709     22.009637     37.729886
  H      41.746140     21.282748     36.942531
  H      42.275406     23.026737     37.460048
  C      41.872842     21.720753     39.045620
  C      42.067982     22.783234     40.157172
  O      42.777203     23.764975     39.881137
  O      41.456100     22.546687     41.245891
  O      41.543564     20.461221     39.531368
  C      40.266008     19.842400     39.193129
  H      40.217852     19.003655     39.932030
  C      40.227725     19.253298     37.807911
  H      40.932017     18.452486     37.563667
  C      39.384634     19.693456     36.836324
  C      38.449885     20.787529     37.121878
  H      37.878799     21.137188     36.243619
  C      38.329566     21.324523     38.359845
  H      37.642245     22.158533     38.539996
  C      39.102246     20.796982     39.559088
  H      39.607644     21.641307     40.124076
  O      38.119806     20.099278     40.397567
  H      38.661381     19.732912     41.135074
  C      39.400455     19.085145     35.398236
  O      40.220471     18.159768     35.211022
  O      38.607114     19.629054     34.579464
  C      39.388000     20.557000     43.513000
  H      39.587925     20.549885     44.584485
  H      38.677434     19.753766     43.284798
  H      38.915719     21.515289     43.249599
  N      40.639832     20.402392     42.746735
  H      40.945397     21.222035     42.202879
  C      41.526393     19.414145     42.758600
  N      41.313270     18.305068     43.458425
  H      40.477481     18.209854     44.012757
  H      41.897508     17.491643     43.334082
  N      42.610903     19.520922     42.005189
  H      42.550725     20.096663     41.145472
  H      43.261393     18.758955     41.930283
37
Coordinates from ORCA-job job E -836.418533193987
  C      42.080232     21.987429     37.845684
  H      41.916940     21.246428     37.066116
  H      42.361492     23.006362     37.583349
  C      41.934098     21.713315     39.143132
  C      42.075809     22.786157     40.245836
  O      42.753823     23.782392     39.971160
  O      41.430392     22.542303     41.306381
  O      41.616898     20.454264     39.622545
  C      40.350586     19.844801     39.275906
  H      40.302402     19.007565     39.999668
  C      40.328604     19.266667     37.900924
  H      41.040074     18.477048     37.643435
  C      39.463552     19.673382     36.958093
  C      38.510014     20.744283     37.253104
  H      37.926286     21.068357     36.395644
  C      38.381625     21.282660     38.475814
  H      37.670744     22.092261     38.669375
  C      39.167481     20.781441     39.643899
  H      39.628050     21.607986     40.207879
  O      38.226028     20.086700     40.490135
  H      38.772512     19.771523     41.213457
  C      39.465688     19.039891     35.537268
  O      40.288152     18.120713     35.356135
  O      38.634496     19.544626     34.752032
  C      39.388000     20.557000     43.513000
  H      39.587925     20.549885     44.584485
  H      38.674846     19.757403     43.280738
  H      38.921620     21.518140     43.255781
  N      40.638546     20.400786     42.751661
  H      40.940294     21.229306     42.219760
  C      41.516273     19.407133     42.756614
  N      41.288916     18.292519     43.439447
  H      40.447207     18.188404     43.981594
  H      41.862038     17.473273     43.322939
  N      42.607496     19.521975     42.019641
  H      42.563836     20.104292     41.186704
  H      43.278562     18.781266     41.935350
37
Coordinates from ORCA-job job E -836.419618508404
  C      42.166089     22.027270     37.880465
  H      42.029245     21.286554     37.091654
  H      42.460996     23.047759     37.631865
  C      41.966407     21.751322     39.173215
  C      42.091973     22.823429     40.286933
  O      42.772494     23.821898     40.023693
  O      41.458156     22.561901     41.353862
  O      41.630395     20.485330     39.632936
  C      40.366295     19.878959     39.263350
  H      40.313293     19.025180     39.973135
  C      40.356416     19.321507     37.877195
  H      41.071569     18.537065     37.611931
  C      39.490122     19.730066     36.932146
  C      38.529756     20.793531     37.233481
  H      37.945689     21.128444     36.373138
  C      38.389639     21.314092     38.464385
  H      37.671200     22.115574     38.666759
  C      39.167486     20.797982     39.635225
  H      39.603451     21.621422     40.228036
  O      38.234266     20.077969     40.479367
  H      38.768020     19.813828     41.242376
  C      39.499110     19.099296     35.504350
  O      40.329032     18.183968     35.327683
  O      38.656625     19.588533     34.719066
  C      39.388000     20.557000     43.513000
  H      39.587925     20.549885     44.584485
  H      38.661944     19.768544     43.276547
  H      38.937380     21.526003     43.254805
  N      40.634777     20.380623     42.751541
  H      40.950953     21.220491     42.237861
  C      41.484016     19.362275     42.732181
  N      41.230112     18.239985     43.394431
  H      40.385527     18.143110     43.934208
  H      41.782648     17.408290     43.266145
  N      42.574639     19.464400     41.993395
  H      42.543867     20.075602     41.172465
  H      43.239998     18.720520     41.892633
37
Coordinates from ORCA-job job E -836.405174027373
  C      42.495454     22.121900     38.082711
  H      42.507786     21.372973     37.296757
  H      42.779944     23.166300     37.858803
  C      42.149888     21.819272     39.353613
  C      42.158746     22.878560     40.489938
  O      42.780667     23.918663     40.245584
  O      41.467728     22.574622     41.508735
  O      41.803962     20.519638     39.779605
  C      40.558283     19.908591     39.327191
  H      40.461420     19.024860     40.013843
  C      40.599739     19.384494     37.905897
  H      41.309080     18.595675     37.627034
  C      39.704144     19.779563     36.911766
  C      38.750243     20.853058     37.204239
  H      38.183243     21.202333     36.311308
  C      38.587201     21.355708     38.473350
  H      37.859964     22.150595     38.689236
  C      39.317360     20.792699     39.662310
  H      39.645392     21.558276     40.339784
  O      38.392973     19.987051     40.418115
  H      38.834896     19.822408     41.226762
  C      39.651399     19.113527     35.419790
  O      40.449570     18.177654     35.258505
  O      38.760610     19.580219     34.613589
  C      39.388000     20.557000     43.513000
  H      39.587925     20.549885     44.584485
  H      38.642232     19.783999     43.271241
  H      38.963756     21.540288     43.260578
  N      40.632975     20.349452     42.761004
  H      40.953889     21.207938     42.264333
  C      41.439747     19.287173     42.739488
  N      41.138233     18.164381     43.392927
  H      40.284315     18.079011     43.918083
  H      41.662695     17.309225     43.303762
  N      42.547747     19.362378     42.036161
  H      42.563670     20.023348     41.256062
  H      43.245240     18.632572     41.945197
37
Coordinates from ORCA-job job E -836.415987072628
  C      42.416609     22.081601     37.990217
  H      42.386197     21.327189     37.186590
  H      42.714525     23.108818     37.769607
  C      42.099263     21.801962     39.276002
  C      42.151564     22.863724     40.424296
  O      42.783321     23.905607     40.172467
  O      41.468008     22.575038     41.459159
  O      41.745840     20.523065     39.707089
  C      40.507319     19.917567     39.271399
  H      40.410499     19.044426     39.956773
  C      40.551621     19.377159     37.869892
  H      41.265735     18.585754     37.605476
  C      39.685650     19.763569     36.910975
  C      38.713411     20.833949     37.176585
  H      38.150318     21.171822     36.296110
  C      38.531904     21.349882     38.410509
  H      37.803713     22.149308     38.611100
  C      39.271169     20.805244     39.612640
  H      39.612774     21.609652     40.297529
  O      38.335284     19.984900     40.410907
  H      38.819260     19.818494     41.247212
  C      39.694325     19.093561     35.493757
  O      40.503136     18.151279     35.343811
  O      38.857228     19.568263     34.729067
  C      39.388000     20.557000     43.513000
  H      39.587925     20.549885     44.584485
  H      38.644309     19.780266     43.273902
  H      38.955889     21.539996     43.259810
  N      40.630218     20.357333     42.746719
  H      40.944888     21.213049     42.249589
  C      41.441141     19.300442     42.714186
  N      41.148833     18.175645     43.364845
  H      40.297240     18.087852     43.897508
  H      41.684250     17.330018     43.253155
  N      42.544390     19.382088     41.996962
  H      42.539274     20.043921     41.198572
  H      43.233069     18.653656     41.906327
37
Coordinates from ORCA-job job E -836.393677777462
  C      42.315268     21.993727     38.005927
  H      42.241030     21.235570     37.232971
  H      42.617341     23.000364     37.797131
  C      42.034179     21.757503     39.217664
  C      42.112444     22.828508     40.328013
  O      42.766148     23.850709     40.095392
  O      41.464871     22.557748     41.376948
  O      41.688444     20.512253     39.631338
  C      40.460557     19.907232     39.235087
  H      40.402485     19.055109     39.920823
  C      40.486663     19.367132     37.873063
  H      41.213450     18.591639     37.615585
  C      39.633197     19.758629     36.959341
  C      38.650026     20.804808     37.240204
  H      38.078163     21.139886     36.397308
  C      38.476243     21.312304     38.435100
  H      37.751008     22.104777     38.631097
  C      39.235738     20.790225     39.601535
  H      39.629262     21.637622     40.249114
  O      38.289436     20.009342     40.428780
  H      38.812749     19.828276     41.253940
  C      39.664062     19.113239     35.568402
  O      40.571429     18.243661     35.478325
  O      38.752736     19.542346     34.674016
  C      39.388000     20.557000     43.513000
  H      39.587925     20.549885     44.584485
  H      38.653741     19.779040     43.279787
  H      38.946448     21.529037     43.250331
  N      40.630102     20.365470     42.743476
  H      40.937839     21.202783     42.231360
  C      41.461204     19.333800     42.711431
  N      41.188787     18.219455     43.362746
  H      40.335586     18.135087     43.890389
  H      41.744967     17.391250     43.225196
  N      42.560659     19.421966     41.978749
  H      42.530952     20.059213     41.159097
  H      43.223458     18.683322     41.897196
37
Coordinates from ORCA-job job E -836.415132856783
  C      42.223691     22.066566     37.902129
  H      42.116370     21.325973     37.120997
  H      42.512154     23.098072     37.649185
  C      41.997785     21.776366     39.191750
  C      42.092942     22.830620     40.306591
  O      42.744541     23.841807     40.081475
  O      41.469539     22.551462     41.363458
  O      41.667644     20.508138     39.629050
  C      40.410027     19.896042     39.257627
  H      40.357469     19.044946     39.954513
  C      40.393043     19.357670     37.871664
  H      41.109141     18.585914     37.596730
  C      39.501991     19.761217     36.941911
  C      38.566706     20.812090     37.287050
  H      37.981171     21.157949     36.449580
  C      38.450536     21.318353     38.533552
  H      37.755443     22.113425     38.765013
  C      39.211659     20.790314     39.654768
  H      39.635887     21.605944     40.261038
  O      38.276446     20.072879     40.466058
  H      38.775935     19.875517     41.248846
  C      39.470085     19.136375     35.515080
  O      40.289099     18.236705     35.273890
  O      38.607216     19.621994     34.730319
  C      39.388000     20.557000     43.513000
  H      39.587925     20.549885     44.584485
  H      38.651325     19.791288     43.280538
  H      38.953058     21.524190     43.250228
  N      40.626295     20.363305     42.745884
  H      40.933509     21.192334     42.224949
  C      41.460137     19.340235     42.712305
  N      41.191871     18.230568     43.359455
  H      40.338053     18.145016     43.880287
  H      41.747982     17.404010     43.215420
  N      42.557100     19.422022     41.979681
  H      42.528648     20.047709     41.165781
  H      43.211058     18.673738     41.903693
37
Coordinates from ORCA-job job E -836.414729400370
  C      42.268866     22.048855     37.891542
  H      42.175020     21.296316     37.106250
  H      42.568311     23.067893     37.655159
  C      42.017477     21.769614     39.190029
  C      42.105452     22.849566     40.298838
  O      42.771131     23.871247     40.009063
  O      41.465266     22.577457     41.371803
  O      41.681913     20.489230     39.642109
  C      40.430948     19.876130     39.249988
  H      40.370138     19.011833     39.956353
  C      40.447162     19.320716     37.859319
  H      41.179318     18.540239     37.609078
  C      39.569485     19.723295     36.895096
  C      38.580900     20.785755     37.165161
  H      37.987976     21.124986     36.282801
  C      38.421910     21.305379     38.396170
  H      37.682280     22.110001     38.579322
  C      39.212041     20.777418     39.602278
  H      39.602828     21.602701     40.211561
  O      38.293830     20.009369     40.439163
  H      38.798697     19.831204     41.243696
  C      39.586391     19.099300     35.490349
  O      40.439261     18.203405     35.319397
  O      38.751622     19.593303     34.745646
  C      39.388000     20.557000     43.513000
  H      39.587925     20.549885     44.584485
  H      38.656376     19.767762     43.275705
  H      38.938633     21.528796     43.252455
  N      40.630437     20.372085     42.746025
  H      40.939250     21.212219     42.222933
  C      41.464925     19.337737     42.721214
  N      41.200516     18.210451     43.381254
  H      40.347620     18.112628     43.910090
  H      41.748125     17.375711     43.250606
  N      42.554813     19.425153     41.985744
  H      42.533723     20.047165     41.174569
  H      43.228352     18.680483     41.898419
37
Coordinates from ORCA-job job E -836.410974497269
  C      42.264521     22.078391     37.844702
  H      42.148414     21.341273     37.023068
  H      42.576859     23.088204     37.621800
  C      42.012811     21.797256     39.155212
  C      42.125512     22.854053     40.309172
  O      42.802310     23.870136     40.037436
  O      41.482396     22.570648     41.381663
  O      41.660093     20.524367     39.591803
  C      40.385374     19.937733     39.203592
  H      40.291826     19.073538     39.907022
  C      40.379999     19.384755     37.786762
  H      41.066894     18.587385     37.494743
  C      39.565367     19.799638     36.863402
  C      38.619964     20.881365     37.166138
  H      38.076103     21.228261     36.312414
  C      38.441418     21.400683     38.390453
  H      37.733704     22.215418     38.599786
  C      39.189000     20.859821     39.584979
  H      39.592692     21.668370     40.215359
  O      38.237963     20.104629     40.422911
  H      38.765509     19.899380     41.250798
  C      39.566022     19.135831     35.396120
  O      40.382406     18.198172     35.222120
  O      38.723304     19.616011     34.591643
  C      39.388000     20.557000     43.513000
  H      39.587925     20.549885     44.584485
  H      38.647521     19.776185     43.275691
  H      38.943635     21.536670     43.261564
  N      40.621958     20.369384     42.730053
  H      40.935518     21.213985     42.214864
  C      41.444248     19.328121     42.682008
  N      41.173162     18.191565     43.336658
  H      40.324865     18.088864     43.880039
  H      41.706798     17.353868     43.195164
  N      42.529688     19.422511     41.928858
  H      42.510273     20.054736     41.120615
  H      43.205754     18.685721     41.817484
37
Coordinates from ORCA-job job E -836.417850481199
  C      42.274291     22.064539     37.935820
  H      42.165685     21.327906     37.134002
  H      42.578048     23.084289     37.705922
  C      42.022997     21.790065     39.202554
  C      42.118697     22.839086     40.343967
  O      42.767727     23.849233     40.113385
  O      41.483089     22.555081     41.391681
  O      41.681314     20.521296     39.627076
  C      40.423983     19.916896     39.237798
  H      40.352485     19.058148     39.936617
  C      40.421832     19.366487     37.842437
  H      41.127594     18.579742     37.566271
  C      39.557650     19.775234     36.892239
  C      38.608570     20.841001     37.207329
  H      38.037155     21.188434     36.354349
  C      38.458491     21.352776     38.442528
  H      37.753058     22.155412     38.659020
  C      39.220882     20.824459     39.611381
  H      39.628954     21.645378     40.229918
  O      38.279625     20.080040     40.438811
  H      38.788165     19.886814     41.246330
  C      39.547445     19.124326     35.439463
  O      40.371648     18.204966     35.249203
  O      38.692309     19.603281     34.635686
  C      39.388000     20.557000     43.513000
  H      39.587925     20.549885     44.584485
  H      38.654019     19.777847     43.274589
  H      38.945608     21.530036     43.254767
  N      40.627666     20.366690     42.743928
  H      40.939638     21.201185     42.228807
  C      41.454051     19.331862     42.706151
  N      41.180075     18.211117     43.354783
  H      40.327876     18.116624     43.883137
  H      41.721625     17.374761     43.217636
  N      42.547583     19.418907     41.966501
  H      42.525504     20.052182     41.156517
  H      43.217570     18.678906     41.871320
37
Coordinates from ORCA-job job E -836.419702761651
  C      42.249149     22.058833     37.895815
  H      42.143907     21.317125     37.101716
  H      42.545774     23.085708     37.651309
  C      42.006186     21.778454     39.188780
  C      42.103605     22.843974     40.315788
  O      42.758262     23.864220     40.049805
  O      41.469976     22.566750     41.378271
  O      41.673210     20.502081     39.632259
  C      40.419757     19.892629     39.250477
  H      40.353079     19.036719     39.952284
  C      40.425076     19.338759     37.865561
  H      41.140408     18.553823     37.596392
  C      39.550471     19.743714     36.916975
  C      38.584547     20.803167     37.217887
  H      37.997714     21.146044     36.356463
  C      38.435834     21.317407     38.449503
  H      37.719613     22.117516     38.661558
  C      39.211760     20.798170     39.618997
  H      39.615722     21.624411     40.231195
  O      38.285585     20.058007     40.454546
  H      38.787057     19.875716     41.249218
  C      39.548944     19.101839     35.500052
  O      40.394768     18.202263     35.337305
  O      38.689455     19.579057     34.725165
  C      39.388000     20.557000     43.513000
  H      39.587925     20.549885     44.584485
  H      38.658346     19.771552     43.276350
  H      38.940173     21.527245     43.252932
  N      40.628281     20.371429     42.743693
  H      40.935690     21.208856     42.223852
  C      41.457039     19.336386     42.710873
  N      41.187297     18.215729     43.363086
  H      40.336123     18.119681     43.890658
  H      41.732097     17.379188     43.227964
  N      42.546877     19.421891     41.973626
  H      42.523239     20.051622     41.161130
  H      43.218163     18.682225     41.883502
37
Coordinates from ORCA-job job E -836.418213633948
  C      42.238851     22.053963     37.899873
  H      42.139590     21.308426     37.123835
  H      42.536298     23.071873     37.670294
  C      41.992824     21.778586     39.170890
  C      42.089369     22.851351     40.283040
  O      42.752697     23.870191     39.999839
  O      41.461725     22.577568     41.356989
  O      41.662169     20.501055     39.612521
  C      40.401166     19.892126     39.235336
  H      40.333716     19.036053     39.947557
  C      40.395031     19.330968     37.842132
  H      41.108541     18.544041     37.575095
  C      39.532117     19.739495     36.892920
  C      38.568130     20.805028     37.187252
  H      37.984304     21.147048     36.318802
  C      38.423674     21.326196     38.426706
  H      37.703496     22.132135     38.627690
  C      39.199187     20.807484     39.601641
  H      39.612369     21.633876     40.198780
  O      38.269407     20.076039     40.450123
  H      38.789598     19.883168     41.254077
  C      39.523580     19.091526     35.458970
  O      40.334527     18.169226     35.255816
  O      38.691871     19.578690     34.698894
  C      39.388000     20.557000     43.513000
  H      39.587925     20.549885     44.584485
  H      38.660680     19.768327     43.278671
  H      38.935344     21.525205     43.253013
  N      40.628466     20.376669     42.741274
  H      40.932002     21.215548     42.212951
  C      41.465447     19.345146     42.709316
  N      41.206822     18.218221     43.368216
  H      40.355250     18.115628     43.897936
  H      41.754583     17.384015     43.228892
  N      42.550390     19.435570     41.962835
  H      42.520705     20.058876     41.145876
  H      43.224867     18.694349     41.872134
37
Coordinates from ORCA-job job E -836.419878664338
  C      42.237882     22.064180     37.903204
  H      42.129109     21.320165     37.116784
  H      42.535962     23.083430     37.670543
  C      42.000566     21.779374     39.185949
  C      42.099265     22.837424     40.310426
  O      42.752369     23.851997     40.058416
  O      41.473567     22.556333     41.373881
  O      41.668565     20.504701     39.618944
  C      40.408736     19.900128     39.236162
  H      40.341461     19.042163     39.940019
  C      40.405527     19.348198     37.845658
  H      41.122918     18.564940     37.582620
  C      39.547330     19.757125     36.902984
  C      38.581541     20.819213     37.197119
  H      38.003613     21.163503     36.339070
  C      38.434672     21.334539     38.432830
  H      37.714111     22.138747     38.631179
  C      39.206307     20.812772     39.602448
  H      39.620311     21.640033     40.202567
  O      38.273395     20.079860     40.442471
  H      38.791362     19.887171     41.249826
  C      39.553278     19.112631     35.479050
  O      40.380930     18.193823     35.290974
  O      38.707231     19.593425     34.682230
  C      39.388000     20.557000     43.513000
  H      39.587925     20.549885     44.584485
  H      38.656425     19.775530     43.276818
  H      38.944362     21.526967     43.252521
  N      40.627568     20.367463     42.744058
  H      40.933416     21.201079     42.220594
  C      41.458351     19.333925     42.706745
  N      41.191099     18.210124     43.357207
  H      40.337202     18.112209     43.882233
  H      41.734005     17.375662     43.212518
  N      42.546184     19.419984     41.960997
  H      42.519399     20.047056     41.149472
  H      43.214883     18.678111     41.868031
37
Coordinates from ORCA-job job E -836.419872176094
  C      42.225488     22.048616     37.881876
  H      42.106603     21.297492     37.089847
  H      42.526936     23.070245     37.636359
  C      41.990227     21.776542     39.173179
  C      42.096616     22.844728     40.297088
  O      42.751840     23.862870     40.027863
  O      41.471759     22.570994     41.366696
  O      41.658975     20.503442     39.614767
  C      40.401897     19.897831     39.241344
  H      40.337165     19.044710     39.945712
  C      40.398746     19.340388     37.855453
  H      41.112122     18.556299     37.585592
  C      39.522677     19.742439     36.903115
  C      38.562888     20.802000     37.210543
  H      37.981622     21.141816     36.358907
  C      38.416682     21.319280     38.437965
  H      37.704304     22.119268     38.650203
  C      39.198604     20.808129     39.611179
  H      39.611723     21.643274     40.208893
  O      38.275437     20.076562     40.460868
  H      38.782260     19.892561     41.250533
  C      39.520866     19.095815     35.483297
  O      40.367663     18.191205     35.318428
  O      38.667107     19.572438     34.699863
  C      39.388000     20.557000     43.513000
  H      39.587925     20.549885     44.584485
  H      38.660382     19.768828     43.276056
  H      38.935865     21.527055     43.254648
  N      40.629407     20.376676     42.741294
  H      40.932593     21.212782     42.217935
  C      41.462477     19.344417     42.704500
  N      41.198085     18.220587     43.355897
  H      40.345193     18.120203     43.881715
  H      41.742464     17.385952     43.211653
  N      42.548195     19.431846     41.958552
  H      42.517860     20.059134     41.143312
  H      43.219075     18.691837     41.866226
37
Coordinates from ORCA-job job E -836.419905395150
  C      42.236925     22.061869     37.891485
  H      42.124152     21.321867     37.094545
  H      42.532817     23.087063     37.649866
  C      41.997505     21.779706     39.179273
  C      42.102529     22.837233     40.312021
  O      42.756088     23.855243     40.051638
  O      41.476128     22.556927     41.377720
  O      41.663484     20.505718     39.612608
  C      40.402230     19.909051     39.234680
  H      40.330719     19.054202     39.933429
  C      40.399741     19.359848     37.845582
  H      41.112932     18.577297     37.572321
  C      39.530806     19.767266     36.902714
  C      38.565342     20.823883     37.207141
  H      37.964036     21.164751     36.332513
  C      38.424017     21.337701     38.444900
  H      37.703318     22.136082     38.651016
  C      39.201726     20.822179     39.610492
  H      39.615374     21.647503     40.208440
  O      38.273191     20.097068     40.459991
  H      38.786694     19.909720     41.258583
  C      39.527143     19.130277     35.481441
  O      40.365805     18.225903     35.304270
  O      38.670448     19.609567     34.704828
  C      39.388000     20.557000     43.513000
  H      39.587925     20.549885     44.584485
  H      38.656176     19.775154     43.277578
  H      38.941752     21.527868     43.255230
  N      40.625168     20.371038     42.739145
  H      40.930488     21.205381     42.215614
  C      41.449130     19.336377     42.695863
  N      41.176837     18.213904     43.341480
  H      40.323453     18.116036     43.865278
  H      41.713100     17.377354     43.191816
  N      42.532122     19.419878     41.946840
  H      42.506909     20.048222     41.136504
  H      43.199244     18.679933     41.849874
37
Coordinates from ORCA-job job E -836.419979330666
  C      42.230582     22.071444     37.900937
  H      42.127462     21.335573     37.113406
  H      42.515180     23.098901     37.662344
  C      41.994789     21.779311     39.179986
  C      42.091207     22.836581     40.303376
  O      42.735520     23.856819     40.043161
  O      41.468594     22.554007     41.369144
  O      41.668809     20.497972     39.616797
  C      40.407578     19.889322     39.231839
  H      40.335976     19.030158     39.939780
  C      40.408107     19.332067     37.841697
  H      41.127558     18.547495     37.582584
  C      39.547465     19.736784     36.895659
  C      38.580195     20.800409     37.185765
  H      38.005656     21.140939     36.332414
  C      38.431742     21.321452     38.419549
  H      37.713489     22.127143     38.618844
  C      39.206678     20.808118     39.591716
  H      39.621086     21.642686     40.182280
  O      38.279302     20.082479     40.443759
  H      38.797585     19.901440     41.253634
  C      39.551366     19.094066     35.478345
  O      40.377683     18.178915     35.289382
  O      38.702999     19.573298     34.692052
  C      39.388000     20.557000     43.513000
  H      39.587925     20.549885     44.584485
  H      38.658377     19.773044     43.277485
  H      38.941816     21.525605     43.251577
  N      40.627574     20.369140     42.744578
  H      40.929613     21.202057     42.214688
  C      41.458191     19.334164     42.708054
  N      41.191955     18.208637     43.357853
  H      40.335299     18.107832     43.876912
  H      41.734965     17.372572     43.210925
  N      42.542892     19.417994     41.960653
  H      42.511968     20.045561     41.146185
  H      43.216424     18.676638     41.871992
37
Coordinates from ORCA-job job E -836.419962642558
  C      42.221774     22.057982     37.886600
  H      42.095056     21.319457     37.085819
  H      42.525014     23.066274     37.661056
  C      41.994714     21.777738     39.176821
  C      42.109765     22.836059     40.307916
  O      42.769079     23.852329     40.049016
  O      41.485342     22.558103     41.375588
  O      41.659143     20.509535     39.608097
  C      40.404086     19.912934     39.228839
  H      40.334166     19.057890     39.929392
  C      40.404221     19.355665     37.846294
  H      41.122172     18.571698     37.584537
  C      39.533881     19.754535     36.896061
  C      38.566378     20.815753     37.189590
  H      37.983858     21.151973     36.335312
  C      38.419391     21.336971     38.417731
  H      37.698462     22.140507     38.615390
  C      39.203090     20.829349     39.593131
  H      39.618040     21.671472     40.183264
  O      38.280976     20.101934     40.448841
  H      38.794047     19.926579     41.249576
  C      39.531827     19.103516     35.470037
  O      40.362130     18.186284     35.279037
  O      38.684706     19.578149     34.680884
  C      39.388000     20.557000     43.513000
  H      39.587925     20.549885     44.584485
  H      38.658437     19.772901     43.274857
  H      38.940089     21.527240     43.254072
  N      40.627987     20.373374     42.740772
  H      40.932246     21.206884     42.217771
  C      41.456942     19.339681     42.692908
  N      41.188503     18.210855     43.332984
  H      40.331157     18.107399     43.853378
  H      41.729850     17.377610     43.174454
  N      42.541127     19.428462     41.941195
  H      42.508317     20.056996     41.130182
  H      43.211119     18.689617     41.843379
37
Coordinates from ORCA-job job E -836.419995611620
  C      42.223938     22.054369     37.882093
  H      42.106659     21.303017     37.093417
  H      42.516663     23.083473     37.630691
  C      41.993629     21.777006     39.170512
  C      42.098338     22.844180     40.291982
  O      42.750009     23.864355     40.022473
  O      41.476175     22.567709     41.361871
  O      41.665008     20.501145     39.610583
  C      40.404367     19.897940     39.235851
  H      40.333551     19.044498     39.941024
  C      40.397528     19.339790     37.846475
  H      41.111224     18.557069     37.577195
  C      39.526697     19.740692     36.900372
  C      38.566355     20.798787     37.207747
  H      37.971842     21.135401     36.342408
  C      38.423218     21.318403     38.437478
  H      37.708193     22.117393     38.644876
  C      39.206394     20.814255     39.606367
  H      39.623849     21.653061     40.192978
  O      38.286115     20.095923     40.463342
  H      38.790958     19.923059     41.253189
  C      39.528099     19.094140     35.483711
  O      40.377877     18.189840     35.323939
  O      38.674984     19.568939     34.695981
  C      39.388000     20.557000     43.513000
  H      39.587925     20.549885     44.584485
  H      38.659412     19.770548     43.277274
  H      38.936083     21.526784     43.254753
  N      40.629268     20.376471     42.741061
  H      40.929600     21.211146     42.210984
  C      41.461488     19.342434     42.701632
  N      41.195016     18.216258     43.348338
  H      40.337663     18.113438     43.865934
  H      41.736614     17.380431     43.198542
  N      42.545171     19.427737     41.952333
  H      42.512795     20.054815     41.137908
  H      43.217466     18.688784     41.861165
37
Coordinates from ORCA-job job E -836.419947291334
  C      42.226365     22.075057     37.878003
  H      42.113404     21.338379     37.083020
  H      42.519310     23.102347     37.638783
  C      41.992982     21.783897     39.164816
  C      42.101254     22.834519     40.301304
  O      42.755491     23.851118     40.044694
  O      41.479047     22.549304     41.368351
  O      41.658329     20.505830     39.596287
  C      40.391254     19.914840     39.212760
  H      40.314682     19.056858     39.909108
  C      40.387149     19.371337     37.820170
  H      41.103745     18.591996     37.547146
  C      39.508338     19.777939     36.873823
  C      38.544170     20.833058     37.182459
  H      37.960618     21.176528     36.331251
  C      38.405375     21.344715     38.422454
  H      37.693153     22.143128     38.639566
  C      39.191355     20.832169     39.586455
  H      39.613180     21.656304     40.170924
  O      38.262687     20.115829     40.451012
  H      38.786905     19.933930     41.261529
  C      39.500610     19.147795     35.455032
  O      40.340808     18.247294     35.280224
  O      38.641625     19.630414     34.684091
  C      39.388000     20.557000     43.513000
  H      39.587925     20.549885     44.584485
  H      38.654959     19.775458     43.280392
  H      38.942102     21.527298     43.254780
  N      40.623359     20.369229     42.737938
  H      40.925581     21.201736     42.206646
  C      41.444550     19.332168     42.691440
  N      41.170830     18.206926     43.334921
  H      40.315837     18.106682     43.854958
  H      41.700839     17.368075     43.179243
  N      42.521660     19.413095     41.934630
  H      42.492972     20.040941     41.123232
  H      43.190445     18.673331     41.835999
37
Coordinates from ORCA-job job E -836.420196299955
  C      42.217628     22.073026     37.888741
  H      42.103398     21.338793     37.096184
  H      42.504421     23.095961     37.654278
  C      41.991984     21.780867     39.171867
  C      42.097933     22.834958     40.300144
  O      42.744729     23.854613     40.043153
  O      41.477907     22.550924     41.367066
  O      41.664277     20.502140     39.606931
  C      40.404487     19.899169     39.221867
  H      40.329721     19.040651     39.927279
  C      40.406722     19.340201     37.836305
  H      41.126297     18.555490     37.577538
  C      39.544047     19.738604     36.892291
  C      38.572127     20.801012     37.177746
  H      37.988507     21.136586     36.317893
  C      38.421490     21.325245     38.404821
  H      37.698096     22.131134     38.597874
  C      39.205381     20.821524     39.579925
  H      39.623454     21.665729     40.161058
  O      38.284059     20.102461     40.443051
  H      38.800552     19.933284     41.250583
  C      39.542502     19.089792     35.470719
  O      40.363020     18.171576     35.271892
  O      38.692915     19.565011     34.685140
  C      39.388000     20.557000     43.513000
  H      39.587925     20.549885     44.584485
  H      38.658803     19.772412     43.276290
  H      38.940933     21.525937     43.252452
  N      40.627931     20.371093     42.743686
  H      40.927721     21.202598     42.212814
  C      41.456740     19.335253     42.700691
  N      41.187017     18.207116     43.342080
  H      40.327334     18.104174     43.855633
  H      41.726636     17.370784     43.185928
  N      42.539205     19.419244     41.949343
  H      42.504524     20.047489     41.135882
  H      43.212563     18.679797     41.857693
37
Coordinates from ORCA-job job E -836.420182479363
  C      42.230333     22.057540     37.889269
  H      42.110302     21.313470     37.093754
  H      42.525990     23.074694     37.655783
  C      42.001028     21.778425     39.173477
  C      42.111190     22.840553     40.300515
  O      42.763926     23.861664     40.036706
  O      41.488619     22.561307     41.369365
  O      41.667116     20.507498     39.604726
  C      40.403045     19.914550     39.228850
  H      40.324763     19.059130     39.931772
  C      40.396119     19.357554     37.838073
  H      41.113398     18.575107     37.572489
  C      39.526562     19.753732     36.891635
  C      38.566364     20.813966     37.196706
  H      37.981446     21.148575     36.339091
  C      38.428133     21.337173     38.435228
  H      37.715234     22.140134     38.643097
  C      39.209722     20.836136     39.604903
  H      39.631518     21.679015     40.190949
  O      38.287375     20.123964     40.468114
  H      38.795303     19.954565     41.262978
  C      39.536044     19.105561     35.475357
  O      40.385354     18.197246     35.303799
  O      38.686299     19.577855     34.681885
  C      39.388000     20.557000     43.513000
  H      39.587925     20.549885     44.584485
  H      38.659178     19.771702     43.274510
  H      38.937770     21.527734     43.255354
  N      40.628747     20.375778     42.739884
  H      40.928945     21.209196     42.211312
  C      41.457026     19.339401     42.690997
  N      41.187347     18.208166     43.329135
  H      40.327138     18.102402     43.844780
  H      41.727317     17.372669     43.168188
  N      42.539120     19.425849     41.936803
  H      42.505834     20.055673     41.126041
  H      43.211147     18.687988     41.841475
37
Coordinates from ORCA-job job E -836.420108583119
  C      42.223257     22.063834     37.876419
  H      42.107190     21.316600     37.085471
  H      42.512382     23.095294     37.625659
  C      41.995571     21.778604     39.169173
  C      42.101717     22.840321     40.295719
  O      42.751152     23.861873     40.025475
  O      41.481357     22.557368     41.365597
  O      41.665483     20.500713     39.604251
  C      40.405815     19.904773     39.224923
  H      40.335523     19.048460     39.922434
  C      40.402789     19.359434     37.839409
  H      41.122560     18.584091     37.565831
  C      39.518018     19.758389     36.894630
  C      38.549757     20.807484     37.207347
  H      37.950726     21.144228     36.350172
  C      38.403667     21.316999     38.429828
  H      37.679104     22.108723     38.639318
  C      39.202897     20.816913     39.593555
  H      39.621244     21.653996     40.169752
  O      38.289937     20.100969     40.463987
  H      38.805220     19.936727     41.260942
  C      39.507121     19.118572     35.467923
  O      40.354194     18.219261     35.292858
  O      38.645915     19.592163     34.691652
  C      39.388000     20.557000     43.513000
  H      39.587925     20.549885     44.584485
  H      38.657614     19.772790     43.277771
  H      38.939348     21.526741     43.254306
  N      40.626663     20.371730     42.741733
  H      40.924656     21.204124     42.205746
  C      41.452553     19.334158     42.698943
  N      41.180390     18.206857     43.341923
  H      40.321195     18.103722     43.855139
  H      41.712649     17.367731     43.187098
  N      42.531002     19.416203     41.943073
  H      42.498432     20.044433     41.130686
  H      43.205015     18.678924     41.848875
37
Coordinates from ORCA-job job E -836.420421294865
  C      42.210339     22.080789     37.877061
  H      42.093601     21.346286     37.083113
  H      42.497748     23.106223     37.640713
  C      41.988732     21.785741     39.164657
  C      42.097279     22.835408     40.297988
  O      42.742763     23.854973     40.043267
  O      41.481525     22.547217     41.366098
  O      41.661608     20.504951     39.599422
  C      40.400849     19.904244     39.214288
  H      40.322123     19.047688     39.920603
  C      40.403205     19.340272     37.826362
  H      41.122430     18.555562     37.567486
  C      39.534442     19.735631     36.877581
  C      38.561502     20.797311     37.162961
  H      37.976347     21.130499     36.302678
  C      38.416177     21.327039     38.394426
  H      37.697069     22.131996     38.591548
  C      39.204652     20.831249     39.569859
  H      39.623670     21.675425     40.140595
  O      38.287392     20.120416     40.444487
  H      38.807024     19.959988     41.255285
  C      39.532977     19.088816     35.464212
  O      40.366085     18.181407     35.286980
  O      38.678246     19.562735     34.686230
  C      39.388000     20.557000     43.513000
  H      39.587925     20.549885     44.584485
  H      38.658337     19.772933     43.277017
  H      38.940837     21.526091     43.253760
  N      40.627163     20.372260     42.742423
  H      40.925241     21.202954     42.209341
  C      41.451699     19.335485     42.695596
  N      41.176170     18.208537     43.330952
  H      40.314930     18.106414     43.839053
  H      41.708297     17.370296     43.170528
  N      42.530977     19.416502     41.941957
  H      42.496031     20.045150     41.129681
  H      43.204185     18.677775     41.848708
37
Coordinates from ORCA-job job E -836.420434181731
  C      42.225498     22.061706     37.877087
  H      42.104510     21.322761     37.082239
  H      42.517870     23.082976     37.642055
  C      41.998233     21.776889     39.157485
  C      42.107410     22.836628     40.283651
  O      42.754556     23.858841     40.019236
  O      41.490086     22.553875     41.355733
  O      41.661034     20.503382     39.586774
  C      40.390328     19.916330     39.207617
  H      40.312727     19.056964     39.902277
  C      40.380649     19.375611     37.815698
  H      41.100003     18.599427     37.542787
  C      39.507798     19.777199     36.879214
  C      38.542045     20.829157     37.190396
  H      37.952587     21.167738     36.339900
  C      38.404025     21.340185     38.429103
  H      37.686185     22.137865     38.640551
  C      39.195684     20.836034     39.589895
  H      39.626769     21.675259     40.167816
  O      38.272631     20.128308     40.461839
  H      38.788305     19.963868     41.265522
  C      39.508336     19.144089     35.453126
  O      40.344257     18.237520     35.251722
  O      38.651836     19.619807     34.668152
  C      39.388000     20.557000     43.513000
  H      39.587925     20.549885     44.584485
  H      38.655658     19.776405     43.276513
  H      38.941667     21.528011     43.255492
  N      40.625721     20.371105     42.738157
  H      40.921980     21.201589     42.200792
  C      41.452291     19.332903     42.688246
  N      41.183881     18.199502     43.329652
  H      40.323228     18.092424     43.845024
  H      41.720694     17.362215     43.165518
  N      42.528931     19.416803     41.925127
  H      42.492674     20.046842     41.111275
  H      43.201050     18.678420     41.830472
37
Coordinates from ORCA-job job E -836.420672456276
  C      42.217166     22.069353     37.878220
  H      42.098957     21.328472     37.084512
  H      42.502847     23.095218     37.637487
  C      41.996759     21.781049     39.166953
  C      42.106922     22.838428     40.296682
  O      42.753938     23.861644     40.030714
  O      41.490111     22.552989     41.366840
  O      41.668773     20.505307     39.599641
  C      40.410841     19.908474     39.218727
  H      40.332683     19.053615     39.924061
  C      40.412022     19.345514     37.833590
  H      41.133006     18.563848     37.572802
  C      39.538076     19.733591     36.882849
  C      38.570066     20.791602     37.179986
  H      37.979141     21.119176     36.319133
  C      38.423500     21.320171     38.406183
  H      37.702030     22.120279     38.605762
  C      39.216058     20.833973     39.579057
  H      39.634975     21.685689     40.147021
  O      38.304842     20.128483     40.458730
  H      38.819505     19.977454     41.258133
  C      39.544141     19.075987     35.466144
  O      40.394446     18.168984     35.302120
  O      38.693527     19.542077     34.674512
  C      39.388000     20.557000     43.513000
  H      39.587925     20.549885     44.584485
  H      38.658487     19.772317     43.275504
  H      38.938077     21.527229     43.255974
  N      40.628492     20.375788     42.741287
  H      40.925113     21.206515     42.206259
  C      41.453753     19.338748     42.691904
  N      41.177537     18.208501     43.323470
  H      40.313388     18.102940     43.829103
  H      41.709381     17.370710     43.158239
  N      42.532414     19.421699     41.935408
  H      42.498687     20.049447     41.126350
  H      43.205522     18.685802     41.839803
37
Coordinates from ORCA-job job E -836.420708881291
  C      42.206349     22.080145     37.860387
  H      42.088100     21.342348     37.065064
  H      42.497447     23.102391     37.626782
  C      41.985877     21.786791     39.149620
  C      42.097591     22.834896     40.286906
  O      42.740423     23.857099     40.028947
  O      41.485060     22.542751     41.356791
  O      41.657561     20.506497     39.582320
  C      40.391234     19.912617     39.201432
  H      40.312211     19.055096     39.902875
  C      40.386236     19.361259     37.811378
  H      41.106902     18.583720     37.542003
  C      39.505722     19.757390     36.870544
  C      38.531424     20.808794     37.172510
  H      37.934128     21.142391     36.317247
  C      38.392232     21.327732     38.403004
  H      37.669369     22.123976     38.609520
  C      39.196577     20.836301     39.569961
  H      39.624066     21.678690     40.133528
  O      38.283881     20.133882     40.457354
  H      38.793253     19.997225     41.265768
  C      39.496124     19.118793     35.452125
  O      40.335591     18.218810     35.268879
  O      38.630492     19.590503     34.680225
  C      39.388000     20.557000     43.513000
  H      39.587925     20.549885     44.584485
  H      38.657308     19.773399     43.279455
  H      38.940592     21.526784     43.254704
  N      40.624522     20.371083     42.739383
  H      40.919349     21.200154     42.199058
  C      41.447840     19.331872     42.690906
  N      41.173344     18.200970     43.327388
  H      40.310167     18.094828     43.833462
  H      41.703024     17.360705     43.164043
  N      42.523125     19.412721     41.930278
  H      42.484765     20.043405     41.115658
  H      43.201432     18.675676     41.838846
37
Coordinates from ORCA-job job E -836.420762832825
  C      42.201038     22.069671     37.860177
  H      42.075276     21.330726     37.066335
  H      42.482872     23.102140     37.610966
  C      41.988254     21.779544     39.147093
  C      42.101208     22.835457     40.274863
  O      42.746785     23.857678     40.010095
  O      41.490777     22.548333     41.348660
  O      41.658983     20.503105     39.579470
  C      40.398864     19.912393     39.195459
  H      40.315012     19.059405     39.895936
  C      40.402894     19.350289     37.812755
  H      41.124133     18.568853     37.553020
  C      39.528743     19.739240     36.865708
  C      38.554359     20.796188     37.155731
  H      37.963536     21.123316     36.299094
  C      38.413119     21.328712     38.384902
  H      37.693001     22.130692     38.583364
  C      39.209461     20.847475     39.553946
  H      39.635966     21.700440     40.108216
  O      38.296260     20.157652     40.447839
  H      38.814671     20.027645     41.265072
  C      39.527417     19.089635     35.450024
  O      40.364599     18.184542     35.267519
  O      38.667603     19.556119     34.667827
  C      39.388000     20.557000     43.513000
  H      39.587925     20.549885     44.584485
  H      38.659711     19.770197     43.279322
  H      38.936508     21.525622     43.254886
  N      40.626883     20.376156     42.739418
  H      40.919983     21.205029     42.198629
  C      41.452516     19.338911     42.688035
  N      41.177658     18.206022     43.318835
  H      40.311572     18.097786     43.820451
  H      41.707938     17.367680     43.148305
  N      42.526505     19.420953     41.924881
  H      42.486513     20.048588     41.110418
  H      43.202335     18.684467     41.832144
37
Coordinates from ORCA-job job E -836.420765984949
  C      42.248872     22.080399     37.890741
  H      42.136924     21.343323     37.094263
  H      42.531415     23.104965     37.658763
  C      42.025039     21.787279     39.173846
  C      42.127064     22.841056     40.304328
  O      42.770880     23.866712     40.048380
  O      41.507103     22.549539     41.369899
  O      41.696264     20.509976     39.602101
  C      40.429018     19.916929     39.217080
  H      40.344295     19.057922     39.922156
  C      40.425375     19.359804     37.823936
  H      41.146839     18.580922     37.560549
  C      39.550109     19.744080     36.877514
  C      38.581397     20.796974     37.178828
  H      37.989506     21.122194     36.320813
  C      38.432805     21.322081     38.405547
  H      37.709321     22.119517     38.605968
  C      39.231511     20.841249     39.578544
  H      39.652129     21.697215     40.144556
  O      38.320390     20.140547     40.465748
  H      38.830843     20.021192     41.282270
  C      39.558307     19.090382     35.460013
  O      40.402937     18.182895     35.281244
  O      38.703636     19.552045     34.670256
  C      39.388000     20.557000     43.513000
  H      39.587925     20.549885     44.584485
  H      38.656014     19.774242     43.276439
  H      38.940480     21.528262     43.256809
  N      40.629188     20.374314     42.740723
  H      40.924945     21.205195     42.205463
  C      41.450705     19.333387     42.682995
  N      41.164716     18.197770     43.299348
  H      40.293199     18.089846     43.793613
  H      41.693761     17.358906     43.124987
  N      42.531962     19.414869     41.928308
  H      42.504819     20.044797     41.127522
  H      43.203992     18.681546     41.831776
37
Coordinates from ORCA-job job E -836.420966626191
  C      42.198968     22.076744     37.854547
  H      42.082172     21.338239     37.061978
  H      42.482199     23.097218     37.622826
  C      41.988709     21.783021     39.143309
  C      42.101260     22.834956     40.277562
  O      42.741093     23.861050     40.012465
  O      41.491907     22.542900     41.350671
  O      41.667022     20.504765     39.576450
  C      40.405330     19.909652     39.198719
  H      40.323410     19.058341     39.904695
  C      40.403982     19.344432     37.815745
  H      41.129102     18.567317     37.555299
  C      39.522689     19.720793     36.871035
  C      38.544802     20.770194     37.164903
  H      37.944303     21.087131     36.307489
  C      38.405552     21.305284     38.390815
  H      37.679363     22.099927     38.590259
  C      39.214299     20.840033     39.558607
  H      39.639986     21.699461     40.103365
  O      38.314649     20.156112     40.463432
  H      38.828559     20.043652     41.267748
  C      39.523031     19.057642     35.458061
  O      40.378023     18.158015     35.291888
  O      38.662741     19.513032     34.670421
  C      39.388000     20.557000     43.513000
  H      39.587925     20.549885     44.584485
  H      38.657712     19.774210     43.277764
  H      38.938219     21.526116     43.257286
  N      40.626776     20.376853     42.739667
  H      40.917097     21.204867     42.195868
  C      41.453584     19.339247     42.688192
  N      41.178994     18.202501     43.316156
  H      40.310063     18.089496     43.812941
  H      41.708952     17.363810     43.143351
  N      42.527731     19.423736     41.924727
  H      42.486728     20.052918     41.109792
  H      43.209056     18.691480     41.833710
37
Coordinates from ORCA-job job E -836.421082507850
  C      42.210968     22.077413     37.856817
  H      42.088010     21.338811     37.057952
  H      42.488178     23.110193     37.610190
  C      42.000456     21.785061     39.146168
  C      42.110115     22.835908     40.280731
  O      42.750236     23.861675     40.021519
  O      41.499575     22.540919     41.351486
  O      41.677447     20.506836     39.577388
  C      40.414543     19.914360     39.196644
  H      40.330414     19.062208     39.901390
  C      40.415716     19.350428     37.812868
  H      41.142471     18.574469     37.552894
  C      39.531411     19.726704     36.868747
  C      38.544434     20.771688     37.157001
  H      37.943177     21.088589     36.301678
  C      38.405411     21.306372     38.383311
  H      37.676701     22.100133     38.581099
  C      39.220744     20.843993     39.555127
  H      39.646246     21.704226     40.097165
  O      38.320024     20.159252     40.469478
  H      38.831145     20.063648     41.284143
  C      39.528455     19.071699     35.457082
  O      40.374795     18.175348     35.279471
  O      38.658333     19.525343     34.680062
  C      39.388000     20.557000     43.513000
  H      39.587925     20.549885     44.584485
  H      38.658462     19.771477     43.278911
  H      38.936762     21.526269     43.256658
  N      40.626931     20.376977     42.739529
  H      40.918046     21.205398     42.196779
  C      41.449723     19.337603     42.684926
  N      41.166974     18.201148     43.304280
  H      40.294982     18.090043     43.793754
  H      41.692337     17.361239     43.128073
  N      42.525196     19.419755     41.924693
  H      42.487604     20.049794     41.112820
  H      43.206347     18.687532     41.833997
37
Coordinates from ORCA-job job E -836.421249344677
  C      42.185416     22.079377     37.838114
  H      42.058427     21.341834     37.044273
  H      42.461659     23.106754     37.597337
  C      41.988460     21.783762     39.127186
  C      42.103653     22.834506     40.259292
  O      42.743149     23.859943     39.996687
  O      41.499970     22.539508     41.334667
  O      41.670141     20.504723     39.561796
  C      40.406207     19.908616     39.183501
  H      40.320909     19.060274     39.895601
  C      40.407823     19.332731     37.802244
  H      41.134728     18.555493     37.547699
  C      39.524271     19.699205     36.853394
  C      38.543765     20.746864     37.142878
  H      37.940645     21.053894     36.283740
  C      38.399936     21.292619     38.360298
  H      37.670821     22.087803     38.552113
  C      39.215651     20.846803     39.530769
  H      39.645652     21.718460     40.053723
  O      38.320049     20.181321     40.457518
  H      38.843642     20.094398     41.275720
  C      39.527730     19.034348     35.446840
  O      40.379127     18.139528     35.275215
  O      38.659774     19.481229     34.662730
  C      39.388000     20.557000     43.513000
  H      39.587925     20.549885     44.584485
  H      38.660298     19.769421     43.279145
  H      38.933325     21.524664     43.257323
  N      40.627592     20.381772     42.738718
  H      40.914649     21.208253     42.191137
  C      41.454155     19.345762     42.682609
  N      41.173851     18.206314     43.298242
  H      40.299549     18.090776     43.783715
  H      41.699584     17.368019     43.114630
  N      42.526181     19.430470     41.917102
  H      42.484818     20.055893     41.103252
  H      43.206932     18.699327     41.826235
37
Coordinates from ORCA-job job E -836.421472309071
  C      42.203134     22.080082     37.844413
  H      42.087391     21.341019     37.052790
  H      42.472758     23.106726     37.607460
  C      42.004714     21.783698     39.132664
  C      42.112067     22.836625     40.264226
  O      42.744657     23.867522     40.000521
  O      41.505449     22.539118     41.336943
  O      41.691529     20.504231     39.567473
  C      40.429425     19.905189     39.188505
  H      40.341859     19.060081     39.902563
  C      40.435279     19.323051     37.810278
  H      41.168226     18.549218     37.562132
  C      39.549588     19.672504     36.860225
  C      38.557064     20.712682     37.137814
  H      37.951596     21.006702     36.278041
  C      38.412640     21.267167     38.354787
  H      37.677118     22.056960     38.541278
  C      39.234553     20.840502     39.529519
  H      39.658622     21.722244     40.044458
  O      38.347826     20.181005     40.466300
  H      38.868869     20.115714     41.280403
  C      39.558731     18.988746     35.456134
  O      40.420228     18.094998     35.296153
  O      38.691896     19.420365     34.662332
  C      39.388000     20.557000     43.513000
  H      39.587925     20.549885     44.584485
  H      38.659578     19.771517     43.276762
  H      38.933863     21.525038     43.259407
  N      40.629221     20.384020     42.739920
  H      40.913716     21.211544     42.191551
  C      41.456480     19.347263     42.682347
  N      41.173092     18.203556     43.290536
  H      40.294224     18.083644     43.768531
  H      41.699186     17.365267     43.103243
  N      42.530686     19.433944     41.919347
  H      42.492330     20.060271     41.108616
  H      43.215002     18.707531     41.830505
37
Coordinates from ORCA-job job E -836.421710054587
  C      42.192624     22.077510     37.832776
  H      42.071310     21.337650     37.037847
  H      42.456972     23.105905     37.591378
  C      42.003127     21.782755     39.123279
  C      42.111602     22.835201     40.256467
  O      42.741448     23.868091     39.992968
  O      41.508126     22.534719     41.329957
  O      41.695959     20.503996     39.559653
  C      40.435795     19.899715     39.183594
  H      40.348992     19.059957     39.905434
  C      40.445014     19.305554     37.810007
  H      41.184406     18.535431     37.569038
  C      39.554236     19.636697     36.857945
  C      38.550526     20.668285     37.126580
  H      37.938910     20.946338     36.265352
  C      38.404505     21.234920     38.337212
  H      37.661103     22.019147     38.516341
  C      39.237567     20.834333     39.514714
  H      39.660853     21.727577     40.008616
  O      38.362523     20.189423     40.471828
  H      38.888917     20.143261     41.279515
  C      39.568468     18.939714     35.462372
  O      40.438646     18.053774     35.311111
  O      38.695810     19.355226     34.666748
  C      39.388000     20.557000     43.513000
  H      39.587925     20.549885     44.584485
  H      38.661349     19.770173     43.274679
  H      38.931352     21.524072     43.260440
  N      40.630454     20.388387     42.741005
  H      40.910928     21.214942     42.189933
  C      41.460354     19.353587     42.682977
  N      41.176109     18.206492     43.284272
  H      40.293614     18.082220     43.753711
  H      41.701167     17.368943     43.091174
  N      42.534278     19.443708     41.920043
  H      42.492956     20.069401     41.107231
  H      43.224485     18.720960     41.834245
37
Coordinates from ORCA-job job E -836.422085981995
  C      42.190069     22.077246     37.819090
  H      42.074443     21.332553     37.026507
  H      42.443789     23.110038     37.572725
  C      42.008317     21.782542     39.113054
  C      42.107911     22.837144     40.245370
  O      42.725660     23.877366     39.982477
  O      41.508964     22.529364     41.319399
  O      41.712762     20.501081     39.554267
  C      40.459739     19.882372     39.176949
  H      40.374176     19.052135     39.909144
  C      40.484654     19.268059     37.814469
  H      41.236607     18.505034     37.588824
  C      39.585407     19.564071     36.855667
  C      38.558477     20.578520     37.103568
  H      37.938716     20.827425     36.237528
  C      38.404332     21.166865     38.302908
  H      37.646819     21.940605     38.467590
  C      39.250272     20.811155     39.486592
  H      39.666075     21.724046     39.949777
  O      38.392199     20.185617     40.476304
  H      38.928317     20.175256     41.278146
  C      39.610144     18.843153     35.475210
  O      40.492940     17.972225     35.339365
  O      38.725229     19.227212     34.676140
  C      39.388000     20.557000     43.513000
  H      39.587925     20.549885     44.584485
  H      38.665100     19.767159     43.269761
  H      38.927985     21.522899     43.260649
  N      40.633080     20.393337     42.744814
  H      40.905783     21.220607     42.189645
  C      41.466119     19.360007     42.687923
  N      41.178180     18.208474     43.278704
  H      40.290298     18.079289     43.734214
  H      41.701423     17.371182     43.079523
  N      42.540987     19.453705     41.927930
  H      42.498273     20.080370     41.113084
  H      43.239768     18.737431     41.848842
37
Coordinates from ORCA-job job E -836.422494838796
  C      42.177672     22.073807     37.802808
  H      42.061262     21.327160     37.010860
  H      42.420919     23.109949     37.550483
  C      42.007643     21.780491     39.098497
  C      42.101525     22.836647     40.229497
  O      42.708745     23.882336     39.967301
  O      41.508849     22.522528     41.304970
  O      41.723214     20.498747     39.544227
  C      40.477088     19.863500     39.168880
  H      40.395029     19.045361     39.915375
  C      40.515427     19.224238     37.817603
  H      41.281220     18.470315     37.609429
  C      39.610488     19.481129     36.853051
  C      38.561062     20.477171     37.080550
  H      37.934470     20.692453     36.210801
  C      38.396779     21.090264     38.265749
  H      37.622504     21.851859     38.411971
  C      39.256787     20.785879     39.454965
  H      39.666161     21.719087     39.878743
  O      38.417812     20.187249     40.477745
  H      38.968632     20.210814     41.271495
  C      39.649583     18.731903     35.487945
  O      40.550033     17.878212     35.370588
  O      38.758349     19.082177     34.681413
  C      39.388000     20.557000     43.513000
  H      39.587925     20.549885     44.584485
  H      38.670123     19.764902     43.264224
  H      38.924352     21.520938     43.260822
  N      40.634871     20.399758     42.748035
  H      40.898897     21.226718     42.188071
  C      41.472291     19.370873     42.690629
  N      41.183549     18.213988     43.271194
  H      40.291210     18.078143     43.715663
  H      41.705872     17.378859     43.062703
  N      42.546880     19.470854     41.930738
  H      42.502157     20.096368     41.114318
  H      43.252500     18.760852     41.856334
37
Coordinates from ORCA-job job E -836.423172527348
  C      42.174871     22.067284     37.788941
  H      42.064322     21.317262     36.999567
  H      42.402000     23.106536     37.530618
  C      42.016677     21.777309     39.084850
  C      42.094757     22.837331     40.212262
  O      42.682242     23.893794     39.950423
  O      41.508322     22.513634     41.287846
  O      41.750747     20.495178     39.538423
  C      40.520568     19.826873     39.163854
  H      40.444519     19.029955     39.934970
  C      40.587356     19.145012     37.833426
  H      41.377957     18.408963     37.657387
  C      39.675455     19.331423     36.860109
  C      38.591100     20.296191     37.053983
  H      37.956783     20.452055     36.177451
  C      38.403962     20.951270     38.212629
  H      37.602817     21.690742     38.327317
  C      39.279787     20.733331     39.408837
  H      39.672095     21.698002     39.770772
  O      38.469990     20.178272     40.478434
  H      39.041676     20.260853     41.260698
  C      39.743446     18.529937     35.524257
  O      40.672432     17.704088     35.440433
  O      38.845242     18.819120     34.701454
  C      39.388000     20.557000     43.513000
  H      39.587925     20.549885     44.584485
  H      38.680767     19.759936     43.253446
  H      38.918518     21.518181     43.259974
  N      40.638907     20.409763     42.755130
  H      40.888966     21.237629     42.190009
  C      41.483571     19.387489     42.698213
  N      41.192909     18.222585     43.262609
  H      40.293709     18.077412     43.690541
  H      41.716399     17.391122     43.042764
  N      42.561575     19.497493     41.943899
  H      42.517066     20.123164     41.127707
  H      43.277767     18.797393     41.879124
37
Coordinates from ORCA-job job E -836.424187391684
  C      42.157425     22.048014     37.756216
  H      42.053632     21.289613     36.977417
  H      42.359337     23.089929     37.484563
  C      42.023843     21.766670     39.055193
  C      42.081046     22.836949     40.172367
  O      42.642508     23.905921     39.906616
  O      41.505373     22.503520     41.251679
  O      41.788505     20.487040     39.527149
  C      40.583867     19.766495     39.166405
  H      40.522497     19.008875     39.976607
  C      40.691436     19.016785     37.874941
  H      41.519284     18.313971     37.746099
  C      39.771445     19.091290     36.896711
  C      38.632662     19.999875     37.040467
  H      37.986861     20.059653     36.162185
  C      38.413515     20.719840     38.153200
  H      37.571078     21.418762     38.220435
  C      39.313274     20.645427     39.350461
  H      39.678475     21.653474     39.603775
  O      38.545130     20.177192     40.489964
  H      39.137416     20.352598     41.247515
  C      39.884245     18.213811     35.611749
  O      40.858376     17.439670     35.575601
  O      38.975602     18.404626     34.773002
  C      39.388000     20.557000     43.513000
  H      39.587925     20.549885     44.584485
  H      38.699537     19.750503     43.239977
  H      38.903395     21.510936     43.260061
  N      40.644408     20.432676     42.764124
  H      40.873231     21.259977     42.188190
  C      41.502497     19.424881     42.710407
  N      41.211879     18.249369     43.251994
  H      40.303454     18.089517     43.654954
  H      41.737749     17.426208     43.013539
  N      42.583008     19.552199     41.962724
  H      42.539632     20.172705     41.146216
  H      43.310224     18.867262     41.910479
37
Coordinates from ORCA-job job E -836.425648008430
  C      42.160088     22.001721     37.721104
  H      42.077918     21.227705     36.966714
  H      42.327396     23.039979     37.431677
  C      42.053840     21.739701     39.023365
  C      42.066928     22.832511     40.115650
  O      42.586196     23.919371     39.836934
  O      41.497880     22.491862     41.198169
  O      41.869212     20.468922     39.529634
  C      40.717423     19.655521     39.201008
  H      40.680894     18.973019     40.072968
  C      40.900630     18.797421     37.987127
  H      41.785697     18.161905     37.930360
  C      39.976059     18.677814     37.023345
  C      38.755423     19.483464     37.093548
  H      38.101324     19.377225     36.229585
  C      38.477119     20.306260     38.118271
  H      37.572774     20.925912     38.115336
  C      39.398439     20.472205     39.288380
  H      39.702949     21.529995     39.359111
  O      38.693034     20.158381     40.510585
  H      39.299260     20.489958     41.213994
  C      40.166329     17.673743     35.838761
  O      41.208911     16.990537     35.877481
  O      39.250116     17.692249     34.987954
  C      39.388000     20.557000     43.513000
  H      39.587925     20.549885     44.584485
  H      38.736799     19.731804     43.219347
  H      38.877067     21.497660     43.259021
  N      40.653285     20.472222     42.777836
  H      40.848673     21.300001     42.187433
  C      41.536436     19.488765     42.733267
  N      41.251153     18.296306     43.242498
  H      40.330131     18.112904     43.611952
  H      41.789802     17.488583     42.983049
  N      42.628111     19.647391     42.006674
  H      42.593449     20.263236     41.195120
  H      43.369243     18.984753     41.976116
37
Coordinates from ORCA-job job E -836.425200461718
  C      42.173671     21.925066     37.705120
  H      42.099166     21.118074     36.974327
  H      42.284382     22.963541     37.360244
  C      42.111788     21.712102     39.019060
  C      42.085597     22.833841     40.084812
  O      42.561427     23.936287     39.794311
  O      41.513464     22.484501     41.164852
  O      41.987725     20.462457     39.588433
  C      40.900305     19.546088     39.339123
  H      40.889061     18.977472     40.291161
  C      41.161949     18.547393     38.251015
  H      42.110189     18.005200     38.274256
  C      40.240289     18.175750     37.351039
  C      38.936928     18.839497     37.347378
  H      38.274486     18.519842     36.542704
  C      38.596890     19.789988     38.231571
  H      37.629133     20.301589     38.160612
  C      39.530748     20.278037     39.305377
  H      39.766330     21.333015     39.107685
  O      38.868103     20.247984     40.600551
  H      39.457306     20.756217     41.234460
  C      40.517942     17.022301     36.335010
  O      41.622986     16.466931     36.448183
  O      39.592636     16.815202     35.519909
  C      39.388000     20.557000     43.513000
  H      39.587925     20.549885     44.584485
  H      38.771362     19.717413     43.193926
  H      38.833824     21.474390     43.265641
  N      40.666859     20.541198     42.810119
  H      40.825302     21.358965     42.195484
  C      41.583402     19.590392     42.798865
  N      41.297949     18.376596     43.251008
  H      40.355280     18.159585     43.530353
  H      41.853907     17.590379     42.968624
  N      42.689411     19.790826     42.115630
  H      42.648922     20.397630     41.301649
  H      43.470532     19.171584     42.130469
37
Coordinates from ORCA-job job E -836.428699810543
  C      41.991824     21.954730     37.605518
  H      41.895810     21.162995     36.881396
  H      42.103981     22.986570     37.285314
  C      41.976977     21.713964     38.913350
  C      41.977794     22.828158     39.983701
  O      42.450284     23.930905     39.674991
  O      41.439471     22.479986     41.087879
  O      41.882165     20.459266     39.467414
  C      40.794322     19.530101     39.232428
  H      40.804625     18.970335     40.181368
  C      41.055604     18.536226     38.142584
  H      42.019553     18.024279     38.142359
  C      40.119575     18.142388     37.272189
  C      38.798379     18.775023     37.302549
  H      38.124244     18.429452     36.522657
  C      38.458340     19.724190     38.188345
  H      37.480501     20.210562     38.145938
  C      39.415831     20.247094     39.217449
  H      39.626661     21.305120     38.969311
  O      38.832516     20.223240     40.525750
  H      39.484067     20.727572     41.074508
  C      40.403765     16.989042     36.256757
  O      41.526494     16.449471     36.354551
  O      39.471875     16.758263     35.451579
  C      39.388000     20.557000     43.513000
  H      39.587925     20.549885     44.584485
  H      38.793374     19.701531     43.195708
  H      38.829148     21.472014     43.264957
  N      40.657137     20.546142     42.780144
  H      40.787395     21.365881     42.159715
  C      41.589927     19.615851     42.737619
  N      41.335566     18.400082     43.187264
  H      40.405723     18.175267     43.506333
  H      41.890515     17.628437     42.872894
  N      42.675437     19.837779     42.018492
  H      42.618483     20.443157     41.200930
  H      43.440446     19.211453     41.997892
37
Coordinates from ORCA-job job E -836.431611314107
  C      41.910315     21.963582     37.550001
  H      41.799315     21.170034     36.817807
  H      42.019844     22.997478     37.229500
  C      41.913852     21.712629     38.861161
  C      41.923065     22.824598     39.935377
  O      42.390891     23.921640     39.628513
  O      41.398909     22.478151     41.044877
  O      41.830201     20.452920     39.398389
  C      40.728003     19.541446     39.147034
  H      40.715404     18.968828     40.093765
  C      40.987500     18.558282     38.050565
  H      41.945534     18.034562     38.034202
  C      40.039591     18.169593     37.181716
  C      38.721483     18.810925     37.221946
  H      38.035580     18.467445     36.447065
  C      38.393407     19.759959     38.113394
  H      37.408529     20.245490     38.083773
  C      39.365190     20.284998     39.123819
  H      39.586404     21.336097     38.852862
  O      38.786619     20.288798     40.439621
  H      39.434294     20.791000     40.973028
  C      40.304733     17.012934     36.159495
  O      41.423213     16.459985     36.258330
  O      39.364019     16.797411     35.361653
  C      39.388000     20.557000     43.513000
  H      39.587925     20.549885     44.584485
  H      38.793116     19.694565     43.209552
  H      38.823284     21.468569     43.271079
  N      40.648917     20.554191     42.760659
  H      40.766213     21.370030     42.130993
  C      41.597374     19.631552     42.709765
  N      41.372973     18.399928     43.164172
  H      40.446218     18.151341     43.488930
  H      41.938183     17.630059     42.841739
  N      42.669884     19.866935     41.969820
  H      42.594441     20.469141     41.138555
  H      43.452124     19.243720     41.942489
37
Coordinates from ORCA-job job E -836.435668936221
  C      41.775840     21.911778     37.512213
  H      41.653371     21.086467     36.797483
  H      41.848912     22.941795     37.160750
  C      41.835892     21.688455     38.832350
  C      41.831782     22.833412     39.875071
  O      42.260981     23.937983     39.532482
  O      41.330163     22.495600     40.996499
  O      41.816831     20.434609     39.393585
  C      40.746546     19.465847     39.194939
  H      40.749311     18.952115     40.183477
  C      41.043293     18.428993     38.161377
  H      42.039782     17.978948     38.136820
  C      40.079951     17.883486     37.392196
  C      38.707479     18.401759     37.452823
  H      38.003122     17.926014     36.767640
  C      38.360855     19.413912     38.270249
  H      37.341302     19.817647     38.270671
  C      39.352618     20.134983     39.124700
  H      39.490938     21.131741     38.668469
  O      38.855394     20.327811     40.443982
  H      39.519670     20.908030     40.850716
  C      40.368588     16.657527     36.473168
  O      41.511664     16.174983     36.564364
  O      39.395986     16.304058     35.764084
  C      39.388000     20.557000     43.513000
  H      39.587925     20.549885     44.584485
  H      38.815745     19.679306     43.197607
  H      38.794699     21.450332     43.283549
  N      40.648826     20.599649     42.763871
  H      40.713053     21.404144     42.118044
  C      41.637276     19.710793     42.708299
  N      41.445660     18.460142     43.111222
  H      40.516628     18.177520     43.385671
  H      42.026702     17.713119     42.755365
  N      42.703001     19.990913     41.976899
  H      42.592056     20.590579     41.145136
  H      43.522249     19.402063     41.948896
37
Coordinates from ORCA-job job E -836.439622986942
  C      41.647544     21.818186     37.477103
  H      41.543664     20.960457     36.798164
  H      41.671625     22.837375     37.083633
  C      41.749404     21.642419     38.803385
  C      41.727587     22.827785     39.804862
  O      42.104021     23.933861     39.413300
  O      41.244889     22.508599     40.939984
  O      41.803160     20.411316     39.410528
  C      40.780454     19.382977     39.296749
  H      40.794874     18.955595     40.324865
  C      41.122045     18.274767     38.356024
  H      42.149043     17.898168     38.315226
  C      40.161559     17.555849     37.736573
  C      38.754976     17.965973     37.843576
  H      38.044585     17.341330     37.291306
  C      38.379019     19.051014     38.549312
  H      37.339571     19.383428     38.594001
  C      39.368542     19.978658     39.186825
  H      39.414047     20.872491     38.534417
  O      38.907160     20.404037     40.476236
  H      39.504935     21.108224     40.764234
  C      40.488875     16.241357     36.966936
  O      41.664534     15.837893     37.053161
  O      39.502096     15.729979     36.380139
  C      39.388000     20.557000     43.513000
  H      39.587925     20.549885     44.584485
  H      38.858604     19.655523     43.189141
  H      38.749270     21.419441     43.295764
  N      40.637908     20.665819     42.763301
  H      40.644209     21.452907     42.099944
  C      41.660800     19.817117     42.711574
  N      41.496970     18.553298     43.068573
  H      40.569422     18.242905     43.296586
  H      42.087338     17.833608     42.683716
  N      42.718982     20.143616     41.998032
  H      42.576132     20.740249     41.169428
  H      43.564449     19.591707     41.967733
37
Coordinates from ORCA-job job E -836.442751527514
  C      41.520624     21.784575     37.417868
  H      41.416791     20.918440     36.750274
  H      41.509565     22.801497     37.010801
  C      41.662608     21.626932     38.743494
  C      41.640817     22.823505     39.729608
  O      41.993500     23.931391     39.320998
  O      41.180196     22.510393     40.876471
  O      41.759449     20.407070     39.365924
  C      40.760385     19.360410     39.295470
  H      40.790248     18.968464     40.334858
  C      41.109582     18.223880     38.389309
  H      42.149220     17.885856     38.319784
  C      40.149741     17.433667     37.860750
  C      38.734280     17.793025     38.024842
  H      38.022384     17.105290     37.556202
  C      38.351141     18.904632     38.684681
  H      37.299022     19.196471     38.772645
  C      39.340383     19.918513     39.186441
  H      39.334315     20.744289     38.444342
  O      38.931179     20.457892     40.443663
  H      39.554063     21.176413     40.645527
  C      40.490417     16.093370     37.151180
  O      41.683565     15.736781     37.207052
  O      39.497111     15.518516     36.642809
  C      39.388000     20.557000     43.513000
  H      39.587925     20.549885     44.584485
  H      38.848163     19.654423     43.201009
  H      38.739894     21.414648     43.297676
  N      40.631408     20.688260     42.748293
  H      40.601688     21.465115     42.068813
  C      41.673593     19.864725     42.680281
  N      41.538223     18.585902     43.011980
  H      40.615160     18.247858     43.232898
  H      42.135732     17.886952     42.595087
  N      42.713673     20.224424     41.951973
  H      42.546332     20.816756     41.126775
  H      43.563483     19.691190     41.900676
37
Coordinates from ORCA-job job E -836.444726165740
  C      41.428611     21.761598     37.337127
  H      41.349053     20.905410     36.665382
  H      41.386071     22.780275     36.937176
  C      41.573445     21.611723     38.658679
  C      41.538225     22.810270     39.632418
  O      41.871346     23.917839     39.203309
  O      41.109676     22.519107     40.800044
  O      41.700435     20.393706     39.287463
  C      40.693097     19.362407     39.208527
  H      40.717338     18.939125     40.231041
  C      41.033847     18.246585     38.270989
  H      42.076964     17.927676     38.171494
  C      40.076671     17.455200     37.754090
  C      38.665690     17.794678     37.966475
  H      37.954971     17.096560     37.518863
  C      38.282167     18.890977     38.645426
  H      37.224015     19.161479     38.768151
  C      39.277301     19.925038     39.115217
  H      39.266598     20.748252     38.370937
  O      38.872465     20.462229     40.370785
  H      39.519091     21.170011     40.560379
  C      40.420752     16.131094     37.012892
  O      41.630664     15.808147     37.028652
  O      39.431649     15.550713     36.515653
  C      39.388000     20.557000     43.513000
  H      39.587925     20.549885     44.584485
  H      38.820081     19.659417     43.220112
  H      38.738497     21.419537     43.294893
  N      40.627264     20.686626     42.727540
  H      40.572652     21.453503     42.033416
  C      41.669231     19.872627     42.633225
  N      41.539804     18.593334     42.948187
  H      40.621373     18.250933     43.177183
  H      42.128122     17.906911     42.504191
  N      42.695182     20.243967     41.888255
  H      42.508412     20.829931     41.062893
  H      43.538656     19.713169     41.811930
37
Coordinates from ORCA-job job E -836.446762272091
  C      41.410693     21.689906     37.313871
  H      41.349741     20.818311     36.662432
  H      41.354131     22.695133     36.898414
  C      41.559500     21.576365     38.637953
  C      41.498544     22.791784     39.580652
  O      41.809645     23.895530     39.127738
  O      41.079289     22.512515     40.756849
  O      41.712154     20.381236     39.299452
  C      40.732160     19.325628     39.274358
  H      40.783220     18.944248     40.321819
  C      41.080639     18.179495     38.381113
  H      42.132869     17.899440     38.261512
  C      40.133104     17.330644     37.948306
  C      38.720746     17.636213     38.207762
  H      38.017024     16.886273     37.845026
  C      38.331510     18.765142     38.830542
  H      37.270556     19.006278     38.985700
  C      39.305629     19.857393     39.173680
  H      39.252164     20.608399     38.359088
  O      38.937853     20.503884     40.385986
  H      39.578035     21.247768     40.501917
  C      40.492887     15.977487     37.264945
  O      41.714233     15.698443     37.243417
  O      39.507299     15.336528     36.841070
  C      39.388000     20.557000     43.513000
  H      39.587925     20.549885     44.584485
  H      38.835136     19.657085     43.214323
  H      38.726485     21.410387     43.298318
  N      40.621097     20.707119     42.725659
  H      40.547537     21.460206     42.016835
  C      41.675680     19.909349     42.629650
  N      41.561839     18.620942     42.925784
  H      40.643370     18.261119     43.140911
  H      42.160392     17.948999     42.468530
  N      42.698308     20.305102     41.890812
  H      42.500245     20.888382     41.073224
  H      43.552401     19.786598     41.811271
37
Coordinates from ORCA-job job E -836.448388784526
  C      41.329748     21.649397     37.273866
  H      41.293575     20.762224     36.638682
  H      41.239386     22.648056     36.840405
  C      41.489958     21.566183     38.599028
  C      41.412886     22.795344     39.524608
  O      41.690033     23.898720     39.050634
  O      41.016334     22.523187     40.709695
  O      41.675017     20.388281     39.279100
  C      40.704913     19.321025     39.293524
  H      40.773527     18.955425     40.344116
  C      41.049030     18.157288     38.414579
  H      42.101590     17.902639     38.256628
  C      40.107268     17.265509     38.053714
  C      38.701216     17.541250     38.376833
  H      38.001293     16.752537     38.089572
  C      38.310568     18.686641     38.967309
  H      37.256767     18.909836     39.167793
  C      39.266370     19.825994     39.198940
  H      39.173975     20.514565     38.334834
  O      38.924995     20.553949     40.374813
  H      39.549813     21.318184     40.439486
  C      40.470110     15.903194     37.398351
  O      41.688346     15.648969     37.320066
  O      39.478740     15.215537     37.054998
  C      39.388000     20.557000     43.513000
  H      39.587925     20.549885     44.584485
  H      38.847500     19.649177     43.211157
  H      38.710369     21.398155     43.307261
  N      40.611787     20.738752     42.720244
  H      40.510521     21.472162     41.998837
  C      41.679069     19.959764     42.615576
  N      41.583663     18.666460     42.891231
  H      40.670432     18.292591     43.093540
  H      42.182574     18.011651     42.412382
  N      42.683366     20.377537     41.868781
  H      42.456714     20.953868     41.050228
  H      43.545269     19.876436     41.776683
37
Coordinates from ORCA-job job E -836.449943954698
  C      41.241978     21.556900     37.214659
  H      41.241837     20.648332     36.608143
  H      41.116118     22.539922     36.757753
  C      41.408829     21.522588     38.541325
  C      41.290907     22.778992     39.422661
  O      41.517125     23.873688     38.909466
  O      40.933275     22.530444     40.623226
  O      41.638559     20.367058     39.252500
  C      40.676334     19.289389     39.313219
  H      40.770265     18.931968     40.366182
  C      41.012509     18.124546     38.437342
  H      42.060742     17.913448     38.211578
  C      40.080648     17.191208     38.158991
  C      38.694163     17.422016     38.592104
  H      38.009551     16.591264     38.408835
  C      38.306543     18.582313     39.156129
  H      37.263109     18.766688     39.436367
  C      39.227901     19.764704     39.235875
  H      39.091547     20.363019     38.310181
  O      38.906373     20.581673     40.352388
  H      39.517133     21.356652     40.341855
  C      40.444983     15.830543     37.495713
  O      41.662301     15.630090     37.310849
  O      39.460367     15.096069     37.247530
  C      39.388000     20.557000     43.513000
  H      39.587925     20.549885     44.584485
  H      38.858646     19.635378     43.215491
  H      38.695245     21.386891     43.312789
  N      40.604588     20.772475     42.712438
  H      40.471049     21.475056     41.971544
  C      41.691014     20.018812     42.590130
  N      41.622643     18.716584     42.831751
  H      40.714826     18.323425     43.022440
  H      42.224182     18.085570     42.321924
  N      42.673628     20.472375     41.833962
  H      42.410809     21.037823     41.021172
  H      43.544149     19.984861     41.716993
37
Coordinates from ORCA-job job E -836.450357796968
  C      41.271687     21.444980     37.147203
  H      41.357860     20.522331     36.569637
  H      41.104059     22.406743     36.655156
  C      41.376090     21.471265     38.481099
  C      41.190163     22.754306     39.322823
  O      41.351641     23.835347     38.757516
  O      40.857358     22.538220     40.538433
  O      41.622403     20.351560     39.239031
  C      40.661934     19.278966     39.320565
  H      40.774593     18.901205     40.368607
  C      40.980870     18.116597     38.421050
  H      42.023390     17.942215     38.143723
  C      40.057263     17.167125     38.165346
  C      38.693396     17.366148     38.670461
  H      38.024658     16.509635     38.543153
  C      38.301833     18.529784     39.224332
  H      37.270527     18.691017     39.546357
  C      39.196996     19.739446     39.248928
  H      39.047467     20.312048     38.307303
  O      38.871481     20.578282     40.337700
  H      39.440912     21.389734     40.305477
  C      40.421030     15.832873     37.452088
  O      41.622239     15.675088     37.171312
  O      39.446348     15.062111     37.268221
  C      39.388000     20.557000     43.513000
  H      39.587925     20.549885     44.584485
  H      38.897867     19.626432     43.202704
  H      38.670323     21.366683     43.328500
  N      40.591413     20.804927     42.712447
  H      40.446894     21.476909     41.946274
  C      41.682408     20.059179     42.586714
  N      41.635409     18.751769     42.832241
  H      40.737154     18.339355     43.036008
  H      42.243172     18.126529     42.322099
  N      42.645069     20.527618     41.819221
  H      42.357164     21.077911     41.002665
  H      43.514107     20.050228     41.680620
37
Coordinates from ORCA-job job E -836.450977626433
  C      41.160757     21.429642     37.129943
  H      41.225797     20.504981     36.553676
  H      40.974426     22.385412     36.633139
  C      41.307083     21.458413     38.458746
  C      41.131842     22.746758     39.293817
  O      41.272186     23.827350     38.719025
  O      40.822590     22.535419     40.514690
  O      41.579842     20.338970     39.213263
  C      40.637475     19.260579     39.317626
  H      40.768491     18.898593     40.362547
  C      40.950418     18.093366     38.420504
  H      41.980443     17.930682     38.095527
  C      40.034980     17.127148     38.214179
  C      38.692062     17.304071     38.781410
  H      38.039010     16.431577     38.702313
  C      38.297963     18.467661     39.331815
  H      37.281259     18.621073     39.702278
  C      39.170900     19.698977     39.276472
  H      38.984228     20.212282     38.308184
  O      38.871072     20.578110     40.339704
  H      39.464488     21.365377     40.263144
  C      40.388717     15.788781     37.497155
  O      41.580889     15.659884     37.157099
  O      39.419852     15.004850     37.362441
  C      39.388000     20.557000     43.513000
  H      39.587925     20.549885     44.584485
  H      38.902871     19.615366     43.210482
  H      38.664987     21.364155     43.323571
  N      40.596367     20.819131     42.712950
  H      40.438461     21.484368     41.945627
  C      41.697683     20.091022     42.576221
  N      41.660876     18.787106     42.799838
  H      40.766341     18.373989     43.003615
  H      42.260749     18.177012     42.266017
  N      42.644814     20.574565     41.796285
  H      42.331424     21.118135     40.978639
  H      43.514036     20.097510     41.641455
37
Coordinates from ORCA-job job E -836.450587597551
  C      41.234358     21.388075     37.159673
  H      41.324044     20.457291     36.591981
  H      41.062787     22.337806     36.654333
  C      41.342553     21.421251     38.491639
  C      41.145903     22.716160     39.316364
  O      41.262836     23.791261     38.728117
  O      40.847885     22.510776     40.539142
  O      41.603507     20.295530     39.248097
  C      40.664149     19.197080     39.314079
  H      40.778280     18.804551     40.360328
  C      41.006410     18.071820     38.383415
  H      42.041521     17.933070     38.061494
  C      40.093273     17.111283     38.123119
  C      38.732782     17.257163     38.670240
  H      38.084808     16.385661     38.549723
  C      38.320336     18.406419     39.246642
  H      37.298214     18.553197     39.602392
  C      39.200185     19.621051     39.255123
  H      39.052855     20.158804     38.291878
  O      38.857110     20.457911     40.346065
  H      39.450154     21.225471     40.299912
  C      40.457440     15.806473     37.353188
  O      41.647565     15.687615     37.013083
  O      39.491206     15.019238     37.191303
  C      39.388000     20.557000     43.513000
  H      39.587925     20.549885     44.584485
  H      38.871764     19.623420     43.222946
  H      38.695233     21.383194     43.313034
  N      40.616017     20.793402     42.727350
  H      40.474474     21.462551     41.967049
  C      41.702825     20.043827     42.584048
  N      41.642321     18.737854     42.803837
  H      40.741504     18.338159     43.016306
  H      42.227655     18.115432     42.269639
  N      42.654807     20.519338     41.799243
  H      42.347269     21.076487     40.993237
  H      43.514539     20.029908     41.628455
37
Coordinates from ORCA-job job E -836.451552762383
  C      41.204949     21.402728     37.149889
  H      41.268615     20.466867     36.585433
  H      41.038331     22.348860     36.635005
  C      41.330716     21.439265     38.479550
  C      41.153800     22.734975     39.302930
  O      41.291317     23.812882     38.722770
  O      40.844430     22.528672     40.525106
  O      41.590187     20.320621     39.251971
  C      40.654200     19.230696     39.351528
  H      40.781555     18.869336     40.396330
  C      40.975360     18.078772     38.445699
  H      42.003249     17.928354     38.104856
  C      40.060174     17.114707     38.226165
  C      38.713474     17.278824     38.788265
  H      38.065028     16.406111     38.698698
  C      38.311557     18.440277     39.341025
  H      37.287066     18.581455     39.715827
  C      39.189001     19.664847     39.306131
  H      39.016419     20.173969     38.330111
  O      38.857883     20.529534     40.373136
  H      39.440978     21.320708     40.312735
  C      40.415533     15.788854     37.488157
  O      41.608566     15.673366     37.139149
  O      39.448639     15.004558     37.351359
  C      39.388000     20.557000     43.513000
  H      39.587925     20.549885     44.584485
  H      38.924552     19.600412     43.214664
  H      38.655352     21.356354     43.314073
  N      40.605695     20.826943     42.727172
  H      40.460963     21.499346     41.963261
  C      41.704296     20.095832     42.595939
  N      41.664243     18.792226     42.823583
  H      40.769525     18.380959     43.039525
  H      42.265738     18.176907     42.294928
  N      42.653686     20.574333     41.816180
  H      42.346569     21.121538     41.006364
  H      43.512345     20.083358     41.650670
37
Coordinates from ORCA-job job E -836.451636287941
  C      41.246006     21.344541     37.142074
  H      41.362167     20.415426     36.585785
  H      41.049448     22.280694     36.615602
  C      41.341077     21.394112     38.476144
  C      41.117141     22.686611     39.286334
  O      41.217326     23.757405     38.689330
  O      40.814078     22.493295     40.512616
  O      41.612937     20.294333     39.253916
  C      40.693082     19.203035     39.350289
  H      40.829308     18.834747     40.393444
  C      41.010054     18.048330     38.437940
  H      42.032851     17.907930     38.079742
  C      40.104264     17.073446     38.231638
  C      38.765209     17.230459     38.810999
  H      38.127165     16.344524     38.740054
  C      38.354792     18.390828     39.357146
  H      37.342709     18.541328     39.738158
  C      39.222520     19.627942     39.310175
  H      39.033398     20.143778     38.342844
  O      38.924129     20.502088     40.378594
  H      39.524191     21.287705     40.298272
  C      40.467645     15.753807     37.488469
  O      41.652931     15.649582     37.113073
  O      39.513017     14.950498     37.376992
  C      39.388000     20.557000     43.513000
  H      39.587925     20.549885     44.584485
  H      38.927132     19.612772     43.203077
  H      38.662175     21.357112     43.316939
  N      40.608525     20.816155     42.734864
  H      40.467585     21.484335     41.964962
  C      41.705050     20.077008     42.607069
  N      41.669876     18.770792     42.849749
  H      40.779370     18.356719     43.077253
  H      42.272128     18.150863     42.328355
  N      42.654119     20.552066     41.823754
  H      42.337216     21.097252     41.009379
  H      43.514695     20.064071     41.653571
37
Coordinates from ORCA-job job E -836.452266149521
  C      41.220079     21.350240     37.136974
  H      41.323994     20.412901     36.585697
  H      41.034809     22.282892     36.602620
  C      41.316321     21.402692     38.469740
  C      41.104232     22.698538     39.281360
  O      41.208160     23.771639     38.686372
  O      40.806745     22.503079     40.509517
  O      41.582668     20.301606     39.252570
  C      40.664497     19.203791     39.349350
  H      40.804916     18.837351     40.394944
  C      40.981643     18.057714     38.429333
  H      41.999994     17.926244     38.053495
  C      40.074268     17.083749     38.222184
  C      38.736610     17.230589     38.809766
  H      38.100739     16.345165     38.738500
  C      38.326262     18.390017     39.359008
  H      37.314040     18.533713     39.750775
  C      39.193570     19.625867     39.312321
  H      39.008383     20.129374     38.336628
  O      38.878099     20.495330     40.378192
  H      39.473308     21.283161     40.310293
  C      40.429295     15.768504     37.464898
  O      41.609626     15.672705     37.075140
  O      39.473479     14.964408     37.360369
  C      39.388000     20.557000     43.513000
  H      39.587925     20.549885     44.584485
  H      38.945680     19.598339     43.210810
  H      38.648864     21.346068     43.312243
  N      40.607336     20.836426     42.736779
  H      40.465257     21.508794     41.969999
  C      41.705349     20.105217     42.605793
  N      41.674010     18.801251     42.847971
  H      40.786954     18.386591     43.085608
  H      42.270949     18.183740     42.320128
  N      42.644837     20.581531     41.812692
  H      42.324150     21.125206     41.001434
  H      43.497888     20.086315     41.629812
37
Coordinates from ORCA-job job E -836.452733793494
  C      41.243805     21.289103     37.149902
  H      41.365315     20.341546     36.618013
  H      41.058359     22.207408     36.593563
  C      41.317211     21.361647     38.482618
  C      41.087493     22.667576     39.274489
  O      41.180201     23.735008     38.667385
  O      40.793590     22.486774     40.504913
  O      41.585612     20.273352     39.285773
  C      40.678275     19.162865     39.388882
  H      40.824204     18.800061     40.431937
  C      41.001135     18.023212     38.463765
  H      42.009192     17.907852     38.056525
  C      40.104469     17.034839     38.274647
  C      38.773519     17.164270     38.883933
  H      38.154044     16.266668     38.833260
  C      38.350545     18.324188     39.423383
  H      37.341106     18.453368     39.836529
  C      39.204050     19.568354     39.354999
  H      39.011984     20.051234     38.368213
  O      38.874847     20.446013     40.410994
  H      39.467290     21.233695     40.341806
  C      40.463466     15.725937     37.509483
  O      41.634077     15.652877     37.086142
  O      39.521383     14.902605     37.437432
  C      39.388000     20.557000     43.513000
  H      39.587925     20.549885     44.584485
  H      38.969564     19.586004     43.210326
  H      38.636453     21.332931     43.305791
  N      40.612790     20.854945     42.750681
  H      40.472371     21.531545     41.989253
  C      41.714950     20.128685     42.618726
  N      41.691504     18.825024     42.859754
  H      40.808754     18.406170     43.108796
  H      42.291082     18.209411     42.329192
  N      42.651053     20.607278     41.823809
  H      42.319829     21.149243     41.018697
  H      43.496744     20.104555     41.623847
37
Coordinates from ORCA-job job E -836.453249162952
  C      41.235763     21.206345     37.139067
  H      41.382008     20.248078     36.628739
  H      41.043233     22.105014     36.554168
  C      41.279304     21.304054     38.471713
  C      41.017665     22.615557     39.240319
  O      41.076141     23.672873     38.611668
  O      40.738387     22.450822     40.478397
  O      41.559106     20.236791     39.299283
  C      40.675355     19.107730     39.407096
  H      40.838487     18.750460     40.453109
  C      41.003615     17.977709     38.472832
  H      41.996724     17.893588     38.019914
  C      40.120502     16.972439     38.305948
  C      38.801417     17.074402     38.949496
  H      38.203573     16.161444     38.927268
  C      38.364346     18.235217     39.476854
  H      37.366037     18.353303     39.918363
  C      39.197356     19.492152     39.379292
  H      38.994937     19.947890     38.380639
  O      38.855768     20.380252     40.422471
  H      39.453251     21.165051     40.356420
  C      40.477829     15.674892     37.521153
  O      41.628706     15.634716     37.043863
  O      39.557484     14.824493     37.495595
  C      39.388000     20.557000     43.513000
  H      39.587925     20.549885     44.584485
  H      39.003023     19.572715     43.213234
  H      38.614882     21.308238     43.299284
  N      40.610803     20.889400     42.762485
  H      40.463133     21.571272     42.003830
  C      41.718662     20.176446     42.629866
  N      41.712543     18.875095     42.886829
  H      40.842308     18.450884     43.163333
  H      42.302996     18.260032     42.350908
  N      42.635415     20.655451     41.814606
  H      42.286557     21.188585     41.011747
  H      43.464252     20.142192     41.584294
37
Coordinates from ORCA-job job E -836.453707580460
  C      41.234079     21.105731     37.140619
  H      41.411344     20.141505     36.655960
  H      41.024274     21.985624     36.534055
  C      41.255527     21.232569     38.472336
  C      40.958087     22.552769     39.212097
  O      40.989923     23.599542     38.563289
  O      40.688641     22.407570     40.454369
  O      41.551623     20.191796     39.323021
  C      40.688405     19.048884     39.440490
  H      40.867024     18.698992     40.485069
  C      41.022916     17.917507     38.506668
  H      42.002144     17.851425     38.023302
  C      40.156927     16.893582     38.367752
  C      38.848707     16.976998     39.039483
  H      38.272710     16.049475     39.048274
  C      38.394887     18.139059     39.548475
  H      37.405456     18.247717     40.007891
  C      39.204533     19.411102     39.417993
  H      38.990175     19.845787     38.411548
  O      38.856481     20.313669     40.446880
  H      39.460859     21.096285     40.385212
  C      40.517699     15.598296     37.580475
  O      41.648595     15.586037     37.057317
  O      39.622362     14.721100     37.600330
  C      39.388000     20.557000     43.513000
  H      39.587925     20.549885     44.584485
  H      39.023462     19.565932     43.206546
  H      38.600124     21.291511     43.297055
  N      40.610941     20.915409     42.772749
  H      40.453198     21.602536     42.024048
  C      41.729940     20.218945     42.633677
  N      41.747754     18.919168     42.896656
  H      40.888399     18.483501     43.189401
  H      42.340645     18.310635     42.353508
  N      42.635035     20.705792     41.810058
  H      42.262243     21.229119     41.009750
  H      43.457380     20.187581     41.557905
37
Coordinates from ORCA-job job E -836.454134077046
  C      41.257873     21.036945     37.129021
  H      41.453646     20.073165     36.654843
  H      41.040464     21.911010     36.516487
  C      41.257679     21.176289     38.459698
  C      40.933518     22.503067     39.179123
  O      40.950386     23.541145     38.517040
  O      40.659534     22.369498     40.423272
  O      41.561624     20.149473     39.327480
  C      40.706167     18.999965     39.447497
  H      40.888875     18.654085     40.491029
  C      41.045743     17.864807     38.519375
  H      42.021121     17.806288     38.028414
  C      40.191350     16.828696     38.398808
  C      38.888677     16.908789     39.079826
  H      38.323859     15.973861     39.106273
  C      38.424902     18.072509     39.574422
  H      37.437326     18.173029     40.039242
  C      39.220079     19.351128     39.426002
  H      38.996276     19.782422     38.420120
  O      38.876748     20.260343     40.447788
  H      39.490524     21.036366     40.387629
  C      40.561614     15.532435     37.618847
  O      41.685680     15.532077     37.077270
  O      39.684501     14.637990     37.663498
  C      39.388000     20.557000     43.513000
  H      39.587925     20.549885     44.584485
  H      39.028845     19.568044     43.198358
  H      38.589666     21.281100     43.302626
  N      40.605261     20.933618     42.771485
  H      40.436150     21.625463     42.028888
  C      41.733211     20.247453     42.629929
  N      41.767869     18.950584     42.907947
  H      40.916377     18.508292     43.213815
  H      42.359903     18.340991     42.364988
  N      42.634965     20.736349     41.801733
  H      42.252402     21.254105     41.001011
  H      43.451122     20.213480     41.537635
37
Coordinates from ORCA-job job E -836.454477146194
  C      41.272522     20.981159     37.114132
  H      41.466731     20.019103     36.644041
  H      41.051602     21.855708     36.503991
  C      41.268332     21.129236     38.444887
  C      40.932837     22.465980     39.141344
  O      40.954538     23.495944     38.466959
  O      40.642925     22.344128     40.381697
  O      41.569173     20.111311     39.321642
  C      40.715389     18.962644     39.450382
  H      40.903495     18.625424     40.498006
  C      41.058687     17.818393     38.535243
  H      42.033604     17.764050     38.043653
  C      40.213200     16.773929     38.435188
  C      38.918714     16.851991     39.129538
  H      38.361297     15.911949     39.178031
  C      38.448077     18.017790     39.608132
  H      37.465041     18.119168     40.072738
  C      39.225482     19.303271     39.431171
  H      38.990426     19.720064     38.421948
  O      38.881156     20.223890     40.441282
  H      39.497691     20.997715     40.380456
  C      40.586091     15.474223     37.664374
  O      41.699048     15.483074     37.098076
  O      39.723407     14.568405     37.734730
  C      39.388000     20.557000     43.513000
  H      39.587925     20.549885     44.584485
  H      39.040497     19.566904     43.188924
  H      38.574605     21.266571     43.312039
  N      40.591318     20.958942     42.764453
  H      40.408219     21.650199     42.026289
  C      41.731682     20.291063     42.618692
  N      41.790398     18.997496     42.908483
  H      40.945805     18.543849     43.221552
  H      42.386647     18.392295     42.361552
  N      42.630799     20.788636     41.789123
  H      42.241857     21.297210     40.986669
  H      43.441176     20.259541     41.515958
37
Coordinates from ORCA-job job E -836.454676198045
  C      41.277196     20.893671     37.102060
  H      41.486370     19.928637     36.640760
  H      41.041614     21.760225     36.485556
  C      41.263470     21.061375     38.429540
  C      40.904264     22.407582     39.099990
  O      40.904393     23.421327     38.402323
  O      40.611372     22.303925     40.343506
  O      41.581788     20.063883     39.328709
  C      40.744728     18.909787     39.477259
  H      40.933927     18.590833     40.532461
  C      41.099332     17.749738     38.588390
  H      42.075095     17.695667     38.098354
  C      40.268568     16.689512     38.525505
  C      38.980813     16.769093     39.231612
  H      38.436463     15.825401     39.314811
  C      38.496532     17.944638     39.678256
  H      37.511913     18.040427     40.147523
  C      39.252948     19.232271     39.453266
  H      39.005185     19.619269     38.434872
  O      38.903771     20.181685     40.435065
  H      39.511119     20.961040     40.360316
  C      40.651860     15.373581     37.786140
  O      41.753890     15.385374     37.198839
  O      39.807913     14.453854     37.900784
  C      39.388000     20.557000     43.513000
  H      39.587925     20.549885     44.584485
  H      39.042576     19.566956     43.183405
  H      38.567045     21.259468     43.321267
  N      40.583245     20.975863     42.758885
  H      40.383942     21.663559     42.024693
  C      41.733017     20.325638     42.604485
  N      41.811144     19.035181     42.897438
  H      40.973369     18.571561     43.213104
  H      42.405949     18.436301     42.344052
  N      42.626573     20.836598     41.774798
  H      42.225884     21.339096     40.974528
  H      43.433670     20.310866     41.489962
37
Coordinates from ORCA-job job E -836.454887952349
  C      41.355370     20.876827     37.100603
  H      41.563150     19.910167     36.637655
  H      41.141806     21.751136     36.486973
  C      41.318092     21.038370     38.428047
  C      40.965456     22.388899     39.094587
  O      40.992189     23.401284     38.396273
  O      40.646653     22.293684     40.333450
  O      41.610735     20.035949     39.331911
  C      40.769064     18.885105     39.472929
  H      40.943237     18.562905     40.528766
  C      41.128407     17.722962     38.588160
  H      42.110179     17.666558     38.110572
  C      40.298546     16.661940     38.520848
  C      39.005716     16.743115     39.214543
  H      38.458636     15.801030     39.293241
  C      38.516498     17.919611     39.655375
  H      37.524301     18.014286     40.113052
  C      39.276688     19.205619     39.439004
  H      39.033862     19.596547     38.421815
  O      38.919951     20.147098     40.424959
  H      39.528043     20.924839     40.357159
  C      40.689577     15.343362     37.788166
  O      41.792880     15.356574     37.204340
  O      39.848228     14.420589     37.905470
  C      39.388000     20.557000     43.513000
  H      39.587925     20.549885     44.584485
  H      39.051128     19.563520     43.183365
  H      38.561048     21.254037     43.325771
  N      40.577849     20.986883     42.758825
  H      40.380697     21.678855     42.025253
  C      41.725794     20.334729     42.608002
  N      41.804167     19.047216     42.914057
  H      40.965962     18.586951     43.232228
  H      42.397388     18.442666     42.366137
  N      42.626837     20.841368     41.786202
  H      42.236314     21.346230     40.984862
  H      43.430380     20.307092     41.502914
37
Coordinates from ORCA-job job E -836.455147212339
  C      41.380105     20.798739     37.096766
  H      41.595149     19.825742     36.644800
  H      41.165497     21.667503     36.474308
  C      41.340173     20.974478     38.423620
  C      40.975225     22.330150     39.067784
  O      41.005916     23.332808     38.355634
  O      40.646634     22.253093     40.303867
  O      41.636844     19.986581     39.340815
  C      40.808129     18.829848     39.496631
  H      40.978274     18.522190     40.556664
  C      41.178281     17.657571     38.632631
  H      42.166420     17.602419     38.166332
  C      40.355843     16.590788     38.577400
  C      39.058732     16.669774     39.263701
  H      38.515545     15.724819     39.351919
  C      38.557398     17.847982     39.685085
  H      37.560974     17.948530     40.126986
  C      39.311894     19.136431     39.456086
  H      39.071746     19.509629     38.431818
  O      38.938562     20.087594     40.429985
  H      39.538264     20.872703     40.360935
  C      40.762648     15.266087     37.865555
  O      41.863426     15.285657     37.277640
  O      39.931936     14.336985     37.999585
  C      39.388000     20.557000     43.513000
  H      39.587925     20.549885     44.584485
  H      39.059239     19.557629     43.187341
  H      38.557054     21.251604     43.326835
  N      40.575325     20.994825     42.756956
  H      40.373089     21.688285     42.024412
  C      41.729490     20.354735     42.603966
  N      41.828521     19.069656     42.918725
  H      40.996486     18.600574     43.238325
  H      42.428110     18.470100     42.370396
  N      42.627917     20.873194     41.788372
  H      42.234442     21.375660     40.987319
  H      43.431124     20.339581     41.502031
37
Coordinates from ORCA-job job E -836.455465105356
  C      41.461972     20.643083     37.093603
  H      41.709139     19.666188     36.668161
  H      41.245036     21.498774     36.451631
  C      41.398892     20.846734     38.416443
  C      41.001296     22.213801     39.016773
  O      41.033898     23.196206     38.275726
  O      40.654391     22.173881     40.249385
  O      41.701765     19.888965     39.360479
  C      40.896092     18.722206     39.541089
  H      41.059537     18.441735     40.611933
  C      41.286612     17.533189     38.713329
  H      42.283764     17.472947     38.269222
  C      40.477839     16.454797     38.679881
  C      39.173818     16.533184     39.351376
  H      38.640400     15.584464     39.457517
  C      38.651681     17.714311     39.736425
  H      37.644746     17.812263     40.156086
  C      39.394613     19.005744     39.485852
  H      39.159315     19.349372     38.449737
  O      38.998225     19.972534     40.435394
  H      39.580206     20.769924     40.351352
  C      40.913400     15.118045     38.007604
  O      42.008353     15.146576     37.412335
  O      40.104653     14.174897     38.176695
  C      39.388000     20.557000     43.513000
  H      39.587925     20.549885     44.584485
  H      39.069864     19.551940     43.193988
  H      38.553772     21.249965     43.328833
  N      40.570756     21.003542     42.752515
  H      40.363680     21.696191     42.019413
  C      41.731466     20.376923     42.596350
  N      41.856799     19.098641     42.924421
  H      41.033389     18.617555     43.246778
  H      42.464905     18.505697     42.377034
  N      42.628001     20.914679     41.793448
  H      42.229870     21.417890     40.993297
  H      43.431989     20.384182     41.502031
37
Coordinates from ORCA-job job E -836.455798790150
  C      41.550061     20.495611     37.088518
  H      41.832522     19.518885     36.682304
  H      41.327767     21.335965     36.427425
  C      41.463259     20.722810     38.406125
  C      41.026343     22.095629     38.967366
  O      41.048641     23.057411     38.198659
  O      40.666236     22.088155     40.195639
  O      41.782948     19.791232     39.371526
  C      40.994423     18.613519     39.568913
  H      41.153388     18.353154     40.645230
  C      41.401907     17.415163     38.766451
  H      42.411010     17.348899     38.350520
  C      40.601740     16.329936     38.739197
  C      39.284301     16.407218     39.382682
  H      38.755116     15.455730     39.487201
  C      38.748554     17.589296     39.744873
  H      37.730886     17.686080     40.135597
  C      39.489774     18.882439     39.500204
  H      39.263624     19.218577     38.459902
  O      39.079921     19.852954     40.440682
  H      39.643067     20.662357     40.335565
  C      41.068426     14.983973     38.102703
  O      42.168096     15.018692     37.517142
  O      40.276017     14.030331     38.287877
  C      39.388000     20.557000     43.513000
  H      39.587925     20.549885     44.584485
  H      39.069728     19.551365     43.201471
  H      38.559004     21.255945     43.326762
  N      40.571768     20.993502     42.748102
  H      40.368616     21.682259     42.010223
  C      41.735060     20.365860     42.595530
  N      41.875853     19.094080     42.939909
  H      41.056975     18.604900     43.261250
  H      42.494113     18.503379     42.400606
  N      42.636000     20.918393     41.808891
  H      42.238257     21.431141     41.012586
  H      43.444767     20.397222     41.517960
37
Coordinates from ORCA-job job E -836.456013272376
  C      41.715137     20.312850     37.116156
  H      42.042191     19.338225     36.745263
  H      41.502102     21.127872     36.420879
  C      41.570245     20.569516     38.422865
  C      41.088473     21.945666     38.937973
  O      41.100804     22.884095     38.141445
  O      40.709498     21.970570     40.161440
  O      41.882483     19.673305     39.419412
  C      41.110152     18.484655     39.634849
  H      41.268927     18.255479     40.718435
  C      41.540779     17.277506     38.857509
  H      42.551978     17.214405     38.444096
  C      40.755637     16.180810     38.849724
  C      39.431628     16.253826     39.480591
  H      38.919759     15.295550     39.603613
  C      38.876451     17.436130     39.808124
  H      37.854192     17.526547     40.189411
  C      39.603552     18.734251     39.545863
  H      39.387496     19.040011     38.493668
  O      39.173124     19.718404     40.460600
  H      39.720345     20.535871     40.330201
  C      41.248152     14.829643     38.245916
  O      42.339094     14.873626     37.644308
  O      40.486795     13.860773     38.472738
  C      39.388000     20.557000     43.513000
  H      39.587925     20.549885     44.584485
  H      39.090187     19.545758     43.203710
  H      38.551159     21.243194     43.319489
  N      40.567859     21.002637     42.752793
  H      40.362561     21.688753     42.013307
  C      41.729212     20.377021     42.604728
  N      41.883735     19.113547     42.970105
  H      41.072238     18.618076     43.302896
  H      42.504845     18.522940     42.435903
  N      42.625074     20.937163     41.821965
  H      42.229868     21.454752     41.031071
  H      43.427554     20.415656     41.518844
37
Coordinates from ORCA-job job E -836.456321575015
  C      41.892855     20.130274     37.127242
  H      42.286281     19.170951     36.796418
  H      41.676943     20.911773     36.394491
  C      41.691164     20.414840     38.419742
  C      41.135916     21.787346     38.874035
  O      41.113704     22.693005     38.041146
  O      40.744615     21.848714     40.092093
  O      42.020344     19.545332     39.435005
  C      41.252547     18.347618     39.650737
  H      41.420972     18.136206     40.735560
  C      41.700417     17.140736     38.874823
  H      42.719644     17.072076     38.481489
  C      40.919354     16.041200     38.853474
  C      39.576967     16.112276     39.444609
  H      39.069889     15.150233     39.542189
  C      39.017560     17.291699     39.772664
  H      37.984467     17.370061     40.135179
  C      39.748778     18.594981     39.548597
  H      39.546893     18.918921     38.501907
  O      39.315643     19.565565     40.471996
  H      39.832515     20.395672     40.298216
  C      41.436682     14.688582     38.279437
  O      42.535628     14.733973     37.692602
  O      40.693010     13.709438     38.518168
  C      39.388000     20.557000     43.513000
  H      39.587925     20.549885     44.584485
  H      39.084901     19.549271     43.207449
  H      38.556963     21.242669     43.305783
  N      40.575881     20.975017     42.755810
  H      40.391277     21.641510     41.999178
  C      41.728015     20.320731     42.629233
  N      41.869157     19.065028     43.022344
  H      41.050757     18.573233     43.345743
  H      42.496522     18.467169     42.508142
  N      42.638652     20.880501     41.860772
  H      42.248350     21.423785     41.082439
  H      43.449820     20.374434     41.560616
37
Coordinates from ORCA-job job E -836.456661123604
  C      41.904641     20.166328     37.131567
  H      42.275725     19.196899     36.789773
  H      41.698814     20.958856     36.409024
  C      41.701516     20.442473     38.425285
  C      41.165347     21.818425     38.890068
  O      41.159111     22.732977     38.067389
  O      40.763569     21.867869     40.106643
  O      42.008061     19.559416     39.440214
  C      41.229173     18.367321     39.644629
  H      41.390004     18.144859     40.727115
  C      41.675778     17.162371     38.865477
  H      42.693458     17.098978     38.469845
  C      40.894459     16.063579     38.842475
  C      39.552810     16.134163     39.436561
  H      39.041677     15.173570     39.535131
  C      38.993418     17.313911     39.765557
  H      37.963012     17.399184     40.126317
  C      39.724800     18.616095     39.538797
  H      39.522889     18.945324     38.492569
  O      39.288819     19.586614     40.463660
  H      39.817444     20.413778     40.309729
  C      41.404530     14.707622     38.265347
  O      42.502048     14.752341     37.674916
  O      40.655469     13.731811     38.503037
  C      39.388000     20.557000     43.513000
  H      39.587925     20.549885     44.584485
  H      39.080631     19.551823     43.198180
  H      38.553159     21.239547     43.313048
  N      40.573418     20.986708     42.756300
  H      40.378862     21.658229     42.005440
  C      41.728512     20.338949     42.624841
  N      41.867210     19.080874     43.011986
  H      41.045385     18.591846     43.329895
  H      42.493507     18.481938     42.493795
  N      42.642265     20.891235     41.853558
  H      42.255957     21.432204     41.074094
  H      43.445995     20.373700     41.549389
37
Coordinates from ORCA-job job E -836.456855999831
  C      41.875031     20.185909     37.119197
  H      42.239113     19.212470     36.779191
  H      41.655765     20.972965     36.395876
  C      41.686098     20.465593     38.414725
  C      41.145394     21.837456     38.881334
  O      41.123284     22.752715     38.059446
  O      40.752833     21.876841     40.101548
  O      41.995434     19.578897     39.427967
  C      41.210871     18.390597     39.627604
  H      41.375545     18.160070     40.706491
  C      41.653494     17.189254     38.838975
  H      42.667392     17.135199     38.433892
  C      40.869985     16.092692     38.808865
  C      39.529872     16.163148     39.407694
  H      39.014586     15.203459     39.500288
  C      38.973720     17.340478     39.750348
  H      37.945834     17.425573     40.118333
  C      39.706323     18.642838     39.526774
  H      39.504034     18.979379     38.483436
  O      39.268583     19.609138     40.456055
  H      39.796964     20.437757     40.306516
  C      41.371168     14.737947     38.224777
  O      42.468664     14.779991     37.634047
  O      40.614031     13.766372     38.455752
  C      39.388000     20.557000     43.513000
  H      39.587925     20.549885     44.584485
  H      39.067680     19.556731     43.193226
  H      38.555475     21.243977     43.314730
  N      40.580947     20.983065     42.757560
  H      40.384374     21.650312     42.005200
  C      41.737676     20.337950     42.621481
  N      41.869850     19.074249     42.994029
  H      41.042357     18.586862     43.297996
  H      42.497690     18.478587     42.471577
  N      42.653118     20.884828     41.842298
  H      42.263871     21.430120     41.063560
  H      43.453183     20.362440     41.533835
37
Coordinates from ORCA-job job E -836.457043250040
  C      41.969413     20.130687     37.133815
  H      42.336481     19.153702     36.807586
  H      41.755840     20.909056     36.399951
  C      41.757810     20.416850     38.424434
  C      41.204296     21.787922     38.873019
  O      41.187292     22.695497     38.042984
  O      40.794244     21.835942     40.087632
  O      42.047063     19.530806     39.446065
  C      41.259127     18.344044     39.639619
  H      41.423104     18.109260     40.718851
  C      41.705908     17.148064     38.846778
  H      42.717927     17.102463     38.437432
  C      40.924070     16.050762     38.806507
  C      39.582757     16.117003     39.404468
  H      39.067069     15.157248     39.492710
  C      39.024266     17.291523     39.752890
  H      37.995911     17.373105     40.122557
  C      39.755270     18.594709     39.534256
  H      39.556718     18.934192     38.490323
  O      39.312184     19.560565     40.463926
  H      39.837773     20.389676     40.312795
  C      41.425864     14.699395     38.219401
  O      42.517556     14.745188     37.618048
  O      40.673611     13.726274     38.458842
  C      39.388000     20.557000     43.513000
  H      39.587925     20.549885     44.584485
  H      39.071357     19.554898     43.186263
  H      38.551887     21.240283     43.315655
  N      40.582146     20.987777     42.765379
  H      40.385777     21.648747     42.005457
  C      41.737526     20.339497     42.637044
  N      41.857073     19.074661     43.010278
  H      41.020868     18.593886     43.298970
  H      42.487267     18.475404     42.494169
  N      42.659925     20.871542     41.858667
  H      42.278962     21.422982     41.084683
  H      43.445709     20.334308     41.542394
37
Coordinates from ORCA-job job E -836.457297498235
  C      42.112177     19.991282     37.155281
  H      42.500695     19.012518     36.863114
  H      41.893422     20.741622     36.395655
  C      41.867803     20.300209     38.434489
  C      41.275328     21.668194     38.846823
  O      41.249575     22.556534     37.997386
  O      40.847709     21.736405     40.055275
  O      42.148161     19.432897     39.477263
  C      41.368849     18.241125     39.673551
  H      41.533031     18.010938     40.753843
  C      41.827672     17.047300     38.885111
  H      42.840548     17.008680     38.478495
  C      41.051551     15.946907     38.832415
  C      39.702845     16.005523     39.416927
  H      39.187428     15.044787     39.495298
  C      39.136657     17.175447     39.768453
  H      38.105976     17.253616     40.129135
  C      39.864456     18.482655     39.561095
  H      39.671552     18.824770     38.516430
  O      39.410580     19.444852     40.488546
  H      39.917210     20.281525     40.318882
  C      41.568055     14.594745     38.260281
  O      42.657405     14.645557     37.654583
  O      40.827429     13.617286     38.516638
  C      39.388000     20.557000     43.513000
  H      39.587925     20.549885     44.584485
  H      39.071071     19.555841     43.182509
  H      38.554774     21.244080     43.315556
  N      40.587466     20.982959     42.771888
  H      40.392763     21.630472     42.000579
  C      41.740435     20.330622     42.648808
  N      41.847264     19.064121     43.019544
  H      41.001288     18.586051     43.285157
  H      42.483394     18.464509     42.512148
  N      42.667772     20.850923     41.867182
  H      42.292267     21.421073     41.104660
  H      43.434099     20.296608     41.530622
37
Coordinates from ORCA-job job E -836.457551595598
  C      42.064704     19.961770     37.161899
  H      42.453893     18.984390     36.868270
  H      41.828003     20.707942     36.402256
  C      41.844550     20.278178     38.444045
  C      41.246223     21.643952     38.856685
  O      41.210682     22.529437     38.003827
  O      40.829182     21.716431     40.068024
  O      42.156862     19.422444     39.485693
  C      41.397948     18.221639     39.697444
  H      41.571342     18.000777     40.778656
  C      41.864971     17.025952     38.914948
  H      42.878378     16.992478     38.505968
  C      41.097121     15.918517     38.868114
  C      39.756549     15.963563     39.470165
  H      39.254346     14.997090     39.560050
  C      39.183574     17.129345     39.826469
  H      38.156618     17.197436     40.202094
  C      39.890001     18.443122     39.591811
  H      39.683342     18.762845     38.543901
  O      39.428349     19.418805     40.500644
  H      39.923275     20.259907     40.314409
  C      41.625664     14.570037     38.295849
  O      42.726298     14.625465     37.712595
  O      40.888683     13.587813     38.542536
  C      39.388000     20.557000     43.513000
  H      39.587925     20.549885     44.584485
  H      39.060919     19.558144     43.191033
  H      38.563986     21.254515     43.313415
  N      40.588853     20.966189     42.765895
  H      40.397911     21.619405     41.998409
  C      41.734652     20.299070     42.646109
  N      41.817743     19.024946     42.998625
  H      40.961573     18.554628     43.245180
  H      42.449799     18.423297     42.490077
  N      42.675739     20.813393     41.877651
  H      42.313361     21.400923     41.119919
  H      43.430184     20.243751     41.533705
37
Coordinates from ORCA-job job E -836.453127401525
  C      41.695086     20.183086     37.024341
  H      42.022371     19.220700     36.630893
  H      41.426295     20.996584     36.345088
  C      41.602285     20.417963     38.338242
  C      41.077067     21.770836     38.882881
  O      41.051629     22.713553     38.088672
  O      40.724168     21.798533     40.113646
  O      41.997416     19.493256     39.279618
  C      41.259180     18.264104     39.402722
  H      41.478452     17.930344     40.445452
  C      41.706081     17.157885     38.482820
  H      42.735277     17.139916     38.101466
  C      40.912225     16.093285     38.245765
  C      39.575998     16.055537     38.841645
  H      39.060821     15.096486     38.762251
  C      39.029357     17.148278     39.405045
  H      38.001969     17.158475     39.794084
  C      39.739324     18.477994     39.377822
  H      39.487330     18.974037     38.416219
  O      39.332319     19.303230     40.436083
  H      39.843705     20.143520     40.327431
  C      41.442175     14.844598     37.474522
  O      42.571563     14.967928     36.964523
  O      40.622781     13.897359     37.401910
  C      39.388000     20.557000     43.513000
  H      39.587925     20.549885     44.584485
  H      39.018068     19.571709     43.221787
  H      38.611139     21.304971     43.305562
  N      40.596538     20.871513     42.740884
  H      40.455594     21.567318     41.995730
  C      41.705294     20.131475     42.647667
  N      41.693026     18.847074     42.980844
  H      40.805334     18.420086     43.194412
  H      42.317944     18.211871     42.511981
  N      42.704363     20.588374     41.914928
  H      42.422251     21.239357     41.161701
  H      43.418808     19.959987     41.566403
37
Coordinates from ORCA-job job E -836.457413339237
  C      41.851585     20.082463     37.094701
  H      42.191595     19.108608     36.738036
  H      41.594910     20.870617     36.384812
  C      41.719922     20.352382     38.398923
  C      41.185724     21.714927     38.899080
  O      41.155426     22.639289     38.085727
  O      40.800572     21.749255     40.121050
  O      42.078140     19.455503     39.384963
  C      41.338707     18.235412     39.556384
  H      41.545321     17.957566     40.617801
  C      41.796821     17.085479     38.701930
  H      42.817922     17.061925     38.308203
  C      41.019986     15.992223     38.562422
  C      39.685436     15.987800     39.171880
  H      39.180713     15.018988     39.175317
  C      39.125243     17.117071     39.645191
  H      38.102338     17.148911     40.039218
  C      39.823103     18.447307     39.507645
  H      39.580689     18.853479     38.499838
  O      39.387414     19.350470     40.498015
  H      39.880332     20.199712     40.353692
  C      41.550048     14.695473     37.878546
  O      42.692102     14.774704     37.385960
  O      40.778437     13.711718     37.976874
  C      39.388000     20.557000     43.513000
  H      39.587925     20.549885     44.584485
  H      39.029652     19.565466     43.211293
  H      38.594008     21.286932     43.307332
  N      40.597027     20.907875     42.751928
  H      40.439545     21.580213     41.992396
  C      41.719392     20.197393     42.647627
  N      41.742377     18.914428     42.980453
  H      40.863766     18.470567     43.196635
  H      42.369360     18.294745     42.490189
  N      42.691480     20.681301     41.896894
  H      42.373975     21.309990     41.150995
  H      43.414272     20.074304     41.540414
37
Coordinates from ORCA-job job E -836.448449419236
  C      42.060954     19.892992     37.235509
  H      42.432804     18.906707     36.944954
  H      41.802714     20.627866     36.473519
  C      41.883487     20.231699     38.520397
  C      41.307438     21.599713     38.939356
  O      41.271180     22.493156     38.094354
  O      40.890430     21.650802     40.150754
  O      42.213835     19.401813     39.577804
  C      41.494476     18.192170     39.839222
  H      41.676263     18.024603     40.930101
  C      41.987238     16.974165     39.112448
  H      43.004352     16.935195     38.718282
  C      41.242497     15.849669     39.127748
  C      39.904938     15.897450     39.741190
  H      39.423165     14.925240     39.879500
  C      39.313676     17.068670     40.055553
  H      38.292439     17.132931     40.444632
  C      39.985783     18.382070     39.735457
  H      39.764843     18.627631     38.670068
  O      39.494798     19.405832     40.587712
  H      39.948272     20.265513     40.370274
  C      41.793912     14.485631     38.615640
  O      42.850172     14.549758     37.955744
  O      40.982621     13.541592     38.738201
  C      39.388000     20.557000     43.513000
  H      39.587925     20.549885     44.584485
  H      39.031988     19.561979     43.201673
  H      38.582996     21.274426     43.307133
  N      40.599677     20.934922     42.762980
  H      40.424692     21.579283     41.989874
  C      41.727194     20.246058     42.634365
  N      41.768912     18.956298     42.932860
  H      40.891367     18.502207     43.131433
  H      42.387625     18.357982     42.403073
  N      42.672359     20.761343     41.871825
  H      42.318419     21.378815     41.147044
  H      43.388603     20.170331     41.489203
37
Coordinates from ORCA-job job E -836.457763694814
  C      41.941654     20.063912     37.113299
  H      42.290621     19.088821     36.766306
  H      41.685998     20.844281     36.395086
  C      41.791482     20.339740     38.415512
  C      41.238947     21.696661     38.904231
  O      41.210336     22.623329     38.094329
  O      40.841892     21.719455     40.122825
  O      42.126096     19.446025     39.414860
  C      41.376729     18.235185     39.586107
  H      41.578383     17.956626     40.646773
  C      41.813925     17.075937     38.736424
  H      42.822235     17.045142     38.313917
  C      41.034249     15.978020     38.655361
  C      39.713660     16.000147     39.300791
  H      39.205956     15.033498     39.350467
  C      39.166833     17.148820     39.747119
  H      38.155795     17.200222     40.167143
  C      39.869065     18.468704     39.542938
  H      39.624687     18.828042     38.517272
  O      39.441691     19.414887     40.503636
  H      39.933590     20.263288     40.344502
  C      41.534737     14.660317     37.989784
  O      42.628049     14.735716     37.395446
  O      40.746725     13.694494     38.110837
  C      39.388000     20.557000     43.513000
  H      39.587925     20.549885     44.584485
  H      39.037219     19.562444     43.203699
  H      38.583178     21.275018     43.307887
  N      40.592842     20.931468     42.756871
  H      40.419704     21.583032     41.980630
  C      41.723673     20.238444     42.655362
  N      41.763463     18.959782     42.999806
  H      40.886672     18.509583     43.210364
  H      42.391128     18.343639     42.504573
  N      42.677947     20.729064     41.887796
  H      42.335695     21.342914     41.144017
  H      43.399120     20.127110     41.524475
37
Coordinates from ORCA-job job E -836.457275205632
  C      41.910572     20.039326     37.106848
  H      42.247434     19.058687     36.764963
  H      41.662793     20.818915     36.385817
  C      41.767631     20.325112     38.405547
  C      41.237227     21.694519     38.886862
  O      41.238442     22.623164     38.079348
  O      40.843583     21.727931     40.105766
  O      42.099988     19.435239     39.409611
  C      41.369483     18.207457     39.576776
  H      41.572979     17.936027     40.642778
  C      41.851072     17.063045     38.730029
  H      42.870656     17.058643     38.334860
  C      41.101438     15.949655     38.609093
  C      39.760389     15.928469     39.204546
  H      39.273024     14.950836     39.213675
  C      39.171817     17.052219     39.653103
  H      38.145414     17.069096     40.036366
  C      39.850992     18.392382     39.512790
  H      39.610957     18.791242     38.500051
  O      39.396163     19.282254     40.502640
  H      39.879104     20.136835     40.363019
  C      41.653506     14.657682     37.936899
  O      42.796357     14.755087     37.447393
  O      40.915653     13.651934     38.075804
  C      39.388000     20.557000     43.513000
  H      39.587925     20.549885     44.584485
  H      38.998758     19.573979     43.212568
  H      38.613797     21.307048     43.304447
  N      40.607380     20.876654     42.753481
  H      40.465176     21.552552     41.990233
  C      41.708679     20.137889     42.630773
  N      41.699306     18.849904     42.941684
  H      40.807166     18.428131     43.146298
  H      42.308085     18.222518     42.437082
  N      42.681536     20.605680     41.869789
  H      42.365160     21.240225     41.126444
  H      43.386353     19.989514     41.500071
37
Coordinates from ORCA-job job E -836.458411417827
  C      41.903289     20.032703     37.085903
  H      42.238449     19.054657     36.734442
  H      41.643215     20.815095     36.371543
  C      41.779807     20.313381     38.389395
  C      41.246867     21.677061     38.884934
  O      41.210408     22.602383     38.074098
  O      40.855915     21.700258     40.105717
  O      42.127732     19.422633     39.386622
  C      41.401467     18.198154     39.561234
  H      41.615555     17.925079     40.624317
  C      41.856721     17.045924     38.710637
  H      42.864546     17.031808     38.286055
  C      41.096745     15.934525     38.628866
  C      39.777856     15.930022     39.275673
  H      39.288746     14.953858     39.323004
  C      39.209947     17.066968     39.723811
  H      38.198454     17.097654     40.144776
  C      39.887843     18.399902     39.520737
  H      39.632455     18.758252     38.497283
  O      39.450442     19.335069     40.482927
  H      39.933092     20.188271     40.320458
  C      41.618670     14.629404     37.956208
  O      42.729939     14.717582     37.398072
  O      40.866127     13.639152     38.106936
  C      39.388000     20.557000     43.513000
  H      39.587925     20.549885     44.584485
  H      39.010966     19.569780     43.212374
  H      38.603978     21.296871     43.304878
  N      40.602747     20.895099     42.754113
  H      40.447144     21.556517     41.983341
  C      41.713693     20.171407     42.639193
  N      41.711351     18.879842     42.935962
  H      40.818090     18.448803     43.115445
  H      42.327575     18.263627     42.426731
  N      42.681499     20.653584     41.882774
  H      42.354575     21.295395     41.154215
  H      43.378091     20.037579     41.495189
37
Coordinates from ORCA-job job E -836.458576570149
  C      41.873457     20.075666     37.074493
  H      42.202416     19.100966     36.708136
  H      41.603323     20.865641     36.372335
  C      41.767985     20.343480     38.382361
  C      41.235806     21.699061     38.899154
  O      41.222023     22.642991     38.109242
  O      40.853921     21.706324     40.122940
  O      42.122985     19.443146     39.367638
  C      41.396652     18.218581     39.532063
  H      41.627034     17.925515     40.585569
  C      41.829839     17.077800     38.655212
  H      42.830180     17.062921     38.213334
  C      41.059628     15.973820     38.567349
  C      39.752298     15.967287     39.237089
  H      39.257468     14.993584     39.276157
  C      39.200183     17.100172     39.714863
  H      38.196367     17.129898     40.153976
  C      39.883822     18.431402     39.521502
  H      39.613823     18.807379     38.508340
  O      39.468906     19.355658     40.505224
  H      39.960769     20.204772     40.355534
  C      41.559285     14.677006     37.862427
  O      42.653260     14.770864     37.272085
  O      40.793189     13.694460     37.994417
  C      39.388000     20.557000     43.513000
  H      39.587925     20.549885     44.584485
  H      39.009214     19.571011     43.213138
  H      38.606919     21.299664     43.303720
  N      40.602596     20.888139     42.751767
  H      40.449840     21.550157     41.981809
  C      41.707458     20.155859     42.634271
  N      41.687742     18.860978     42.914897
  H      40.786930     18.438026     43.076003
  H      42.301704     18.243777     42.404015
  N      42.678578     20.632591     41.878479
  H      42.358410     21.287788     41.159936
  H      43.359876     20.008250     41.476523
37
Coordinates from ORCA-job job E -836.458974503472
  C      41.887087     20.072575     37.051922
  H      42.202148     19.099586     36.669200
  H      41.614078     20.873373     36.363272
  C      41.803735     20.327518     38.364098
  C      41.285630     21.680413     38.902604
  O      41.277067     22.636103     38.127292
  O      40.904189     21.671391     40.126844
  O      42.161114     19.415781     39.337777
  C      41.444357     18.185001     39.485496
  H      41.685982     17.875361     40.532260
  C      41.870657     17.057323     38.588945
  H      42.861537     17.053113     38.126282
  C      41.106259     15.948160     38.509271
  C      39.814399     15.926629     39.208605
  H      39.330607     14.947637     39.255902
  C      39.261614     17.053488     39.700716
  H      38.267083     17.073310     40.160971
  C      39.930312     18.389427     39.489920
  H      39.647193     18.753665     38.476084
  O      39.518879     19.319621     40.469109
  H      40.006648     20.170818     40.310960
  C      41.597831     14.660784     37.782106
  O      42.672397     14.769822     37.159901
  O      40.842090     13.672198     37.925429
  C      39.388000     20.557000     43.513000
  H      39.587925     20.549885     44.584485
  H      38.982701     19.579048     43.220429
  H      38.627225     21.319403     43.299968
  N      40.612419     20.853039     42.751495
  H      40.478242     21.515539     41.979327
  C      41.694274     20.088072     42.628664
  N      41.619434     18.785279     42.857999
  H      40.696829     18.392633     42.965957
  H      42.222487     18.165384     42.337248
  N      42.682101     20.550331     41.885296
  H      42.384423     21.240277     41.190879
  H      43.326678     19.908389     41.450947
37
Coordinates from ORCA-job job E -836.459239610957
  C      41.850354     20.100078     36.997595
  H      42.117046     19.137409     36.557620
  H      41.562188     20.936726     36.359591
  C      41.854289     20.309304     38.319604
  C      41.391666     21.650246     38.934437
  O      41.347493     22.631800     38.194301
  O      41.014017     21.585631     40.158022
  O      42.235318     19.361207     39.247034
  C      41.555102     18.107697     39.341154
  H      41.856812     17.736430     40.353567
  C      41.951768     17.041938     38.359541
  H      42.909021     17.083838     37.832414
  C      41.205386     15.920898     38.268999
  C      39.965520     15.828090     39.049620
  H      39.514748     14.833083     39.081874
  C      39.414444     16.914790     39.626464
  H      38.450356     16.883656     40.147056
  C      40.035470     18.274336     39.425497
  H      39.695076     18.657798     38.436540
  O      39.649466     19.165227     40.448960
  H      40.128953     20.024416     40.303595
  C      41.669707     14.688402     37.437049
  O      42.683841     14.865980     36.735202
  O      40.945806     13.675095     37.577445
  C      39.388000     20.557000     43.513000
  H      39.587925     20.549885     44.584485
  H      38.898956     19.611809     43.240611
  H      38.699548     21.381900     43.287148
  N      40.633214     20.729224     42.747607
  H      40.558074     21.399751     41.974309
  C      41.625869     19.854175     42.601313
  N      41.361441     18.557754     42.660364
  H      40.387333     18.299673     42.596884
  H      41.928416     17.921902     42.118622
  N      42.665695     20.251402     41.890292
  H      42.456862     21.043812     41.278380
  H      43.178240     19.571524     41.347581
37
Coordinates from ORCA-job job E -836.459887998283
  C      41.940521     20.062483     37.022355
  H      42.231535     19.095760     36.606481
  H      41.666087     20.885304     36.361570
  C      41.892298     20.288407     38.340425
  C      41.398606     21.632581     38.921136
  O      41.389903     22.609632     38.173956
  O      41.012490     21.587180     40.143087
  O      42.245784     19.351671     39.291702
  C      41.542337     18.110163     39.390350
  H      41.796999     17.762901     40.424956
  C      41.969101     17.019299     38.449906
  H      42.950545     17.040487     37.969297
  C      41.213724     15.906705     38.344084
  C      39.930592     15.849661     39.055848
  H      39.459850     14.863723     39.080644
  C      39.367271     16.955395     39.581105
  H      38.375223     16.950580     40.046293
  C      40.024151     18.301933     39.402197
  H      39.736184     18.690901     38.398020
  O      39.612466     19.198980     40.409922
  H      40.091541     20.058015     40.267208
  C      41.702873     14.649296     37.565842
  O      42.761497     14.793301     36.923852
  O      40.970214     13.642570     37.709420
  C      39.388000     20.557000     43.513000
  H      39.587925     20.549885     44.584485
  H      38.909455     19.608375     43.231962
  H      38.684690     21.370308     43.290896
  N      40.634661     20.755439     42.754089
  H      40.549047     21.417216     41.973396
  C      41.659520     19.913812     42.629569
  N      41.460068     18.610852     42.757436
  H      40.498746     18.303381     42.728950
  H      42.050421     17.977157     42.238311
  N      42.681546     20.323765     41.900052
  H      42.441938     21.077355     41.250906
  H      43.238364     19.648555     41.399188
37
Coordinates from ORCA-job job E -836.460163931017
  C      41.969858     20.050879     37.020597
  H      42.261566     19.087731     36.597202
  H      41.694308     20.878160     36.365766
  C      41.922237     20.268545     38.339886
  C      41.425778     21.608401     38.928391
  O      41.423731     22.592240     38.190080
  O      41.038715     21.554248     40.149619
  O      42.277130     19.326787     39.286121
  C      41.578145     18.081483     39.374276
  H      41.834714     17.727899     40.406335
  C      42.008645     16.998831     38.425829
  H      42.990139     17.026055     37.945371
  C      41.255312     15.886029     38.309113
  C      39.971740     15.819499     39.019208
  H      39.503669     14.832143     39.035200
  C      39.404872     16.919227     39.553250
  H      38.411801     16.907922     40.016344
  C      40.058981     18.268894     39.387425
  H      39.771109     18.667580     38.387667
  O      39.644520     19.155424     40.404664
  H      40.116361     20.019345     40.266497
  C      41.747806     14.636533     37.519656
  O      42.804053     14.790159     36.876233
  O      41.021265     13.625029     37.659429
  C      39.388000     20.557000     43.513000
  H      39.587925     20.549885     44.584485
  H      38.888367     19.618604     43.235169
  H      38.702124     21.384371     43.288280
  N      40.638819     20.726287     42.754542
  H      40.566072     21.383692     41.968300
  C      41.648943     19.865552     42.640134
  N      41.415362     18.566335     42.745549
  H      40.448596     18.285259     42.661322
  H      42.011221     17.924834     42.243030
  N      42.679988     20.255050     41.912426
  H      42.458671     21.022060     41.272438
  H      43.209278     19.569605     41.394663
37
Coordinates from ORCA-job job E -836.460670934743
  C      42.039381     20.018574     37.023426
  H      42.346035     19.063391     36.592925
  H      41.759773     20.848392     36.372980
  C      41.978807     20.225710     38.343639
  C      41.463496     21.556959     38.936423
  O      41.437290     22.540969     38.198765
  O      41.072759     21.490933     40.155631
  O      42.340608     19.279811     39.284192
  C      41.645606     18.028629     39.363206
  H      41.902967     17.670677     40.392907
  C      42.084195     16.956803     38.405937
  H      43.068653     16.992470     37.931353
  C      41.332296     15.845956     38.266025
  C      40.042749     15.767133     38.964102
  H      39.575299     14.779428     38.961034
  C      39.470885     16.857378     39.511650
  H      38.473405     16.838362     39.965310
  C      40.125513     18.210186     39.377712
  H      39.840404     18.635665     38.389915
  O      39.706865     19.070803     40.418230
  H      40.166340     19.943182     40.293535
  C      41.834193     14.607606     37.463492
  O      42.890688     14.774472     36.824140
  O      41.112772     13.590740     37.589417
  C      39.388000     20.557000     43.513000
  H      39.587925     20.549885     44.584485
  H      38.855434     19.636843     43.238857
  H      38.730349     21.405923     43.284338
  N      40.643042     20.678882     42.754719
  H      40.587882     21.322199     41.954561
  C      41.633003     19.792085     42.670369
  N      41.347006     18.501443     42.746091
  H      40.386134     18.263585     42.534810
  H      41.966802     17.840804     42.302338
  N      42.674705     20.140626     41.938645
  H      42.482796     20.923331     41.308034
  H      43.152210     19.436816     41.393075
37
Coordinates from ORCA-job job E -836.460974526144
  C      42.106921     19.974034     37.034803
  H      42.434655     19.023298     36.609833
  H      41.824118     20.798361     36.378548
  C      42.022586     20.181307     38.353968
  C      41.481715     21.506885     38.937086
  O      41.450284     22.488205     38.196240
  O      41.088052     21.442289     40.155670
  O      42.387766     19.239900     39.298127
  C      41.693101     17.986491     39.380816
  H      41.942103     17.636308     40.414754
  C      42.144134     16.912996     38.431386
  H      43.134307     16.950694     37.968947
  C      41.395915     15.800776     38.283102
  C      40.097737     15.720433     38.965258
  H      39.631057     14.732363     38.956717
  C      39.518621     16.809876     39.506680
  H      38.515883     16.790605     39.948555
  C      40.173007     18.163642     39.383683
  H      39.894956     18.596699     38.397536
  O      39.744366     19.017486     40.427188
  H      40.193561     19.895607     40.302719
  C      41.911243     14.561619     37.489853
  O      42.975608     14.728919     36.863958
  O      41.193399     13.542103     37.613179
  C      39.388000     20.557000     43.513000
  H      39.587925     20.549885     44.584485
  H      38.842202     19.644334     43.240200
  H      38.741726     21.414169     43.282741
  N      40.644601     20.659292     42.754789
  H      40.594375     21.286930     41.942270
  C      41.633173     19.769284     42.697429
  N      41.334398     18.481604     42.772002
  H      40.391871     18.252715     42.476799
  H      41.979745     17.810000     42.385972
  N      42.674719     20.099112     41.958163
  H      42.488904     20.880873     41.325358
  H      43.129860     19.386754     41.403510
37
Coordinates from ORCA-job job E -836.461372718237
  C      42.222688     19.879328     37.058377
  H      42.593552     18.933545     36.658116
  H      41.934554     20.684231     36.380680
  C      42.089124     20.099503     38.371923
  C      41.496764     21.417523     38.920419
  O      41.441540     22.381013     38.158346
  O      41.097212     21.368554     40.138155
  O      42.457971     19.176124     39.333372
  C      41.762741     17.921147     39.434472
  H      41.993509     17.594567     40.479598
  C      42.238736     16.836044     38.511143
  H      43.239524     16.874954     38.072659
  C      41.500600     15.717567     38.360066
  C      40.186565     15.639812     39.011855
  H      39.723003     14.650224     39.003468
  C      39.591597     16.732742     39.528215
  H      38.579439     16.715818     39.947853
  C      40.242481     18.088428     39.410217
  H      39.977109     18.520923     38.420136
  O      39.791468     18.942163     40.445777
  H      40.224801     19.827823     40.313604
  C      42.042280     14.470245     37.598035
  O      43.119673     14.634234     36.993948
  O      41.327912     13.448281     37.720497
  C      39.388000     20.557000     43.513000
  H      39.587925     20.549885     44.584485
  H      38.834300     19.648294     43.241339
  H      38.748914     21.419146     43.281476
  N      40.645722     20.645432     42.754121
  H      40.594224     21.244661     41.920993
  C      41.645504     19.766827     42.738690
  N      41.351714     18.479613     42.832202
  H      40.453579     18.236303     42.422096
  H      42.040828     17.798804     42.554862
  N      42.680819     20.079261     41.984163
  H      42.490244     20.848703     41.338706
  H      43.118559     19.356688     41.427867
37
Coordinates from ORCA-job job E -836.461616518419
  C      42.315262     19.782794     37.082696
  H      42.723248     18.843867     36.702628
  H      42.017455     20.570247     36.389149
  C      42.146413     20.011381     38.390919
  C      41.508759     21.318545     38.913487
  O      41.429959     22.265685     38.133552
  O      41.105705     21.284165     40.131232
  O      42.524889     19.105090     39.364875
  C      41.841135     17.844101     39.481291
  H      42.062665     17.538181     40.534601
  C      42.343669     16.753411     38.579344
  H      43.351218     16.801022     38.158286
  C      41.623173     15.623346     38.430312
  C      40.299808     15.536665     39.061453
  H      39.847719     14.541740     39.055390
  C      39.683936     16.627217     39.557189
  H      38.665734     16.603034     39.961113
  C      40.319467     17.989753     39.437474
  H      40.056698     18.414939     38.443014
  O      39.848128     18.843811     40.463678
  H      40.263867     19.735930     40.317703
  C      42.192534     14.374420     37.692570
  O      43.279515     14.543409     37.107123
  O      41.487835     13.345399     37.815121
  C      39.388000     20.557000     43.513000
  H      39.587925     20.549885     44.584485
  H      38.820984     19.654561     43.245562
  H      38.763572     21.428918     43.278324
  N      40.646256     20.619931     42.752086
  H      40.596679     21.191690     41.900553
  C      41.646514     19.742359     42.765992
  N      41.341102     18.458358     42.859104
  H      40.500260     18.210950     42.338029
  H      42.054353     17.766974     42.692440
  N      42.679421     20.037684     42.000695
  H      42.492610     20.805152     41.353469
  H      43.091317     19.307847     41.433363
37
Coordinates from ORCA-job job E -836.461755668095
  C      42.388550     19.679536     37.100627
  H      42.832872     18.742726     36.757752
  H      42.086539     20.439611     36.378916
  C      42.180422     19.933557     38.398863
  C      41.500535     21.236874     38.874558
  O      41.398221     22.155097     38.063292
  O      41.094310     21.231560     40.091831
  O      42.565754     19.058387     39.399798
  C      41.892643     17.795861     39.549935
  H      42.109099     17.521100     40.612959
  C      42.413414     16.686652     38.681231
  H      43.423860     16.736375     38.267178
  C      41.708075     15.543702     38.559016
  C      40.381872     15.459548     39.184851
  H      39.940774     14.459726     39.202753
  C      39.750996     16.556235     39.647828
  H      38.731272     16.531425     40.048043
  C      40.369951     17.923345     39.494120
  H      40.105181     18.316453     38.487045
  O      39.879066     18.800420     40.492918
  H      40.284156     19.695441     40.326714
  C      42.295877     14.282368     37.858714
  O      43.388139     14.445684     37.281496
  O      41.598644     13.251041     37.998896
  C      39.388000     20.557000     43.513000
  H      39.587925     20.549885     44.584485
  H      38.836766     19.644369     43.246639
  H      38.751687     21.420446     43.279119
  N      40.644895     20.637499     42.750399
  H      40.580302     21.182156     41.882656
  C      41.666168     19.785363     42.782443
  N      41.388534     18.497341     42.899754
  H      40.589409     18.209730     42.331916
  H      42.127878     17.817841     42.823789
  N      42.689053     20.090458     42.007397
  H      42.481793     20.844408     41.349766
  H      43.109027     19.359449     41.446517
37
Coordinates from ORCA-job job E -836.461836169229
  C      42.386578     19.640686     37.120822
  H      42.841217     18.704146     36.791442
  H      42.080686     20.390397     36.390300
  C      42.170470     19.904996     38.415000
  C      41.477685     21.206619     38.875693
  O      41.358427     22.109736     38.049569
  O      41.071141     21.214985     40.092643
  O      42.559926     19.042856     39.425365
  C      41.901736     17.774964     39.584058
  H      42.116776     17.512538     40.650297
  C      42.440284     16.661810     38.731073
  H      43.454193     16.716897     38.326140
  C      41.748143     15.510606     38.614369
  C      40.417794     15.418561     39.229639
  H      39.986540     14.414669     39.250876
  C      39.771820     16.511980     39.678168
  H      38.748793     16.478644     40.069279
  C      40.377393     17.884256     39.517262
  H      40.112580     18.263539     38.504830
  O      39.874100     18.766982     40.503378
  H      40.273399     19.662512     40.326604
  C      42.353600     14.249756     37.928981
  O      43.449900     14.419510     37.361005
  O      41.658055     13.215064     38.058180
  C      39.388000     20.557000     43.513000
  H      39.587925     20.549885     44.584485
  H      38.843535     19.639516     43.248538
  H      38.748066     21.417696     43.278916
  N      40.643243     20.643553     42.748918
  H      40.572318     21.180930     41.877606
  C      41.669835     19.798242     42.778352
  N      41.403934     18.509727     42.914379
  H      40.604783     18.200546     42.358106
  H      42.150405     17.835046     42.871419
  N      42.690981     20.108138     42.001292
  H      42.482679     20.855095     41.336201
  H      43.124875     19.375415     41.452915
37
Coordinates from ORCA-job job E -836.461898468232
  C      42.375824     19.611761     37.121205
  H      42.827680     18.671516     36.798596
  H      42.066607     20.355089     36.385625
  C      42.166774     19.888828     38.413678
  C      41.475199     21.194705     38.865238
  O      41.357426     22.092589     38.033062
  O      41.067798     21.210775     40.081705
  O      42.558243     19.037054     39.432309
  C      41.913127     17.765164     39.598689
  H      42.138480     17.508319     40.664617
  C      42.452065     16.649316     38.749035
  H      43.460705     16.707554     38.331426
  C      41.766983     15.492158     38.650937
  C      40.444100     15.396507     39.281869
  H      40.021545     14.389323     39.318701
  C      39.793766     16.489773     39.724895
  H      38.774929     16.451775     40.126568
  C      40.387534     17.864346     39.539695
  H      40.114853     18.224225     38.522343
  O      39.883203     18.758041     40.515481
  H      40.280214     19.653152     40.330968
  C      42.372743     14.229440     37.968876
  O      43.463038     14.401411     37.390196
  O      41.686197     13.191305     38.115009
  C      39.388000     20.557000     43.513000
  H      39.587925     20.549885     44.584485
  H      38.850522     19.635982     43.247882
  H      38.741679     21.413181     43.279889
  N      40.643137     20.654781     42.750389
  H      40.565018     21.188263     41.876216
  C      41.671525     19.810722     42.773265
  N      41.407322     18.520610     42.898138
  H      40.606052     18.213031     42.345846
  H      42.155875     17.848562     42.850384
  N      42.692439     20.130332     42.000195
  H      42.481507     20.882782     41.342096
  H      43.127893     19.401699     41.447310
37
Coordinates from ORCA-job job E -836.461929143882
  C      42.363421     19.596681     37.130621
  H      42.814071     18.654190     36.813087
  H      42.052468     20.335268     36.390874
  C      42.157924     19.883429     38.421509
  C      41.467137     21.192651     38.865305
  O      41.351716     22.086313     38.028160
  O      41.058024     21.215003     40.080915
  O      42.551326     19.040078     39.446283
  C      41.911261     17.766447     39.618325
  H      42.140438     17.513735     40.684042
  C      42.449870     16.647566     38.772151
  H      43.456906     16.704869     38.350149
  C      41.766192     15.488882     38.682268
  C      40.445881     15.393832     39.318864
  H      40.025846     14.385924     39.363216
  C      39.794869     16.488243     39.758285
  H      38.777616     16.449910     40.164028
  C      40.385369     17.862673     39.561964
  H      40.111273     18.214261     38.542292
  O      39.880152     18.762466     40.532002
  H      40.276069     19.657206     40.343815
  C      42.372155     14.223681     38.004341
  O      43.460997     14.394757     37.422705
  O      41.688364     13.184977     38.157773
  C      39.388000     20.557000     43.513000
  H      39.587925     20.549885     44.584485
  H      38.860338     19.631392     43.245392
  H      38.731947     21.406257     43.281769
  N      40.642320     20.670456     42.751586
  H      40.556656     21.199920     41.875502
  C      41.678535     19.835816     42.776908
  N      41.427394     18.543709     42.908941
  H      40.625988     18.225088     42.363426
  H      42.182789     17.879774     42.859379
  N      42.697091     20.161390     42.003978
  H      42.480742     20.910198     41.343508
  H      43.139574     19.433455     41.455553
37
Coordinates from ORCA-job job E -836.461965686502
  C      42.367320     19.543833     37.156217
  H      42.821314     18.598600     36.852052
  H      42.052892     20.269966     36.405664
  C      42.160791     19.850952     38.442137
  C      41.462516     21.163591     38.864092
  O      41.349131     22.045434     38.014223
  O      41.047026     21.200433     40.076815
  O      42.554412     19.026886     39.482430
  C      41.927289     17.747586     39.663783
  H      42.160493     17.505481     40.730435
  C      42.473562     16.625057     38.827301
  H      43.479202     16.684055     38.402302
  C      41.797816     15.460871     38.750470
  C      40.479053     15.362120     39.390065
  H      40.067237     14.351449     39.446498
  C      39.819865     16.456064     39.818347
  H      38.803500     16.413726     40.225672
  C      40.400887     17.831942     39.605689
  H      40.127023     18.169709     38.581334
  O      39.889053     18.740086     40.564693
  H      40.276983     19.635460     40.365329
  C      42.412673     14.192918     38.084940
  O      43.497896     14.367294     37.497377
  O      41.738042     13.150403     38.251495
  C      39.388000     20.557000     43.513000
  H      39.587925     20.549885     44.584485
  H      38.871109     19.626665     43.241040
  H      38.720429     21.397897     43.284297
  N      40.641747     20.688292     42.753772
  H      40.545151     21.204614     41.870718
  C      41.689886     19.868559     42.789867
  N      41.456916     18.574411     42.934447
  H      40.667811     18.237989     42.380608
  H      42.223217     17.922533     42.899086
  N      42.705143     20.198033     42.014793
  H      42.483023     20.940684     41.350086
  H      43.152734     19.469432     41.471376
37
Coordinates from ORCA-job job E -836.461988476410
  C      42.373695     19.499717     37.175571
  H      42.829749     18.552501     36.881038
  H      42.057358     20.216831     36.417189
  C      42.166171     19.822157     38.457581
  C      41.462191     21.137316     38.862569
  O      41.352236     22.010372     38.003193
  O      41.039954     21.185719     40.072449
  O      42.559029     19.013005     39.509677
  C      41.942511     17.729338     39.697534
  H      42.177528     17.495776     40.765630
  C      42.495686     16.604557     38.868896
  H      43.501150     16.664430     38.443774
  C      41.825769     15.436454     38.800465
  C      40.507463     15.334775     39.440508
  H      40.101565     14.322200     39.504804
  C      39.841850     16.428101     39.860514
  H      38.825847     16.382950     40.268229
  C      40.416135     17.804822     39.636886
  H      40.142937     18.132827     38.609062
  O      39.899964     18.719648     40.587048
  H      40.281623     19.614906     40.377096
  C      42.448231     14.167063     38.144649
  O      43.532587     14.343559     37.556087
  O      41.780569     13.121582     38.320589
  C      39.388000     20.557000     43.513000
  H      39.587925     20.549885     44.584485
  H      38.878489     19.623339     43.238253
  H      38.713104     21.392420     43.285819
  N      40.640915     20.699094     42.754229
  H      40.537164     21.204862     41.866051
  C      41.698095     19.891504     42.797470
  N      41.480494     18.596246     42.955159
  H      40.696130     18.245116     42.402899
  H      42.254275     17.952871     42.926270
  N      42.710295     20.224843     42.019837
  H      42.483426     20.962170     41.351402
  H      43.162904     19.496710     41.479953
37
Coordinates from ORCA-job job E -836.462026990306
  C      42.395498     19.404830     37.214346
  H      42.858460     18.455240     36.939452
  H      42.075606     20.103576     36.440336
  C      42.182330     19.755956     38.487990
  C      41.464485     21.074288     38.858016
  O      41.358132     21.928244     37.979033
  O      41.027934     21.145306     40.061517
  O      42.575344     18.977074     39.562531
  C      41.981314     17.684813     39.767146
  H      42.220105     17.471279     40.838545
  C      42.550606     16.556009     38.955646
  H      43.556194     16.619617     38.531413
  C      41.894687     15.378938     38.903610
  C      40.577647     15.268834     39.544472
  H      40.185393     14.251972     39.623730
  C      39.897398     16.359180     39.949066
  H      38.882335     16.306511     40.358172
  C      40.454370     17.738872     39.704051
  H      40.178966     18.047216     38.670723
  O      39.927581     18.665189     40.637411
  H      40.292818     19.561398     40.404148
  C      42.535281     14.108596     38.267172
  O      43.617486     14.291177     37.676619
  O      41.881406     13.056894     38.457569
  C      39.388000     20.557000     43.513000
  H      39.587925     20.549885     44.584485
  H      38.888793     19.618464     43.235258
  H      38.703706     21.385198     43.287652
  N      40.638779     20.712547     42.753194
  H      40.523503     21.195492     41.854062
  C      41.712919     19.929304     42.813688
  N      41.523665     18.633365     42.999368
  H      40.750882     18.253558     42.448619
  H      42.310585     18.005490     42.987726
  N      42.718909     20.267679     42.029752
  H      42.482912     20.994565     41.353629
  H      43.177476     19.539282     41.494543
37
Coordinates from ORCA-job job E -836.462073991096
  C      42.442861     19.290530     37.264373
  H      42.916672     18.339489     37.014383
  H      42.120940     19.966809     36.471437
  C      42.216937     19.673426     38.526779
  C      41.479167     20.992670     38.853254
  O      41.377711     21.823347     37.951544
  O      41.021451     21.089143     40.047041
  O      42.606575     18.929124     39.626851
  C      42.035324     17.629686     39.852069
  H      42.273545     17.441227     40.928319
  C      42.623559     16.494865     39.063892
  H      43.630762     16.561145     38.644239
  C      41.982234     15.308847     39.030453
  C      40.663873     15.192748     39.667190
  H      40.284439     14.172367     39.762413
  C      39.967601     16.280906     40.050394
  H      38.951859     16.222495     40.456889
  C      40.508492     17.662268     39.782354
  H      40.233114     17.948638     38.742592
  O      39.969835     18.601876     40.695573
  H      40.317555     19.497306     40.435056
  C      42.642757     14.036328     38.419599
  O      43.725739     14.222433     37.831623
  O      42.001706     12.979551     38.625550
  C      39.388000     20.557000     43.513000
  H      39.587925     20.549885     44.584485
  H      38.897737     19.614133     43.233207
  H      38.696510     21.379445     43.288705
  N      40.636509     20.722537     42.751155
  H      40.511071     21.177204     41.839025
  C      41.729508     19.968310     42.832316
  N      41.572392     18.673905     43.054153
  H      40.808469     18.261106     42.514551
  H      42.373105     18.063360     43.058458
  N      42.728698     20.311205     42.040847
  H      42.482187     21.025515     41.355679
  H      43.193086     19.582206     41.510665
37
Coordinates from ORCA-job job E -836.462146310004
  C      42.534101     19.124006     37.347549
  H      43.029010     18.174408     37.136453
  H      42.212417     19.766644     36.526896
  C      42.280524     19.548043     38.591661
  C      41.510337     20.863450     38.853840
  O      41.415756     21.659886     37.920859
  O      41.019620     20.993529     40.031219
  O      42.664856     18.853032     39.725603
  C      42.122549     17.546996     39.985340
  H      42.355922     17.397979     41.068647
  C      42.739592     16.402312     39.235681
  H      43.750222     16.473211     38.825103
  C      42.120032     15.203989     39.230113
  C      40.798420     15.080392     39.858279
  H      40.437055     14.055900     39.977126
  C      40.078540     16.164910     40.207247
  H      39.060777     16.098704     40.607547
  C      40.595826     17.547992     39.905369
  H      40.320477     17.801007     38.857054
  O      40.036991     18.505289     40.788174
  H      40.358331     19.398500     40.488051
  C      42.810234     13.928582     38.660083
  O      43.896641     14.118411     38.079725
  O      42.185094     12.866071     38.885090
  C      39.388000     20.557000     43.513000
  H      39.587925     20.549885     44.584485
  H      38.905004     19.610217     43.233013
  H      38.692090     21.375709     43.288883
  N      40.633898     20.728614     42.747895
  H      40.498269     21.139552     41.817017
  C      41.751407     20.016301     42.862739
  N      41.635778     18.728057     43.138291
  H      40.886342     18.269684     42.615619
  H      42.454473     18.142513     43.169376
  N      42.742397     20.360490     42.060905
  H      42.482455     21.056700     41.362564
  H      43.210073     19.627075     41.537820
37
Coordinates from ORCA-job job E -836.462257966526
  C      42.685270     18.913478     37.473604
  H      43.213192     17.970929     37.318398
  H      42.368710     19.509228     36.616434
  C      42.383527     19.384848     38.689749
  C      41.566512     20.686345     38.865946
  O      41.481357     21.437374     37.895097
  O      41.028845     20.853763     40.017834
  O      42.755450     18.752360     39.864429
  C      42.241622     17.444305     40.170921
  H      42.460404     17.347856     41.262826
  C      42.895967     16.285653     39.477878
  H      43.912683     16.361486     39.083630
  C      42.302307     15.074523     39.509117
  C      40.972316     14.946099     40.118490
  H      40.630119     13.918948     40.267870
  C      40.223494     16.026498     40.415553
  H      39.200415     15.953353     40.800820
  C      40.716283     17.408667     40.071434
  H      40.447164     17.618503     39.012083
  O      40.129581     18.387096     40.912430
  H      40.421174     19.273429     40.563989
  C      43.028979     13.794452     38.999137
  O      44.123441     13.985275     38.434282
  O      42.419869     12.727891     39.248069
  C      39.388000     20.557000     43.513000
  H      39.587925     20.549885     44.584485
  H      38.908266     19.607943     43.234216
  H      38.691859     21.375225     43.288018
  N      40.632410     20.728911     42.745030
  H      40.489090     21.080831     41.791637
  C      41.776905     20.069756     42.904072
  N      41.708528     18.795626     43.250647
  H      40.972364     18.283225     42.761668
  H      42.547686     18.241901     43.309754
  N      42.760835     20.409661     42.091145
  H      42.487352     21.082397     41.375926
  H      43.229812     19.666815     41.580172
37
Coordinates from ORCA-job job E -836.462434507615
  C      42.900614     18.624210     37.678999
  H      43.478923     17.701284     37.608537
  H      42.592384     19.146413     36.772319
  C      42.525850     19.155812     38.849104
  C      41.642670     20.423856     38.905597
  O      41.568904     21.109627     37.886635
  O      41.043360     20.634198     40.018997
  O      42.883490     18.616908     40.074886
  C      42.405280     17.314318     40.456325
  H      42.601734     17.296058     41.555806
  C      43.112042     16.137798     39.851187
  H      44.136157     16.223087     39.478278
  C      42.556680     14.911705     39.942363
  C      41.216119     14.776290     40.527130
  H      40.902029     13.748583     40.726487
  C      40.427053     15.846736     40.744846
  H      39.397428     15.762370     41.110071
  C      40.883124     17.223251     40.332683
  H      40.624407     17.364451     39.259642
  O      40.252904     18.229438     41.107443
  H      40.505241     19.099829     40.691400
  C      43.334593     13.628467     39.525383
  O      44.440324     13.821143     38.983158
  O      42.748535     12.558739     39.812696
  C      39.388000     20.557000     43.513000
  H      39.587925     20.549885     44.584485
  H      38.910001     19.605952     43.237479
  H      38.693753     21.376355     43.286504
  N      40.630963     20.726089     42.741864
  H      40.479853     20.989061     41.761776
  C      41.807206     20.143684     42.960993
  N      41.798815     18.899053     43.406428
  H      41.083798     18.316044     42.969792
  H      42.664531     18.393963     43.504502
  N      42.783981     20.470727     42.134079
  H      42.496150     21.109054     41.394542
  H      43.252471     19.709314     41.646582
37
Coordinates from ORCA-job job E -836.462636904357
  C      43.105640     18.333937     37.912055
  H      43.738013     17.444432     37.932211
  H      42.802850     18.769926     36.959357
  C      42.657604     18.920079     39.028780
  C      41.706847     20.136968     38.969873
  O      41.638928     20.755232     37.908211
  O      41.054630     20.380626     40.045424
  O      43.009583     18.485931     40.298275
  C      42.565012     17.200236     40.769304
  H      42.739507     17.268863     41.869732
  C      43.325994     16.010331     40.263629
  H      44.354641     16.109858     39.906745
  C      42.814967     14.773399     40.429679
  C      41.466352     14.628558     40.994467
  H      41.184419     13.605262     41.255298
  C      40.635108     15.680744     41.123304
  H      39.600888     15.581608     41.471540
  C      41.048309     17.044558     40.629344
  H      40.800942     17.104705     39.546008
  O      40.369190     18.074131     41.327952
  H      40.584144     18.920509     40.843482
  C      43.646659     13.494075     40.118099
  O      44.760340     13.691022     39.593226
  O      43.089024     12.424522     40.456907
  C      39.388000     20.557000     43.513000
  H      39.587925     20.549885     44.584485
  H      38.906023     19.606189     43.243227
  H      38.698725     21.379962     43.284549
  N      40.630557     20.717889     42.739375
  H      40.474363     20.885669     41.739224
  C      41.831403     20.212473     43.014171
  N      41.876241     19.008979     43.559116
  H      41.174508     18.365308     43.194598
  H      42.765267     18.551622     43.679660
  N      42.805455     20.518989     42.176424
  H      42.510516     21.120538     41.411680
  H      43.275037     19.734592     41.724156
37
Coordinates from ORCA-job job E -836.462755358961
  C      43.135861     18.309444     37.933078
  H      43.783442     17.431273     37.966990
  H      42.831945     18.732790     36.975170
  C      42.673113     18.890639     39.045832
  C      41.708041     20.096349     38.985158
  O      41.636517     20.710901     37.921692
  O      41.052893     20.342365     40.059919
  O      43.037555     18.463105     40.313672
  C      42.588137     17.184729     40.799671
  H      42.757313     17.265017     41.900226
  C      43.361013     15.993835     40.311369
  H      44.389397     16.102500     39.956145
  C      42.861767     14.754221     40.487173
  C      41.510739     14.603831     41.045603
  H      41.235767     13.581191     41.315908
  C      40.670611     15.650182     41.157104
  H      39.634970     15.544706     41.499187
  C      41.073759     17.014341     40.654266
  H      40.832041     17.062838     39.568867
  O      40.378602     18.037411     41.343553
  H      40.594790     18.887302     40.864444
  C      43.705309     13.477767     40.194460
  O      44.820077     13.679035     39.673012
  O      43.155144     12.407572     40.542547
  C      39.388000     20.557000     43.513000
  H      39.587925     20.549885     44.584485
  H      38.889113     19.614118     43.247346
  H      38.708420     21.387862     43.283998
  N      40.635332     20.705859     42.744782
  H      40.484404     20.870680     41.740921
  C      41.827516     20.185268     43.031393
  N      41.855974     18.979308     43.572497
  H      41.141856     18.345973     43.214337
  H      42.741514     18.512232     43.680074
  N      42.814752     20.482296     42.207434
  H      42.537635     21.089423     41.442958
  H      43.285445     19.691646     41.768376
37
Coordinates from ORCA-job job E -836.462936880892
  C      43.284172     18.088534     38.152405
  H      43.963144     17.240445     38.256421
  H      42.992691     18.442933     37.163159
  C      42.767995     18.713768     39.216288
  C      41.761980     19.874944     39.066613
  O      41.700040     20.437560     37.973919
  O      41.068901     20.138330     40.110757
  O      43.111266     18.377803     40.518038
  C      42.692739     17.113395     41.065650
  H      42.847346     17.256372     42.161638
  C      43.507263     15.921257     40.652403
  H      44.537382     16.040403     40.305648
  C      43.040525     14.678899     40.885747
  C      41.686081     14.518095     41.433456
  H      41.436856     13.504058     41.755578
  C      40.814820     15.543643     41.477304
  H      39.778313     15.425032     41.812137
  C      41.186394     16.890142     40.907818
  H      40.963945     16.872751     39.817047
  O      40.449887     17.928335     41.527940
  H      40.643466     18.753707     40.997985
  C      43.924782     13.413697     40.672301
  O      45.040996     13.621440     40.156160
  O      43.401227     12.347437     41.070042
  C      39.388000     20.557000     43.513000
  H      39.587925     20.549885     44.584485
  H      38.895494     19.612581     43.242169
  H      38.701367     21.383077     43.288119
  N      40.633450     20.713666     42.744264
  H      40.479082     20.795147     41.731488
  C      41.839295     20.252168     43.071104
  N      41.906248     19.082303     43.683237
  H      41.225189     18.398478     43.350465
  H      42.808934     18.660584     43.828431
  N      42.827009     20.532971     42.241780
  H      42.559114     21.115787     41.457434
  H      43.307514     19.729147     41.837323
37
Coordinates from ORCA-job job E -836.463072651587
  C      43.313338     18.033480     38.202277
  H      43.993249     17.187536     38.316300
  H      43.025138     18.377190     37.208295
  C      42.790754     18.669551     39.256661
  C      41.782016     19.826458     39.090934
  O      41.733089     20.387134     37.996347
  O      41.076384     20.090747     40.126077
  O      43.124879     18.352052     40.565565
  C      42.720972     17.085869     41.120748
  H      42.874521     17.238628     42.216157
  C      43.548382     15.898044     40.719526
  H      44.577612     16.022417     40.372455
  C      43.092559     14.653690     40.964728
  C      41.740266     14.485343     41.515056
  H      41.501337     13.473673     41.851855
  C      40.859226     15.503461     41.546066
  H      39.824708     15.379753     41.884823
  C      41.219144     16.844861     40.958513
  H      41.007368     16.809014     39.865758
  O      40.466598     17.884517     41.555980
  H      40.658076     18.704704     41.017296
  C      43.990600     13.395371     40.765126
  O      45.102504     13.608564     40.242392
  O      43.480208     12.329498     41.180534
  C      39.388000     20.557000     43.513000
  H      39.587925     20.549885     44.584485
  H      38.893139     19.614992     43.237435
  H      38.699915     21.382742     43.291514
  N      40.634978     20.713523     42.746923
  H      40.483087     20.781002     41.732712
  C      41.835650     20.247429     43.083144
  N      41.897783     19.076972     43.694853
  H      41.230529     18.388588     43.339240
  H      42.798761     18.655656     43.852459
  N      42.830333     20.526615     42.261621
  H      42.581940     21.118817     41.479196
  H      43.317305     19.724811     41.861719
37
Coordinates from ORCA-job job E -836.463182884215
  C      43.364658     17.915722     38.290135
  H      44.057059     17.082688     38.422922
  H      43.072617     18.231706     37.288007
  C      42.829822     18.568518     39.328297
  C      41.802699     19.704724     39.135746
  O      41.757861     20.255217     38.035559
  O      41.082168     19.965476     40.160570
  O      43.164819     18.292217     40.647097
  C      42.786030     17.032834     41.235971
  H      42.937029     17.217778     42.327350
  C      43.636291     15.851301     40.865337
  H      44.663991     15.986120     40.518122
  C      43.203372     14.604705     41.140473
  C      41.854483     14.424099     41.694519
  H      41.634063     13.417142     42.057217
  C      40.954996     15.426799     41.700395
  H      39.923272     15.293837     42.044030
  C      41.290276     16.759085     41.079029
  H      41.083796     16.690755     39.986601
  O      40.515198     17.799542     41.644978
  H      40.691517     18.606633     41.081035
  C      44.126937     13.360179     40.972794
  O      45.234330     13.581383     40.444264
  O      43.637324     12.295671     41.415787
  C      39.388000     20.557000     43.513000
  H      39.587925     20.549885     44.584485
  H      38.882474     19.620631     43.236840
  H      38.707336     21.389063     43.292320
  N      40.638342     20.698229     42.747198
  H      40.490685     20.730990     41.731753
  C      41.839781     20.246824     43.101046
  N      41.909105     19.091429     43.740188
  H      41.248199     18.390199     43.396238
  H      42.811165     18.673296     43.901788
  N      42.840372     20.517289     42.282397
  H      42.608938     21.111309     41.498420
  H      43.333155     19.712694     41.894533
37
Coordinates from ORCA-job job E -836.463291213939
  C      43.359081     17.839236     38.314610
  H      44.054754     17.008726     38.447363
  H      43.056518     18.144069     37.311787
  C      42.831765     18.503468     39.349845
  C      41.798720     19.634473     39.152880
  O      41.754944     20.185576     38.052766
  O      41.069535     19.889504     40.173889
  O      43.180055     18.249529     40.668899
  C      42.826314     16.995484     41.283222
  H      42.979564     17.203484     42.370625
  C      43.693852     15.822226     40.927913
  H      44.718071     15.968607     40.574994
  C      43.283108     14.572725     41.225803
  C      41.941187     14.378951     41.790770
  H      41.739013     13.374787     42.171651
  C      41.025711     15.367644     41.785886
  H      39.998454     15.225764     42.139526
  C      41.334876     16.694160     41.139074
  H      41.126401     16.601526     40.048850
  O      40.540993     17.730475     41.686899
  H      40.704989     18.533217     41.111294
  C      44.228107     13.342704     41.073174
  O      45.328693     13.573030     40.535133
  O      43.759337     12.277513     41.536833
  C      39.388000     20.557000     43.513000
  H      39.587925     20.549885     44.584485
  H      38.871171     19.625344     43.241284
  H      38.717526     21.396748     43.290210
  N      40.639727     20.679467     42.746317
  H      40.495183     20.700784     41.728944
  C      41.836846     20.222040     43.105520
  N      41.898639     19.071284     43.753914
  H      41.241105     18.368453     43.406149
  H      42.795347     18.645718     43.926335
  N      42.842308     20.487372     42.290865
  H      42.627149     21.091742     41.510303
  H      43.343028     19.684539     41.908914
37
Coordinates from ORCA-job job E -836.463379887762
  C      43.398726     17.694749     38.421618
  H      44.108485     16.880186     38.577451
  H      43.087807     17.961785     37.410424
  C      42.863252     18.383984     39.436193
  C      41.808681     19.488129     39.209089
  O      41.762825     20.025225     38.102197
  O      41.064672     19.734720     40.220847
  O      43.219009     18.184134     40.762067
  C      42.895273     16.948104     41.427014
  H      43.044163     17.203563     42.504688
  C      43.789072     15.782929     41.114486
  H      44.809229     15.940802     40.754622
  C      43.408672     14.535823     41.459814
  C      42.072227     14.331575     42.033809
  H      41.893641     13.337301     42.450828
  C      41.133712     15.297641     41.994688
  H      40.110144     15.145667     42.354817
  C      41.410175     16.607018     41.299379
  H      41.201160     16.469043     40.214128
  O      40.592324     17.643383     41.811072
  H      40.734022     18.427167     41.202529
  C      44.382268     13.324227     41.350173
  O      45.477018     13.559903     40.802674
  O      43.938944     12.265442     41.852313
  C      39.388000     20.557000     43.513000
  H      39.587925     20.549885     44.584485
  H      38.863169     19.628366     43.246513
  H      38.727779     21.403836     43.286513
  N      40.639433     20.660268     42.743457
  H      40.496088     20.636384     41.725629
  C      41.842036     20.230768     43.119454
  N      41.916459     19.108341     43.814360
  H      41.267813     18.383866     43.496871
  H      42.816819     18.698858     44.005624
  N      42.848130     20.481381     42.300497
  H      42.640848     21.078768     41.513393
  H      43.354435     19.672420     41.938079
37
Coordinates from ORCA-job job E -836.463490687056
  C      43.381315     17.638391     38.435438
  H      44.090255     16.822734     38.589876
  H      43.059543     17.896313     37.425152
  C      42.859915     18.341387     39.447847
  C      41.799778     19.440382     39.217814
  O      41.757655     19.983000     38.113997
  O      41.039048     19.672448     40.222882
  O      43.228104     18.155354     40.769701
  C      42.922557     16.926825     41.455737
  H      43.067264     17.203176     42.528309
  C      43.829878     15.769218     41.157649
  H      44.845712     15.936019     40.789391
  C      43.467523     14.522419     41.523346
  C      42.134856     14.309287     42.103271
  H      41.970153     13.318255     42.533564
  C      41.182788     15.261130     42.052132
  H      40.161041     15.101088     42.413869
  C      41.440212     16.565259     41.338939
  H      41.226349     16.411118     40.257005
  O      40.613027     17.597431     41.844041
  H      40.742109     18.377042     41.226441
  C      44.455059     13.322102     41.427596
  O      45.544357     13.561964     40.870831
  O      44.028227     12.265667     41.949281
  C      39.388000     20.557000     43.513000
  H      39.587925     20.549885     44.584485
  H      38.852530     19.631806     43.255919
  H      38.742270     21.412856     43.278734
  N      40.638171     20.636271     42.741388
  H      40.495981     20.607098     41.721292
  C      41.839533     20.206952     43.120932
  N      41.906549     19.095502     43.833729
  H      41.261524     18.366259     43.522505
  H      42.804149     18.690526     44.045435
  N      42.845263     20.446790     42.300316
  H      42.640470     21.048452     41.515243
  H      43.350628     19.635520     41.941952
37
Coordinates from ORCA-job job E -836.463573904267
  C      43.387835     17.564918     38.502648
  H      44.099235     16.754039     38.669514
  H      43.062555     17.803932     37.488800
  C      42.869306     18.285836     39.503646
  C      41.802821     19.374270     39.257822
  O      41.769777     19.918179     38.154534
  O      41.026498     19.594765     40.253172
  O      43.242555     18.127251     40.826574
  C      42.953436     16.908330     41.536521
  H      43.098000     17.207335     42.602645
  C      43.873114     15.755686     41.257031
  H      44.884434     15.926539     40.878002
  C      43.526836     14.512506     41.648623
  C      42.199504     14.295917     42.239799
  H      42.049311     13.312197     42.691420
  C      41.235619     15.234470     42.173531
  H      40.217365     15.068978     42.542637
  C      41.473888     16.527124     41.433016
  H      41.256202     16.348959     40.355579
  O      40.638018     17.560004     41.921468
  H      40.752266     18.326466     41.283298
  C      44.526548     13.321019     41.570913
  O      45.609575     13.562208     41.002272
  O      44.115466     12.270542     42.116737
  C      39.388000     20.557000     43.513000
  H      39.587925     20.549885     44.584485
  H      38.848174     19.634035     43.259174
  H      38.749190     21.417174     43.275680
  N      40.636785     20.624516     42.739425
  H      40.493721     20.572177     41.720984
  C      41.841773     20.215827     43.130073
  N      41.917497     19.119035     43.864389
  H      41.290169     18.372149     43.557399
  H      42.820487     18.738113     44.095811
  N      42.845552     20.447318     42.305357
  H      42.642422     21.048622     41.519299
  H      43.342302     19.629098     41.949379
37
Coordinates from ORCA-job job E -836.463687751054
  C      43.397782     17.559465     38.551841
  H      44.097050     16.740120     38.727215
  H      43.084796     17.799736     37.534662
  C      42.882262     18.290504     39.546479
  C      41.824824     19.383822     39.287592
  O      41.831764     19.954004     38.197335
  O      41.008573     19.577659     40.256423
  O      43.239899     18.131463     40.871887
  C      42.951429     16.907773     41.574527
  H      43.089205     17.204308     42.641813
  C      43.876479     15.758270     41.298162
  H      44.886860     15.929528     40.917177
  C      43.531122     14.515620     41.689554
  C      42.201850     14.297098     42.277138
  H      42.054355     13.314869     42.732546
  C      41.234613     15.231019     42.202815
  H      40.215490     15.061292     42.567301
  C      41.472842     16.523108     41.461343
  H      41.261779     16.344184     40.382439
  O      40.635077     17.556122     41.944228
  H      40.746695     18.318727     41.299929
  C      44.531888     13.324134     41.617324
  O      45.612231     13.565164     41.042707
  O      44.124497     12.276258     42.170526
  C      39.388000     20.557000     43.513000
  H      39.587925     20.549885     44.584485
  H      38.844490     19.636252     43.258733
  H      38.752468     21.419166     43.274175
  N      40.636756     20.621791     42.740638
  H      40.494907     20.572507     41.722216
  C      41.840787     20.223518     43.141052
  N      41.921101     19.132978     43.884281
  H      41.296982     18.379067     43.586481
  H      42.830230     18.768061     44.117125
  N      42.846599     20.456658     42.321037
  H      42.649283     21.066797     41.540924
  H      43.334118     19.635505     41.959230
37
Coordinates from ORCA-job job E -836.463759898789
  C      43.418184     17.536104     38.593004
  H      44.117534     16.717775     38.772922
  H      43.109194     17.773332     37.574048
  C      42.898189     18.267565     39.584854
  C      41.839203     19.357856     39.322914
  O      41.863906     19.947624     38.243012
  O      41.004155     19.530263     40.278926
  O      43.250551     18.114019     40.913373
  C      42.966845     16.889556     41.618250
  H      43.103855     17.188359     42.685211
  C      43.897549     15.743829     41.344401
  H      44.907395     15.918145     40.963696
  C      43.556739     14.500602     41.737426
  C      42.228081     14.277583     42.324632
  H      42.084535     13.295928     42.782415
  C      41.257357     15.207562     42.247667
  H      40.239226     15.034037     42.613033
  C      41.490703     16.499351     41.504480
  H      41.281672     16.318946     40.425226
  O      40.649780     17.530494     41.984441
  H      40.753262     18.286693     41.331157
  C      44.562756     13.312804     41.668337
  O      45.640721     13.556931     41.090457
  O      44.161349     12.266059     42.227736
  C      39.388000     20.557000     43.513000
  H      39.587925     20.549885     44.584485
  H      38.838204     19.640569     43.256508
  H      38.755443     21.421762     43.275714
  N      40.639425     20.616574     42.741860
  H      40.500428     20.555670     41.725129
  C      41.844015     20.227731     43.150260
  N      41.929585     19.139937     43.896829
  H      41.312250     18.379956     43.597723
  H      42.841574     18.783658     44.132379
  N      42.852517     20.460877     42.331939
  H      42.664949     21.080980     41.558677
  H      43.330648     19.636805     41.963336
37
Coordinates from ORCA-job job E -836.463846352882
  C      43.428489     17.554328     38.612281
  H      44.123551     16.731764     38.790108
  H      43.129863     17.802278     37.592793
  C      42.901478     18.275267     39.608133
  C      41.848681     19.372226     39.352221
  O      41.905658     19.998492     38.293423
  O      40.984816     19.515324     40.286917
  O      43.243930     18.110884     40.939040
  C      42.961185     16.877539     41.629982
  H      43.098270     17.163273     42.700738
  C      43.894367     15.736653     41.344073
  H      44.906152     15.916459     40.971250
  C      43.553100     14.487803     41.719254
  C      42.223701     14.255797     42.300511
  H      42.079654     13.268093     42.745011
  C      41.253347     15.187409     42.234941
  H      40.235498     15.008459     42.598753
  C      41.486622     16.488434     41.508630
  H      41.280828     16.321332     40.426566
  O      40.643565     17.514047     41.995880
  H      40.739687     18.269985     41.341076
  C      44.562247     13.302661     41.637425
  O      45.641581     13.556624     41.066794
  O      44.160321     12.247974     42.181016
  C      39.388000     20.557000     43.513000
  H      39.587925     20.549885     44.584485
  H      38.833207     19.644460     43.253413
  H      38.755438     21.422842     43.279698
  N      40.641079     20.617488     42.742505
  H      40.505102     20.556951     41.725553
  C      41.844361     20.228446     43.153461
  N      41.932341     19.135291     43.891797
  H      41.310685     18.378260     43.593045
  H      42.844510     18.774886     44.120966
  N      42.857049     20.470388     42.340696
  H      42.685394     21.110431     41.579849
  H      43.328761     19.647609     41.959728
37
Coordinates from ORCA-job job E -836.463900491564
  C      43.451922     17.545572     38.657275
  H      44.151127     16.726812     38.837126
  H      43.160519     17.794949     37.635943
  C      42.910657     18.256628     39.652647
  C      41.853104     19.348566     39.399433
  O      41.932141     20.009310     38.362627
  O      40.960998     19.451211     40.312393
  O      43.244667     18.092177     40.986430
  C      42.970186     16.855022     41.674859
  H      43.105897     17.139028     42.746236
  C      43.910894     15.721454     41.385850
  H      44.923512     15.909748     41.019702
  C      43.576365     14.468267     41.753817
  C      42.246773     14.224571     42.329687
  H      42.106705     13.233011     42.767024
  C      41.271321     15.151572     42.268244
  H      40.254052     14.964516     42.629639
  C      41.498296     16.458522     41.550769
  H      41.295519     16.296487     40.467340
  O      40.647623     17.477243     42.040808
  H      40.730382     18.228399     41.378640
  C      44.594622     13.291135     41.668665
  O      45.674723     13.555397     41.104541
  O      44.197237     12.230333     42.203672
  C      39.388000     20.557000     43.513000
  H      39.587925     20.549885     44.584485
  H      38.829739     19.646301     43.252103
  H      38.756055     21.423896     43.281981
  N      40.640992     20.615947     42.742626
  H      40.506154     20.537678     41.725812
  C      41.844636     20.233046     43.157499
  N      41.936074     19.144448     43.901842
  H      41.308383     18.387477     43.616877
  H      42.847634     18.780049     44.127575
  N      42.860482     20.478253     42.348684
  H      42.703331     21.134360     41.599364
  H      43.331346     19.656146     41.964547
37
Coordinates from ORCA-job job E -836.463928634673
  C      43.469490     17.607265     38.648820
  H      44.168203     16.786823     38.822742
  H      43.192000     17.875087     37.628184
  C      42.911724     18.295260     39.651376
  C      41.858158     19.393227     39.408604
  O      41.965187     20.085952     38.395019
  O      40.940170     19.475183     40.299031
  O      43.232796     18.103041     40.984898
  C      42.948290     16.854192     41.648448
  H      43.079875     17.116432     42.725719
  C      43.885107     15.722332     41.341475
  H      44.902468     15.914763     40.990791
  C      43.542372     14.462227     41.678130
  C      42.207394     14.211224     42.237890
  H      42.058458     13.209629     42.648771
  C      41.237374     15.145058     42.193589
  H      40.216747     14.954626     42.543558
  C      41.475703     16.467283     41.508647
  H      41.277266     16.330677     40.421097
  O      40.628122     17.479373     42.017044
  H      40.708245     18.237030     41.362867
  C      44.556932     13.283897     41.572582
  O      45.645325     13.557933     41.029824
  O      44.148330     12.210264     42.072904
  C      39.388000     20.557000     43.513000
  H      39.587925     20.549885     44.584485
  H      38.831083     19.645940     43.251725
  H      38.753170     21.422272     43.283787
  N      40.640584     20.622565     42.742510
  H      40.507493     20.549801     41.723688
  C      41.842572     20.229816     43.152832
  N      41.927694     19.127925     43.877952
  H      41.293331     18.380878     43.583003
  H      42.835151     18.750279     44.098113
  N      42.861131     20.483020     42.350916
  H      42.715848     21.156924     41.614703
  H      43.328244     19.663615     41.956445
37
Coordinates from ORCA-job job E -836.463953452720
  C      43.463824     17.585900     38.665533
  H      44.165572     16.768844     38.842683
  H      43.182231     17.846031     37.643959
  C      42.907267     18.279956     39.664619
  C      41.850222     19.373195     39.417706
  O      41.950669     20.061282     38.400454
  O      40.937653     19.454435     40.312812
  O      43.233367     18.098600     40.998196
  C      42.954812     16.854380     41.671972
  H      43.088295     17.125969     42.746613
  C      43.893681     15.722577     41.371041
  H      44.909298     15.915196     41.015177
  C      43.555982     14.464173     41.718653
  C      42.223757     14.213600     42.285050
  H      42.079474     13.214924     42.704539
  C      41.250508     15.143759     42.236563
  H      40.231449     14.953290     42.590962
  C      41.482511     16.460863     41.539394
  H      41.282004     16.313143     40.453691
  O      40.632056     17.474234     42.040510
  H      40.708707     18.226878     41.379692
  C      44.573091     13.287975     41.617883
  O      45.659527     13.561442     41.070706
  O      44.168626     12.215930     42.124962
  C      39.388000     20.557000     43.513000
  H      39.587925     20.549885     44.584485
  H      38.835627     19.643324     43.252826
  H      38.751785     21.420860     43.282312
  N      40.639027     20.624106     42.741144
  H      40.502957     20.540802     41.723967
  C      41.843760     20.238634     43.151366
  N      41.934051     19.143512     43.886333
  H      41.298952     18.392754     43.603152
  H      42.843347     18.768047     44.102349
  N      42.860281     20.490253     42.346863
  H      42.712923     21.159783     41.605949
  H      43.332492     19.670084     41.960365
37
Coordinates from ORCA-job job E -836.463965216100
  C      43.466955     17.585945     38.670825
  H      44.169612     16.769754     38.848078
  H      43.185518     17.845663     37.649106
  C      42.909313     18.280265     39.669086
  C      41.851042     19.371835     39.420388
  O      41.950571     20.059086     38.402707
  O      40.937857     19.450879     40.314835
  O      43.235030     18.098970     41.002534
  C      42.955853     16.855520     41.677346
  H      43.088376     17.128932     42.751622
  C      43.893831     15.722677     41.377681
  H      44.909233     15.914127     41.020489
  C      43.555440     14.464998     41.726538
  C      42.222909     14.215750     42.293085
  H      42.078246     13.217707     42.713836
  C      41.249772     15.145725     42.242973
  H      40.230230     14.956500     42.596406
  C      41.483072     16.462136     41.544614
  H      41.283217     16.313413     40.458860
  O      40.633145     17.476407     42.045140
  H      40.709657     18.228365     41.383334
  C      44.570803     13.287653     41.626167
  O      45.657332     13.559779     41.078142
  O      44.165625     12.216141     42.133768
  C      39.388000     20.557000     43.513000
  H      39.587925     20.549885     44.584485
  H      38.840074     19.640265     43.253449
  H      38.749729     21.418828     43.280408
  N      40.638833     20.626903     42.741231
  H      40.501253     20.538481     41.724956
  C      41.844493     20.243749     43.151226
  N      41.935491     19.149355     43.887316
  H      41.302364     18.397092     43.603183
  H      42.845663     18.774822     44.101184
  N      42.860044     20.494219     42.346266
  H      42.710887     21.161903     41.604890
  H      43.334740     19.674183     41.963056
37
Coordinates from ORCA-job job E -836.463973610063
  C      43.467094     17.599458     38.670498
  H      44.169104     16.782358     38.845891
  H      43.187762     17.862985     37.649172
  C      42.907755     18.290529     39.670025
  C      41.850027     19.382943     39.422342
  O      41.954101     20.075783     38.408945
  O      40.932825     19.457105     40.313142
  O      43.231680     18.103999     41.003162
  C      42.950020     16.858735     41.673448
  H      43.081870     17.128436     42.748726
  C      43.886097     15.725363     41.370082
  H      44.901805     15.916265     41.013426
  C      43.545615     14.467051     41.714153
  C      42.212634     14.217924     42.279757
  H      42.066460     13.218702     42.697135
  C      41.240940     15.149406     42.232573
  H      40.220879     14.961234     42.584989
  C      41.476735     16.467687     41.538445
  H      41.277634     16.322398     40.452062
  O      40.628454     17.481851     42.041264
  H      40.704762     18.234056     41.379575
  C      44.558398     13.288078     41.608666
  O      45.645424     13.560659     41.061568
  O      44.151380     12.215000     42.111426
  C      39.388000     20.557000     43.513000
  H      39.587925     20.549885     44.584485
  H      38.844614     19.637722     43.253696
  H      38.747163     21.416549     43.279029
  N      40.638925     20.630419     42.741411
  H      40.500154     20.540257     41.725653
  C      41.845157     20.246793     43.149869
  N      41.936568     19.150480     43.883177
  H      41.302061     18.399289     43.598924
  H      42.847210     18.773659     44.090993
  N      42.859983     20.498920     42.344683
  H      42.710900     21.168608     41.604616
  H      43.336855     19.679959     41.962021
37
Coordinates from ORCA-job job E -836.463979961121
  C      43.464312     17.618489     38.661036
  H      44.165197     16.799612     38.832608
  H      43.186575     17.887951     37.640838
  C      42.904374     18.304419     39.663721
  C      41.848259     19.399305     39.420254
  O      41.955951     20.097940     38.411183
  O      40.928529     19.469993     40.308752
  O      43.227122     18.110376     40.996212
  C      42.941582     16.862627     41.660561
  H      43.073455     17.126800     42.737300
  C      43.875071     15.728577     41.351873
  H      44.891364     15.918702     40.996479
  C      43.531342     14.469353     41.689145
  C      42.197620     14.220578     42.253241
  H      42.048968     13.219644     42.665604
  C      41.228329     15.154731     42.210503
  H      40.207701     14.967846     42.561978
  C      41.467479     16.475984     41.523219
  H      41.268402     16.336950     40.435992
  O      40.621714     17.489797     42.030943
  H      40.698544     18.244082     41.371541
  C      44.541191     13.288318     41.577708
  O      45.628913     13.561247     41.032106
  O      44.131469     12.213680     42.074772
  C      39.388000     20.557000     43.513000
  H      39.587925     20.549885     44.584485
  H      38.847855     19.635744     43.253282
  H      38.744522     21.414462     43.278617
  N      40.639400     20.634114     42.742023
  H      40.500394     20.544859     41.726395
  C      41.845367     20.248886     43.149162
  N      41.936539     19.148997     43.877107
  H      41.301518     18.399472     43.589229
  H      42.847270     18.770249     44.081100
  N      42.859838     20.503173     42.344098
  H      42.710668     21.174716     41.606163
  H      43.337903     19.685617     41.959988
37
Coordinates from ORCA-job job E -836.463986324422
  C      43.454732     17.643670     38.646616
  H      44.153190     16.821405     38.811934
  H      43.178168     17.921673     37.628402
  C      42.896357     18.323293     39.654409
  C      41.842910     19.422394     39.418401
  O      41.956528     20.132447     38.417896
  O      40.918534     19.484298     40.302804
  O      43.218337     18.119186     40.985705
  C      42.929712     16.867141     41.640830
  H      43.063229     17.122442     42.719568
  C      43.859995     15.733212     41.322423
  H      44.876235     15.923019     40.966857
  C      43.513165     14.472442     41.650625
  C      42.179611     14.223161     42.215010
  H      42.028990     13.219741     42.620577
  C      41.212940     15.160378     42.180206
  H      40.192311     14.974290     42.532243
  C      41.454595     16.485808     41.501926
  H      41.254248     16.355234     40.413851
  O      40.612286     17.498561     42.017268
  H      40.688616     18.255451     41.360519
  C      44.519680     13.289308     41.528926
  O      45.606960     13.563305     40.983004
  O      44.107950     12.212448     42.019318
  C      39.388000     20.557000     43.513000
  H      39.587925     20.549885     44.584485
  H      38.850998     19.634064     43.252561
  H      38.741763     21.412357     43.278516
  N      40.639950     20.637578     42.742901
  H      40.500691     20.549577     41.727266
  C      41.845242     20.249060     43.148203
  N      41.935599     19.143996     43.868274
  H      41.298439     18.397739     43.576428
  H      42.846097     18.762002     44.067311
  N      42.858967     20.506993     42.342655
  H      42.709700     21.183465     41.609136
  H      43.337180     19.691698     41.953829
37
Coordinates from ORCA-job job E -836.463989722246
  C      43.443105     17.656979     38.630319
  H      44.140287     16.832831     38.791716
  H      43.165055     17.938774     37.613548
  C      42.887946     18.334289     39.641467
  C      41.836320     19.436247     39.411007
  O      41.949397     20.149196     38.412521
  O      40.913905     19.497657     40.297491
  O      43.211876     18.125478     40.971576
  C      42.921746     16.871894     41.623202
  H      43.057138     17.123402     42.702601
  C      43.849978     15.737570     41.300181
  H      44.865918     15.926924     40.943589
  C      43.501811     14.476402     41.625567
  C      42.168743     14.227613     42.191353
  H      42.017271     13.223349     42.594541
  C      41.203485     15.166462     42.160445
  H      40.183144     14.980913     42.513657
  C      41.445899     16.493330     41.485276
  H      41.243618     16.366041     40.397193
  O      40.605685     17.505748     42.004799
  H      40.682583     18.264796     41.350623
  C      44.506625     13.292156     41.499442
  O      45.593392     13.565897     40.952502
  O      44.094103     12.214793     41.988115
  C      39.388000     20.557000     43.513000
  H      39.587925     20.549885     44.584485
  H      38.851970     19.633573     43.252154
  H      38.740480     21.411550     43.279104
  N      40.639904     20.639547     42.743008
  H      40.500630     20.554464     41.727186
  C      41.844895     20.248768     43.146513
  N      41.934692     19.140913     43.862282
  H      41.295951     18.396812     43.568623
  H      42.844790     18.757316     44.060027
  N      42.857845     20.508132     42.340280
  H      42.707258     21.185272     41.607692
  H      43.335723     19.693801     41.949112
37
Coordinates from ORCA-job job E -836.463994114940
  C      43.410627     17.687862     38.593511
  H      44.104311     16.858850     38.744960
  H      43.128506     17.978743     37.580412
  C      42.864553     18.360331     39.612888
  C      41.817415     19.469312     39.396810
  O      41.930614     20.192893     38.406026
  O      40.897639     19.524351     40.286418
  O      43.193882     18.140391     40.939829
  C      42.902876     16.882320     41.582420
  H      43.044228     17.124213     42.663212
  C      43.826308     15.747818     41.246236
  H      44.840777     15.936811     40.885268
  C      43.476296     14.485438     41.565324
  C      42.145582     14.236853     42.136706
  H      41.993476     13.230498     42.534431
  C      41.182877     15.178727     42.116737
  H      40.163951     14.993460     42.474168
  C      41.425336     16.509146     41.448550
  H      41.217401     16.389281     40.360752
  O      40.589991     17.520250     41.978753
  H      40.666580     18.284005     41.329957
  C      44.477464     13.299394     41.426417
  O      45.561859     13.573339     40.875227
  O      44.064607     12.220371     41.911219
  C      39.388000     20.557000     43.513000
  H      39.587925     20.549885     44.584485
  H      38.854393     19.632394     43.251269
  H      38.737542     21.409729     43.280596
  N      40.639368     20.644250     42.742969
  H      40.499497     20.564229     41.726811
  C      41.843836     20.248055     43.141940
  N      41.931963     19.133264     43.846943
  H      41.289655     18.394349     43.548372
  H      42.840925     18.745713     44.042024
  N      42.854574     20.510960     42.333892
  H      42.701333     21.192235     41.605570
  H      43.329603     19.698792     41.934873
37
Coordinates from ORCA-job job E -836.463995417597
  C      43.402427     17.693025     38.585266
  H      44.095271     16.863023     38.734994
  H      43.119213     17.985146     37.572822
  C      42.858748     18.365389     39.606013
  C      41.812587     19.475822     39.392786
  O      41.925205     20.200910     38.403094
  O      40.894056     19.530060     40.283783
  O      43.189545     18.143543     40.932235
  C      42.899203     16.884726     41.573465
  H      43.041994     17.125261     42.654330
  C      43.821718     15.750146     41.234875
  H      44.835691     15.939170     40.872552
  C      43.471755     14.487636     41.553519
  C      42.141744     14.239103     42.126504
  H      41.989818     13.232504     42.523701
  C      41.179221     15.181215     42.108523
  H      40.160705     14.995754     42.466979
  C      41.421390     16.512014     41.440920
  H      41.212238     16.392780     40.353294
  O      40.586861     17.522882     41.972838
  H      40.663555     18.287643     41.325325
  C      44.472222     13.301413     41.412255
  O      45.555934     13.575252     40.859638
  O      44.059728     12.222171     41.896926
  C      39.388000     20.557000     43.513000
  H      39.587925     20.549885     44.584485
  H      38.854782     19.632227     43.251217
  H      38.737105     21.409489     43.280934
  N      40.639087     20.645477     42.742738
  H      40.498952     20.566999     41.726488
  C      41.843598     20.247765     43.140353
  N      41.930967     19.131692     43.843468
  H      41.287693     18.393911     43.544193
  H      42.839549     18.742978     44.037978
  N      42.853968     20.510783     42.332142
  H      42.700429     21.192990     41.604679
  H      43.327257     19.698530     41.931278
