24
Coordinates from ORCA-job neb_MEP.QMRegion E -1075.176847431946
  C      41.215000     16.245000     41.042000
  H      41.836000     15.921000     40.214000
  H      41.536000     17.082000     41.662000
  C      40.053000     15.661000     41.353000
  C      39.219000     16.169000     42.522000
  O      39.682000     17.131000     43.167000
  O      38.123000     15.579000     42.741000
  O      39.551000     14.582000     40.653000
  C      38.909000     14.808000     39.344000
  H      38.663000     13.796000     38.995000
  C      39.936000     15.470000     38.482000
  H      40.784000     14.869000     38.146000
  C      39.982000     16.813000     38.388000
  C      38.868000     17.619000     38.906000
  H      38.979000     18.704000     38.847000
  C      37.772000     17.062000     39.450000
  H      36.969000     17.696000     39.835000
  C      37.574000     15.569000     39.526000
  H      37.230000     15.315000     40.541000
  O      36.616000     15.167000     38.557000
  H      35.904000     14.610000     38.984000
  C      41.202000     17.548000     37.869000
  O      42.349000     17.024000     38.045000
  O      41.018000     18.675000     37.365000
24
Coordinates from ORCA-job neb_MEP.QMRegion E -1075.179389694954
  C      41.214219     16.238767     41.025797
  H      41.832705     15.914416     40.195363
  H      41.533097     17.079643     41.640655
  C      40.054195     15.653701     41.341969
  C      39.220267     16.167312     42.509164
  O      39.685549     17.131416     43.150480
  O      38.124818     15.578447     42.731266
  O      39.551749     14.573232     40.644343
  C      38.902957     14.797473     39.335627
  H      38.660926     13.783549     38.988450
  C      39.924754     15.464116     38.472412
  H      40.767119     14.864531     38.120052
  C      39.975287     16.808145     38.397474
  C      38.866684     17.611517     38.932086
  H      38.983674     18.696103     38.893096
  C      37.769456     17.049612     39.469072
  H      36.969548     17.680420     39.865035
  C      37.568412     15.556658     39.526550
  H      37.226210     15.291310     40.539627
  O      36.607479     15.167115     38.555068
  H      35.894124     14.610732     38.979240
  C      41.194447     17.545395     37.878364
  O      42.342334     17.018467     38.044782
  O      41.009440     18.676516     37.384655
24
Coordinates from ORCA-job neb_MEP.QMRegion E -1075.180975890433
  C      41.209929     16.230483     40.999607
  H      41.825472     15.903266     40.168412
  H      41.526297     17.078937     41.605077
  C      40.052822     15.644296     41.323684
  C      39.222258     16.165066     42.490073
  O      39.690592     17.131292     43.126277
  O      38.126151     15.579935     42.718512
  O      39.550057     14.561196     40.630711
  C      38.892647     14.781594     39.322928
  H      38.654630     13.766397     38.977331
  C      39.905926     15.455681     38.456713
  H      40.739129     14.858967     38.079203
  C      39.965886     16.800973     38.413695
  C      38.865725     17.598336     38.976218
  H      38.992208     18.682757     38.970977
  C      37.764793     17.029659     39.498980
  H      36.968303     17.654448     39.911121
  C      37.558549     15.536460     39.526480
  H      37.218309     15.255254     40.535610
  O      36.594750     15.163537     38.551967
  H      35.878533     14.608651     38.973244
  C      41.184277     17.541992     37.896236
  O      42.332829     17.011816     38.047482
  O      40.998955     18.679715     37.418953
24
Coordinates from ORCA-job neb_MEP.QMRegion E -1075.181869079158
  C      41.195202     16.224488     40.946569
  H      41.816047     15.884660     40.125244
  H      41.487743     17.105915     41.515305
  C      40.046923     15.630738     41.289074
  C      39.225164     16.164696     42.455075
  O      39.700483     17.135228     43.080418
  O      38.130693     15.583519     42.700717
  O      39.545050     14.540938     40.607801
  C      38.878748     14.757978     39.296745
  H      38.651025     13.741984     38.948775
  C      39.879978     15.447636     38.432620
  H      40.697820     14.860569     38.009706
  C      39.959395     16.792788     38.455185
  C      38.871295     17.576941     39.061389
  H      39.014864     18.657920     39.121306
  C      37.756942     16.997121     39.542667
  H      36.953236     17.610153     39.958638
  C      37.544007     15.505134     39.522631
  H      37.212817     15.197970     40.527142
  O      36.568599     15.162295     38.550315
  H      35.847102     14.613376     38.970716
  C      41.175956     17.539620     37.942605
  O      42.325335     17.002693     38.063021
  O      40.987866     18.687743     37.494321
24
Coordinates from ORCA-job neb_MEP.QMRegion E -1075.173470990312
  C      41.168447     16.267906     40.880036
  H      41.832983     15.879455     40.117404
  H      41.414104     17.209585     41.369721
  C      40.060186     15.616647     41.280536
  C      39.234988     16.176886     42.439240
  O      39.713164     17.154025     43.054488
  O      38.139629     15.600752     42.695378
  O      39.592050     14.512340     40.627077
  C      38.850521     14.744196     39.199379
  H      38.649151     13.714194     38.873285
  C      39.864795     15.446784     38.414089
  H      40.672153     14.871080     37.960078
  C      39.994237     16.785429     38.573166
  C      38.892467     17.564396     39.159718
  H      39.040893     18.642501     39.252995
  C      37.747867     16.979184     39.551796
  H      36.922429     17.582783     39.937253
  C      37.529699     15.490352     39.487912
  H      37.246651     15.150021     40.493720
  O      36.505405     15.189588     38.552356
  H      35.794295     14.628208     38.982401
  C      41.193630     17.532534     38.028013
  O      42.346687     16.995447     38.086711
  O      40.976148     18.673615     37.575368
24
Coordinates from ORCA-job neb_MEP.QMRegion E -1075.163549600527
  C      41.157121     16.295689     40.846517
  H      41.846635     15.875105     40.124768
  H      41.396070     17.245347     41.323376
  C      40.072966     15.604933     41.294189
  C      39.238923     16.183798     42.442129
  O      39.719609     17.161157     43.055166
  O      38.143230     15.608238     42.697046
  O      39.653140     14.495148     40.702049
  C      38.810953     14.751819     39.097084
  H      38.642680     13.701867     38.837647
  C      39.854978     15.441291     38.411095
  H      40.666199     14.869931     37.958223
  C      40.017314     16.781583     38.639414
  C      38.898744     17.562821     39.186250
  H      39.043223     18.641727     39.272973
  C      37.745560     16.977042     39.550129
  H      36.914753     17.578346     39.926794
  C      37.523172     15.490143     39.469871
  H      37.262985     15.135524     40.477831
  O      36.477525     15.203591     38.551687
  H      35.776935     14.630128     38.985034
  C      41.203227     17.528423     38.057882
  O      42.356550     16.993024     38.089002
  O      40.967717     18.660232     37.590126
24
Coordinates from ORCA-job neb_MEP.QMRegion E -1075.161050625661
  C      41.140071     16.324115     40.801229
  H      41.858586     15.868960     40.131891
  H      41.378923     17.270112     41.285169
  C      40.079999     15.592744     41.307961
  C      39.240019     16.188228     42.447227
  O      39.725129     17.165940     43.055612
  O      38.145612     15.612786     42.700368
  O      39.715730     14.478265     40.786878
  C      38.770161     14.763103     38.992273
  H      38.635372     13.696199     38.806304
  C      39.844075     15.432426     38.411649
  H      40.662985     14.869474     37.960812
  C      40.041041     16.780349     38.704805
  C      38.902577     17.563429     39.202705
  H      39.044441     18.642796     39.283030
  C      37.743944     16.976945     39.546058
  H      36.909320     17.578094     39.913952
  C      37.519305     15.491221     39.453751
  H      37.275466     15.126543     40.464504
  O      36.455455     15.216098     38.551003
  H      35.765683     14.632167     38.986586
  C      41.210159     17.525791     38.079360
  O      42.363684     16.991774     38.091132
  O      40.961582     18.648657     37.596330
24
Coordinates from ORCA-job neb_MEP.QMRegion E -1075.164306062515
  C      41.097748     16.362670     40.714359
  H      41.868019     15.859078     40.143397
  H      41.358269     17.284399     41.238257
  C      40.079227     15.586794     41.314144
  C      39.241432     16.191112     42.453511
  O      39.732628     17.169714     43.054378
  O      38.149737     15.614666     42.706351
  O      39.771405     14.461064     40.861861
  C      38.743639     14.772245     38.919182
  H      38.625017     13.697569     38.774639
  C      39.840205     15.423323     38.425219
  H      40.661900     14.866583     37.969892
  C      40.082083     16.777335     38.801410
  C      38.908187     17.565143     39.222953
  H      39.043668     18.646128     39.289853
  C      37.744434     16.978007     39.541622
  H      36.905736     17.579297     39.900693
  C      37.518441     15.491875     39.442391
  H      37.283767     15.121188     40.454539
  O      36.439946     15.226844     38.552650
  H      35.759430     14.633482     38.988473
  C      41.217918     17.524106     38.101760
  O      42.372410     16.992533     38.091449
  O      40.953980     18.635554     37.600478
24
Coordinates from ORCA-job neb_MEP.QMRegion E -1075.176976248842
  C      41.030989     16.403909     40.587063
  H      41.864240     15.850634     40.158158
  H      41.326140     17.289081     41.171005
  C      40.068718     15.585452     41.308418
  C      39.243992     16.193166     42.458426
  O      39.742890     17.172056     43.051003
  O      38.155516     15.615699     42.712399
  O      39.818822     14.443934     40.929830
  C      38.727540     14.780343     38.865761
  H      38.615346     13.701769     38.741199
  C      39.842517     15.416252     38.444830
  H      40.661780     14.863753     37.978860
  C      40.141465     16.771709     38.926559
  C      38.919022     17.564353     39.253638
  H      39.042685     18.648276     39.299630
  C      37.749067     16.977622     39.540467
  H      36.902877     17.579612     39.883654
  C      37.519698     15.490616     39.435120
  H      37.290135     15.113937     40.447578
  O      36.428650     15.237068     38.556716
  H      35.755392     14.634956     38.990257
  C      41.225816     17.522903     38.125916
  O      42.382379     16.995018     38.091894
  O      40.943175     18.619690     37.604647
24
Coordinates from ORCA-job neb_MEP.QMRegion E -1075.208770480454
  C      40.900000     16.521000     40.459000
  H      41.870000     16.045000     40.271000
  H      41.035000     17.479000     40.976000
  C      40.092000     15.600000     41.323000
  C      39.279000     16.190000     42.493000
  O      39.798000     17.169000     43.066000
  O      38.204000     15.605000     42.773000
  O      40.092000     14.401000     41.117000
  C      38.637000     14.893000     38.549000
  H      38.426000     13.897000     38.158000
  C      39.851000     15.438000     38.436000
  H      40.675000     14.893000     37.969000
  C      40.199000     16.763000     39.068000
  C      38.957000     17.582000     39.319000
  H      39.110000     18.654000     39.469000
  C      37.745000     17.034000     39.441000
  H      36.885000     17.658000     39.695000
  C      37.482000     15.558000     39.255000
  H      37.384000     15.110000     40.265000
  O      36.285000     15.357000     38.524000
  H      35.668000     14.733000     39.000000
  C      41.233000     17.508000     38.175000
  O      42.402000     17.004000     38.133000
  O      40.904000     18.564000     37.606000
