24
Coordinates from ORCA-job neb_initial_path.QMRegion E   0.000000000000
  C      41.215000     16.245000     41.042000
  H      41.836000     15.921000     40.214000
  H      41.536000     17.082000     41.662000
  C      40.053000     15.661000     41.353000
  C      39.219000     16.169000     42.522000
  O      39.682000     17.131000     43.167000
  O      38.123000     15.579000     42.741000
  O      39.551000     14.582000     40.653000
  C      38.909000     14.808000     39.344000
  H      38.663000     13.796000     38.995000
  C      39.936000     15.470000     38.482000
  H      40.784000     14.869000     38.146000
  C      39.982000     16.813000     38.388000
  C      38.868000     17.619000     38.906000
  H      38.979000     18.704000     38.847000
  C      37.772000     17.062000     39.450000
  H      36.969000     17.696000     39.835000
  C      37.574000     15.569000     39.526000
  H      37.230000     15.315000     40.541000
  O      36.616000     15.167000     38.557000
  H      35.904000     14.610000     38.984000
  C      41.202000     17.548000     37.869000
  O      42.349000     17.024000     38.045000
  O      41.018000     18.675000     37.365000
24
Coordinates from ORCA-job neb_initial_path.QMRegion E   0.000000000000
  C      41.197167     16.259167     40.995000
  H      41.836000     15.913333     40.195333
  H      41.505833     17.113500     41.593667
  C      40.054333     15.651167     41.342167
  C      39.221833     16.172167     42.508167
  O      39.689333     17.136333     43.147167
  O      38.126667     15.584000     42.734667
  O      39.570833     14.567167     40.668000
  C      38.890333     14.800167     39.296500
  H      38.660667     13.780167     38.969833
  C      39.922000     15.464667     38.472667
  H      40.763833     14.869667     38.115667
  C      39.995333     16.806500     38.447167
  C      38.875833     17.609833     38.958833
  H      38.991667     18.694167     38.920333
  C      37.768833     17.048833     39.467833
  H      36.959500     17.678167     39.845833
  C      37.566333     15.556667     39.518000
  H      37.235333     15.285667     40.531833
  O      36.594167     15.173833     38.556667
  H      35.885167     14.612333     38.983667
  C      41.204667     17.543667     37.906333
  O      42.353167     17.018667     38.054167
  O      41.008500     18.669000     37.404167
24
Coordinates from ORCA-job neb_initial_path.QMRegion E   0.000000000000
  C      41.179333     16.273333     40.948000
  H      41.836000     15.905667     40.176667
  H      41.475667     17.145000     41.525333
  C      40.055667     15.641333     41.331333
  C      39.224667     16.175333     42.494333
  O      39.696667     17.141667     43.127333
  O      38.130333     15.589000     42.728333
  O      39.590667     14.552333     40.683000
  C      38.871667     14.792333     39.249000
  H      38.658333     13.764333     38.944667
  C      39.908000     15.459333     38.463333
  H      40.743667     14.870333     38.085333
  C      40.008667     16.800000     38.506333
  C      38.883667     17.600667     39.011667
  H      39.004333     18.684333     38.993667
  C      37.765667     17.035667     39.485667
  H      36.950000     17.660333     39.856667
  C      37.558667     15.544333     39.510000
  H      37.240667     15.256333     40.522667
  O      36.572333     15.180667     38.556333
  H      35.866333     14.614667     38.983333
  C      41.207333     17.539333     37.943667
  O      42.357333     17.013333     38.063333
  O      40.999000     18.663000     37.443333
24
Coordinates from ORCA-job neb_initial_path.QMRegion E   0.000000000000
  C      41.161500     16.287500     40.901000
  H      41.836000     15.898000     40.158000
  H      41.445500     17.176500     41.457000
  C      40.057000     15.631500     41.320500
  C      39.227500     16.178500     42.480500
  O      39.704000     17.147000     43.107500
  O      38.134000     15.594000     42.722000
  O      39.610500     14.537500     40.698000
  C      38.853000     14.784500     39.201500
  H      38.656000     13.748500     38.919500
  C      39.894000     15.454000     38.454000
  H      40.723500     14.871000     38.055000
  C      40.022000     16.793500     38.565500
  C      38.891500     17.591500     39.064500
  H      39.017000     18.674500     39.067000
  C      37.762500     17.022500     39.503500
  H      36.940500     17.642500     39.867500
  C      37.551000     15.532000     39.502000
  H      37.246000     15.227000     40.513500
  O      36.550500     15.187500     38.556000
  H      35.847500     14.617000     38.983000
  C      41.210000     17.535000     37.981000
  O      42.361500     17.008000     38.072500
  O      40.989500     18.657000     37.482500
24
Coordinates from ORCA-job neb_initial_path.QMRegion E   0.000000000000
  C      41.143667     16.301667     40.854000
  H      41.836000     15.890333     40.139333
  H      41.415333     17.208000     41.388667
  C      40.058333     15.621667     41.309667
  C      39.230333     16.181667     42.466667
  O      39.711333     17.152333     43.087667
  O      38.137667     15.599000     42.715667
  O      39.630333     14.522667     40.713000
  C      38.834333     14.776667     39.154000
  H      38.653667     13.732667     38.894333
  C      39.880000     15.448667     38.444667
  H      40.703333     14.871667     38.024667
  C      40.035333     16.787000     38.624667
  C      38.899333     17.582333     39.117333
  H      39.029667     18.664667     39.140333
  C      37.759333     17.009333     39.521333
  H      36.931000     17.624667     39.878333
  C      37.543333     15.519667     39.494000
  H      37.251333     15.197667     40.504333
  O      36.528667     15.194333     38.555667
  H      35.828667     14.619333     38.982667
  C      41.212667     17.530667     38.018333
  O      42.365667     17.002667     38.081667
  O      40.980000     18.651000     37.521667
24
Coordinates from ORCA-job neb_initial_path.QMRegion E   0.000000000000
  C      41.125833     16.315833     40.807000
  H      41.836000     15.882667     40.120667
  H      41.385167     17.239500     41.320333
  C      40.059667     15.611833     41.298833
  C      39.233167     16.184833     42.452833
  O      39.718667     17.157667     43.067833
  O      38.141333     15.604000     42.709333
  O      39.650167     14.507833     40.728000
  C      38.815667     14.768833     39.106500
  H      38.651333     13.716833     38.869167
  C      39.866000     15.443333     38.435333
  H      40.683167     14.872333     37.994333
  C      40.048667     16.780500     38.683833
  C      38.907167     17.573167     39.170167
  H      39.042333     18.654833     39.213667
  C      37.756167     16.996167     39.539167
  H      36.921500     17.606833     39.889167
  C      37.535667     15.507333     39.486000
  H      37.256667     15.168333     40.495167
  O      36.506833     15.201167     38.555333
  H      35.809833     14.621667     38.982333
  C      41.215333     17.526333     38.055667
  O      42.369833     16.997333     38.090833
  O      40.970500     18.645000     37.560833
24
Coordinates from ORCA-job neb_initial_path.QMRegion E   0.000000000000
  C      41.108000     16.330000     40.760000
  H      41.836000     15.875000     40.102000
  H      41.355000     17.271000     41.252000
  C      40.061000     15.602000     41.288000
  C      39.236000     16.188000     42.439000
  O      39.726000     17.163000     43.048000
  O      38.145000     15.609000     42.703000
  O      39.670000     14.493000     40.743000
  C      38.797000     14.761000     39.059000
  H      38.649000     13.701000     38.844000
  C      39.852000     15.438000     38.426000
  H      40.663000     14.873000     37.964000
  C      40.062000     16.774000     38.743000
  C      38.915000     17.564000     39.223000
  H      39.055000     18.645000     39.287000
  C      37.753000     16.983000     39.557000
  H      36.912000     17.589000     39.900000
  C      37.528000     15.495000     39.478000
  H      37.262000     15.139000     40.486000
  O      36.485000     15.208000     38.555000
  H      35.791000     14.624000     38.982000
  C      41.218000     17.522000     38.093000
  O      42.374000     16.992000     38.100000
  O      40.961000     18.639000     37.600000
24
Coordinates from ORCA-job neb_initial_path.QMRegion E   0.000000000000
  C      41.038667     16.393667     40.659667
  H      41.847333     15.931667     40.158333
  H      41.248333     17.340333     41.160000
  C      40.071333     15.601333     41.299667
  C      39.250333     16.188667     42.457000
  O      39.750000     17.165000     43.054000
  O      38.164667     15.607667     42.726333
  O      39.810667     14.462333     40.867667
  C      38.743667     14.805000     38.889000
  H      38.574667     13.766333     38.615333
  C      39.851667     15.438000     38.429333
  H      40.667000     14.879667     37.965667
  C      40.107667     16.770333     38.851333
  C      38.929000     17.570000     39.255000
  H      39.073333     18.648000     39.347667
  C      37.750333     17.000000     39.518333
  H      36.903000     17.612000     39.831667
  C      37.512667     15.516000     39.403667
  H      37.302667     15.129333     40.412333
  O      36.418333     15.257667     38.544667
  H      35.750000     14.660333     38.988000
  C      41.223000     17.517333     38.120333
  O      42.383333     16.996000     38.111000
  O      40.942000     18.614000     37.602000
24
Coordinates from ORCA-job neb_initial_path.QMRegion E   0.000000000000
  C      40.969333     16.457333     40.559333
  H      41.858667     15.988333     40.214667
  H      41.141667     17.409667     41.068000
  C      40.081667     15.600667     41.311333
  C      39.264667     16.189333     42.475000
  O      39.774000     17.167000     43.060000
  O      38.184333     15.606333     42.749667
  O      39.951333     14.431667     40.992333
  C      38.690333     14.849000     38.719000
  H      38.500333     13.831667     38.386667
  C      39.851333     15.438000     38.432667
  H      40.671000     14.886333     37.967333
  C      40.153333     16.766667     38.959667
  C      38.943000     17.576000     39.287000
  H      39.091667     18.651000     39.408333
  C      37.747667     17.017000     39.479667
  H      36.894000     17.635000     39.763333
  C      37.497333     15.537000     39.329333
  H      37.343333     15.119667     40.338667
  O      36.351667     15.307333     38.534333
  H      35.709000     14.696667     38.994000
  C      41.228000     17.512667     38.147667
  O      42.392667     17.000000     38.122000
  O      40.923000     18.589000     37.604000
24
Coordinates from ORCA-job neb_initial_path.QMRegion E   0.000000000000
  C      40.900000     16.521000     40.459000
  H      41.870000     16.045000     40.271000
  H      41.035000     17.479000     40.976000
  C      40.092000     15.600000     41.323000
  C      39.279000     16.190000     42.493000
  O      39.798000     17.169000     43.066000
  O      38.204000     15.605000     42.773000
  O      40.092000     14.401000     41.117000
  C      38.637000     14.893000     38.549000
  H      38.426000     13.897000     38.158000
  C      39.851000     15.438000     38.436000
  H      40.675000     14.893000     37.969000
  C      40.199000     16.763000     39.068000
  C      38.957000     17.582000     39.319000
  H      39.110000     18.654000     39.469000
  C      37.745000     17.034000     39.441000
  H      36.885000     17.658000     39.695000
  C      37.482000     15.558000     39.255000
  H      37.384000     15.110000     40.265000
  O      36.285000     15.357000     38.524000
  H      35.668000     14.733000     39.000000
  C      41.233000     17.508000     38.175000
  O      42.402000     17.004000     38.133000
  O      40.904000     18.564000     37.606000
