1448
candidate grid v2 r_min=1.0 shells=[3.0, 4.0, 5.0] (resolution only; separation is an optimiser constraint)
X 55.4466 36.0585 48.6096   shell=4.0 standoff=3.996
X 56.1877 31.2600 62.3452   shell=4.0 standoff=3.997
X 59.5221 30.4109 62.1332   shell=4.0 standoff=3.997
X 54.9787 37.7480 51.8856   shell=3.0 standoff=2.995
X 59.0712 42.4236 59.8961   shell=5.0 standoff=4.999
X 55.2057 28.7241 60.6566   shell=4.0 standoff=3.996
X 66.2462 28.4643 55.3525   shell=4.0 standoff=3.996
X 53.0737 37.9074 55.6023   shell=3.0 standoff=2.997
X 56.1572 29.5324 62.4744   shell=5.0 standoff=5.004
X 56.2675 39.6490 59.3794   shell=3.0 standoff=2.995
X 54.4535 40.6860 58.1667   shell=4.0 standoff=3.996
X 55.2979 37.2690 50.8369   shell=3.0 standoff=2.995
X 56.8612 36.4986 49.6269   shell=3.0 standoff=2.999
X 67.2863 31.2900 55.6534   shell=4.0 standoff=3.998
X 63.0676 34.1318 62.0740   shell=4.0 standoff=3.997
X 53.2929 33.4420 48.3252   shell=5.0 standoff=4.997
X 49.0190 31.8876 53.5570   shell=5.0 standoff=4.998
X 54.0447 25.8855 57.6026   shell=5.0 standoff=4.998
X 52.6794 35.3009 61.9965   shell=5.0 standoff=4.997
X 61.5149 41.0132 58.9404   shell=4.0 standoff=3.997
X 49.7672 31.5999 58.3090   shell=5.0 standoff=4.997
X 53.3463 37.6894 60.8623   shell=4.0 standoff=3.997
X 57.4406 34.4684 64.2883   shell=5.0 standoff=4.997
X 66.5705 27.6656 57.3511   shell=5.0 standoff=4.996
X 65.0439 26.8329 58.3999   shell=5.0 standoff=4.999
X 61.9464 37.5026 48.5937   shell=5.0 standoff=4.996
X 66.2461 33.3254 50.7456   shell=4.0 standoff=3.995
X 68.0171 33.2184 56.7531   shell=5.0 standoff=4.996
X 52.5313 29.8095 60.6644   shell=5.0 standoff=4.998
X 58.3585 27.1280 59.5675   shell=4.0 standoff=3.997
X 53.1672 34.5916 48.4571   shell=5.0 standoff=4.998
X 54.1497 31.6835 61.0796   shell=4.0 standoff=4.014
X 50.4213 28.0974 54.6294   shell=5.0 standoff=4.998
X 67.3359 28.9435 53.5294   shell=5.0 standoff=4.998
X 65.6260 30.5160 60.7237   shell=5.0 standoff=4.996
X 51.6862 29.6920 54.9011   shell=3.0 standoff=2.995
X 53.9555 38.5125 52.7934   shell=4.0 standoff=3.997
X 61.8597 37.3782 49.8726   shell=4.0 standoff=3.997
X 59.3998 40.7484 54.3973   shell=3.0 standoff=2.996
X 58.8998 32.8862 48.0784   shell=4.0 standoff=3.997
X 51.5836 37.5190 57.1343   shell=4.0 standoff=3.996
X 64.3608 26.8727 54.8567   shell=4.0 standoff=3.997
X 52.6581 39.2931 58.0434   shell=4.0 standoff=3.995
X 64.8546 36.1322 49.4397   shell=5.0 standoff=4.999
X 62.2809 38.4973 52.0575   shell=4.0 standoff=3.996
X 53.3953 31.1666 50.6703   shell=3.0 standoff=2.996
X 53.6452 29.0875 50.5317   shell=4.0 standoff=3.995
X 50.8026 30.9459 59.4532   shell=5.0 standoff=4.996
X 60.2077 42.0590 57.5861   shell=4.0 standoff=3.996
X 60.4531 30.7963 47.0622   shell=5.0 standoff=4.997
X 56.7165 34.0491 47.9818   shell=4.0 standoff=3.999
X 53.6116 36.6504 61.4115   shell=4.0 standoff=3.997
X 63.4800 41.4113 56.9322   shell=5.0 standoff=4.996
X 50.5425 37.2171 56.0313   shell=5.0 standoff=4.998
X 57.2209 26.5049 60.2580   shell=5.0 standoff=4.997
X 66.5341 37.3112 57.7771   shell=5.0 standoff=4.999
X 55.4107 33.3547 63.7020   shell=5.0 standoff=4.996
X 53.2375 36.5370 62.3959   shell=5.0 standoff=4.996
X 61.1765 26.1319 50.7763   shell=5.0 standoff=4.997
X 61.1022 26.3158 54.5681   shell=4.0 standoff=3.997
X 52.4830 35.0486 49.1818   shell=5.0 standoff=5.015
X 57.7065 31.0781 47.7900   shell=5.0 standoff=4.999
X 55.1825 26.5468 57.7598   shell=4.0 standoff=3.997
X 59.9654 43.1222 55.3626   shell=5.0 standoff=4.998
X 61.0839 37.0324 49.1977   shell=4.0 standoff=3.997
X 52.8006 26.4339 55.4793   shell=5.0 standoff=4.998
X 52.6248 33.0215 61.1876   shell=5.0 standoff=4.999
X 59.4987 37.8784 62.0222   shell=4.0 standoff=3.998
X 56.6912 25.2081 57.8319   shell=5.0 standoff=4.999
X 61.6562 27.3875 50.4990   shell=4.0 standoff=3.996
X 64.0487 30.0786 48.8775   shell=4.0 standoff=3.996
X 60.7563 32.6188 46.9037   shell=5.0 standoff=4.997
X 57.0929 29.9512 50.8124   shell=3.0 standoff=2.995
X 59.5951 37.1798 61.1331   shell=3.0 standoff=2.995
X 50.2449 36.1501 55.2482   shell=5.0 standoff=4.998
X 59.5491 27.0747 55.3351   shell=3.0 standoff=2.995
X 63.8945 32.1042 59.6704   shell=3.0 standoff=3.018
X 61.1007 29.0794 48.7631   shell=4.0 standoff=3.996
X 51.6571 31.7457 50.6047   shell=4.0 standoff=3.998
X 54.8902 36.9299 63.1339   shell=5.0 standoff=4.997
X 55.0190 27.4725 55.8398   shell=3.0 standoff=2.995
X 54.7459 39.1928 62.1961   shell=5.0 standoff=4.996
X 52.9664 28.1797 57.7750   shell=4.0 standoff=4.024
X 64.4093 32.3080 62.1459   shell=5.0 standoff=4.996
X 56.7183 29.9084 61.6099   shell=4.0 standoff=4.020
X 58.1995 36.5063 63.7578   shell=5.0 standoff=4.998
X 57.8576 42.1932 60.1380   shell=5.0 standoff=4.997
X 64.1685 28.8439 48.3609   shell=5.0 standoff=4.997
X 60.3485 27.1333 49.3109   shell=5.0 standoff=4.999
X 57.2658 32.2116 63.0849   shell=4.0 standoff=3.998
X 53.6297 33.0902 62.3791   shell=5.0 standoff=5.000
X 61.9700 27.4039 59.0633   shell=4.0 standoff=4.000
X 59.8123 26.3225 60.2892   shell=5.0 standoff=4.996
X 63.8944 35.3043 48.1838   shell=5.0 standoff=4.998
X 65.0797 28.6426 55.9869   shell=3.0 standoff=2.998
X 64.8206 33.2191 47.8311   shell=5.0 standoff=4.998
X 51.5142 27.6742 52.7046   shell=5.0 standoff=4.998
X 56.1314 41.9557 59.5630   shell=5.0 standoff=4.998
X 54.3191 41.8594 57.0833   shell=5.0 standoff=4.998
X 62.9061 39.1703 51.5693   shell=5.0 standoff=4.997
X 63.9850 36.8013 51.5082   shell=4.0 standoff=3.998
X 60.9103 26.9533 60.7132   shell=5.0 standoff=4.997
X 51.4515 36.0601 55.0573   shell=4.0 standoff=3.996
X 53.7676 39.1572 57.1292   shell=3.0 standoff=2.996
X 53.6318 38.6985 61.9136   shell=5.0 standoff=4.996
X 52.5921 31.0305 59.5624   shell=4.0 standoff=4.013
X 53.0241 30.7974 58.5114   shell=3.0 standoff=2.995
X 55.3805 34.5179 48.2944   shell=4.0 standoff=3.995
X 55.0985 38.5262 61.5085   shell=4.0 standoff=3.997
X 58.4633 30.4160 50.3875   shell=3.0 standoff=2.997
X 57.7092 38.9708 52.7513   shell=3.0 standoff=2.995
X 55.1124 31.3822 47.9472   shell=5.0 standoff=4.997
X 63.6358 33.6146 48.4759   shell=4.0 standoff=3.998
X 61.6737 37.8143 52.6620   shell=3.0 standoff=2.995
X 53.6324 34.9373 62.6110   shell=5.0 standoff=4.999
X 48.9165 31.2849 55.4008   shell=5.0 standoff=4.999
X 61.3146 40.0668 52.8019   shell=4.0 standoff=3.996
X 52.1503 32.4725 48.8346   shell=5.0 standoff=4.997
X 61.4534 41.4878 55.1464   shell=4.0 standoff=3.997
X 52.5245 37.0366 57.6232   shell=3.0 standoff=2.997
X 61.1717 42.5302 58.6469   shell=5.0 standoff=4.997
X 53.0127 38.8889 52.1416   shell=5.0 standoff=4.998
X 64.0137 34.6246 59.8133   shell=3.0 standoff=2.997
X 60.3483 36.4162 63.5894   shell=5.0 standoff=4.999
X 57.4575 37.7757 62.2100   shell=4.0 standoff=3.995
X 52.6506 37.2822 53.6812   shell=4.0 standoff=4.011
X 64.7924 34.2817 62.0012   shell=5.0 standoff=4.999
X 55.5352 25.1664 56.6904   shell=5.0 standoff=4.998
X 57.3327 31.7043 49.7421   shell=3.0 standoff=2.998
X 55.3255 38.5116 53.6534   shell=3.0 standoff=2.997
X 56.5545 33.6885 62.0375   shell=3.0 standoff=2.996
X 57.6251 42.3677 53.3721   shell=5.0 standoff=4.998
X 62.3083 42.1939 55.2233   shell=5.0 standoff=4.996
X 65.5468 34.1447 53.9930   shell=3.0 standoff=2.995
X 53.9355 38.1687 59.5738   shell=3.0 standoff=2.996
X 57.1791 40.8000 57.9418   shell=3.0 standoff=2.994
X 50.7628 30.9992 57.8092   shell=4.0 standoff=3.999
X 51.6774 28.5633 58.8338   shell=5.0 standoff=4.997
X 60.5659 30.6667 61.8892   shell=4.0 standoff=3.996
X 61.2135 37.8338 62.8444   shell=5.0 standoff=4.998
X 66.7429 30.1324 53.7001   shell=4.0 standoff=3.998
X 56.3069 28.4464 52.2792   shell=3.0 standoff=2.994
X 61.7522 38.7866 49.7444   shell=5.0 standoff=4.998
X 54.4492 29.3876 51.3406   shell=3.0 standoff=2.993
X 57.2384 28.0273 53.1182   shell=3.0 standoff=2.996
X 53.0037 30.8393 61.4067   shell=5.0 standoff=4.997
X 50.8501 33.9507 57.6333   shell=4.0 standoff=3.995
X 62.0581 42.4965 56.5143   shell=5.0 standoff=4.997
X 60.0731 29.9420 62.8979   shell=5.0 standoff=4.998
X 54.3473 30.5257 62.2034   shell=5.0 standoff=4.998
X 66.2632 29.1153 59.5241   shell=5.0 standoff=4.996
X 63.8954 27.8933 56.7384   shell=3.0 standoff=2.996
X 54.2863 28.2380 57.5752   shell=3.0 standoff=2.996
X 56.7649 42.6832 54.6070   shell=5.0 standoff=4.998
X 62.5103 35.2791 63.3989   shell=5.0 standoff=4.997
X 63.9944 36.1353 61.0110   shell=4.0 standoff=4.001
X 57.6802 34.8175 49.0264   shell=3.0 standoff=2.996
X 65.2680 34.2643 56.9966   shell=3.0 standoff=2.995
X 52.3617 33.4902 51.3844   shell=3.0 standoff=2.994
X 66.6758 33.1498 49.4764   shell=5.0 standoff=4.998
X 49.4960 32.7125 57.8309   shell=5.0 standoff=4.998
X 58.1179 29.9198 60.4100   shell=3.0 standoff=3.037
X 56.6593 35.1405 47.0460   shell=5.0 standoff=4.997
X 65.3011 28.0773 57.7628   shell=4.0 standoff=3.996
X 50.9778 31.6743 56.0228   shell=3.0 standoff=2.998
X 61.0448 42.8042 55.1921   shell=5.0 standoff=4.997
X 63.3341 31.1212 61.1590   shell=4.0 standoff=3.997
X 50.4871 32.7922 52.3809   shell=4.0 standoff=3.998
X 62.1652 28.6181 50.5505   shell=3.0 standoff=2.998
X 55.5158 40.2283 61.6519   shell=5.0 standoff=4.998
X 51.3046 28.9039 53.5640   shell=4.0 standoff=3.998
X 57.4918 37.5863 50.4125   shell=3.0 standoff=2.995
X 59.7183 30.8044 49.4296   shell=3.0 standoff=2.998
X 56.8884 28.0001 49.7137   shell=5.0 standoff=4.998
X 54.2819 39.6481 60.0838   shell=4.0 standoff=3.996
X 65.9150 30.5008 56.9235   shell=3.0 standoff=2.997
X 58.0747 42.9515 54.5002   shell=5.0 standoff=4.998
X 63.4658 35.5847 62.8813   shell=5.0 standoff=4.997
X 50.5838 34.9186 50.9815   shell=5.0 standoff=4.998
X 60.3697 33.2939 47.9874   shell=4.0 standoff=4.003
X 61.1060 31.0710 60.8189   shell=3.0 standoff=2.996
X 58.9206 41.7714 59.0082   shell=4.0 standoff=3.998
X 55.2912 30.1718 61.3968   shell=4.0 standoff=3.998
X 59.4261 37.5563 48.1112   shell=5.0 standoff=4.998
X 55.5119 30.3053 48.2181   shell=5.0 standoff=4.998
X 60.9373 42.0389 59.8525   shell=5.0 standoff=4.998
X 60.4929 28.0367 51.7018   shell=3.0 standoff=2.995
X 52.9424 35.3721 60.8827   shell=4.0 standoff=3.995
X 59.3731 26.0422 57.4794   shell=4.0 standoff=3.998
X 59.3191 42.8878 54.2414   shell=5.0 standoff=4.997
X 66.2269 31.9321 54.7501   shell=3.0 standoff=2.998
X 55.2643 38.0434 48.6366   shell=5.0 standoff=4.996
X 56.6759 35.8873 61.5392   shell=3.0 standoff=3.013
X 52.8016 40.5806 55.0638   shell=5.0 standoff=4.998
X 59.8541 30.2901 60.5473   shell=3.0 standoff=3.015
X 52.7594 32.8618 59.7359   shell=4.0 standoff=3.999
X 62.9610 29.7504 61.7924   shell=5.0 standoff=5.005
X 66.9059 32.9400 59.4549   shell=5.0 standoff=4.997
X 55.5912 32.5511 49.6667   shell=3.0 standoff=2.997
X 51.8352 36.1445 61.1752   shell=5.0 standoff=4.998
X 57.6396 27.0348 51.1138   shell=5.0 standoff=5.007
X 67.6634 29.8668 53.3127   shell=5.0 standoff=4.999
X 60.7630 34.0412 47.0060   shell=5.0 standoff=4.998
X 65.8503 35.2744 51.9676   shell=4.0 standoff=3.996
X 64.9551 37.5376 54.6978   shell=4.0 standoff=3.997
X 62.0751 26.8464 51.7741   shell=4.0 standoff=3.998
X 66.3476 35.5933 50.6655   shell=5.0 standoff=4.998
X 59.7195 31.4984 47.1242   shell=5.0 standoff=4.998
X 67.8240 32.5794 57.8866   shell=5.0 standoff=4.998
X 58.4320 36.6565 49.8689   shell=3.0 standoff=2.994
X 53.6584 34.8657 50.9230   shell=3.0 standoff=3.028
X 63.4981 39.5919 55.3360   shell=4.0 standoff=3.995
X 54.1026 36.1445 48.1306   shell=5.0 standoff=4.998
X 65.0890 30.1277 48.2545   shell=5.0 standoff=4.999
X 56.7312 27.0418 59.3383   shell=4.0 standoff=3.999
X 58.4516 41.0359 55.0082   shell=3.0 standoff=2.995
X 66.6518 29.7518 50.0643   shell=5.0 standoff=4.998
X 62.0920 29.8356 48.3535   shell=4.0 standoff=3.998
X 62.1605 28.9049 60.3551   shell=4.0 standoff=3.998
X 64.2325 29.8247 58.8751   shell=3.0 standoff=2.999
X 62.8214 39.0233 56.4477   shell=3.0 standoff=2.994
X 51.6727 32.8513 52.2017   shell=3.0 standoff=2.997
X 60.7855 29.0593 59.7877   shell=3.0 standoff=2.993
X 59.8297 43.2550 56.5173   shell=5.0 standoff=4.997
X 53.4334 33.8264 59.1774   shell=3.0 standoff=2.996
X 58.4312 26.6955 60.6315   shell=5.0 standoff=4.995
X 63.1990 26.8662 49.8524   shell=5.0 standoff=4.996
X 56.5612 32.3234 61.8036   shell=3.0 standoff=2.995
X 60.6134 40.8817 55.6422   shell=3.0 standoff=2.997
X 62.0097 32.8049 48.9149   shell=3.0 standoff=2.997
X 50.1104 29.6739 52.2491   shell=5.0 standoff=4.996
X 60.0004 24.9756 56.8008   shell=5.0 standoff=4.998
X 63.2391 28.3184 51.5738   shell=3.0 standoff=2.996
X 56.7909 39.0399 50.7083   shell=4.0 standoff=3.996
X 60.0082 37.8211 51.2645   shell=3.0 standoff=2.997
X 58.6443 32.3806 47.1989   shell=5.0 standoff=4.996
X 54.8578 41.2889 60.0009   shell=5.0 standoff=4.997
X 66.0746 32.9683 54.9259   shell=3.0 standoff=2.995
X 51.8759 29.6545 58.3508   shell=4.0 standoff=3.996
X 60.2280 42.7394 58.9039   shell=5.0 standoff=4.997
X 60.5244 29.7133 47.3776   shell=5.0 standoff=4.996
X 64.7013 29.7025 61.0650   shell=5.0 standoff=4.997
X 58.7344 26.3794 54.2881   shell=4.0 standoff=3.999
X 62.1080 39.9066 51.7861   shell=5.0 standoff=4.998
X 65.7050 27.8931 56.2983   shell=4.0 standoff=3.998
X 63.7300 26.0353 52.4437   shell=5.0 standoff=4.997
X 63.1487 32.6912 47.0648   shell=5.0 standoff=4.997
X 63.8535 33.5944 61.4488   shell=4.0 standoff=4.004
X 57.9280 38.9664 48.9976   shell=5.0 standoff=4.997
X 60.6077 41.0569 61.1921   shell=5.0 standoff=4.997
X 54.6696 29.8651 59.7637   shell=3.0 standoff=2.996
X 64.2032 37.6466 50.9004   shell=5.0 standoff=5.001
X 53.7698 29.5955 61.6188   shell=5.0 standoff=4.997
X 52.4573 35.7189 58.0975   shell=3.0 standoff=2.997
X 63.4467 26.7491 57.3120   shell=4.0 standoff=3.996
X 62.2019 27.5582 57.3164   shell=3.0 standoff=2.995
X 56.9535 26.3043 52.1257   shell=5.0 standoff=4.998
X 64.7296 31.2672 50.2673   shell=3.0 standoff=2.996
X 60.6572 25.1926 55.1726   shell=5.0 standoff=4.998
X 58.1488 42.6988 59.3118   shell=5.0 standoff=4.998
X 67.0190 30.9231 50.0255   shell=5.0 standoff=4.998
X 58.1289 37.4985 47.9367   shell=5.0 standoff=4.997
X 54.8634 40.1165 51.9801   shell=5.0 standoff=4.996
X 59.6991 41.6739 52.2797   shell=5.0 standoff=4.996
X 58.6307 27.9301 61.6606   shell=5.0 standoff=4.996
X 53.7845 31.2249 48.2317   shell=5.0 standoff=4.997
X 62.7643 37.4315 50.7128   shell=4.0 standoff=3.996
X 53.7260 29.0047 52.2789   shell=3.0 standoff=2.998
X 53.6037 38.5988 60.5309   shell=4.0 standoff=3.997
X 51.6134 33.4151 58.8257   shell=4.0 standoff=3.998
X 62.8562 40.1319 60.4866   shell=5.0 standoff=4.997
X 64.0380 30.3673 50.0150   shell=3.0 standoff=2.997
X 63.5594 37.4718 54.3759   shell=3.0 standoff=2.993
X 56.2334 25.1781 54.8470   shell=5.0 standoff=4.997
X 65.2482 37.3670 60.7401   shell=5.0 standoff=4.997
X 58.6278 40.9813 52.9404   shell=4.0 standoff=3.997
X 60.0426 35.6417 49.3064   shell=3.0 standoff=2.996
X 58.6468 40.0874 53.4448   shell=3.0 standoff=2.995
X 57.3878 41.5454 59.0428   shell=4.0 standoff=3.998
X 65.7894 33.4572 60.7851   shell=5.0 standoff=4.998
X 57.7711 29.7818 61.7202   shell=4.0 standoff=3.997
X 57.3905 40.4070 54.2336   shell=3.0 standoff=2.997
X 51.1825 27.9016 57.3497   shell=5.0 standoff=4.995
X 56.7572 43.0009 56.3886   shell=5.0 standoff=4.998
X 60.1422 27.5330 61.3904   shell=5.0 standoff=4.997
X 56.4069 27.0216 56.1578   shell=3.0 standoff=2.996
X 56.5963 25.7207 53.2975   shell=5.0 standoff=4.997
X 60.2086 32.1968 47.9998   shell=4.0 standoff=3.997
X 67.6228 28.9781 54.5547   shell=5.0 standoff=4.998
X 66.8102 33.7237 53.6372   shell=4.0 standoff=3.999
X 65.1676 36.4018 53.7313   shell=4.0 standoff=4.008
X 57.2988 27.5386 52.0686   shell=4.0 standoff=4.010
X 54.4511 38.5474 49.5446   shell=5.0 standoff=4.996
X 58.7014 27.6731 51.7086   shell=4.0 standoff=3.996
X 59.8387 40.4003 61.9246   shell=5.0 standoff=4.996
X 48.9262 32.9298 55.8086   shell=5.0 standoff=4.998
X 64.2503 37.9172 53.7311   shell=4.0 standoff=3.998
X 51.5694 37.6272 53.5993   shell=5.0 standoff=5.004
X 59.3053 39.2839 61.4877   shell=4.0 standoff=3.995
X 67.0099 30.1076 56.3274   shell=4.0 standoff=3.999
X 61.9336 28.6794 47.8238   shell=5.0 standoff=4.997
X 58.2263 28.6518 59.6004   shell=3.0 standoff=2.999
X 64.1773 29.8374 60.2000   shell=4.0 standoff=3.999
X 65.9996 26.7988 54.7248   shell=5.0 standoff=4.998
X 61.2480 26.5535 53.0822   shell=4.0 standoff=3.998
X 61.3590 37.4501 51.3146   shell=3.0 standoff=2.994
X 54.8597 40.2373 54.3077   shell=4.0 standoff=3.996
X 66.7842 31.4099 57.8865   shell=4.0 standoff=3.996
X 63.7954 37.9514 56.0590   shell=3.0 standoff=2.996
X 52.7336 29.1952 51.0582   shell=4.0 standoff=3.996
X 51.3788 33.4840 56.7046   shell=3.0 standoff=2.995
X 67.1227 32.0962 49.9882   shell=5.0 standoff=4.997
X 53.9102 39.9949 59.1665   shell=4.0 standoff=3.996
X 65.2750 31.1028 49.4171   shell=4.0 standoff=3.997
X 63.9879 39.2846 60.4725   shell=5.0 standoff=4.997
X 63.6647 27.0313 52.9362   shell=4.0 standoff=3.997
X 65.7227 29.4705 58.7113   shell=4.0 standoff=3.999
X 58.5808 28.0859 49.1635   shell=5.0 standoff=4.998
X 64.9955 27.7617 53.3907   shell=4.0 standoff=4.000
X 54.7091 27.4723 52.2649   shell=4.0 standoff=3.996
X 56.4806 29.0488 48.8679   shell=5.0 standoff=4.997
X 65.7240 32.3723 57.7115   shell=3.0 standoff=2.996
X 51.2757 30.5758 51.5996   shell=4.0 standoff=3.996
X 62.8768 35.9903 60.6458   shell=3.0 standoff=2.993
X 53.4805 32.2791 50.3804   shell=3.0 standoff=2.997
X 60.5595 40.8618 57.5904   shell=3.0 standoff=2.997
X 59.5683 37.9949 49.8081   shell=4.0 standoff=3.995
X 64.6770 36.2473 58.0748   shell=3.0 standoff=2.996
X 52.5690 39.0941 55.7096   shell=4.0 standoff=3.999
X 65.0633 35.3484 59.9194   shell=4.0 standoff=3.997
X 58.0489 43.2851 56.2956   shell=5.0 standoff=4.998
X 59.6392 28.2222 59.4154   shell=3.0 standoff=2.994
X 62.9559 27.8052 53.4287   shell=3.0 standoff=3.009
X 53.1578 26.4601 53.7071   shell=5.0 standoff=4.999
X 52.5501 33.2468 49.8227   shell=4.0 standoff=3.997
X 59.7482 35.8274 47.2174   shell=5.0 standoff=4.999
X 52.7444 29.6250 57.4972   shell=3.0 standoff=2.995
X 59.6142 26.8542 52.7879   shell=4.0 standoff=3.996
X 62.1632 41.0438 57.8485   shell=4.0 standoff=3.998
X 57.1901 39.9005 60.8602   shell=4.0 standoff=3.999
X 50.4281 35.5627 58.1510   shell=5.0 standoff=4.999
X 62.9624 25.3246 54.9004   shell=5.0 standoff=4.997
X 52.7886 28.3335 59.9525   shell=5.0 standoff=4.999
X 60.2652 32.9279 64.0430   shell=5.0 standoff=4.997
X 52.4145 39.4046 53.8084   shell=5.0 standoff=4.997
X 61.7986 31.9849 61.1405   shell=3.0 standoff=2.997
X 53.6211 27.2247 54.5451   shell=4.0 standoff=3.998
X 59.5627 31.5944 61.6669   shell=3.0 standoff=2.996
X 55.1104 27.9615 54.0434   shell=3.0 standoff=3.014
X 53.5416 35.3742 49.6385   shell=4.0 standoff=3.995
X 55.5901 26.9876 50.8212   shell=5.0 standoff=4.997
X 51.9325 35.0839 54.7948   shell=3.0 standoff=2.998
X 53.6474 31.8415 62.1092   shell=5.0 standoff=4.996
X 53.8050 38.8396 55.5114   shell=3.0 standoff=2.996
X 54.6750 37.9309 50.3769   shell=4.0 standoff=3.998
X 57.8322 36.2661 47.3315   shell=5.0 standoff=4.997
X 58.9081 34.9540 48.0829   shell=4.0 standoff=3.997
X 67.9678 33.1880 53.4052   shell=5.0 standoff=4.997
X 68.0171 30.8667 53.8320   shell=5.0 standoff=4.997
X 59.8197 25.7130 52.8511   shell=5.0 standoff=4.997
X 64.1773 31.0301 60.5342   shell=4.0 standoff=3.999
X 57.8474 40.1444 62.0985   shell=5.0 standoff=4.996
X 66.8644 36.0168 56.5494   shell=5.0 standoff=4.998
X 54.8254 32.9519 47.5777   shell=5.0 standoff=4.996
X 65.6726 38.1814 59.3950   shell=5.0 standoff=4.997
X 67.2032 31.8347 54.5069   shell=4.0 standoff=3.998
X 65.0987 33.1365 58.3502   shell=3.0 standoff=2.998
X 58.9562 29.1264 62.4680   shell=5.0 standoff=4.995
X 61.3293 41.6598 52.9363   shell=5.0 standoff=4.996
X 59.7929 36.8749 48.8483   shell=4.0 standoff=3.996
X 57.0086 38.3600 60.7595   shell=3.0 standoff=2.996
X 64.4190 28.5937 53.5371   shell=3.0 standoff=3.022
X 56.3436 32.1365 48.4831   shell=4.0 standoff=3.996
X 61.0187 41.8838 56.7823   shell=4.0 standoff=3.996
X 52.3048 27.8546 54.3164   shell=4.0 standoff=3.996
X 60.7564 40.3946 58.5328   shell=3.0 standoff=2.995
X 61.0039 27.5862 48.6908   shell=5.0 standoff=4.996
X 66.4185 34.8289 59.4659   shell=5.0 standoff=4.997
X 51.5876 32.1137 60.2566   shell=5.0 standoff=4.997
X 49.5619 31.5942 52.1634   shell=5.0 standoff=5.003
X 55.7124 38.7472 62.7359   shell=5.0 standoff=4.996
X 60.9533 35.4934 47.2514   shell=5.0 standoff=4.999
X 55.8905 39.2433 51.5116   shell=4.0 standoff=3.998
X 55.7629 42.4250 57.8988   shell=5.0 standoff=4.998
X 57.4301 27.1779 57.3477   shell=3.0 standoff=2.995
X 51.2017 33.9557 49.7816   shell=5.0 standoff=4.996
X 64.8277 38.3961 57.6977   shell=4.0 standoff=3.996
X 61.5709 39.2314 53.8259   shell=3.0 standoff=2.995
X 65.2445 39.3043 55.7562   shell=5.0 standoff=4.996
X 64.3440 26.9090 56.4901   shell=4.0 standoff=3.996
X 53.8933 39.0488 58.2165   shell=3.0 standoff=2.994
X 61.8671 35.6022 49.9426   shell=3.0 standoff=2.996
X 56.9537 39.5958 53.5442   shell=3.0 standoff=2.994
X 50.7894 32.7866 58.0416   shell=4.0 standoff=3.997
X 55.0358 27.9705 59.8996   shell=4.0 standoff=3.997
X 53.9628 27.6950 58.6464   shell=4.0 standoff=3.997
X 56.7478 33.4420 63.1630   shell=4.0 standoff=3.999
X 62.4270 26.9799 60.0465   shell=5.0 standoff=4.997
X 56.7618 27.6519 58.4639   shell=3.0 standoff=2.997
X 52.2393 36.5280 50.1871   shell=5.0 standoff=4.997
X 59.6366 30.2833 48.5073   shell=4.0 standoff=3.996
X 65.3525 31.3247 48.1238   shell=5.0 standoff=4.998
X 62.1365 28.3609 49.3445   shell=4.0 standoff=3.998
X 53.9557 37.7539 54.0876   shell=3.0 standoff=2.994
X 67.2323 28.1250 55.6435   shell=5.0 standoff=4.998
X 59.8639 41.2224 53.3769   shell=4.0 standoff=3.997
X 49.1356 34.0541 55.5431   shell=5.0 standoff=4.997
X 64.0081 36.6838 59.2572   shell=3.0 standoff=2.996
X 51.0301 31.6956 51.4287   shell=4.0 standoff=3.997
X 51.2370 34.4222 51.5989   shell=4.0 standoff=3.996
X 59.9897 26.1882 54.9145   shell=4.0 standoff=3.997
X 55.9753 28.0754 51.0078   shell=4.0 standoff=3.996
X 55.4728 32.1795 63.5435   shell=5.0 standoff=4.998
X 63.8364 32.2967 61.2935   shell=4.0 standoff=3.995
X 51.8809 33.5369 49.1078   shell=5.0 standoff=4.998
X 53.5874 29.4846 60.0529   shell=4.0 standoff=3.995
X 63.6198 39.0941 59.0656   shell=4.0 standoff=3.998
X 59.9761 25.9666 56.3634   shell=4.0 standoff=3.997
X 54.6254 41.6500 55.0276   shell=5.0 standoff=4.998
X 65.9816 27.8524 51.1931   shell=5.0 standoff=4.998
X 58.2942 40.3714 59.3203   shell=3.0 standoff=2.998
X 67.0054 31.3411 53.3997   shell=4.0 standoff=3.998
X 66.5155 31.7053 51.0033   shell=4.0 standoff=3.996
X 67.0395 33.3872 55.5329   shell=4.0 standoff=3.998
X 64.4966 31.4410 48.7426   shell=4.0 standoff=3.996
X 52.3809 35.4561 55.9262   shell=3.0 standoff=3.009
X 67.7798 32.6527 51.5481   shell=5.0 standoff=4.997
X 56.0932 40.8891 61.0751   shell=5.0 standoff=4.998
X 51.1472 38.5611 58.6595   shell=5.0 standoff=4.998
X 66.0237 31.3383 59.1090   shell=4.0 standoff=3.998
X 54.6490 33.0969 48.7708   shell=4.0 standoff=3.998
X 62.4908 35.8818 50.6785   shell=3.0 standoff=2.995
X 65.7893 29.6176 55.6033   shell=3.0 standoff=2.995
X 67.5630 34.7430 55.7331   shell=5.0 standoff=4.998
X 56.6307 41.8791 56.3067   shell=4.0 standoff=3.998
X 66.4244 36.8764 58.8826   shell=5.0 standoff=4.996
X 66.6757 30.2550 52.5579   shell=4.0 standoff=3.996
X 64.8374 38.0174 58.6590   shell=4.0 standoff=3.997
X 66.3326 34.4715 57.1280   shell=4.0 standoff=3.997
X 60.7708 38.9590 49.5444   shell=5.0 standoff=4.995
X 58.2550 26.0579 56.0975   shell=4.0 standoff=3.997
X 63.8867 26.6757 50.6154   shell=5.0 standoff=4.998
X 58.8166 32.2345 49.3603   shell=3.0 standoff=3.000
X 57.4003 39.0247 62.7402   shell=5.0 standoff=4.996
X 57.3294 31.2255 63.8251   shell=5.0 standoff=4.998
X 64.6899 30.8049 58.9271   shell=3.0 standoff=2.994
X 55.7298 40.0969 53.3896   shell=4.0 standoff=3.996
X 59.1821 38.5792 60.7215   shell=3.0 standoff=2.997
X 49.8797 31.8389 54.4626   shell=4.0 standoff=3.997
X 53.4335 37.4509 51.3153   shell=4.0 standoff=3.996
X 59.5256 29.4226 47.7672   shell=5.0 standoff=4.996
X 61.9689 25.7763 51.8630   shell=5.0 standoff=4.997
X 58.2957 32.8468 63.3267   shell=4.0 standoff=3.998
X 59.6906 29.0077 50.6371   shell=3.0 standoff=2.997
X 60.1693 27.7359 50.2775   shell=4.0 standoff=3.997
X 51.0099 38.5924 56.0189   shell=5.0 standoff=4.999
X 58.8134 31.9390 64.1312   shell=5.0 standoff=4.999
X 67.6920 31.1923 51.4056   shell=5.0 standoff=4.996
X 66.2970 36.6745 53.5456   shell=5.0 standoff=4.998
X 63.7651 37.5183 52.7103   shell=4.0 standoff=3.996
X 50.3536 31.8292 52.7955   shell=4.0 standoff=3.996
X 56.1884 27.0331 60.8213   shell=5.0 standoff=4.998
X 62.6343 31.3480 62.8588   shell=5.0 standoff=4.998
X 65.9085 28.4324 53.8901   shell=4.0 standoff=3.996
X 64.4044 28.0364 55.2422   shell=3.0 standoff=2.996
X 65.2717 26.7912 52.8073   shell=5.0 standoff=4.997
X 52.9488 34.6388 49.9993   shell=4.0 standoff=3.999
X 54.1787 33.3062 59.9250   shell=3.0 standoff=2.996
X 54.9956 30.6647 50.2820   shell=3.0 standoff=2.997
X 57.1022 38.4759 51.7598   shell=3.0 standoff=2.996
X 62.6829 39.3382 59.6718   shell=4.0 standoff=4.015
X 56.4803 39.5052 62.3928   shell=5.0 standoff=4.997
X 65.3099 32.1445 49.3263   shell=4.0 standoff=3.995
X 61.5910 28.3703 58.7064   shell=3.0 standoff=3.021
X 65.1348 39.5301 57.9668   shell=5.0 standoff=4.997
X 64.9160 38.6959 53.5520   shell=5.0 standoff=4.996
X 51.4410 37.4482 60.2897   shell=5.0 standoff=4.996
X 60.0842 40.8087 60.1697   shell=4.0 standoff=3.997
X 60.8290 27.4160 53.9056   shell=3.0 standoff=2.998
X 55.7138 30.8988 63.1551   shell=5.0 standoff=4.996
X 56.4152 27.1674 55.0979   shell=3.0 standoff=2.999
X 53.6064 40.1062 55.6506   shell=4.0 standoff=3.996
X 53.7809 34.8876 60.1923   shell=3.0 standoff=2.998
X 55.7298 35.3619 49.3860   shell=3.0 standoff=2.995
X 59.0254 40.3089 52.2741   shell=4.0 standoff=3.997
X 52.8358 28.5264 51.7983   shell=4.0 standoff=3.999
X 65.8829 30.5681 50.3167   shell=4.0 standoff=3.997
X 57.1605 29.4662 62.6927   shell=5.0 standoff=4.997
X 53.1461 36.1756 59.5912   shell=3.0 standoff=2.998
X 58.1148 42.2773 56.9627   shell=4.0 standoff=3.997
X 62.2875 41.4928 53.5412   shell=5.0 standoff=4.997
X 68.0047 31.5392 52.7319   shell=5.0 standoff=4.998
X 51.3159 35.6149 56.4327   shell=4.0 standoff=4.024
X 50.3744 36.1413 52.9887   shell=5.0 standoff=4.999
X 56.0550 33.5898 47.0995   shell=5.0 standoff=4.997
X 51.6655 32.3533 57.5965   shell=3.0 standoff=2.995
X 63.2663 31.1766 59.8430   shell=3.0 standoff=2.995
X 60.0735 29.3985 61.2799   shell=4.0 standoff=3.996
X 58.2823 34.0300 48.0612   shell=4.0 standoff=4.013
X 54.6837 39.7644 57.6525   shell=3.0 standoff=2.996
X 62.8681 28.3267 59.8267   shell=4.0 standoff=3.997
X 65.6966 35.1684 58.5660   shell=4.0 standoff=3.996
X 54.7940 28.7527 49.1054   shell=5.0 standoff=4.997
X 66.5682 33.0412 58.0201   shell=4.0 standoff=3.996
X 62.2022 39.8256 57.0581   shell=3.0 standoff=2.995
X 62.4851 40.4539 54.4833   shell=4.0 standoff=3.997
X 65.2778 27.4455 55.2083   shell=4.0 standoff=3.997
X 52.0423 39.7963 55.0429   shell=5.0 standoff=4.996
X 53.5205 28.0225 50.1502   shell=5.0 standoff=4.997
X 54.0922 31.2312 59.7382   shell=3.0 standoff=2.994
X 61.0113 35.8918 48.4909   shell=4.0 standoff=3.997
X 61.4342 25.2586 56.6316   shell=5.0 standoff=5.024
X 65.8714 35.4139 55.0498   shell=4.0 standoff=4.002
X 63.2572 30.1811 60.7000   shell=4.0 standoff=3.997
X 53.9802 26.1127 54.1628   shell=5.0 standoff=5.013
X 51.6853 34.1664 60.6240   shell=5.0 standoff=4.996
X 63.3994 28.2195 60.8648   shell=5.0 standoff=4.997
X 51.3138 39.2130 57.8116   shell=5.0 standoff=4.999
X 65.3670 33.2008 49.5330   shell=4.0 standoff=3.996
X 65.1302 36.5068 59.5235   shell=4.0 standoff=3.997
X 62.2602 27.2287 55.9317   shell=3.0 standoff=2.996
X 60.6119 31.0203 63.3519   shell=5.0 standoff=4.999
X 51.7693 28.6632 50.8141   shell=5.0 standoff=4.996
X 63.7164 35.6861 59.9802   shell=3.0 standoff=3.002
X 56.4920 32.4307 47.2715   shell=5.0 standoff=4.997
X 56.2781 39.8814 54.4410   shell=3.0 standoff=2.994
X 56.0619 36.6566 47.5592   shell=5.0 standoff=4.997
X 53.7453 36.2845 51.7278   shell=3.0 standoff=2.995
X 62.9660 31.3046 49.1416   shell=3.0 standoff=2.997
X 61.6459 25.4139 53.7690   shell=5.0 standoff=5.012
X 50.2357 33.7438 50.8972   shell=5.0 standoff=4.999
X 65.8225 38.1707 54.7510   shell=5.0 standoff=4.997
X 51.3110 27.4132 53.8157   shell=5.0 standoff=4.998
X 56.8373 36.8483 62.4344   shell=4.0 standoff=3.996
X 51.0547 32.4004 53.6996   shell=3.0 standoff=2.995
X 62.9141 35.5831 49.2758   shell=4.0 standoff=4.008
X 52.6624 29.0685 56.5678   shell=3.0 standoff=2.994
X 59.3648 33.9840 62.2576   shell=3.0 standoff=2.997
X 56.4877 35.5886 48.1840   shell=4.0 standoff=3.997
X 64.8450 28.4799 49.0620   shell=5.0 standoff=4.998
X 50.0699 30.7355 55.4997   shell=4.0 standoff=3.998
X 64.8648 27.8284 52.3130   shell=4.0 standoff=3.996
X 54.9462 38.8172 59.8413   shell=3.0 standoff=2.998
X 68.0017 29.7953 56.0033   shell=5.0 standoff=4.999
X 62.0693 40.7050 52.3888   shell=5.0 standoff=4.997
X 52.6887 27.1155 52.2051   shell=5.0 standoff=4.997
X 67.9676 31.2187 57.5523   shell=5.0 standoff=4.998
X 52.2593 36.6721 52.9372   shell=4.0 standoff=3.997
X 58.4582 39.8606 50.2762   shell=5.0 standoff=4.997
X 51.6920 29.9615 59.8192   shell=5.0 standoff=4.996
X 62.0847 26.4465 53.8684   shell=4.0 standoff=4.004
X 54.9034 25.9117 58.7490   shell=5.0 standoff=4.999
X 52.9358 38.1073 57.2377   shell=3.0 standoff=2.996
X 57.2524 33.0933 47.0656   shell=5.0 standoff=4.998
X 53.8651 32.3060 48.0727   shell=5.0 standoff=4.997
X 63.3681 25.5533 57.0132   shell=5.0 standoff=4.997
X 62.1829 34.4678 62.5162   shell=4.0 standoff=3.997
X 51.5170 32.8543 50.6873   shell=4.0 standoff=3.996
X 63.2856 32.7122 49.2318   shell=3.0 standoff=2.996
X 54.5678 26.1680 53.0898   shell=5.0 standoff=4.997
X 58.9510 40.6228 60.5721   shell=4.0 standoff=3.997
X 65.8934 30.0947 54.5757   shell=3.0 standoff=2.997
X 60.3223 39.2705 61.2842   shell=4.0 standoff=3.997
X 51.6862 30.6330 49.5239   shell=5.0 standoff=4.997
X 50.6351 32.5311 59.4565   shell=5.0 standoff=4.997
X 51.9630 38.0752 55.7032   shell=4.0 standoff=3.998
X 63.6413 34.1909 62.8996   shell=5.0 standoff=4.998
X 65.3390 29.7914 52.5742   shell=3.0 standoff=2.996
X 51.0214 34.0795 59.4759   shell=5.0 standoff=5.024
X 54.6992 25.5234 55.0460   shell=5.0 standoff=4.997
X 60.0418 32.8022 49.0661   shell=3.0 standoff=3.006
X 52.3657 35.1959 56.9495   shell=3.0 standoff=3.002
X 53.4530 32.5007 60.4957   shell=4.0 standoff=4.002
X 59.0261 25.5822 53.5056   shell=5.0 standoff=4.997
X 59.1493 35.1435 62.0727   shell=3.0 standoff=2.997
X 61.1858 34.2646 62.8043   shell=4.0 standoff=3.998
X 54.7477 39.4224 58.8106   shell=3.0 standoff=2.995
X 51.7497 35.5788 59.1193   shell=4.0 standoff=3.996
X 57.5808 42.0054 55.1585   shell=4.0 standoff=3.997
X 67.4056 34.1063 57.9010   shell=5.0 standoff=4.997
X 50.9956 36.5997 52.2319   shell=5.0 standoff=4.996
X 53.2642 27.3918 51.1253   shell=5.0 standoff=4.997
X 59.6303 40.8935 58.3440   shell=3.0 standoff=2.996
X 56.3116 35.8394 62.5608   shell=4.0 standoff=4.003
X 53.1640 32.1388 58.8643   shell=3.0 standoff=2.996
X 51.6529 35.1513 60.8938   shell=5.0 standoff=4.997
X 58.6577 26.3491 58.3188   shell=4.0 standoff=3.996
X 52.5621 29.6954 52.6629   shell=3.0 standoff=2.996
X 54.8358 36.1388 61.0470   shell=3.0 standoff=2.997
X 55.4045 39.5434 50.1540   shell=5.0 standoff=4.996
X 67.3855 29.4051 52.3485   shell=5.0 standoff=4.996
X 52.6466 34.6000 51.6569   shell=3.0 standoff=2.995
X 55.5096 28.9738 51.5213   shell=3.0 standoff=2.998
X 64.0034 39.4176 53.3307   shell=5.0 standoff=4.998
X 49.1011 30.8161 53.8981   shell=5.0 standoff=4.998
X 61.3633 30.2859 49.2256   shell=3.0 standoff=2.994
X 63.7130 28.5216 58.1227   shell=3.0 standoff=2.996
X 54.8331 26.8539 54.2497   shell=4.0 standoff=3.997
X 50.7331 28.4279 52.6660   shell=5.0 standoff=4.998
X 57.6481 30.8919 62.5774   shell=4.0 standoff=3.997
X 53.1820 36.2601 53.5987   shell=3.0 standoff=2.997
X 53.3378 29.9662 51.4350   shell=3.0 standoff=2.994
X 59.9108 39.3427 49.9103   shell=5.0 standoff=4.996
X 54.9620 30.7792 49.1543   shell=4.0 standoff=3.998
X 66.0454 38.2384 58.2024   shell=5.0 standoff=4.998
X 55.0539 29.7381 49.6258   shell=4.0 standoff=3.996
X 58.4022 29.5033 51.3094   shell=3.0 standoff=3.041
X 63.1899 40.2598 56.5756   shell=4.0 standoff=3.997
X 57.5597 28.1974 60.5664   shell=4.0 standoff=3.996
X 56.8355 41.3408 54.1169   shell=4.0 standoff=3.996
X 57.0698 30.3945 49.3784   shell=4.0 standoff=4.003
X 60.2614 34.0783 64.0819   shell=5.0 standoff=4.998
X 60.3927 38.6340 50.7487   shell=4.0 standoff=3.996
X 58.9185 30.4717 60.9701   shell=3.0 standoff=2.995
X 60.4086 42.2759 53.3358   shell=5.0 standoff=4.998
X 55.3471 31.9167 48.8484   shell=4.0 standoff=4.013
X 63.9298 38.4141 61.3325   shell=5.0 standoff=4.997
X 58.8625 27.5416 53.9787   shell=3.0 standoff=2.997
X 50.5448 30.5053 53.0392   shell=4.0 standoff=3.997
X 50.1257 35.9978 53.9720   shell=5.0 standoff=4.998
X 56.9488 26.1344 57.4310   shell=4.0 standoff=3.996
X 52.2420 26.9266 56.7714   shell=5.0 standoff=4.997
X 62.0363 29.1589 61.7020   shell=5.0 standoff=5.000
X 67.5160 34.2371 51.8558   shell=5.0 standoff=4.998
X 52.0761 40.2576 56.4336   shell=5.0 standoff=4.996
X 65.6509 34.4103 50.4860   shell=4.0 standoff=3.995
X 55.7442 34.7080 62.6554   shell=4.0 standoff=3.996
X 58.1221 33.9582 63.3829   shell=4.0 standoff=3.997
X 57.8521 30.1784 63.3385   shell=5.0 standoff=4.997
X 64.1477 35.6795 52.1446   shell=3.0 standoff=2.995
X 59.6754 25.1897 54.6579   shell=5.0 standoff=4.997
X 62.1258 27.8749 48.4306   shell=5.0 standoff=4.997
X 65.6454 33.8791 52.7098   shell=3.0 standoff=2.997
X 58.5849 38.4802 50.1325   shell=4.0 standoff=3.996
X 61.7133 30.5057 60.1822   shell=3.0 standoff=2.995
X 50.4584 34.4310 53.9065   shell=4.0 standoff=4.001
X 60.6919 39.4689 59.7148   shell=3.0 standoff=2.996
X 50.3687 36.4996 57.4343   shell=5.0 standoff=4.997
X 60.3074 32.0346 62.7388   shell=4.0 standoff=3.997
X 52.2055 39.2801 60.0449   shell=5.0 standoff=4.996
X 63.6220 36.7526 53.6410   shell=3.0 standoff=2.998
X 65.5000 37.2548 56.5413   shell=4.0 standoff=3.997
X 52.9234 37.8700 50.3820   shell=5.0 standoff=4.997
X 63.3655 37.5836 59.3600   shell=3.0 standoff=2.997
X 58.9687 38.8109 62.8288   shell=5.0 standoff=4.998
X 58.3821 33.5144 49.1240   shell=3.0 standoff=3.018
X 64.7290 39.2207 59.6597   shell=5.0 standoff=4.996
X 52.0117 35.5073 51.4262   shell=4.0 standoff=3.997
X 56.1974 40.4070 51.5026   shell=5.0 standoff=4.998
X 65.0444 36.4301 52.7001   shell=4.0 standoff=3.999
X 63.3061 28.9819 50.6074   shell=3.0 standoff=2.998
X 60.9034 38.9806 51.7437   shell=4.0 standoff=3.997
X 63.4295 34.6917 48.8605   shell=4.0 standoff=3.996
X 57.9611 32.8231 64.3257   shell=5.0 standoff=4.999
X 64.0211 40.2747 54.4998   shell=5.0 standoff=4.998
X 60.3042 27.1056 57.1456   shell=3.0 standoff=2.997
X 49.2887 29.8962 55.1640   shell=5.0 standoff=4.998
X 65.3810 33.3568 59.5198   shell=4.0 standoff=4.027
X 58.2375 41.5360 53.7731   shell=4.0 standoff=3.999
X 54.2889 31.6942 49.0569   shell=4.0 standoff=3.997
X 66.0472 27.7994 58.5557   shell=5.0 standoff=4.997
X 64.7576 38.4247 60.5514   shell=5.0 standoff=4.997
X 61.9263 34.3466 47.2440   shell=5.0 standoff=4.998
X 51.9635 37.4485 59.0357   shell=4.0 standoff=3.997
X 53.1536 35.8834 52.5795   shell=3.0 standoff=3.000
X 56.3808 39.4255 49.5824   shell=5.0 standoff=4.998
X 65.9650 38.5786 57.1778   shell=5.0 standoff=4.998
X 55.8062 34.2062 61.6011   shell=3.0 standoff=2.996
X 52.0350 34.6378 59.4357   shell=4.0 standoff=3.997
X 49.6145 30.1478 57.2893   shell=5.0 standoff=4.998
X 55.8416 31.2390 50.0178   shell=3.0 standoff=2.998
X 63.4128 33.3645 60.5051   shell=3.0 standoff=2.997
X 52.6327 33.2537 58.3807   shell=3.0 standoff=2.995
X 65.7467 31.5911 51.7840   shell=3.0 standoff=2.998
X 64.2734 40.4741 56.3421   shell=5.0 standoff=4.998
X 66.6442 36.1226 54.5116   shell=5.0 standoff=5.000
X 60.6266 35.2611 61.7975   shell=3.0 standoff=2.999
X 55.5623 28.7721 59.4740   shell=3.0 standoff=2.994
X 66.5375 29.6943 57.4972   shell=4.0 standoff=3.997
X 64.9513 29.1117 57.4522   shell=3.0 standoff=2.995
X 57.9512 41.3691 51.9794   shell=5.0 standoff=4.996
X 61.6565 32.1322 46.8370   shell=5.0 standoff=4.997
X 51.8534 28.3646 56.5701   shell=4.0 standoff=3.997
X 67.4292 29.2346 57.6719   shell=5.0 standoff=4.998
X 60.2752 35.9197 62.6937   shell=4.0 standoff=3.997
X 56.2665 40.7619 59.5124   shell=4.0 standoff=4.015
X 49.9896 33.4300 55.3942   shell=4.0 standoff=3.999
X 60.5221 27.3739 54.8611   shell=3.0 standoff=3.021
X 60.5229 29.5866 49.7463   shell=3.0 standoff=2.996
X 59.6661 34.4049 63.1760   shell=4.0 standoff=3.997
X 61.9221 39.3196 50.6925   shell=5.0 standoff=4.996
X 56.2798 27.3672 52.1944   shell=4.0 standoff=3.996
X 51.4477 35.9812 53.3229   shell=4.0 standoff=3.996
X 57.1142 41.1410 61.1505   shell=5.0 standoff=4.997
X 51.5201 32.2613 58.9317   shell=4.0 standoff=3.996
X 55.2054 41.0561 56.2018   shell=4.0 standoff=3.997
X 54.3277 41.0171 53.9252   shell=5.0 standoff=4.999
X 59.9990 41.7688 58.7098   shell=4.0 standoff=3.999
X 61.9016 32.5126 63.3909   shell=5.0 standoff=5.001
X 66.8488 35.4975 57.9828   shell=5.0 standoff=4.997
X 66.7201 31.9098 59.8574   shell=5.0 standoff=4.998
X 64.4051 32.5541 48.6595   shell=4.0 standoff=3.996
X 65.9602 33.7835 48.8656   shell=5.0 standoff=4.997
X 61.8071 27.0219 49.2851   shell=5.0 standoff=4.997
X 64.0905 27.6810 58.5471   shell=4.0 standoff=3.995
X 64.8738 35.2221 53.9854   shell=3.0 standoff=2.997
X 59.2988 26.9684 56.9562   shell=3.0 standoff=2.996
X 62.6964 42.0173 57.4172   shell=5.0 standoff=4.997
X 54.3153 26.7465 51.5942   shell=5.0 standoff=4.998
X 63.9293 38.7931 52.3938   shell=5.0 standoff=4.999
X 67.1977 35.0201 57.1680   shell=5.0 standoff=4.997
X 59.1150 25.1157 57.8919   shell=5.0 standoff=4.998
X 50.9113 35.1325 59.6223   shell=5.0 standoff=4.998
X 61.8355 26.2803 56.5720   shell=4.0 standoff=3.999
X 66.0608 29.1340 52.2733   shell=4.0 standoff=3.996
X 58.2506 31.2875 61.6934   shell=3.0 standoff=2.998
X 64.0201 26.3370 58.4973   shell=5.0 standoff=4.996
X 62.6326 30.0438 47.2680   shell=5.0 standoff=4.997
X 60.9369 39.9477 51.1731   shell=5.0 standoff=5.020
X 68.2984 31.7935 55.3445   shell=5.0 standoff=4.997
X 54.4420 38.0094 62.6710   shell=5.0 standoff=4.997
X 50.9873 29.3609 56.6904   shell=4.0 standoff=3.996
X 62.8376 37.0897 48.8175   shell=5.0 standoff=4.998
X 64.8253 27.4022 59.4024   shell=5.0 standoff=4.998
X 56.9010 35.6105 63.9451   shell=5.0 standoff=4.996
X 63.9454 39.3502 56.9351   shell=4.0 standoff=3.998
X 64.1085 27.6695 60.1432   shell=5.0 standoff=4.996
X 67.3276 35.1228 53.2565   shell=5.0 standoff=4.998
X 61.6326 33.1924 47.9447   shell=4.0 standoff=3.997
X 55.7037 38.6020 50.4692   shell=4.0 standoff=3.995
X 67.0277 33.9929 50.3838   shell=5.0 standoff=4.997
X 63.2195 38.2601 58.6225   shell=3.0 standoff=2.995
X 54.2053 34.2699 50.2131   shell=3.0 standoff=2.994
X 54.7888 35.6039 63.1906   shell=5.0 standoff=4.997
X 58.0005 29.8170 48.3596   shell=5.0 standoff=5.015
X 53.5475 40.2688 53.5237   shell=5.0 standoff=4.996
X 51.5942 34.4761 55.8533   shell=3.0 standoff=2.996
X 60.7493 27.9231 60.2510   shell=4.0 standoff=3.996
X 68.1102 32.9552 54.5996   shell=5.0 standoff=4.997
X 56.1866 41.6256 57.2392   shell=4.0 standoff=3.997
X 59.2640 33.1873 63.2839   shell=4.0 standoff=3.997
X 58.9373 35.6201 49.3601   shell=3.0 standoff=2.995
X 51.7724 30.3264 53.1850   shell=3.0 standoff=2.994
X 61.1019 28.4037 50.8084   shell=3.0 standoff=2.994
X 58.4507 35.4730 47.2090   shell=5.0 standoff=5.000
X 52.8771 28.7337 54.1278   shell=3.0 standoff=2.996
X 56.8119 27.6793 61.4869   shell=5.0 standoff=4.997
X 63.8114 37.2982 62.0368   shell=5.0 standoff=4.998
X 53.3805 28.8702 60.9689   shell=5.0 standoff=4.996
X 57.4058 26.7945 53.2540   shell=4.0 standoff=3.997
X 55.7442 39.9990 60.4762   shell=4.0 standoff=3.997
X 63.5823 31.5671 62.4919   shell=5.0 standoff=4.997
X 64.0922 40.5334 57.7653   shell=5.0 standoff=4.999
X 61.4233 34.5748 63.7751   shell=5.0 standoff=4.997
X 65.4613 34.8576 48.9328   shell=5.0 standoff=4.997
X 58.2364 41.1146 59.9913   shell=4.0 standoff=3.997
X 61.9798 36.9635 63.1011   shell=5.0 standoff=4.997
X 58.6407 35.5468 64.1180   shell=5.0 standoff=4.998
X 64.2047 36.8292 54.8715   shell=3.0 standoff=3.003
X 65.1503 33.2068 61.5936   shell=5.0 standoff=4.997
X 62.8928 32.5798 63.0812   shell=5.0 standoff=4.997
X 57.0737 32.9861 48.1149   shell=4.0 standoff=3.997
X 63.2337 36.5056 50.2906   shell=4.0 standoff=4.014
X 52.5439 28.0023 53.2769   shell=4.0 standoff=3.999
X 55.0764 28.3081 61.5980   shell=5.0 standoff=4.997
X 63.6814 40.1951 59.4370   shell=5.0 standoff=5.016
X 57.0036 37.3758 63.3445   shell=5.0 standoff=4.998
X 51.2079 28.7352 55.6377   shell=4.0 standoff=3.995
X 59.7763 40.1642 59.4518   shell=3.0 standoff=2.994
X 57.4791 34.9711 62.1292   shell=3.0 standoff=2.996
X 58.2399 38.8729 61.7125   shell=4.0 standoff=3.999
X 57.8288 33.4156 62.3580   shell=3.0 standoff=2.997
X 62.8514 25.7442 52.8329   shell=5.0 standoff=4.997
X 65.6618 28.6008 49.7168   shell=5.0 standoff=4.998
X 65.6451 33.0087 51.7014   shell=3.0 standoff=2.995
X 49.5401 33.8333 57.4506   shell=5.0 standoff=4.997
X 66.1085 27.1519 53.7910   shell=5.0 standoff=4.997
X 66.8409 32.8205 51.9939   shell=4.0 standoff=3.998
X 52.6030 30.0253 59.1774   shell=4.0 standoff=4.016
X 49.1655 33.8419 53.8571   shell=5.0 standoff=4.997
X 62.3307 38.4407 59.2912   shell=3.0 standoff=2.996
X 50.3592 32.7023 50.5243   shell=5.0 standoff=4.997
X 54.2046 34.5885 47.7385   shell=5.0 standoff=4.997
X 60.6398 36.8181 62.3352   shell=4.0 standoff=3.998
X 53.8894 29.4486 48.8778   shell=5.0 standoff=4.996
X 53.8555 39.6475 61.3839   shell=5.0 standoff=4.997
X 59.4382 36.0032 61.6003   shell=3.0 standoff=3.002
X 60.5117 26.4522 53.7599   shell=4.0 standoff=3.996
X 56.8061 35.3717 49.1321   shell=3.0 standoff=2.995
X 50.2661 33.6936 56.5147   shell=4.0 standoff=3.997
X 54.2359 38.3817 51.5903   shell=4.0 standoff=3.995
X 53.3268 38.4063 53.5957   shell=4.0 standoff=3.996
X 62.7924 30.2144 49.4477   shell=3.0 standoff=2.996
X 54.5460 40.8643 57.1263   shell=4.0 standoff=3.996
X 53.7802 36.7389 50.1184   shell=4.0 standoff=3.997
X 55.9638 26.0798 56.3001   shell=4.0 standoff=3.997
X 50.0266 31.1938 51.3190   shell=5.0 standoff=4.996
X 61.4437 31.4471 62.1132   shell=4.0 standoff=3.995
X 65.5239 35.7665 60.9537   shell=5.0 standoff=5.000
X 57.5725 42.0434 57.8451   shell=4.0 standoff=3.998
X 59.1867 28.6445 51.6602   shell=3.0 standoff=2.996
X 61.6709 39.2598 60.6141   shell=4.0 standoff=3.995
X 61.8272 30.3001 61.3500   shell=4.0 standoff=3.997
X 52.0067 30.7987 52.3047   shell=3.0 standoff=2.995
X 63.3417 37.4880 60.9631   shell=4.0 standoff=3.996
X 61.6498 40.3728 56.3326   shell=3.0 standoff=2.997
X 60.1741 42.1583 56.2490   shell=4.0 standoff=3.997
X 58.1766 31.8889 48.4955   shell=4.0 standoff=3.998
X 62.3080 26.7104 57.8660   shell=4.0 standoff=3.996
X 52.0259 39.8293 58.8631   shell=5.0 standoff=4.995
X 61.6172 34.8355 48.3713   shell=4.0 standoff=3.996
X 57.5242 42.9477 58.3813   shell=5.0 standoff=4.998
X 53.0137 29.9860 50.2184   shell=4.0 standoff=3.995
X 65.5282 26.4637 56.5517   shell=5.0 standoff=4.997
X 60.0272 43.0903 57.8738   shell=5.0 standoff=4.999
X 64.7760 35.2672 50.1941   shell=4.0 standoff=3.996
X 62.0618 38.7124 62.0368   shell=5.0 standoff=4.997
X 65.1564 35.9443 51.6081   shell=4.0 standoff=3.996
X 54.5394 36.3288 62.0008   shell=4.0 standoff=3.997
X 67.0391 32.5826 53.3121   shell=4.0 standoff=3.999
X 52.6114 35.9256 54.9226   shell=3.0 standoff=3.015
X 51.0851 27.4723 55.7470   shell=5.0 standoff=4.998
X 53.5301 29.7126 58.2768   shell=3.0 standoff=2.995
X 61.2827 37.8159 61.6029   shell=4.0 standoff=3.996
X 55.4653 32.5222 62.4548   shell=4.0 standoff=3.997
X 61.5882 36.7482 47.9366   shell=5.0 standoff=4.998
X 54.5525 28.2163 51.0906   shell=4.0 standoff=3.996
X 60.7363 26.4215 58.1272   shell=4.0 standoff=3.997
X 54.4414 34.2950 63.0877   shell=5.0 standoff=4.997
X 58.6979 36.9301 62.4521   shell=4.0 standoff=3.998
X 57.2069 25.9120 59.4496   shell=5.0 standoff=4.997
X 66.2656 31.5039 56.0710   shell=3.0 standoff=2.996
X 50.3427 33.5379 58.9225   shell=5.0 standoff=4.996
X 61.5000 30.0456 62.4983   shell=5.0 standoff=4.997
X 61.2255 34.9374 49.3367   shell=3.0 standoff=2.999
X 60.5346 35.2737 63.8399   shell=5.0 standoff=5.003
X 54.6085 37.4818 61.7837   shell=4.0 standoff=3.997
X 57.0463 24.9989 56.6173   shell=5.0 standoff=5.000
X 55.4793 25.5565 54.0591   shell=5.0 standoff=4.997
X 60.1956 39.2785 52.9869   shell=3.0 standoff=2.995
X 64.5349 34.8147 51.3227   shell=3.0 standoff=2.999
X 50.6585 37.5994 58.1183   shell=5.0 standoff=4.999
X 53.5894 30.9933 49.4573   shell=4.0 standoff=3.997
X 65.0542 26.0654 55.4998   shell=5.0 standoff=4.996
X 63.5893 36.1349 48.6541   shell=5.0 standoff=4.999
X 57.6937 28.3362 61.8970   shell=5.0 standoff=4.998
X 53.7128 27.1655 56.8796   shell=4.0 standoff=3.998
X 63.9489 37.8035 57.9497   shell=3.0 standoff=2.995
X 51.4885 34.0111 53.3258   shell=3.0 standoff=2.999
X 54.4403 27.2152 53.2122   shell=4.0 standoff=3.996
X 65.0000 30.4522 59.8979   shell=4.0 standoff=3.998
X 49.3064 32.6181 52.6811   shell=5.0 standoff=4.998
X 64.7976 36.1256 61.6718   shell=5.0 standoff=5.000
X 53.5098 33.9586 60.9799   shell=4.0 standoff=3.996
X 54.4356 29.6717 60.8110   shell=4.0 standoff=3.996
X 65.2146 27.6624 50.3128   shell=5.0 standoff=4.998
X 51.2382 28.5547 51.6616   shell=5.0 standoff=4.996
X 50.7302 31.4927 50.1840   shell=5.0 standoff=4.997
X 64.7042 32.1433 47.6553   shell=5.0 standoff=4.997
X 51.2401 30.6956 56.0585   shell=3.0 standoff=2.997
X 62.5751 37.6870 53.4532   shell=3.0 standoff=2.994
X 58.2525 41.5982 60.9734   shell=5.0 standoff=4.997
X 48.8682 32.4158 54.4175   shell=5.0 standoff=4.997
X 52.6360 38.1430 54.2725   shell=4.0 standoff=3.996
X 61.5998 28.1445 61.3838   shell=5.0 standoff=4.997
X 52.2248 26.8145 53.8734   shell=5.0 standoff=4.999
X 65.4897 34.3225 55.6038   shell=3.0 standoff=2.997
X 56.3787 37.9123 48.2027   shell=5.0 standoff=4.999
X 55.5542 28.0101 49.6311   shell=5.0 standoff=4.999
X 56.2038 28.0324 60.4023   shell=4.0 standoff=3.997
X 59.0535 39.3585 52.8119   shell=3.0 standoff=2.995
X 52.9666 35.0636 59.1917   shell=3.0 standoff=2.994
X 55.5928 39.4407 52.6026   shell=4.0 standoff=3.997
X 52.8248 27.0448 58.2858   shell=5.0 standoff=4.997
X 59.2246 40.4584 51.1466   shell=5.0 standoff=4.996
X 58.8542 37.7854 63.2551   shell=5.0 standoff=4.998
X 55.1296 37.1988 48.1144   shell=5.0 standoff=4.996
X 64.7231 34.0887 49.3070   shell=4.0 standoff=3.996
X 67.5399 34.5594 54.0871   shell=5.0 standoff=4.998
X 55.9808 36.2040 63.4686   shell=5.0 standoff=5.006
X 60.2586 25.3222 58.3804   shell=5.0 standoff=4.998
X 63.3147 38.3918 50.6058   shell=5.0 standoff=4.998
X 61.1625 25.6817 58.7503   shell=5.0 standoff=4.998
X 50.6335 28.6785 57.6715   shell=5.0 standoff=4.996
X 52.3359 38.0956 51.9978   shell=5.0 standoff=4.996
X 60.8293 41.1726 52.1004   shell=5.0 standoff=4.998
X 65.8020 29.6082 50.8947   shell=4.0 standoff=3.997
X 56.3415 38.7410 53.2400   shell=3.0 standoff=3.057
X 57.6190 28.3843 51.0304   shell=4.0 standoff=3.997
X 58.4696 28.3026 52.7661   shell=3.0 standoff=2.997
X 58.9630 28.3084 50.2916   shell=4.0 standoff=3.997
X 57.6445 38.0902 49.5176   shell=4.0 standoff=3.996
X 52.1442 34.2191 57.3730   shell=3.0 standoff=2.993
X 60.0466 34.6263 48.9884   shell=3.0 standoff=2.999
X 56.3413 33.9227 49.0603   shell=3.0 standoff=2.995
X 55.3212 37.2706 61.0177   shell=3.0 standoff=2.996
X 50.5671 29.6103 54.5139   shell=4.0 standoff=3.997
X 53.6617 38.9096 50.8316   shell=5.0 standoff=4.997
X 62.3936 31.1848 46.9574   shell=5.0 standoff=4.997
X 58.8809 42.2451 52.9480   shell=5.0 standoff=4.997
X 55.9140 41.3425 55.3312   shell=4.0 standoff=3.996
X 52.7375 36.8104 51.9674   shell=4.0 standoff=3.995
X 62.2826 34.1582 49.3994   shell=3.0 standoff=2.995
X 50.9930 31.1038 54.7943   shell=3.0 standoff=2.997
X 51.4099 38.5985 54.6808   shell=5.0 standoff=4.996
X 62.9957 32.5946 48.0529   shell=4.0 standoff=3.998
X 58.7449 42.0303 54.7712   shell=4.0 standoff=3.997
X 65.0886 37.0698 50.9071   shell=5.0 standoff=4.998
X 61.5767 39.5456 58.9044   shell=3.0 standoff=2.995
X 65.8651 32.0449 60.6815   shell=5.0 standoff=4.995
X 67.0864 32.8810 56.5673   shell=4.0 standoff=3.998
X 56.5463 38.2595 63.0577   shell=5.0 standoff=4.997
X 67.7328 30.4603 52.1526   shell=5.0 standoff=4.998
X 55.5919 41.8243 53.9211   shell=5.0 standoff=4.999
X 62.8163 29.1737 59.1946   shell=3.0 standoff=2.995
X 65.8152 30.6108 53.6923   shell=3.0 standoff=3.021
X 56.9128 41.2693 52.2151   shell=5.0 standoff=4.996
X 55.6698 26.3543 54.7674   shell=4.0 standoff=3.996
X 55.2828 32.1491 60.9015   shell=3.0 standoff=2.995
X 56.1272 40.4059 55.9985   shell=3.0 standoff=2.999
X 54.6640 38.8050 54.3615   shell=3.0 standoff=2.997
X 63.2425 38.4352 53.1419   shell=4.0 standoff=3.995
X 57.2618 36.3212 48.3918   shell=4.0 standoff=3.996
X 59.0832 25.9112 59.7387   shell=5.0 standoff=4.997
X 58.4039 39.3803 51.5803   shell=4.0 standoff=4.009
X 52.3920 38.4821 60.9772   shell=5.0 standoff=4.996
X 66.2053 32.2723 48.8027   shell=5.0 standoff=4.998
X 50.8039 35.2340 54.7603   shell=4.0 standoff=3.999
X 49.4493 33.6926 52.6550   shell=5.0 standoff=4.998
X 66.8311 28.6521 51.7515   shell=5.0 standoff=4.998
X 61.0106 31.2610 47.9268   shell=4.0 standoff=3.997
X 67.1627 30.7279 54.7753   shell=4.0 standoff=3.999
X 50.7562 29.3018 58.5222   shell=5.0 standoff=4.997
X 66.4280 30.4539 51.3981   shell=4.0 standoff=3.997
X 58.6831 24.9688 56.5141   shell=5.0 standoff=4.997
X 50.1206 28.7659 53.4922   shell=5.0 standoff=4.997
X 54.0087 37.3024 60.2177   shell=3.0 standoff=2.999
X 57.5236 27.4740 54.2401   shell=3.0 standoff=2.997
X 55.5419 25.4348 58.0510   shell=5.0 standoff=4.998
X 63.2996 38.5331 60.1832   shell=4.0 standoff=3.999
X 64.2152 26.0416 53.4156   shell=5.0 standoff=4.997
X 64.1380 25.6575 56.1692   shell=5.0 standoff=4.997
X 64.5546 29.2075 49.7522   shell=4.0 standoff=3.998
X 64.7715 30.1903 50.8459   shell=3.0 standoff=2.996
X 60.5781 38.8311 62.5221   shell=5.0 standoff=4.999
X 58.7247 37.5195 49.2901   shell=4.0 standoff=3.995
X 53.2312 37.7428 52.5216   shell=4.0 standoff=3.995
X 54.0684 37.1313 52.4248   shell=3.0 standoff=2.997
X 52.9130 40.1784 59.8921   shell=5.0 standoff=4.997
X 65.9338 31.1999 52.8374   shell=3.0 standoff=2.995
X 60.3238 38.3592 48.8035   shell=5.0 standoff=4.999
X 66.5056 30.3369 59.8624   shell=5.0 standoff=4.997
X 64.8667 34.9543 57.6530   shell=3.0 standoff=2.996
X 52.4788 36.6622 56.1648   shell=3.0 standoff=2.996
X 63.9615 34.6712 61.4018   shell=4.0 standoff=3.998
X 52.4040 38.3631 59.1125   shell=4.0 standoff=3.995
X 65.4786 27.1363 51.8414   shell=5.0 standoff=4.999
X 63.4044 34.0233 49.7100   shell=3.0 standoff=2.998
X 61.9170 37.6095 60.3334   shell=3.0 standoff=2.996
X 50.1006 35.2929 52.2839   shell=5.0 standoff=4.997
X 62.5796 34.4375 61.2030   shell=3.0 standoff=2.994
X 55.6289 27.3114 57.1444   shell=3.0 standoff=2.995
X 52.6483 40.7342 58.0186   shell=5.0 standoff=4.995
X 57.9093 25.6406 53.4474   shell=5.0 standoff=4.998
X 63.8408 27.5804 51.1936   shell=4.0 standoff=3.997
X 50.7867 36.1990 59.3993   shell=5.0 standoff=4.997
X 52.3623 31.2903 51.4947   shell=3.0 standoff=2.997
X 57.2752 35.7518 62.8925   shell=4.0 standoff=3.997
X 59.2648 34.6805 46.9782   shell=5.0 standoff=4.997
X 58.2415 27.0816 56.3867   shell=3.0 standoff=2.998
X 65.9003 33.2574 53.6242   shell=3.0 standoff=2.997
X 59.0035 26.7232 50.6990   shell=5.0 standoff=4.996
X 56.0357 26.9814 53.2118   shell=4.0 standoff=4.033
X 58.3130 32.3499 62.1832   shell=3.0 standoff=2.995
X 55.2529 26.4492 51.8661   shell=5.0 standoff=4.998
X 52.3983 31.7553 60.8900   shell=5.0 standoff=4.996
X 52.9063 27.4699 55.3863   shell=4.0 standoff=3.998
X 62.9480 26.3149 55.7817   shell=4.0 standoff=3.997
X 60.1673 41.7726 54.5062   shell=4.0 standoff=3.997
X 62.9196 29.2776 48.8212   shell=4.0 standoff=3.997
X 52.8403 34.3550 58.4860   shell=3.0 standoff=2.997
X 54.5876 33.4416 61.9417   shell=4.0 standoff=3.997
X 50.0459 32.4580 53.5745   shell=4.0 standoff=3.997
X 62.5727 25.7237 58.0386   shell=5.0 standoff=4.997
X 56.2051 40.1326 58.3449   shell=3.0 standoff=3.012
X 61.9560 39.7124 54.9391   shell=3.0 standoff=2.995
X 64.7281 26.1759 57.3491   shell=5.0 standoff=4.996
X 62.6071 32.8065 61.0199   shell=3.0 standoff=2.996
X 51.7333 29.2043 52.3346   shell=4.0 standoff=3.997
X 65.8582 26.9551 57.3668   shell=5.0 standoff=4.996
X 58.9853 38.9262 49.2391   shell=5.0 standoff=4.995
X 61.8775 27.8145 51.9893   shell=3.0 standoff=2.996
X 55.4134 37.0127 62.2108   shell=4.0 standoff=3.997
X 62.6567 40.2552 58.6079   shell=4.0 standoff=3.996
X 67.2763 30.4176 58.8336   shell=5.0 standoff=4.998
X 55.9528 26.7363 58.7047   shell=4.0 standoff=3.997
X 57.7848 36.2342 61.6160   shell=3.0 standoff=3.027
X 52.0370 37.2937 54.7114   shell=4.0 standoff=3.997
X 59.5387 26.5195 58.7992   shell=4.0 standoff=3.997
X 49.8709 29.2402 56.8181   shell=5.0 standoff=4.998
X 58.7821 27.7376 58.8088   shell=3.0 standoff=2.997
X 59.4548 36.9772 50.2146   shell=3.0 standoff=2.996
X 56.6291 39.8756 52.5421   shell=4.0 standoff=3.994
X 65.4772 37.6652 53.2393   shell=5.0 standoff=4.998
X 52.1173 37.1095 61.3185   shell=5.0 standoff=4.996
X 65.0695 37.8443 55.7081   shell=4.0 standoff=3.998
X 64.8304 31.9652 60.2114   shell=4.0 standoff=4.000
X 51.6132 31.2560 57.3381   shell=3.0 standoff=2.996
X 52.4640 31.4167 48.7605   shell=5.0 standoff=4.997
X 50.4655 34.5232 55.9387   shell=4.0 standoff=3.996
X 54.7775 37.1616 49.5964   shell=4.0 standoff=3.997
X 59.6354 41.2532 56.3364   shell=3.0 standoff=2.997
X 54.4873 28.8958 58.7821   shell=3.0 standoff=2.995
X 64.3139 37.4414 57.0132   shell=3.0 standoff=2.994
X 68.1689 32.0878 56.7997   shell=5.0 standoff=4.998
X 54.8789 26.6222 59.8568   shell=5.0 standoff=4.997
X 50.2902 36.0263 56.5562   shell=5.0 standoff=5.047
X 53.6922 25.9069 56.0393   shell=5.0 standoff=4.999
X 55.8426 33.1179 48.2631   shell=4.0 standoff=3.999
X 59.2601 41.3636 61.2253   shell=5.0 standoff=4.995
X 52.9406 30.0654 48.9500   shell=5.0 standoff=4.997
X 54.7037 39.5940 55.6655   shell=3.0 standoff=2.996
X 59.2132 35.4911 63.0153   shell=4.0 standoff=3.997
X 53.4642 32.6537 49.2702   shell=4.0 standoff=3.997
X 64.6941 32.2948 50.1280   shell=3.0 standoff=2.994
X 64.7093 38.5474 56.4295   shell=4.0 standoff=3.996
X 60.9127 40.3271 54.5547   shell=3.0 standoff=2.998
X 51.4892 36.8637 57.8877   shell=4.0 standoff=3.996
X 57.0913 40.9573 56.0153   shell=3.0 standoff=2.998
X 52.1346 38.7139 56.7411   shell=4.0 standoff=3.995
X 62.2816 32.2303 62.1562   shell=4.0 standoff=3.997
X 56.3868 27.5884 54.1141   shell=3.0 standoff=2.995
X 62.0257 36.7496 50.9972   shell=3.0 standoff=2.995
X 51.8747 29.4986 49.9756   shell=5.0 standoff=4.998
X 56.5615 30.8927 47.9762   shell=5.0 standoff=5.002
X 58.4645 28.9274 48.5660   shell=5.0 standoff=4.998
X 53.7549 30.6533 60.6784   shell=4.0 standoff=3.997
X 61.1532 36.6316 61.1987   shell=3.0 standoff=2.995
X 67.9796 30.0354 54.3978   shell=5.0 standoff=4.996
X 68.1841 30.8947 56.4731   shell=5.0 standoff=4.997
X 65.7633 31.2640 57.6637   shell=3.0 standoff=2.996
X 49.9108 35.1059 57.0152   shell=5.0 standoff=4.996
X 61.7001 31.7794 48.8524   shell=3.0 standoff=2.995
X 61.0497 40.9648 53.6226   shell=4.0 standoff=3.997
X 56.7679 26.0454 55.4344   shell=4.0 standoff=3.998
X 60.9559 33.6069 61.7647   shell=3.0 standoff=2.997
X 53.8292 40.9047 59.8107   shell=5.0 standoff=4.997
X 61.5228 33.3811 46.9598   shell=5.0 standoff=4.999
X 62.3456 35.8226 62.2507   shell=4.0 standoff=3.998
X 66.4393 34.5834 52.7956   shell=4.0 standoff=3.997
X 66.0667 35.3117 53.8945   shell=4.0 standoff=3.998
X 66.8638 28.9931 58.5978   shell=5.0 standoff=4.996
X 62.1973 42.0568 58.5062   shell=5.0 standoff=4.996
X 53.1402 39.9417 57.0528   shell=4.0 standoff=3.997
X 63.8866 30.5932 47.4640   shell=5.0 standoff=4.997
X 51.5989 31.7366 49.2900   shell=5.0 standoff=4.997
X 65.2134 31.9982 58.5310   shell=3.0 standoff=2.995
X 63.1373 28.2315 49.7666   shell=4.0 standoff=3.996
X 56.5404 40.0250 50.4637   shell=5.0 standoff=4.997
X 61.0468 33.9109 49.1314   shell=3.0 standoff=3.001
X 64.7896 36.2888 56.8497   shell=3.0 standoff=2.995
X 58.6767 26.1172 52.3695   shell=5.0 standoff=5.000
X 62.8962 27.3568 50.8947   shell=4.0 standoff=3.997
X 55.3598 30.6954 60.4585   shell=3.0 standoff=2.996
X 58.6862 29.8657 49.1991   shell=4.0 standoff=3.996
X 53.3268 41.2200 55.8768   shell=5.0 standoff=4.997
X 55.1444 29.5689 62.2535   shell=5.0 standoff=4.997
X 52.0570 30.0924 50.9337   shell=4.0 standoff=3.997
X 57.0931 25.0196 55.5842   shell=5.0 standoff=4.997
X 55.8965 42.5412 55.4766   shell=5.0 standoff=4.997
X 58.6255 37.4859 61.2558   shell=3.0 standoff=2.995
X 56.9213 31.2830 48.8751   shell=4.0 standoff=4.001
X 62.8785 34.0335 47.2715   shell=5.0 standoff=4.998
X 61.6755 39.6357 61.7107   shell=5.0 standoff=4.997
X 61.1253 33.0604 62.6622   shell=4.0 standoff=4.001
X 52.0085 40.1988 57.4668   shell=5.0 standoff=4.997
X 56.4303 37.6851 49.2704   shell=4.0 standoff=3.998
X 62.0271 36.4435 49.2184   shell=4.0 standoff=3.996
X 66.3629 30.4146 49.3061   shell=5.0 standoff=4.998
X 55.4647 33.5641 49.3942   shell=3.0 standoff=2.996
X 63.1815 26.5163 54.2838   shell=4.0 standoff=3.996
X 62.3183 26.2468 54.9269   shell=4.0 standoff=3.996
X 64.6806 29.1616 51.9931   shell=3.0 standoff=2.994
X 50.1073 32.6733 56.6707   shell=4.0 standoff=3.996
X 61.5418 40.5296 61.1885   shell=5.0 standoff=4.997
X 62.6161 38.2318 60.8891   shell=4.0 standoff=3.997
X 57.5523 32.6221 49.3039   shell=3.0 standoff=2.995
X 54.5815 39.4979 50.7367   shell=5.0 standoff=4.996
X 59.4428 38.1794 52.0523   shell=3.0 standoff=2.998
X 62.9483 36.5335 52.1752   shell=3.0 standoff=2.994
X 56.2852 39.3900 61.2025   shell=4.0 standoff=3.996
X 59.0521 42.9704 58.7192   shell=5.0 standoff=4.998
X 62.2984 41.2448 59.8645   shell=5.0 standoff=4.997
X 53.8631 39.6165 52.2577   shell=5.0 standoff=4.995
X 49.8507 32.3752 55.3890   shell=4.0 standoff=3.997
X 61.2232 33.5353 63.7612   shell=5.0 standoff=4.999
X 58.9931 37.8330 51.2273   shell=3.0 standoff=3.011
X 58.7245 33.7539 64.3796   shell=5.0 standoff=4.998
X 51.5704 37.1323 55.9941   shell=4.0 standoff=3.997
X 60.4282 26.9858 51.6321   shell=4.0 standoff=3.996
X 49.8490 28.8184 55.1645   shell=5.0 standoff=4.997
X 60.7113 38.3985 60.3576   shell=3.0 standoff=2.995
X 50.8013 35.8055 51.4366   shell=5.0 standoff=4.997
X 54.3015 26.8259 55.1722   shell=4.0 standoff=3.998
X 55.0541 35.1705 47.4138   shell=5.0 standoff=4.997
X 49.6475 33.0368 51.8235   shell=5.0 standoff=4.998
X 65.0443 28.6131 50.9080   shell=4.0 standoff=3.998
X 56.9884 30.7825 61.0617   shell=3.0 standoff=2.999
X 56.5889 32.1621 63.9698   shell=5.0 standoff=4.997
X 57.4825 29.0490 49.0285   shell=5.0 standoff=5.018
X 56.6799 42.0416 53.3144   shell=5.0 standoff=4.998
X 54.4635 41.6511 58.7856   shell=5.0 standoff=4.997
X 55.5330 33.1116 61.3933   shell=3.0 standoff=2.999
X 65.8612 36.4782 60.3084   shell=5.0 standoff=4.996
X 59.2865 32.6982 62.1664   shell=3.0 standoff=2.994
X 55.5535 40.9513 58.6722   shell=4.0 standoff=3.998
X 62.9285 40.2050 52.7084   shell=5.0 standoff=4.997
X 50.4868 28.2037 56.4040   shell=5.0 standoff=4.996
X 62.2072 39.4751 53.0206   shell=4.0 standoff=3.998
X 52.0819 35.2716 53.8067   shell=3.0 standoff=2.995
X 62.5491 31.1894 48.0081   shell=4.0 standoff=3.996
X 60.5814 27.1241 56.0985   shell=3.0 standoff=2.996
X 63.2564 25.6148 53.7409   shell=5.0 standoff=4.997
X 67.0045 35.3631 51.9305   shell=5.0 standoff=4.997
X 58.6806 30.9695 48.7378   shell=4.0 standoff=4.027
X 48.9876 31.8345 56.3828   shell=5.0 standoff=4.997
X 65.7914 36.2928 56.3541   shell=4.0 standoff=3.999
X 54.9946 27.2243 58.9487   shell=4.0 standoff=3.996
X 60.2633 28.5094 49.3703   shell=4.0 standoff=3.997
X 57.9411 39.3679 60.2060   shell=3.0 standoff=2.999
X 50.2009 34.3725 58.3135   shell=5.0 standoff=4.997
X 53.8412 28.2408 55.9229   shell=3.0 standoff=3.016
X 64.2986 37.8165 59.8426   shell=4.0 standoff=3.996
X 57.9196 41.1867 57.3032   shell=3.0 standoff=2.997
X 63.4218 27.5367 54.9496   shell=3.0 standoff=2.995
X 55.2480 31.5720 61.9474   shell=4.0 standoff=4.001
X 56.5959 29.9883 48.4109   shell=5.0 standoff=4.999
X 49.2429 30.2896 56.1680   shell=5.0 standoff=4.996
X 54.0600 37.4743 48.8940   shell=5.0 standoff=4.997
X 64.3934 36.8840 60.3641   shell=4.0 standoff=3.994
X 53.5551 27.1278 59.4417   shell=5.0 standoff=4.996
X 55.8572 25.8551 59.1760   shell=5.0 standoff=4.997
X 62.3037 38.5977 54.1773   shell=3.0 standoff=2.996
X 52.4577 34.0514 61.4872   shell=5.0 standoff=4.998
X 54.8704 34.9045 49.7223   shell=3.0 standoff=2.998
X 57.1712 29.2929 50.0378   shell=4.0 standoff=3.997
X 58.1656 25.4603 58.6072   shell=5.0 standoff=4.997
X 53.1572 37.6345 58.9229   shell=3.0 standoff=2.998
X 62.9156 37.9590 62.1953   shell=5.0 standoff=4.997
X 50.4279 33.6565 52.9152   shell=4.0 standoff=3.997
X 60.5223 25.4363 53.7712   shell=5.0 standoff=4.997
X 56.3427 37.5209 61.1744   shell=3.0 standoff=2.995
X 50.0465 33.3813 54.1249   shell=4.0 standoff=3.997
X 57.1942 34.0968 46.9598   shell=5.0 standoff=4.997
X 55.9606 38.3085 51.9514   shell=3.0 standoff=2.994
X 55.1311 27.4202 60.9018   shell=5.0 standoff=4.997
X 55.4726 33.6563 62.6086   shell=4.0 standoff=3.998
X 63.4874 26.8186 59.5471   shell=5.0 standoff=4.997
X 64.9478 35.0806 56.2289   shell=3.0 standoff=3.016
X 63.1325 41.4165 58.3092   shell=5.0 standoff=4.996
X 53.0980 39.1018 59.4298   shell=4.0 standoff=3.997
X 53.4883 36.6095 48.7870   shell=5.0 standoff=4.997
X 54.1615 40.4337 60.7879   shell=5.0 standoff=4.997
X 58.8326 30.4364 63.4937   shell=5.0 standoff=5.000
X 57.2728 39.4834 51.5734   shell=4.0 standoff=3.997
X 54.5315 35.7210 50.2692   shell=3.0 standoff=2.995
X 57.3915 26.6228 58.6530   shell=4.0 standoff=3.997
X 61.7492 41.5007 56.1044   shell=4.0 standoff=3.997
X 59.8519 39.5952 51.8719   shell=4.0 standoff=3.995
X 65.5867 37.1839 52.2013   shell=5.0 standoff=4.996
X 62.2134 35.7766 47.7638   shell=5.0 standoff=4.997
X 50.6676 29.8239 51.1200   shell=5.0 standoff=4.998
X 63.5740 31.6780 48.2413   shell=4.0 standoff=3.998
X 60.0153 40.3956 52.4982   shell=4.0 standoff=3.997
X 61.4619 38.7193 59.7068   shell=3.0 standoff=2.994
X 51.0103 34.9679 52.5720   shell=4.0 standoff=3.997
X 56.2237 37.4237 50.4590   shell=3.0 standoff=2.993
X 52.6026 31.6576 49.8192   shell=4.0 standoff=3.997
X 64.1497 30.9093 61.7985   shell=5.0 standoff=4.996
X 65.7184 36.5790 57.6498   shell=4.0 standoff=3.996
X 54.4948 34.1976 60.5008   shell=3.0 standoff=2.998
X 63.1192 41.6088 55.3116   shell=5.0 standoff=4.996
X 59.1898 27.9283 60.4956   shell=4.0 standoff=3.997
X 54.4551 31.7167 62.7432   shell=5.0 standoff=4.998
X 61.8245 29.1990 59.3808   shell=3.0 standoff=3.001
X 52.3857 31.7308 58.3228   shell=3.0 standoff=2.993
X 55.2454 28.3475 52.5677   shell=3.0 standoff=2.997
X 59.7124 35.9508 48.3341   shell=4.0 standoff=3.997
X 51.7256 26.9704 54.9223   shell=5.0 standoff=4.996
X 55.5846 29.7268 60.1871   shell=3.0 standoff=2.996
X 64.7427 35.7989 55.4435   shell=3.0 standoff=2.998
X 60.2819 33.4869 63.0226   shell=4.0 standoff=3.997
X 54.8135 40.6548 53.0710   shell=5.0 standoff=5.000
X 60.1052 26.1666 51.0891   shell=5.0 standoff=4.997
X 60.0031 36.8271 47.6543   shell=5.0 standoff=4.997
X 50.8473 32.3915 55.2434   shell=3.0 standoff=2.995
X 54.0139 32.3808 59.5754   shell=3.0 standoff=2.996
X 57.0443 29.1055 60.0579   shell=3.0 standoff=2.995
X 52.7126 35.3958 50.6271   shell=4.0 standoff=4.001
X 66.3209 34.2020 51.5645   shell=4.0 standoff=3.997
X 65.3359 29.4676 53.8716   shell=3.0 standoff=2.996
X 50.3725 30.4895 56.6241   shell=4.0 standoff=3.998
X 52.1844 36.4001 59.9220   shell=4.0 standoff=3.999
X 51.7810 30.9917 60.2433   shell=5.0 standoff=4.999
X 63.2286 39.0530 53.9392   shell=4.0 standoff=4.010
X 64.1527 37.0610 49.9297   shell=5.0 standoff=4.997
X 55.0736 35.5076 62.2253   shell=4.0 standoff=3.997
X 52.6734 34.1898 60.2225   shell=4.0 standoff=3.997
X 61.8133 27.2134 55.0371   shell=3.0 standoff=2.997
X 61.9351 29.5573 49.6459   shell=3.0 standoff=2.996
X 53.6743 34.1275 49.3336   shell=4.0 standoff=3.997
X 65.4956 29.3302 48.9808   shell=5.0 standoff=4.996
X 61.1359 41.6198 57.9975   shell=4.0 standoff=3.995
X 52.6708 28.8199 49.8925   shell=5.0 standoff=4.995
X 66.7017 36.4656 55.5190   shell=5.0 standoff=4.997
X 54.5221 33.2695 63.1614   shell=5.0 standoff=4.996
X 53.4652 27.6294 52.9367   shell=4.0 standoff=3.997
X 58.6211 29.0927 61.1291   shell=4.0 standoff=3.998
X 55.5584 42.4645 56.4913   shell=5.0 standoff=4.997
X 55.6507 35.1815 61.3166   shell=3.0 standoff=2.998
X 56.0807 38.3521 61.8658   shell=4.0 standoff=3.996
X 61.8975 38.1747 50.8583   shell=4.0 standoff=3.997
X 60.6922 27.7108 52.7357   shell=3.0 standoff=2.999
X 53.8465 28.2264 54.4540   shell=3.0 standoff=2.999
X 64.6801 39.4837 54.6279   shell=5.0 standoff=4.996
X 64.0293 27.6997 49.2473   shell=5.0 standoff=4.997
X 57.0449 29.0577 51.5941   shell=3.0 standoff=2.996
X 58.9804 43.3007 55.9310   shell=5.0 standoff=4.997
X 64.2304 33.4702 62.4207   shell=5.0 standoff=5.004
X 66.5452 28.8235 50.7774   shell=5.0 standoff=4.996
X 66.1958 32.6188 55.8654   shell=3.0 standoff=2.997
X 58.3188 27.0212 52.8606   shell=4.0 standoff=3.995
X 57.1347 34.7662 63.1591   shell=4.0 standoff=3.996
X 51.7761 30.2943 56.9287   shell=3.0 standoff=2.995
X 67.3956 30.2124 51.2031   shell=5.0 standoff=4.998
X 66.4454 37.3929 55.7978   shell=5.0 standoff=4.997
X 65.4024 28.4232 59.8821   shell=5.0 standoff=4.998
X 62.4741 36.9900 61.6931   shell=4.0 standoff=3.998
X 56.7580 26.3019 54.4300   shell=4.0 standoff=3.997
X 53.5454 41.3883 57.9695   shell=5.0 standoff=4.996
X 55.5905 34.6830 63.7177   shell=5.0 standoff=4.998
X 63.4178 35.6648 51.1835   shell=3.0 standoff=2.996
X 66.7920 27.6479 54.5647   shell=5.0 standoff=4.997
X 58.8747 33.5276 46.9806   shell=5.0 standoff=4.997
X 64.9430 31.3627 61.3318   shell=5.0 standoff=5.017
X 58.4095 25.0759 55.4648   shell=5.0 standoff=4.997
X 61.5953 42.1754 54.0245   shell=5.0 standoff=4.997
X 54.2213 28.2855 53.4863   shell=3.0 standoff=2.995
X 59.1746 42.2844 57.2422   shell=4.0 standoff=3.998
X 58.2747 31.8179 63.0601   shell=4.0 standoff=3.997
X 60.6568 29.0628 62.1375   shell=5.0 standoff=4.997
X 54.7296 27.4924 50.3139   shell=5.0 standoff=4.999
X 59.8023 27.2915 58.0446   shell=3.0 standoff=2.995
X 63.5166 38.4001 57.1051   shell=3.0 standoff=2.993
X 65.9056 35.6366 57.2451   shell=4.0 standoff=3.997
X 64.5640 26.5516 51.7738   shell=5.0 standoff=4.998
X 59.3811 29.1301 60.0923   shell=3.0 standoff=2.995
X 54.1031 27.7041 60.5985   shell=5.0 standoff=4.997
X 64.1464 33.4654 59.6400   shell=3.0 standoff=2.997
X 56.5747 26.8853 51.0138   shell=5.0 standoff=4.996
X 63.7947 28.2397 59.3743   shell=4.0 standoff=3.996
X 66.5742 34.4694 55.6774   shell=4.0 standoff=3.997
X 59.5855 28.2713 48.4603   shell=5.0 standoff=4.997
X 60.6740 31.8448 48.9278   shell=3.0 standoff=2.997
X 62.3275 33.8181 63.5048   shell=5.0 standoff=4.997
X 68.0496 33.4992 55.5994   shell=5.0 standoff=4.998
X 58.0412 27.6575 50.1255   shell=5.0 standoff=4.996
X 61.7134 33.0363 61.4214   shell=3.0 standoff=3.003
X 64.8572 28.3904 58.7198   shell=4.0 standoff=3.998
X 60.8079 40.1637 60.4839   shell=4.0 standoff=3.996
X 64.7030 34.1258 58.3719   shell=3.0 standoff=2.997
X 64.7376 37.7099 51.8819   shell=5.0 standoff=4.997
X 64.4693 34.1406 50.5817   shell=3.0 standoff=2.996
X 65.0203 34.9910 52.7899   shell=3.0 standoff=2.995
X 54.6044 26.5658 56.6830   shell=4.0 standoff=3.997
X 62.9193 38.9453 61.5392   shell=5.0 standoff=4.995
X 58.4921 27.3235 57.9455   shell=3.0 standoff=2.995
X 49.4616 30.4873 52.9311   shell=5.0 standoff=4.997
X 61.7277 25.1859 55.5556   shell=5.0 standoff=4.997
X 61.6288 40.1564 57.8126   shell=3.0 standoff=2.996
X 59.7913 38.1366 62.9487   shell=5.0 standoff=4.997
X 64.7387 39.9927 57.1151   shell=5.0 standoff=4.997
X 56.0939 28.5347 62.0043   shell=5.0 standoff=4.998
X 56.7827 38.7427 48.7782   shell=5.0 standoff=4.997
X 51.2125 28.7206 54.6342   shell=4.0 standoff=3.996
X 68.0933 31.9476 53.9162   shell=5.0 standoff=4.999
X 53.2634 28.7359 59.0172   shell=4.0 standoff=3.996
X 51.4435 35.0592 57.8447   shell=4.0 standoff=3.997
X 57.1404 40.7736 60.0386   shell=4.0 standoff=3.995
X 62.5342 39.0519 58.0213   shell=3.0 standoff=3.014
X 61.9512 35.2779 61.4378   shell=3.0 standoff=2.996
X 61.2181 28.0646 49.6108   shell=4.0 standoff=3.998
X 53.5849 26.5131 52.7573   shell=5.0 standoff=4.997
X 57.8842 27.1632 55.4557   shell=3.0 standoff=2.997
X 60.9036 28.8705 60.8553   shell=4.0 standoff=3.998
X 57.5172 37.2039 61.3474   shell=3.0 standoff=2.995
X 60.7052 30.3436 48.1924   shell=4.0 standoff=3.997
X 49.9775 34.3465 51.6638   shell=5.0 standoff=4.997
X 49.6695 35.3243 55.1282   shell=5.0 standoff=4.997
X 54.4682 34.7786 48.7648   shell=4.0 standoff=3.995
X 58.1430 40.4448 51.1513   shell=5.0 standoff=5.020
X 56.6526 40.3056 61.7616   shell=5.0 standoff=4.998
X 64.0519 34.2312 47.7274   shell=5.0 standoff=4.996
X 51.8749 36.9743 51.2536   shell=5.0 standoff=5.014
X 65.7654 35.7043 52.9130   shell=4.0 standoff=3.996
X 51.2894 31.2588 53.3868   shell=3.0 standoff=2.996
X 49.6074 34.6342 53.0214   shell=5.0 standoff=4.999
X 57.4324 30.8172 50.2875   shell=3.0 standoff=2.996
X 62.9513 36.5584 62.8719   shell=5.0 standoff=4.997
X 57.3779 39.9343 59.5147   shell=3.0 standoff=2.995
X 51.5240 31.1490 58.7875   shell=4.0 standoff=3.995
X 58.9897 26.0501 55.3603   shell=4.0 standoff=3.996
X 59.0872 41.2451 57.4319   shell=3.0 standoff=2.997
X 65.1608 29.9735 58.0015   shell=3.0 standoff=2.996
X 53.2246 33.3774 50.6140   shell=3.0 standoff=2.997
X 62.6024 38.2251 49.6645   shell=5.0 standoff=4.998
X 59.7213 27.8017 53.1406   shell=3.0 standoff=2.997
X 67.3298 28.5506 56.8854   shell=5.0 standoff=4.998
X 51.2937 34.0152 54.3771   shell=3.0 standoff=2.997
X 58.2396 43.2135 57.7007   shell=5.0 standoff=4.998
X 60.9825 36.4235 50.0056   shell=3.0 standoff=2.998
X 64.6436 34.6645 60.6495   shell=4.0 standoff=3.996
X 64.9762 34.9413 54.9674   shell=3.0 standoff=2.997
X 53.6875 41.1575 54.9226   shell=5.0 standoff=4.997
X 51.3018 35.0546 50.1749   shell=5.0 standoff=4.996
X 58.7272 34.5806 49.0861   shell=3.0 standoff=2.996
X 60.7089 31.9003 61.3080   shell=3.0 standoff=3.012
X 62.6140 27.4396 54.3061   shell=3.0 standoff=2.995
X 50.9660 37.4314 59.3490   shell=5.0 standoff=4.997
X 59.5606 24.9771 55.6671   shell=5.0 standoff=4.997
X 54.4894 32.2294 49.9815   shell=3.0 standoff=2.997
X 64.0380 38.5602 54.4724   shell=4.0 standoff=4.001
X 55.0666 40.4308 59.5162   shell=4.0 standoff=3.995
X 57.9865 26.2146 55.0581   shell=4.0 standoff=4.006
X 59.3830 29.0857 49.2739   shell=4.0 standoff=3.995
X 52.1249 34.7704 52.5895   shell=3.0 standoff=2.994
X 58.0705 40.8562 58.4588   shell=3.0 standoff=2.996
X 55.3778 38.8225 49.2613   shell=5.0 standoff=4.997
X 66.4389 37.6537 56.7752   shell=5.0 standoff=4.997
X 61.1433 25.3434 57.7344   shell=5.0 standoff=4.997
X 64.3232 33.2870 49.9974   shell=3.0 standoff=2.996
X 55.8824 38.8681 60.2309   shell=3.0 standoff=2.998
X 52.0368 28.7798 57.6130   shell=4.0 standoff=3.995
X 58.5673 36.5038 48.6656   shell=4.0 standoff=4.009
X 55.5974 40.1876 56.8396   shell=3.0 standoff=2.996
X 62.3469 26.1401 50.8573   shell=5.0 standoff=4.997
X 54.1192 28.4964 59.7702   shell=4.0 standoff=3.995
X 64.5401 35.0564 58.7909   shell=3.0 standoff=2.996
X 64.2620 35.8392 53.1833   shell=3.0 standoff=2.997
X 51.0168 32.6868 56.1878   shell=3.0 standoff=2.995
X 66.3844 36.2457 51.8482   shell=5.0 standoff=4.997
X 52.7248 27.7766 56.5467   shell=4.0 standoff=3.996
X 65.1076 30.0653 49.6708   shell=4.0 standoff=3.998
X 53.2533 37.4078 49.5459   shell=5.0 standoff=4.996
X 55.9951 30.1203 49.3940   shell=4.0 standoff=3.998
X 60.9721 38.5577 52.9242   shell=3.0 standoff=2.997
X 57.6375 40.9928 53.1678   shell=4.0 standoff=3.997
X 66.4403 34.4919 54.5357   shell=4.0 standoff=4.000
X 61.0496 26.1679 59.7114   shell=5.0 standoff=4.996
X 51.8331 34.3733 50.7915   shell=4.0 standoff=3.996
X 57.5185 34.7805 47.9968   shell=4.0 standoff=3.996
X 64.2011 29.2441 51.0876   shell=3.0 standoff=2.997
X 66.5322 27.9335 52.9781   shell=5.0 standoff=4.997
X 63.8293 31.6825 47.2653   shell=5.0 standoff=4.997
X 55.9766 26.1517 52.5655   shell=5.0 standoff=5.000
X 49.5896 29.6592 53.5336   shell=5.0 standoff=4.997
X 66.1837 35.0073 49.8192   shell=5.0 standoff=4.996
X 65.9203 38.4394 55.8665   shell=5.0 standoff=5.001
X 63.1706 27.0158 51.9918   shell=4.0 standoff=3.996
X 50.5933 37.7094 56.9050   shell=5.0 standoff=4.998
X 62.9743 27.3912 58.8138   shell=4.0 standoff=3.997
X 59.5251 31.2231 63.7778   shell=5.0 standoff=4.997
X 64.1557 36.0476 50.4588   shell=4.0 standoff=3.995
X 50.9552 37.2121 54.5396   shell=5.0 standoff=5.006
X 65.5376 34.7270 61.1223   shell=5.0 standoff=4.998
X 65.5767 36.6254 55.3820   shell=4.0 standoff=3.997
X 56.9512 41.7835 60.3667   shell=5.0 standoff=4.997
X 66.7458 29.2915 55.6748   shell=4.0 standoff=3.997
X 54.1004 39.1815 53.5509   shell=4.0 standoff=3.996
X 57.1126 38.6755 61.7518   shell=4.0 standoff=4.007
X 53.2516 26.2503 56.8880   shell=5.0 standoff=4.998
X 50.0030 31.6815 56.2764   shell=4.0 standoff=3.998
X 62.5824 28.0410 58.1074   shell=3.0 standoff=2.997
X 64.4044 25.8290 54.4864   shell=5.0 standoff=4.997
X 56.9342 33.4871 64.2426   shell=5.0 standoff=4.997
X 63.5149 39.6112 57.8455   shell=4.0 standoff=4.019
X 58.8664 36.6095 47.5978   shell=5.0 standoff=4.998
X 59.9869 34.9202 48.0205   shell=4.0 standoff=3.999
X 59.5591 34.8728 64.1632   shell=5.0 standoff=4.997
X 65.5365 29.4105 56.5740   shell=3.0 standoff=2.995
X 52.7836 40.9509 56.9902   shell=5.0 standoff=4.998
X 62.3260 27.7137 60.7516   shell=5.0 standoff=5.011
X 66.2438 26.9592 55.8224   shell=5.0 standoff=4.996
X 62.1128 26.2335 59.1383   shell=5.0 standoff=5.003
X 56.1112 28.8110 50.2451   shell=4.0 standoff=3.997
X 50.1191 31.0123 53.8303   shell=4.0 standoff=3.998
X 60.7085 27.8708 58.6796   shell=3.0 standoff=2.996
X 55.0635 34.1419 47.3375   shell=5.0 standoff=4.996
X 59.7542 41.9171 60.5294   shell=5.0 standoff=4.999
X 66.0548 32.2391 53.2226   shell=3.0 standoff=2.998
X 66.3370 28.7878 56.6509   shell=4.0 standoff=3.997
X 54.5067 35.8810 49.0204   shell=4.0 standoff=3.995
X 53.3401 39.1778 54.3465   shell=4.0 standoff=3.995
X 55.3265 27.9844 58.3872   shell=3.0 standoff=2.996
X 54.2077 33.2007 50.1075   shell=3.0 standoff=2.995
X 51.9092 38.1946 57.8145   shell=4.0 standoff=3.999
X 65.7511 33.9633 58.7452   shell=4.0 standoff=3.998
X 62.5079 33.7454 48.1733   shell=4.0 standoff=3.998
X 57.7896 25.1517 57.3593   shell=5.0 standoff=5.000
X 57.7727 27.3737 61.1515   shell=5.0 standoff=5.001
X 59.2070 39.5999 60.1124   shell=3.0 standoff=2.994
X 58.2741 41.2859 56.1947   shell=3.0 standoff=2.996
X 61.3140 35.5683 62.6518   shell=4.0 standoff=3.997
X 61.2473 42.8102 57.4353   shell=5.0 standoff=4.998
X 66.8770 31.4318 52.1207   shell=4.0 standoff=3.998
X 58.7292 42.3154 56.1290   shell=4.0 standoff=3.996
X 62.8174 37.1646 60.1629   shell=3.0 standoff=2.995
X 57.4101 39.6488 49.7605   shell=5.0 standoff=4.997
X 63.1727 32.1471 60.4445   shell=3.0 standoff=2.994
X 57.2349 31.5339 61.6883   shell=3.0 standoff=2.996
X 59.7815 27.3326 59.9299   shell=4.0 standoff=3.998
X 53.0137 36.8985 54.8531   shell=3.0 standoff=2.995
X 54.7334 41.9581 56.1363   shell=5.0 standoff=5.001
X 61.0427 42.9464 56.2594   shell=5.0 standoff=4.997
X 63.2892 41.0741 54.3220   shell=5.0 standoff=4.996
X 52.6611 32.2335 50.9573   shell=3.0 standoff=2.997
X 51.1741 32.8807 49.6058   shell=5.0 standoff=4.996
X 57.2125 28.9748 61.1580   shell=4.0 standoff=3.996
X 66.9759 32.2516 57.3727   shell=4.0 standoff=3.997
X 66.4671 35.8204 59.3292   shell=5.0 standoff=4.999
X 49.9906 30.4423 58.2417   shell=5.0 standoff=4.997
X 61.0021 25.5885 52.8229   shell=5.0 standoff=4.997
X 59.2245 30.5736 47.4581   shell=5.0 standoff=4.996
X 55.0586 28.8994 50.2377   shell=4.0 standoff=3.997
X 67.4642 31.6725 58.7857   shell=5.0 standoff=4.997
X 62.9047 33.0364 62.0286   shell=4.0 standoff=3.996
X 51.9586 29.5876 53.9060   shell=3.0 standoff=2.998
X 53.7925 35.1015 61.5462   shell=4.0 standoff=3.996
X 54.1586 32.6872 61.4270   shell=4.0 standoff=3.996
X 65.3696 30.4583 51.6146   shell=3.0 standoff=2.996
X 57.8731 35.7960 49.3140   shell=3.0 standoff=2.997
X 53.2006 40.9088 58.9150   shell=5.0 standoff=4.997
X 63.2270 36.0908 61.6643   shell=4.0 standoff=3.997
X 55.0583 39.3751 60.8598   shell=4.0 standoff=3.996
X 57.4161 43.0736 55.3930   shell=5.0 standoff=4.998
X 60.9612 26.1990 55.8894   shell=4.0 standoff=4.007
X 57.0992 43.0591 57.3449   shell=5.0 standoff=4.997
X 62.5650 40.8023 55.5751   shell=4.0 standoff=3.994
