1448
candidate grid (restricted CVT, per_shell) shells=[3.0, 4.0, 5.0] counts=[365, 479, 604]
X 55.2325 35.5273 49.6700   shell=3.0 standoff=3.000
X 65.0026 29.8273 58.1110   shell=3.0 standoff=2.999
X 55.8325 37.0273 61.2552   shell=3.0 standoff=3.000
X 54.9325 27.4969 56.3110   shell=3.0 standoff=3.000
X 62.1325 39.6133 55.1110   shell=3.0 standoff=2.999
X 63.3325 31.6273 49.2311   shell=3.0 standoff=3.000
X 51.6325 34.4791 56.0110   shell=3.0 standoff=2.998
X 58.5325 30.7273 61.2694   shell=3.0 standoff=2.999
X 55.8325 40.0273 55.4654   shell=3.0 standoff=2.999
X 63.0325 35.8273 60.5967   shell=3.0 standoff=2.999
X 61.2325 27.4049 53.9110   shell=3.0 standoff=3.000
X 54.0325 30.0761 50.9110   shell=3.0 standoff=2.999
X 65.7602 33.7273 53.3110   shell=3.0 standoff=3.000
X 61.2325 36.1273 49.8939   shell=3.0 standoff=2.999
X 60.0325 40.0273 59.5169   shell=3.0 standoff=2.999
X 54.0325 32.2273 59.6373   shell=3.0 standoff=3.000
X 58.5325 30.4894 50.3110   shell=3.0 standoff=2.999
X 65.2517 29.5273 53.3110   shell=3.0 standoff=2.999
X 59.7325 27.1880 57.8110   shell=3.0 standoff=3.000
X 53.1325 38.1872 58.1110   shell=3.0 standoff=2.999
X 51.5882 29.8273 54.8110   shell=3.0 standoff=3.000
X 57.9325 38.6506 52.4110   shell=3.0 standoff=3.000
X 53.6449 36.7273 53.6110   shell=3.0 standoff=2.999
X 59.1325 34.9273 62.1469   shell=3.0 standoff=3.000
X 52.2325 33.7273 51.6178   shell=3.0 standoff=2.999
X 62.4325 31.9273 60.8554   shell=3.0 standoff=3.000
X 57.3325 28.0899 53.0110   shell=3.0 standoff=2.999
X 65.0108 34.0273 57.8110   shell=3.0 standoff=2.999
X 56.1325 28.9273 59.8293   shell=3.0 standoff=2.999
X 59.4325 41.2273 55.8055   shell=3.0 standoff=2.998
X 58.5325 34.0273 49.0791   shell=3.0 standoff=3.000
X 55.8325 39.7273 59.0978   shell=3.0 standoff=2.998
X 63.9325 35.0754 50.9110   shell=3.0 standoff=2.998
X 63.0325 27.4914 56.6110   shell=3.0 standoff=3.000
X 63.0325 38.5098 58.4110   shell=3.0 standoff=3.000
X 62.1325 28.8174 50.3110   shell=3.0 standoff=2.999
X 52.8325 29.8273 57.7807   shell=3.0 standoff=2.999
X 53.4325 35.2154 59.9110   shell=3.0 standoff=3.000
X 66.2685 31.3273 55.1110   shell=3.0 standoff=3.000
X 55.5325 32.5103 49.7110   shell=3.0 standoff=3.000
X 64.6403 36.4273 55.7110   shell=3.0 standoff=3.000
X 56.7090 32.8273 62.0110   shell=3.0 standoff=2.999
X 61.8325 29.1027 59.3110   shell=3.0 standoff=2.998
X 63.0325 36.4273 52.1934   shell=3.0 standoff=2.998
X 54.0325 28.3977 53.3110   shell=3.0 standoff=3.000
X 65.4987 32.5273 51.2110   shell=3.0 standoff=3.000
X 58.2325 37.9022 61.1110   shell=3.0 standoff=2.999
X 60.0325 39.7273 53.2794   shell=3.0 standoff=3.000
X 58.5325 36.7273 49.9392   shell=3.0 standoff=2.999
X 61.5325 33.6635 49.1110   shell=3.0 standoff=2.999
X 57.9325 27.1072 56.0110   shell=3.0 standoff=3.000
X 51.0762 32.2273 53.6110   shell=3.0 standoff=3.000
X 55.0811 37.6273 51.5110   shell=3.0 standoff=2.998
X 51.0578 31.6273 56.3110   shell=3.0 standoff=3.000
X 59.7325 28.3273 51.6624   shell=3.0 standoff=2.998
X 61.2325 40.6067 57.2110   shell=3.0 standoff=3.000
X 61.2325 30.7273 49.0595   shell=3.0 standoff=3.000
X 63.6325 27.7086 54.5110   shell=3.0 standoff=3.000
X 52.3253 35.5273 53.6110   shell=3.0 standoff=2.999
X 52.5325 33.1273 58.3491   shell=3.0 standoff=2.999
X 64.7884 30.1273 50.9110   shell=3.0 standoff=2.999
X 61.2325 34.0273 61.7606   shell=3.0 standoff=3.000
X 65.2679 28.9273 56.3110   shell=3.0 standoff=2.999
X 51.9325 30.5397 52.7110   shell=3.0 standoff=2.998
X 61.5325 37.9273 60.2113   shell=3.0 standoff=3.000
X 53.7325 39.0552 56.3110   shell=3.0 standoff=2.999
X 52.4695 36.4273 56.0110   shell=3.0 standoff=3.000
X 57.6325 41.1352 57.2110   shell=3.0 standoff=3.000
X 58.5325 28.3273 59.4207   shell=3.0 standoff=2.999
X 64.2325 32.2273 59.3839   shell=3.0 standoff=2.999
X 54.0325 38.2529 59.6110   shell=3.0 standoff=2.999
X 64.2325 36.5009 59.0110   shell=3.0 standoff=2.998
X 56.1325 30.7273 60.7030   shell=3.0 standoff=3.000
X 55.5325 34.6273 61.3199   shell=3.0 standoff=2.999
X 53.4325 35.8273 51.9704   shell=3.0 standoff=2.998
X 55.3771 38.8273 53.9110   shell=3.0 standoff=2.998
X 60.6325 27.2499 55.4110   shell=3.0 standoff=3.000
X 57.0325 29.8273 50.8744   shell=3.0 standoff=3.000
X 60.6325 36.4265 61.4110   shell=3.0 standoff=3.000
X 53.4325 32.2273 50.4077   shell=3.0 standoff=2.999
X 60.0325 31.9273 61.6569   shell=3.0 standoff=3.000
X 61.8325 37.6696 52.4110   shell=3.0 standoff=3.000
X 63.9325 33.7273 59.9322   shell=3.0 standoff=3.000
X 52.8325 28.7446 56.0110   shell=3.0 standoff=2.999
X 57.6325 40.3273 53.9878   shell=3.0 standoff=2.999
X 57.0325 27.4431 58.1110   shell=3.0 standoff=3.000
X 52.4029 35.5273 57.8110   shell=3.0 standoff=3.000
X 65.8704 31.6273 57.5110   shell=3.0 standoff=3.000
X 54.3325 28.3273 57.8385   shell=3.0 standoff=2.999
X 57.3325 35.5273 61.8933   shell=3.0 standoff=2.999
X 57.6325 39.7273 59.8295   shell=3.0 standoff=2.999
X 64.8325 35.2759 53.0110   shell=3.0 standoff=2.999
X 54.1135 34.0273 50.3110   shell=3.0 standoff=2.999
X 65.6598 34.0273 56.0110   shell=3.0 standoff=3.000
X 56.1325 27.3050 54.8110   shell=3.0 standoff=3.000
X 59.1325 37.6273 50.9922   shell=3.0 standoff=2.999
X 66.0521 32.2273 53.6110   shell=3.0 standoff=3.000
X 56.7325 35.2273 49.0973   shell=3.0 standoff=3.000
X 63.3325 30.7273 59.7352   shell=3.0 standoff=3.000
X 63.6325 38.2976 56.9110   shell=3.0 standoff=2.999
X 54.9325 28.6273 52.1462   shell=3.0 standoff=2.999
X 63.9325 28.4352 57.8110   shell=3.0 standoff=2.999
X 58.8325 27.5676 53.9110   shell=3.0 standoff=3.000
X 63.9325 28.3890 52.4110   shell=3.0 standoff=2.999
X 56.3644 37.6273 50.6110   shell=3.0 standoff=2.998
X 62.7325 36.1185 51.2110   shell=3.0 standoff=3.000
X 60.0325 41.0691 57.5110   shell=3.0 standoff=3.000
X 56.7325 38.2899 60.8110   shell=3.0 standoff=2.999
X 60.9325 30.4273 60.3253   shell=3.0 standoff=3.014
X 58.5325 32.5273 62.2340   shell=3.0 standoff=3.000
X 57.6325 31.9273 49.6266   shell=3.0 standoff=3.000
X 64.5325 35.8273 54.7350   shell=3.0 standoff=2.998
X 61.3354 40.3273 55.1110   shell=3.0 standoff=2.998
X 61.5325 39.4273 59.0884   shell=3.0 standoff=2.999
X 60.0325 31.9273 49.0957   shell=3.0 standoff=3.000
X 60.3325 29.2273 50.0860   shell=3.0 standoff=2.999
X 63.4958 37.6273 54.5110   shell=3.0 standoff=2.999
X 60.0325 35.1347 49.1110   shell=3.0 standoff=2.998
X 54.0325 36.7273 60.4407   shell=3.0 standoff=2.999
X 54.9325 39.8672 57.8110   shell=3.0 standoff=2.999
X 61.5325 28.1462 58.4110   shell=3.0 standoff=3.000
X 53.1325 31.6273 58.8082   shell=3.0 standoff=2.999
X 63.8675 33.4273 49.7110   shell=3.0 standoff=2.999
X 55.5325 30.7273 50.2012   shell=3.0 standoff=3.000
X 54.9119 29.8273 59.9110   shell=3.0 standoff=2.999
X 62.1325 27.7255 52.4110   shell=3.0 standoff=3.000
X 52.6361 29.2273 53.3110   shell=3.0 standoff=2.998
X 64.5325 32.2273 49.9671   shell=3.0 standoff=2.999
X 63.3325 29.8273 49.8862   shell=3.0 standoff=2.999
X 60.0325 28.1739 59.3110   shell=3.0 standoff=2.999
X 61.8325 27.1857 55.7110   shell=3.0 standoff=3.000
X 54.2224 34.0273 60.2110   shell=3.0 standoff=2.998
X 57.6325 30.3335 60.8110   shell=3.0 standoff=2.999
X 63.0226 37.3273 59.9110   shell=3.0 standoff=3.000
X 58.8325 36.4273 61.4966   shell=3.0 standoff=3.000
X 53.1325 36.7273 59.4389   shell=3.0 standoff=2.998
X 65.7972 30.7273 52.7110   shell=3.0 standoff=3.000
X 61.8325 35.2273 49.7420   shell=3.0 standoff=3.000
X 59.7325 40.7557 54.5110   shell=3.0 standoff=2.999
X 64.8850 35.8273 57.2110   shell=3.0 standoff=3.000
X 50.8620 32.5273 55.4110   shell=3.0 standoff=3.000
X 51.9325 32.0197 51.8110   shell=3.0 standoff=2.998
X 62.3161 38.2273 53.9110   shell=3.0 standoff=3.019
X 57.3325 33.4273 49.0379   shell=3.0 standoff=3.000
X 64.5325 28.2765 56.6110   shell=3.0 standoff=2.999
X 66.1420 32.8273 56.0110   shell=3.0 standoff=3.000
X 51.4968 34.0273 53.3110   shell=3.0 standoff=3.000
X 57.3325 40.9997 55.7110   shell=3.0 standoff=3.000
X 65.8851 30.7273 53.9110   shell=3.0 standoff=3.000
X 65.8845 30.1273 56.6110   shell=3.0 standoff=3.000
X 65.5790 33.4273 51.8110   shell=3.0 standoff=2.999
X 58.5325 39.6125 53.0110   shell=3.0 standoff=2.999
X 61.8325 31.9273 48.8457   shell=3.0 standoff=3.000
X 59.4325 38.5273 52.3871   shell=3.0 standoff=3.000
X 51.4290 30.4273 56.3110   shell=3.0 standoff=2.999
X 54.0325 28.9273 52.1463   shell=3.0 standoff=2.999
X 58.7939 29.2273 51.2110   shell=3.0 standoff=2.999
X 58.2325 27.2365 57.5110   shell=3.0 standoff=3.000
X 59.1325 39.1273 60.4508   shell=3.0 standoff=3.000
X 57.6325 31.3273 61.6608   shell=3.0 standoff=3.000
X 64.3088 37.3273 57.8110   shell=3.0 standoff=2.999
X 57.6325 34.0273 62.3327   shell=3.0 standoff=3.000
X 56.4325 27.0346 56.6110   shell=3.0 standoff=3.000
X 55.5325 27.7273 58.1288   shell=3.0 standoff=3.000
X 54.6325 39.3051 55.1110   shell=3.0 standoff=2.999
X 57.0325 39.1273 53.1260   shell=3.0 standoff=2.999
X 62.7325 34.3427 61.1110   shell=3.0 standoff=3.000
X 55.5325 32.1779 61.1110   shell=3.0 standoff=2.999
X 51.6325 31.9273 57.5483   shell=3.0 standoff=2.999
X 57.0325 30.7273 50.3735   shell=3.0 standoff=3.000
X 53.7325 28.2101 55.1110   shell=3.0 standoff=3.000
X 52.8874 37.9273 56.3110   shell=3.0 standoff=3.000
X 53.0695 34.0273 58.7110   shell=3.0 standoff=3.000
X 63.9325 27.7273 55.4110   shell=3.0 standoff=3.000
X 51.0325 30.9496 55.1110   shell=3.0 standoff=2.998
X 59.7325 38.1037 60.8110   shell=3.0 standoff=2.998
X 62.5505 39.4273 56.9110   shell=3.0 standoff=2.999
X 61.2325 39.6450 53.9110   shell=3.0 standoff=2.999
X 55.8325 34.6273 49.2006   shell=3.0 standoff=3.000
X 51.3325 33.1273 56.8466   shell=3.0 standoff=2.998
X 64.0653 35.2273 59.6110   shell=3.0 standoff=3.002
X 61.5325 27.3109 56.6110   shell=3.0 standoff=3.000
X 64.8325 28.6273 54.2481   shell=3.0 standoff=2.999
X 52.1240 34.6273 52.4110   shell=3.0 standoff=2.999
X 53.2297 36.1273 53.0110   shell=3.0 standoff=2.998
X 57.9325 37.0273 61.4366   shell=3.0 standoff=3.000
X 60.9325 28.0273 51.5040   shell=3.0 standoff=3.000
X 52.7526 31.0273 51.2110   shell=3.0 standoff=2.999
X 52.0352 35.2273 54.8110   shell=3.0 standoff=2.999
X 56.2465 40.3273 57.8110   shell=3.0 standoff=2.998
X 61.4716 37.3273 51.2110   shell=3.0 standoff=2.999
X 51.1619 31.0273 53.9110   shell=3.0 standoff=3.000
X 61.5325 35.2273 61.6099   shell=3.0 standoff=3.000
X 54.6325 39.2467 59.0110   shell=3.0 standoff=2.999
X 59.4325 40.9033 58.4110   shell=3.0 standoff=3.000
X 57.3325 27.5976 53.9110   shell=3.0 standoff=3.000
X 63.9325 29.1502 50.9110   shell=3.0 standoff=2.999
X 55.5325 38.7582 60.2110   shell=3.0 standoff=2.999
X 54.6325 35.9689 50.3110   shell=3.0 standoff=2.998
X 59.4325 29.3550 60.2110   shell=3.0 standoff=2.999
X 56.4325 38.4020 51.8110   shell=3.0 standoff=3.000
X 53.7325 29.8273 58.7581   shell=3.0 standoff=2.999
X 54.9325 31.4566 50.0110   shell=3.0 standoff=2.998
X 58.2325 37.6273 50.5861   shell=3.0 standoff=3.000
X 59.4325 27.9503 53.0110   shell=3.0 standoff=3.000
X 54.1272 37.3273 53.0110   shell=3.0 standoff=2.999
X 55.8325 28.0216 53.3110   shell=3.0 standoff=3.000
X 59.7325 33.4273 48.9383   shell=3.0 standoff=3.000
X 61.5325 29.5273 49.6416   shell=3.0 standoff=2.999
X 56.4325 39.8428 54.2110   shell=3.0 standoff=2.999
X 57.3325 40.6757 58.4110   shell=3.0 standoff=3.000
X 58.5325 28.6273 52.3412   shell=3.0 standoff=2.999
X 65.8626 32.8273 57.2110   shell=3.0 standoff=3.000
X 54.3325 38.5273 54.3588   shell=3.0 standoff=2.998
X 52.5325 28.8852 54.5110   shell=3.0 standoff=3.000
X 52.3307 34.3273 57.5110   shell=3.0 standoff=2.999
X 62.1325 30.4273 59.9488   shell=3.0 standoff=3.008
X 52.4104 36.7273 57.2110   shell=3.0 standoff=3.000
X 53.8320 28.3273 56.3110   shell=3.0 standoff=3.023
X 56.4325 34.3273 61.9398   shell=3.0 standoff=3.000
X 63.8744 36.1273 53.3110   shell=3.0 standoff=2.999
X 59.4325 26.9587 56.9110   shell=3.0 standoff=3.000
X 60.3325 34.9273 61.8734   shell=3.0 standoff=3.000
X 59.7325 36.1273 49.5483   shell=3.0 standoff=2.999
X 64.7468 33.7273 50.6110   shell=3.0 standoff=2.999
X 61.5325 32.6879 61.4110   shell=3.0 standoff=2.997
X 53.1780 37.3273 54.8110   shell=3.0 standoff=3.000
X 65.9568 32.8273 52.7110   shell=3.0 standoff=3.000
X 57.0325 36.6669 49.7110   shell=3.0 standoff=3.000
X 60.0325 27.4273 54.5343   shell=3.0 standoff=2.999
X 52.8325 36.1273 54.5197   shell=3.0 standoff=3.000
X 63.9325 29.6950 59.0110   shell=3.0 standoff=2.998
X 60.6325 40.9273 55.9341   shell=3.0 standoff=2.998
X 60.9325 38.7710 53.0110   shell=3.0 standoff=2.999
X 54.6325 39.7273 56.2933   shell=3.0 standoff=2.999
X 57.2390 28.3273 59.3110   shell=3.0 standoff=2.998
X 62.1325 36.7273 60.7529   shell=3.0 standoff=3.004
X 55.2325 29.2273 51.2949   shell=3.0 standoff=3.000
X 62.6974 27.7273 57.5110   shell=3.0 standoff=2.999
X 58.8325 41.3259 56.9110   shell=3.0 standoff=3.000
X 56.1325 35.5273 61.4623   shell=3.0 standoff=3.000
X 63.5787 32.5273 60.2110   shell=3.0 standoff=2.999
X 53.4775 38.8273 57.5110   shell=3.0 standoff=2.999
X 59.7325 31.0273 61.2272   shell=3.0 standoff=2.999
X 59.7325 30.7273 49.4470   shell=3.0 standoff=3.000
X 55.2325 27.9059 54.2110   shell=3.0 standoff=2.999
X 52.5325 32.5273 51.0582   shell=3.0 standoff=2.999
X 65.1325 32.9139 58.4110   shell=3.0 standoff=2.998
X 51.3325 34.1377 54.5110   shell=3.0 standoff=2.998
X 58.8325 27.1662 55.1110   shell=3.0 standoff=3.000
X 54.9325 37.6273 60.7007   shell=3.0 standoff=2.999
X 64.8882 35.5273 56.0110   shell=3.0 standoff=3.000
X 55.2325 38.1816 52.7110   shell=3.0 standoff=3.000
X 54.6325 33.4273 49.9307   shell=3.0 standoff=2.999
X 63.9425 35.8273 52.1110   shell=3.0 standoff=3.000
X 60.6325 39.2674 59.9110   shell=3.0 standoff=2.998
X 61.3061 31.6273 61.1110   shell=3.0 standoff=2.998
X 52.4835 29.2273 56.6110   shell=3.0 standoff=2.999
X 58.5325 27.7172 58.7110   shell=3.0 standoff=3.000
X 56.4325 28.5499 52.1110   shell=3.0 standoff=2.999
X 56.5794 31.9273 49.7110   shell=3.0 standoff=2.997
X 59.7325 33.4273 62.1557   shell=3.0 standoff=3.000
X 54.6901 31.3273 60.2110   shell=3.0 standoff=2.999
X 64.4793 33.4273 59.0110   shell=3.0 standoff=3.000
X 56.7325 39.5428 59.6110   shell=3.0 standoff=2.999
X 60.9325 34.6273 49.1609   shell=3.0 standoff=3.000
X 55.9660 40.3273 56.6110   shell=3.0 standoff=2.999
X 55.5516 33.1273 61.4110   shell=3.0 standoff=3.000
X 64.8947 29.2273 52.4110   shell=3.0 standoff=2.999
X 65.1325 31.9273 58.6349   shell=3.0 standoff=2.999
X 60.9325 29.5273 60.0009   shell=3.0 standoff=2.999
X 55.2325 37.0273 50.6464   shell=3.0 standoff=2.999
X 63.6018 37.6273 59.0110   shell=3.0 standoff=2.999
X 60.9325 40.1918 58.7110   shell=3.0 standoff=2.999
X 53.1325 33.4273 50.6841   shell=3.0 standoff=2.999
X 51.6325 30.5385 56.9110   shell=3.0 standoff=2.998
X 64.2325 31.0273 49.8868   shell=3.0 standoff=2.999
X 55.8325 29.8273 60.3258   shell=3.0 standoff=2.999
X 66.1247 31.0273 56.6110   shell=3.0 standoff=3.000
X 62.7325 27.7466 53.3110   shell=3.0 standoff=3.000
X 65.8977 33.4273 54.8110   shell=3.0 standoff=3.000
X 62.1295 38.5273 59.3110   shell=3.0 standoff=3.000
X 63.0362 34.3273 49.7110   shell=3.0 standoff=3.000
X 57.9325 38.8643 60.5110   shell=3.0 standoff=2.999
X 53.1325 29.8273 51.7401   shell=3.0 standoff=2.999
X 56.7325 27.0645 55.4110   shell=3.0 standoff=3.000
X 52.3487 35.5273 56.6110   shell=3.0 standoff=3.000
X 54.4384 34.6273 50.0110   shell=3.0 standoff=2.999
X 52.5815 36.4273 58.4110   shell=3.0 standoff=3.000
X 58.8325 40.9800 54.8110   shell=3.0 standoff=3.000
X 58.8325 31.6273 61.8558   shell=3.0 standoff=2.999
X 63.8529 36.4273 59.6110   shell=3.0 standoff=2.999
X 62.4325 30.7273 49.1418   shell=3.0 standoff=3.000
X 53.7325 31.3273 50.4262   shell=3.0 standoff=2.999
X 58.8325 32.2273 49.3603   shell=3.0 standoff=3.000
X 62.7335 39.1273 56.0110   shell=3.0 standoff=3.000
X 64.9601 34.6273 51.8110   shell=3.0 standoff=2.999
X 54.0325 31.0273 59.6589   shell=3.0 standoff=2.999
X 62.7325 28.1551 51.5110   shell=3.0 standoff=2.999
X 54.0325 35.5273 60.5373   shell=3.0 standoff=3.000
X 58.5325 29.8273 60.3158   shell=3.0 standoff=3.005
X 65.1325 29.2273 57.2991   shell=3.0 standoff=2.998
X 52.1383 29.2273 55.7110   shell=3.0 standoff=2.999
X 66.0325 30.2245 55.1110   shell=3.0 standoff=2.998
X 55.2325 36.1273 61.2248   shell=3.0 standoff=3.000
X 62.4325 37.2140 52.4110   shell=3.0 standoff=2.999
X 64.6619 35.8273 58.4110   shell=3.0 standoff=3.000
X 56.4055 31.6273 61.4110   shell=3.0 standoff=2.999
X 62.1325 39.3263 58.4110   shell=3.0 standoff=2.998
X 54.9325 28.9926 59.3110   shell=3.0 standoff=2.999
X 52.8325 35.2273 59.0062   shell=3.0 standoff=3.000
X 64.0694 37.0273 54.8110   shell=3.0 standoff=2.999
X 57.6325 29.0019 59.9110   shell=3.0 standoff=2.999
X 55.8325 27.1626 55.7110   shell=3.0 standoff=3.000
X 62.7325 28.6273 58.7670   shell=3.0 standoff=2.999
X 64.2325 28.3273 53.8023   shell=3.0 standoff=2.998
X 60.0325 37.0719 50.3110   shell=3.0 standoff=2.999
X 63.0325 33.1273 49.2102   shell=3.0 standoff=3.000
X 63.1349 31.6273 60.2110   shell=3.0 standoff=2.998
X 63.1613 37.3273 53.6110   shell=3.0 standoff=2.998
X 53.7325 35.0193 50.9110   shell=3.0 standoff=2.998
X 56.6799 40.6273 55.4110   shell=3.0 standoff=2.999
X 58.2325 35.2273 62.1293   shell=3.0 standoff=3.000
X 60.6325 37.8454 51.5110   shell=3.0 standoff=2.999
X 64.5728 30.7273 59.0110   shell=3.0 standoff=2.999
X 53.9803 36.7273 51.8110   shell=3.0 standoff=2.999
X 61.6694 40.3273 56.0110   shell=3.0 standoff=2.998
X 66.2141 32.2273 54.8110   shell=3.0 standoff=3.000
X 63.0325 35.4213 50.6110   shell=3.0 standoff=2.999
X 65.4693 34.3273 53.0110   shell=3.0 standoff=3.000
X 51.4335 32.8273 52.7110   shell=3.0 standoff=3.000
X 58.8325 35.2273 49.2211   shell=3.0 standoff=3.000
X 58.5325 40.3273 59.4119   shell=3.0 standoff=2.999
X 65.3136 31.6273 50.9110   shell=3.0 standoff=2.999
X 57.3325 38.2273 51.2366   shell=3.0 standoff=2.999
X 62.7325 27.4886 54.2110   shell=3.0 standoff=3.000
X 65.0187 34.6273 56.9110   shell=3.0 standoff=2.999
X 53.7325 33.7273 59.5119   shell=3.0 standoff=2.998
X 56.1325 35.8273 49.4116   shell=3.0 standoff=3.000
X 65.5593 30.7273 51.8110   shell=3.0 standoff=2.999
X 65.1325 34.7275 54.5110   shell=3.0 standoff=2.998
X 57.0325 30.7273 61.0291   shell=3.0 standoff=2.999
X 56.7325 36.4273 61.4912   shell=3.0 standoff=3.000
X 54.9325 27.5817 55.4110   shell=3.0 standoff=2.999
X 57.9325 34.6273 49.0378   shell=3.0 standoff=3.000
X 60.3516 27.1273 57.2110   shell=3.0 standoff=2.999
X 62.5173 33.1273 61.1110   shell=3.0 standoff=2.998
X 57.3325 28.9823 51.8110   shell=3.0 standoff=2.999
X 62.7325 27.2849 55.4110   shell=3.0 standoff=3.000
X 57.9325 35.9959 49.4110   shell=3.0 standoff=2.998
X 52.8325 35.0224 51.8110   shell=3.0 standoff=2.999
X 51.7277 33.7273 52.4110   shell=3.0 standoff=2.999
X 64.0401 37.6273 56.0110   shell=3.0 standoff=2.999
X 59.4325 29.5124 50.3110   shell=3.0 standoff=3.000
X 55.8325 33.4273 49.2678   shell=3.0 standoff=3.000
X 52.8325 30.8377 58.4110   shell=3.0 standoff=2.998
X 53.7325 28.9273 57.7000   shell=3.0 standoff=2.998
X 59.4325 40.3273 53.7571   shell=3.0 standoff=2.998
X 55.2325 27.4817 57.2110   shell=3.0 standoff=3.000
X 59.7325 36.7273 61.2659   shell=3.0 standoff=2.999
X 59.7325 30.1599 60.5110   shell=3.0 standoff=3.001
X 57.6325 30.1123 50.9110   shell=3.0 standoff=3.000
X 65.7325 29.5273 55.2359   shell=3.0 standoff=2.998
X 56.1325 38.5751 52.7110   shell=3.0 standoff=3.000
X 60.6325 27.6432 53.0110   shell=3.0 standoff=3.000
X 64.2325 36.1273 50.6234   shell=4.0 standoff=4.000
X 50.4325 31.0273 57.2136   shell=4.0 standoff=4.000
X 57.6325 40.9273 60.0688   shell=4.0 standoff=3.999
X 62.4325 28.6273 60.1458   shell=4.0 standoff=4.000
X 54.0831 37.6273 50.6110   shell=4.0 standoff=3.999
X 58.2325 28.3273 51.0675   shell=4.0 standoff=3.998
X 65.4038 36.4273 59.0110   shell=4.0 standoff=4.000
X 56.4325 33.1273 63.0349   shell=4.0 standoff=4.000
X 66.1470 28.9273 53.6110   shell=4.0 standoff=3.999
X 60.0325 41.1369 53.3110   shell=4.0 standoff=3.999
X 51.5450 37.3273 57.5110   shell=4.0 standoff=4.000
X 55.5325 26.2282 56.9110   shell=4.0 standoff=4.000
X 51.9325 31.8479 50.3110   shell=4.0 standoff=3.998
X 58.8325 34.0273 47.9858   shell=4.0 standoff=4.000
X 63.0325 30.1273 48.4207   shell=4.0 standoff=4.000
X 61.8325 26.1995 55.1110   shell=4.0 standoff=4.000
X 61.5325 35.5273 62.6106   shell=4.0 standoff=4.000
X 66.8147 31.3273 57.8110   shell=4.0 standoff=4.000
X 62.1325 40.8531 58.4110   shell=4.0 standoff=3.999
X 55.5403 41.2273 56.0110   shell=4.0 standoff=4.000
X 50.4096 34.3273 53.9110   shell=4.0 standoff=4.000
X 54.0325 29.2273 60.2926   shell=4.0 standoff=3.999
X 52.5325 27.8853 53.6110   shell=4.0 standoff=3.999
X 66.6858 34.0273 53.9110   shell=4.0 standoff=4.000
X 54.5610 37.6273 61.7110   shell=4.0 standoff=3.999
X 58.8325 38.2273 49.9448   shell=4.0 standoff=3.999
X 64.2325 38.2273 54.1905   shell=4.0 standoff=4.000
X 52.6512 33.7273 59.9110   shell=4.0 standoff=3.999
X 64.1183 32.5273 61.1110   shell=4.0 standoff=3.999
X 58.5325 29.7401 61.7110   shell=4.0 standoff=3.999
X 54.6325 33.7273 48.6606   shell=4.0 standoff=3.999
X 62.7325 27.1606 51.2110   shell=4.0 standoff=4.000
X 65.4325 27.6320 56.3110   shell=4.0 standoff=3.999
X 66.3078 31.6273 50.6110   shell=4.0 standoff=4.000
X 59.4325 26.3313 58.4110   shell=4.0 standoff=4.000
X 60.9325 39.1273 61.1223   shell=4.0 standoff=4.000
X 58.5325 42.3211 56.9110   shell=4.0 standoff=4.000
X 62.4325 33.7273 48.1520   shell=4.0 standoff=4.000
X 57.9325 26.4495 54.2110   shell=4.0 standoff=4.000
X 53.7325 39.7273 59.4095   shell=4.0 standoff=3.999
X 54.6325 28.9273 50.2919   shell=4.0 standoff=4.000
X 56.7325 40.1604 52.7110   shell=4.0 standoff=3.999
X 52.8325 37.6273 53.6425   shell=4.0 standoff=3.999
X 50.2555 30.7273 53.6110   shell=4.0 standoff=4.000
X 57.6325 36.4273 62.6279   shell=4.0 standoff=4.000
X 59.4929 30.4273 48.5110   shell=4.0 standoff=3.999
X 61.8325 38.7575 52.1110   shell=4.0 standoff=4.000
X 60.6325 32.2273 62.6593   shell=4.0 standoff=4.000
X 52.8325 28.3273 57.7863   shell=4.0 standoff=4.000
X 51.5977 34.6273 51.2110   shell=4.0 standoff=4.000
X 65.8267 35.8273 55.7110   shell=4.0 standoff=4.000
X 51.3325 34.6273 57.8301   shell=4.0 standoff=4.000
X 57.0325 27.7273 60.1647   shell=4.0 standoff=3.999
X 56.1325 36.4273 48.5557   shell=4.0 standoff=4.000
X 61.8325 36.8706 49.4110   shell=4.0 standoff=3.999
X 56.4325 31.0273 49.0894   shell=4.0 standoff=4.001
X 67.2009 30.7273 55.1110   shell=4.0 standoff=4.000
X 62.4325 40.7904 55.1110   shell=4.0 standoff=3.999
X 63.9325 35.2273 61.3545   shell=4.0 standoff=3.999
X 65.1325 29.2223 50.3110   shell=4.0 standoff=4.000
X 62.4325 26.5782 57.5110   shell=4.0 standoff=4.000
X 65.4325 30.1273 59.4101   shell=4.0 standoff=3.999
X 64.5325 27.1040 54.2110   shell=4.0 standoff=4.000
X 55.2325 27.3146 52.4110   shell=4.0 standoff=4.000
X 63.6064 38.5273 59.9110   shell=4.0 standoff=4.000
X 51.9325 36.4273 59.4670   shell=4.0 standoff=3.998
X 59.1325 34.0273 63.3236   shell=4.0 standoff=4.000
X 61.2325 28.3273 49.3421   shell=4.0 standoff=3.999
X 65.1325 36.4014 53.0110   shell=4.0 standoff=4.000
X 65.4325 33.4273 59.4167   shell=4.0 standoff=4.010
X 52.5325 31.0273 59.5122   shell=4.0 standoff=3.999
X 60.0325 26.8273 52.5615   shell=4.0 standoff=4.000
X 56.4325 41.6435 57.8110   shell=4.0 standoff=4.000
X 51.0325 28.9033 55.4110   shell=4.0 standoff=4.000
X 60.0325 41.2662 59.6110   shell=4.0 standoff=4.000
X 56.1325 30.7648 62.0110   shell=4.0 standoff=3.999
X 56.7325 38.7372 61.7110   shell=4.0 standoff=3.999
X 49.9307 32.5273 56.0110   shell=4.0 standoff=4.000
X 57.6325 41.8273 54.5856   shell=4.0 standoff=3.999
X 65.3381 37.6273 57.5110   shell=4.0 standoff=4.000
X 59.4325 27.7273 60.3359   shell=4.0 standoff=3.999
X 51.5538 36.1273 55.4110   shell=4.0 standoff=4.009
X 67.1009 33.1273 56.0110   shell=4.0 standoff=4.000
X 54.3325 32.8273 61.6261   shell=4.0 standoff=3.999
X 55.5325 35.2273 62.3961   shell=4.0 standoff=3.999
X 52.8423 39.4273 55.7110   shell=4.0 standoff=4.000
X 59.1325 36.2578 48.5110   shell=4.0 standoff=3.998
X 62.1325 30.4273 61.3458   shell=4.0 standoff=3.999
X 52.2325 29.2273 51.5362   shell=4.0 standoff=4.000
X 54.6325 26.6544 55.1110   shell=4.0 standoff=3.999
X 65.9293 34.0273 50.6110   shell=4.0 standoff=3.999
X 56.4325 38.9251 50.6110   shell=4.0 standoff=3.999
X 64.5325 32.5273 48.7333   shell=4.0 standoff=4.000
X 52.2325 36.5682 52.7110   shell=4.0 standoff=3.999
X 50.5982 32.8273 52.1110   shell=4.0 standoff=4.000
X 66.7395 30.7273 52.1110   shell=4.0 standoff=4.000
X 59.4325 39.6114 51.8110   shell=4.0 standoff=3.999
X 54.6325 39.1273 53.1260   shell=4.0 standoff=3.999
X 58.5325 31.9273 63.0971   shell=4.0 standoff=4.000
X 63.6325 39.6315 56.6110   shell=4.0 standoff=4.001
X 55.2325 27.3809 59.3110   shell=4.0 standoff=3.999
X 60.0325 36.9234 62.3110   shell=4.0 standoff=3.999
X 62.7325 37.0273 61.5327   shell=4.0 standoff=4.004
X 61.2325 31.6273 47.8623   shell=4.0 standoff=4.000
X 52.5325 38.2273 59.5090   shell=4.0 standoff=3.999
X 62.5659 33.7273 62.3110   shell=4.0 standoff=3.998
X 60.2359 42.1273 56.0110   shell=4.0 standoff=3.998
X 51.0325 32.4576 58.4110   shell=4.0 standoff=3.998
X 59.1325 25.9786 55.7110   shell=4.0 standoff=4.000
X 66.3669 28.6273 55.4110   shell=4.0 standoff=4.000
X 53.7325 31.6273 49.2406   shell=4.0 standoff=4.000
X 64.2325 27.8890 58.7110   shell=4.0 standoff=3.999
X 63.6325 37.3273 52.1139   shell=4.0 standoff=4.000
X 53.5688 35.2273 61.4110   shell=4.0 standoff=3.999
X 55.2325 39.1273 61.1492   shell=4.0 standoff=4.000
X 53.4325 35.2273 49.7024   shell=4.0 standoff=4.000
X 64.6613 27.7273 52.1110   shell=4.0 standoff=3.999
X 66.1391 34.3273 57.8110   shell=4.0 standoff=3.999
X 63.0325 39.4273 53.9949   shell=4.0 standoff=3.999
X 56.4325 32.5273 48.3072   shell=4.0 standoff=4.000
X 63.0325 28.3273 49.6174   shell=4.0 standoff=3.999
X 61.2325 27.0373 59.0110   shell=4.0 standoff=3.999
X 66.4606 29.5273 57.5110   shell=4.0 standoff=3.999
X 57.3325 27.4273 52.2239   shell=4.0 standoff=3.999
X 62.6170 35.5273 49.1110   shell=4.0 standoff=4.009
X 60.0325 33.7273 47.9245   shell=4.0 standoff=4.000
X 52.0424 29.5273 58.4110   shell=4.0 standoff=3.999
X 50.1629 30.4273 55.4110   shell=4.0 standoff=4.000
X 56.4325 29.1315 50.0110   shell=4.0 standoff=3.999
X 56.1325 26.2273 54.8584   shell=4.0 standoff=3.999
X 57.0325 26.6297 58.7110   shell=4.0 standoff=4.000
X 66.9031 32.5273 52.1110   shell=4.0 standoff=4.000
X 60.5372 38.5273 50.6110   shell=4.0 standoff=3.998
X 60.6249 29.2273 61.1110   shell=4.0 standoff=4.000
X 64.4681 34.6273 49.4110   shell=4.0 standoff=3.999
X 52.4265 33.7273 50.0110   shell=4.0 standoff=3.999
X 54.0325 27.7261 52.1110   shell=4.0 standoff=4.000
X 62.4325 26.5273 53.7406   shell=4.0 standoff=3.998
X 49.9886 32.8273 53.9110   shell=4.0 standoff=4.000
X 57.0325 34.6273 63.1657   shell=4.0 standoff=4.000
X 51.1658 28.9273 53.9110   shell=4.0 standoff=3.999
X 59.7325 26.6122 53.6110   shell=4.0 standoff=4.000
X 59.4325 38.8273 61.6826   shell=4.0 standoff=4.000
X 63.9325 26.6759 56.3110   shell=4.0 standoff=4.000
X 58.5325 41.8273 58.8773   shell=4.0 standoff=3.998
X 62.4325 39.7054 59.6110   shell=4.0 standoff=4.000
X 54.0850 40.6273 57.2110   shell=4.0 standoff=3.999
X 50.4325 34.4304 56.0110   shell=4.0 standoff=3.998
X 54.3325 31.0273 61.1394   shell=4.0 standoff=4.000
X 54.3325 40.0840 54.5110   shell=4.0 standoff=3.999
X 53.1325 30.4273 49.9006   shell=4.0 standoff=3.999
X 66.0325 31.3273 59.0978   shell=4.0 standoff=3.999
X 58.2325 31.9273 48.4733   shell=4.0 standoff=4.000
X 64.2325 38.9621 58.1110   shell=4.0 standoff=3.999
X 60.9325 35.5273 48.3266   shell=4.0 standoff=4.000
X 59.1325 29.0872 49.4110   shell=4.0 standoff=3.999
X 64.1943 37.0273 60.5110   shell=4.0 standoff=3.999
X 61.2325 40.3273 52.9859   shell=4.0 standoff=4.000
X 64.5325 30.1273 49.1576   shell=4.0 standoff=4.000
X 56.1325 34.9273 48.1105   shell=4.0 standoff=4.000
X 51.0821 30.7273 51.8110   shell=4.0 standoff=4.000
X 55.9158 40.6273 59.6110   shell=4.0 standoff=3.998
X 65.2768 36.7273 54.5110   shell=4.0 standoff=4.000
X 53.3170 28.9273 59.3110   shell=4.0 standoff=3.999
X 52.2325 28.0273 56.4205   shell=4.0 standoff=3.998
X 57.6325 30.1273 49.5153   shell=4.0 standoff=3.999
X 60.6325 26.1110 56.9110   shell=4.0 standoff=4.000
X 53.4325 37.9483 60.8110   shell=4.0 standoff=4.000
X 51.0325 35.1071 52.7110   shell=4.0 standoff=3.998
X 54.8967 37.0273 49.4110   shell=4.0 standoff=3.999
X 51.8936 37.9273 55.7110   shell=4.0 standoff=4.000
X 58.2325 40.6273 52.6079   shell=4.0 standoff=3.999
X 65.5890 27.7273 55.1110   shell=4.0 standoff=3.999
X 61.2107 30.1273 48.2110   shell=4.0 standoff=3.999
X 56.1325 37.0273 62.3558   shell=4.0 standoff=4.000
X 56.7325 41.9241 56.3110   shell=4.0 standoff=4.000
X 53.4325 37.9476 52.4110   shell=4.0 standoff=4.000
X 63.6923 31.0273 60.8110   shell=4.0 standoff=3.999
X 60.1777 42.1273 57.2110   shell=4.0 standoff=3.998
X 55.6679 27.7273 51.5110   shell=4.0 standoff=3.998
X 60.0325 30.7273 62.1923   shell=4.0 standoff=3.999
X 56.2725 40.9273 53.9110   shell=4.0 standoff=3.998
X 57.4480 28.9273 61.1110   shell=4.0 standoff=3.998
X 60.5225 27.4273 50.6110   shell=4.0 standoff=3.998
X 66.0276 35.2273 54.5110   shell=4.0 standoff=4.000
X 59.4325 35.8273 62.8438   shell=4.0 standoff=4.000
X 57.6325 39.3291 51.2110   shell=4.0 standoff=4.000
X 57.9325 26.0956 56.6110   shell=4.0 standoff=4.000
X 54.6325 30.1273 49.4792   shell=4.0 standoff=4.000
X 51.5733 36.7273 58.4110   shell=4.0 standoff=4.000
X 60.0325 40.3273 60.6603   shell=4.0 standoff=3.999
X 66.9997 31.3273 53.6110   shell=4.0 standoff=4.000
X 66.4109 32.8273 58.4110   shell=4.0 standoff=4.000
X 57.6325 30.7273 62.4750   shell=4.0 standoff=3.999
X 57.3325 38.2273 49.6295   shell=4.0 standoff=3.999
X 66.1928 34.9273 52.4110   shell=4.0 standoff=4.000
X 67.0193 30.1273 56.3110   shell=4.0 standoff=4.000
X 64.5325 34.0273 60.7903   shell=4.0 standoff=4.000
X 51.8426 34.6273 59.0110   shell=4.0 standoff=4.000
X 54.6325 26.8101 57.8110   shell=4.0 standoff=4.000
X 53.1325 39.9329 57.2110   shell=4.0 standoff=3.999
X 62.4325 37.8635 50.9110   shell=4.0 standoff=3.999
X 51.9325 32.8273 50.2598   shell=4.0 standoff=3.999
X 65.7325 36.4273 57.8453   shell=4.0 standoff=3.999
X 66.0325 29.4804 51.5110   shell=4.0 standoff=3.999
X 50.4325 32.2273 57.5185   shell=4.0 standoff=4.000
X 55.8325 28.6273 60.8098   shell=4.0 standoff=4.000
X 60.9325 33.7273 62.8123   shell=4.0 standoff=4.000
X 58.2325 27.1938 59.6110   shell=4.0 standoff=3.999
X 62.1325 31.9273 62.1229   shell=4.0 standoff=4.000
X 63.3325 31.9273 48.1348   shell=4.0 standoff=4.000
X 66.8025 29.8273 54.2110   shell=4.0 standoff=4.000
X 53.1325 37.0273 51.2966   shell=4.0 standoff=3.998
X 51.2248 35.8273 53.9110   shell=4.0 standoff=3.999
X 59.0543 27.4273 51.8110   shell=4.0 standoff=3.999
X 59.9448 41.8273 54.5110   shell=4.0 standoff=3.998
X 51.9016 28.6273 57.2110   shell=4.0 standoff=4.000
X 65.7325 30.1999 50.3110   shell=4.0 standoff=3.999
X 59.1325 32.5273 48.1293   shell=4.0 standoff=4.000
X 64.5325 37.9273 59.3990   shell=4.0 standoff=3.999
X 65.1325 34.9273 59.8516   shell=4.0 standoff=3.999
X 65.5605 33.1273 49.7110   shell=4.0 standoff=3.999
X 61.7397 41.5273 56.6110   shell=4.0 standoff=3.999
X 65.1325 27.9120 53.3110   shell=4.0 standoff=4.002
X 66.6507 34.3273 55.4110   shell=4.0 standoff=4.000
X 53.2307 32.8273 60.2110   shell=4.0 standoff=4.000
X 54.3325 38.6621 52.1110   shell=4.0 standoff=3.999
X 54.9325 35.2273 48.5772   shell=4.0 standoff=4.000
X 57.6325 26.0914 55.4110   shell=4.0 standoff=4.000
X 54.0325 27.1273 54.3438   shell=4.0 standoff=3.998
X 62.8220 35.8273 62.0110   shell=4.0 standoff=3.999
X 51.3275 36.1273 56.9110   shell=4.0 standoff=4.000
X 54.0325 39.1273 60.4497   shell=4.0 standoff=3.999
X 58.2325 35.2273 48.1548   shell=4.0 standoff=4.000
X 59.7325 37.2252 49.1110   shell=4.0 standoff=3.999
X 65.1325 32.2273 59.9745   shell=4.0 standoff=3.999
X 62.7325 26.2669 55.7110   shell=4.0 standoff=4.000
X 65.2035 37.6273 55.7110   shell=4.0 standoff=4.000
X 64.5325 37.0273 53.2367   shell=4.0 standoff=3.999
X 51.9325 28.0767 54.5110   shell=4.0 standoff=4.000
X 67.2846 31.6273 56.0110   shell=4.0 standoff=4.000
X 63.0325 29.5019 60.5110   shell=4.0 standoff=3.999
X 65.6140 35.5273 51.8110   shell=4.0 standoff=3.999
X 60.6325 39.4273 51.9972   shell=4.0 standoff=3.999
X 61.5325 37.6273 61.6766   shell=4.0 standoff=4.000
X 61.2325 41.0586 53.9110   shell=4.0 standoff=3.999
X 64.1629 27.1273 57.5110   shell=4.0 standoff=3.999
X 55.1501 32.2273 48.8110   shell=4.0 standoff=4.008
X 63.3325 38.2273 52.9703   shell=4.0 standoff=3.999
X 62.1325 29.0277 48.8110   shell=4.0 standoff=3.999
X 67.0105 33.4273 55.1110   shell=4.0 standoff=4.000
X 62.1325 38.8273 60.5817   shell=4.0 standoff=3.999
X 61.5325 26.5273 53.2410   shell=4.0 standoff=3.999
X 57.6325 42.0678 57.8110   shell=4.0 standoff=4.000
X 54.6325 28.2209 59.9110   shell=4.0 standoff=3.999
X 53.4325 34.0273 60.9508   shell=4.0 standoff=3.999
X 53.5609 36.4273 61.4110   shell=4.0 standoff=3.999
X 52.5983 38.8273 55.1110   shell=4.0 standoff=3.999
X 66.2393 30.1273 58.4110   shell=4.0 standoff=3.999
X 57.9325 33.1273 63.3524   shell=4.0 standoff=4.000
X 55.2325 41.1058 57.5110   shell=4.0 standoff=4.000
X 62.9560 40.0273 58.4110   shell=4.0 standoff=3.999
X 59.7325 32.8273 63.1358   shell=4.0 standoff=4.000
X 57.3325 42.0061 55.4110   shell=4.0 standoff=4.000
X 53.4325 28.6273 51.1374   shell=4.0 standoff=3.999
X 59.1325 40.9621 60.2110   shell=4.0 standoff=4.000
X 63.8321 27.1273 52.7110   shell=4.0 standoff=3.998
X 51.3325 31.3273 58.6490   shell=4.0 standoff=3.999
X 58.2325 28.3273 60.6365   shell=4.0 standoff=3.999
X 50.4325 29.8512 54.5110   shell=4.0 standoff=3.999
X 62.4325 27.1273 58.6074   shell=4.0 standoff=3.999
X 55.2325 26.8273 53.9368   shell=4.0 standoff=3.999
X 62.7325 40.7640 56.6110   shell=4.0 standoff=3.999
X 53.7325 30.1419 60.5110   shell=4.0 standoff=4.000
X 56.3375 41.5273 55.1110   shell=4.0 standoff=3.999
X 61.2325 41.4314 58.4110   shell=4.0 standoff=3.999
X 56.4325 26.8849 53.3110   shell=4.0 standoff=4.000
X 57.0325 37.6273 62.2316   shell=4.0 standoff=4.000
X 59.0317 28.0273 50.6110   shell=4.0 standoff=3.999
X 52.6186 35.2273 60.5110   shell=4.0 standoff=3.999
X 58.2325 37.3273 49.0209   shell=4.0 standoff=3.999
X 55.5325 32.8273 62.5658   shell=4.0 standoff=4.000
X 55.5325 30.1273 61.4628   shell=4.0 standoff=4.000
X 59.4325 35.2273 48.0894   shell=4.0 standoff=4.000
X 63.6783 28.0273 50.3110   shell=4.0 standoff=3.999
X 57.6325 41.3198 53.6110   shell=4.0 standoff=3.999
X 53.4325 27.3677 56.6110   shell=4.0 standoff=3.999
X 52.5115 32.8273 59.6110   shell=4.0 standoff=4.000
X 57.0325 39.8812 60.8110   shell=4.0 standoff=3.999
X 55.8325 38.5273 61.7299   shell=4.0 standoff=4.000
X 56.4325 35.8304 62.6110   shell=4.0 standoff=4.000
X 61.8325 29.2273 60.6269   shell=4.0 standoff=3.999
X 50.7702 33.4273 57.8110   shell=4.0 standoff=4.000
X 58.8325 37.6273 62.2530   shell=4.0 standoff=4.000
X 60.9067 40.9273 59.6110   shell=4.0 standoff=3.999
X 63.6385 33.7273 48.5110   shell=4.0 standoff=4.000
X 51.9325 37.0273 54.7747   shell=4.0 standoff=3.999
X 50.8419 29.5273 56.6110   shell=4.0 standoff=3.999
X 61.5325 26.9030 51.5110   shell=4.0 standoff=4.000
X 51.1794 33.4273 51.2110   shell=4.0 standoff=3.999
X 52.8325 28.1890 52.4110   shell=4.0 standoff=3.999
X 55.8325 26.6082 58.4110   shell=4.0 standoff=4.000
X 58.5325 26.9098 53.0110   shell=4.0 standoff=4.000
X 53.1325 27.3639 55.1110   shell=4.0 standoff=4.000
X 63.3325 39.8821 55.4110   shell=4.0 standoff=3.999
X 65.5440 35.2273 59.0110   shell=4.0 standoff=4.000
X 65.1325 31.9273 49.1654   shell=4.0 standoff=3.999
X 64.9274 35.2273 50.3110   shell=4.0 standoff=3.999
X 50.0564 33.7273 55.1110   shell=4.0 standoff=4.000
X 63.3325 36.7273 50.6633   shell=4.0 standoff=3.999
X 65.1325 37.6273 58.4900   shell=4.0 standoff=3.998
X 64.2325 31.3273 48.5973   shell=4.0 standoff=4.000
X 53.1389 35.8273 50.3110   shell=4.0 standoff=4.000
X 54.6325 36.4273 62.0359   shell=4.0 standoff=4.000
X 52.1407 38.5273 58.1110   shell=4.0 standoff=4.000
X 60.0325 31.3273 48.1006   shell=4.0 standoff=4.000
X 51.9325 30.3173 50.9110   shell=4.0 standoff=3.998
X 55.8325 27.6600 59.9110   shell=4.0 standoff=3.999
X 62.1325 27.5391 50.3110   shell=4.0 standoff=3.999
X 57.6325 38.8273 50.3409   shell=4.0 standoff=3.999
X 55.8325 34.0273 62.7981   shell=4.0 standoff=4.000
X 57.0325 34.0273 47.9621   shell=4.0 standoff=4.000
X 63.5561 26.5273 54.8110   shell=4.0 standoff=3.999
X 54.0325 40.4951 56.0110   shell=4.0 standoff=3.999
X 51.9325 35.5273 51.5433   shell=4.0 standoff=3.999
X 51.9325 36.5663 53.6110   shell=4.0 standoff=3.999
X 64.4435 38.8273 56.3110   shell=4.0 standoff=3.999
X 61.0876 37.6273 49.7110   shell=4.0 standoff=3.998
X 57.3325 32.2273 63.1043   shell=4.0 standoff=4.000
X 57.6325 36.7273 48.6063   shell=4.0 standoff=4.000
X 53.4325 38.8986 53.9110   shell=4.0 standoff=3.999
X 51.0325 31.9273 51.3650   shell=4.0 standoff=3.999
X 59.9180 40.3273 52.4110   shell=4.0 standoff=3.998
X 61.5325 31.0273 61.9019   shell=4.0 standoff=4.000
X 55.2325 40.3273 54.1952   shell=4.0 standoff=4.000
X 60.0325 29.2273 48.8920   shell=4.0 standoff=3.999
X 66.4385 32.8273 50.9110   shell=4.0 standoff=4.000
X 51.3325 29.3921 52.7110   shell=4.0 standoff=3.998
X 55.2325 40.0485 60.2110   shell=4.0 standoff=4.000
X 54.1171 36.1273 49.4110   shell=4.0 standoff=3.999
X 51.4924 37.0273 56.3110   shell=4.0 standoff=4.000
X 65.6169 37.0273 56.9110   shell=4.0 standoff=4.000
X 52.2325 38.8623 56.6110   shell=4.0 standoff=3.999
X 62.3558 32.5273 47.9110   shell=4.0 standoff=3.998
X 60.6325 28.2002 60.5110   shell=4.0 standoff=3.999
X 64.5325 29.1286 59.6110   shell=4.0 standoff=3.999
X 54.6325 26.5419 56.6110   shell=4.0 standoff=4.000
X 52.2325 37.3273 59.6648   shell=4.0 standoff=3.999
X 57.0325 41.5273 58.8391   shell=4.0 standoff=3.998
X 55.8325 39.3351 51.8110   shell=4.0 standoff=4.000
X 55.8091 33.4273 48.2110   shell=4.0 standoff=3.999
X 59.4325 26.6295 59.0110   shell=4.0 standoff=4.000
X 66.6325 34.0310 56.9110   shell=4.0 standoff=4.000
X 66.2423 28.6273 56.6110   shell=4.0 standoff=3.999
X 58.2325 40.3273 60.8001   shell=4.0 standoff=4.000
X 60.0586 26.2273 54.8110   shell=4.0 standoff=3.999
X 63.3325 34.6801 48.8110   shell=4.0 standoff=3.999
X 59.4325 28.9273 61.1163   shell=4.0 standoff=4.000
X 58.2325 26.3473 58.1110   shell=4.0 standoff=4.000
X 50.0565 31.0273 56.0110   shell=4.0 standoff=4.000
X 60.9325 26.2192 55.7110   shell=4.0 standoff=4.000
X 64.5325 36.5772 51.8110   shell=4.0 standoff=3.999
X 67.0792 32.5273 56.9110   shell=4.0 standoff=4.000
X 60.6325 26.3837 58.1110   shell=4.0 standoff=4.000
X 55.3119 38.5273 50.6110   shell=4.0 standoff=3.999
X 52.8325 34.6273 50.0677   shell=4.0 standoff=3.999
X 50.4921 34.0273 53.0110   shell=4.0 standoff=4.000
X 63.5849 29.2273 49.1110   shell=4.0 standoff=3.999
X 56.7325 25.9890 56.3110   shell=4.0 standoff=4.000
X 50.3029 33.7273 56.6110   shell=4.0 standoff=4.000
X 65.4325 28.0568 57.5110   shell=4.0 standoff=4.000
X 53.7325 27.9508 58.7110   shell=4.0 standoff=3.999
X 59.7325 31.6273 62.7875   shell=4.0 standoff=4.000
X 65.4325 28.5096 51.8110   shell=4.0 standoff=3.999
X 55.8325 26.1069 56.0110   shell=4.0 standoff=4.000
X 53.4325 34.0273 49.5021   shell=4.0 standoff=4.000
X 63.4894 33.4273 61.7110   shell=4.0 standoff=3.999
X 57.2335 28.6273 50.6110   shell=4.0 standoff=3.998
X 61.5325 34.6273 48.2979   shell=4.0 standoff=4.000
X 53.8958 32.8273 49.1110   shell=4.0 standoff=3.998
X 62.1325 31.0273 47.9717   shell=4.0 standoff=4.000
X 61.5325 41.4355 55.1110   shell=4.0 standoff=3.999
X 59.7325 25.9655 56.9110   shell=4.0 standoff=4.000
X 58.8325 41.5273 53.6818   shell=4.0 standoff=3.999
X 57.0325 29.9445 61.7110   shell=4.0 standoff=3.999
X 55.2325 31.6273 61.9645   shell=4.0 standoff=4.001
X 54.3516 34.0273 61.7110   shell=4.0 standoff=4.000
X 61.2325 32.9670 47.9110   shell=4.0 standoff=3.998
X 61.8325 34.3273 62.6439   shell=4.0 standoff=4.000
X 64.8325 27.1031 55.7110   shell=4.0 standoff=4.000
X 58.8325 26.2273 54.7485   shell=4.0 standoff=3.999
X 51.4402 35.5273 58.1110   shell=4.0 standoff=4.000
X 63.0325 34.3273 62.1042   shell=4.0 standoff=4.000
X 66.4377 30.7273 51.2110   shell=4.0 standoff=4.000
X 60.6116 30.1273 61.4110   shell=4.0 standoff=4.003
X 54.0325 40.4718 58.1110   shell=4.0 standoff=3.999
X 52.5325 30.1273 59.1662   shell=4.0 standoff=3.999
X 58.8325 38.9384 50.9110   shell=4.0 standoff=3.999
X 57.0325 31.9273 48.5036   shell=4.0 standoff=4.000
X 55.8325 37.6273 49.4019   shell=4.0 standoff=4.000
X 56.4325 31.3273 62.4913   shell=4.0 standoff=3.999
X 63.6325 27.3421 51.5110   shell=4.0 standoff=4.000
X 63.3325 28.0273 59.4031   shell=4.0 standoff=3.999
X 66.3325 29.4444 52.7110   shell=4.0 standoff=3.999
X 56.1325 30.1273 49.3999   shell=4.0 standoff=4.000
X 57.9325 39.7273 51.9496   shell=4.0 standoff=3.999
X 49.8658 31.9273 54.5110   shell=4.0 standoff=4.000
X 63.7699 36.4273 61.1110   shell=4.0 standoff=3.999
X 56.1325 27.3937 52.1110   shell=4.0 standoff=4.000
X 50.2736 31.6273 53.0110   shell=4.0 standoff=4.000
X 66.5647 34.0273 52.1110   shell=4.0 standoff=4.000
X 58.8325 42.1273 58.0882   shell=4.0 standoff=3.999
X 65.1642 31.0273 59.9110   shell=4.0 standoff=4.000
X 65.7992 29.2273 58.4110   shell=4.0 standoff=3.999
X 60.0325 41.8273 58.5465   shell=4.0 standoff=3.998
X 60.3325 38.1621 61.7110   shell=4.0 standoff=3.999
X 54.6325 30.1273 61.1031   shell=4.0 standoff=4.000
X 53.4325 31.3273 60.5088   shell=4.0 standoff=4.000
X 57.0325 27.8401 51.5110   shell=4.0 standoff=3.999
X 58.5325 35.8273 62.9647   shell=4.0 standoff=4.000
X 57.9325 33.4273 48.0731   shell=4.0 standoff=4.000
X 52.8325 37.0273 52.0490   shell=4.0 standoff=3.999
X 60.9325 26.3995 53.9110   shell=4.0 standoff=4.000
X 59.7325 38.1810 50.0110   shell=4.0 standoff=4.000
X 63.1354 31.3273 61.4110   shell=4.0 standoff=3.999
X 60.4295 34.6273 62.9110   shell=4.0 standoff=4.015
X 51.0889 35.2273 56.6110   shell=4.0 standoff=3.999
X 57.9325 34.3273 63.3469   shell=4.0 standoff=4.000
X 65.0146 36.7273 59.6110   shell=4.0 standoff=3.999
X 58.8325 30.4597 62.3110   shell=4.0 standoff=3.999
X 65.9048 35.2273 57.5110   shell=4.0 standoff=4.000
X 55.2325 40.8479 58.7110   shell=4.0 standoff=4.000
X 64.5325 29.8273 59.9895   shell=4.0 standoff=3.999
X 55.7681 39.7273 53.0110   shell=4.0 standoff=3.999
X 63.3325 37.3273 61.0603   shell=4.0 standoff=3.999
X 52.9082 29.5273 50.6110   shell=4.0 standoff=3.999
X 57.0325 26.2273 57.7704   shell=4.0 standoff=3.999
X 62.4325 38.0451 61.1110   shell=4.0 standoff=3.999
X 54.9325 28.2719 50.9110   shell=4.0 standoff=3.999
X 66.7991 30.4273 53.3110   shell=4.0 standoff=4.000
X 55.8325 28.3273 50.7099   shell=4.0 standoff=3.999
X 58.5325 42.0398 54.8110   shell=4.0 standoff=4.000
X 56.1325 39.4273 61.1523   shell=4.0 standoff=4.000
X 51.0325 29.9214 57.5110   shell=4.0 standoff=3.998
X 62.3243 38.8273 52.7110   shell=4.0 standoff=3.999
X 64.8010 28.6273 59.0110   shell=4.0 standoff=3.999
X 57.3325 26.6393 53.6110   shell=4.0 standoff=4.000
X 53.4325 36.8389 50.6110   shell=4.0 standoff=3.998
X 62.2885 40.0273 53.6110   shell=4.0 standoff=3.999
X 58.2325 39.1273 61.5587   shell=4.0 standoff=4.000
X 52.8325 37.0273 60.6171   shell=4.0 standoff=3.999
X 64.5733 35.8273 60.5110   shell=4.0 standoff=4.000
X 61.8325 32.5273 62.3568   shell=4.0 standoff=4.000
X 65.9141 35.5273 53.0110   shell=4.0 standoff=3.999
X 50.7954 35.2273 54.8110   shell=4.0 standoff=4.000
X 63.6325 35.5273 49.5602   shell=4.0 standoff=3.999
X 51.6325 33.7273 58.7291   shell=4.0 standoff=4.000
X 57.9325 30.7273 49.0345   shell=4.0 standoff=4.000
X 63.6325 38.9465 59.3110   shell=4.0 standoff=3.999
X 51.8578 28.6273 53.0110   shell=4.0 standoff=3.999
X 66.8901 30.4273 57.2110   shell=4.0 standoff=4.000
X 61.5325 39.7273 60.3996   shell=4.0 standoff=3.999
X 61.8325 26.2273 56.2322   shell=4.0 standoff=3.998
X 65.7325 28.0273 54.3772   shell=4.0 standoff=3.998
X 52.3404 31.6273 50.0110   shell=4.0 standoff=3.999
X 61.8325 27.7273 59.4696   shell=4.0 standoff=3.999
X 60.6325 36.4273 48.6607   shell=4.0 standoff=3.999
X 67.0736 30.1273 55.4110   shell=4.0 standoff=4.000
X 67.2029 31.9273 54.5110   shell=4.0 standoff=4.000
X 54.3325 27.2158 53.3110   shell=4.0 standoff=4.000
X 52.5325 36.1273 51.5157   shell=4.0 standoff=4.000
X 61.5325 38.5530 51.2110   shell=4.0 standoff=4.000
X 67.0344 32.5273 53.0110   shell=4.0 standoff=4.000
X 60.3777 27.4273 59.9110   shell=4.0 standoff=3.999
X 60.0325 28.3273 49.6242   shell=4.0 standoff=3.999
X 52.7384 39.1273 58.7110   shell=4.0 standoff=3.999
X 64.5325 31.6273 60.3991   shell=4.0 standoff=4.000
X 51.8328 35.5273 59.3110   shell=4.0 standoff=4.000
X 53.4325 27.4783 53.6110   shell=4.0 standoff=4.000
X 59.7325 35.8273 47.2169   shell=5.0 standoff=5.000
X 57.3325 32.8273 64.2623   shell=5.0 standoff=5.000
X 66.9502 27.7273 55.7110   shell=5.0 standoff=5.000
X 49.8325 29.2273 53.4655   shell=5.0 standoff=4.998
X 59.1325 43.2127 57.8110   shell=5.0 standoff=5.000
X 50.6643 37.6273 58.1110   shell=5.0 standoff=5.000
X 65.9367 36.4273 60.2110   shell=5.0 standoff=5.000
X 57.9325 25.2606 57.8110   shell=5.0 standoff=5.000
X 60.6325 26.8273 49.6375   shell=5.0 standoff=4.999
X 66.9325 35.4308 51.8110   shell=5.0 standoff=4.999
X 52.1935 36.1273 50.0110   shell=5.0 standoff=5.000
X 63.6325 29.8273 61.5688   shell=5.0 standoff=5.000
X 52.6678 29.2273 60.5110   shell=5.0 standoff=4.999
X 56.7325 39.4273 62.4583   shell=5.0 standoff=4.999
X 57.0325 40.8965 51.8110   shell=5.0 standoff=5.000
X 54.6325 30.7273 48.1583   shell=5.0 standoff=5.000
X 63.0768 40.6273 53.3110   shell=5.0 standoff=5.000
X 65.1325 30.7273 48.0895   shell=5.0 standoff=4.999
X 55.5325 26.0434 53.0110   shell=5.0 standoff=5.006
X 60.6325 36.4273 63.5696   shell=5.0 standoff=5.000
X 54.0325 41.6917 56.3110   shell=5.0 standoff=5.000
X 68.1325 32.7575 56.6110   shell=5.0 standoff=4.999
X 62.4325 25.3529 54.2110   shell=5.0 standoff=5.000
X 49.1023 34.0273 55.1110   shell=5.0 standoff=5.000
X 52.3889 34.0273 61.4110   shell=5.0 standoff=4.999
X 62.7325 40.5688 60.2110   shell=5.0 standoff=4.999
X 57.6325 28.5120 62.0110   shell=5.0 standoff=4.999
X 63.3325 37.3057 49.4110   shell=5.0 standoff=5.000
X 67.8325 30.7273 52.3471   shell=5.0 standoff=4.999
X 59.3442 31.0273 47.3110   shell=5.0 standoff=4.999
X 50.7325 31.6273 50.1468   shell=5.0 standoff=4.999
X 63.0325 26.1247 58.7110   shell=5.0 standoff=5.000
X 64.8325 27.1273 50.7325   shell=5.0 standoff=4.999
X 65.9818 38.5273 56.6110   shell=5.0 standoff=5.000
X 51.9479 39.1273 54.2110   shell=5.0 standoff=5.000
X 53.2855 26.2273 56.9110   shell=5.0 standoff=4.999
X 55.8325 37.9273 48.3438   shell=5.0 standoff=4.999
X 50.2221 32.2273 59.0110   shell=5.0 standoff=4.999
X 66.3325 32.5523 60.2110   shell=5.0 standoff=4.999
X 53.4854 40.6273 59.9110   shell=5.0 standoff=4.999
X 63.0325 33.1273 63.1073   shell=5.0 standoff=5.000
X 52.5325 28.4672 50.3110   shell=5.0 standoff=4.999
X 60.0325 42.4273 53.4422   shell=5.0 standoff=4.999
X 59.4325 41.5273 61.0445   shell=5.0 standoff=4.999
X 63.0325 33.4273 47.1447   shell=5.0 standoff=5.000
X 56.1325 34.0273 47.0506   shell=5.0 standoff=5.000
X 60.0325 39.2015 49.7110   shell=5.0 standoff=5.000
X 58.8325 26.0902 52.4110   shell=5.0 standoff=5.000
X 56.4325 28.0273 49.6201   shell=5.0 standoff=4.999
X 55.8325 36.4273 63.4253   shell=5.0 standoff=5.000
X 63.0325 41.8230 56.9110   shell=5.0 standoff=5.000
X 50.7325 28.3273 57.3142   shell=5.0 standoff=4.999
X 54.3325 31.3273 62.4934   shell=5.0 standoff=4.999
X 60.1237 30.4273 63.2110   shell=5.0 standoff=4.999
X 65.7325 28.4677 59.6110   shell=5.0 standoff=4.999
X 65.4325 34.6999 48.8110   shell=5.0 standoff=4.999
X 54.1050 39.1273 50.6110   shell=5.0 standoff=4.999
X 54.9325 26.8273 60.1310   shell=5.0 standoff=5.000
X 56.1958 42.1273 59.3110   shell=5.0 standoff=4.999
X 53.7325 33.4273 48.0782   shell=5.0 standoff=4.999
X 57.0325 42.8360 54.8110   shell=5.0 standoff=5.000
X 61.8325 28.9273 47.6682   shell=5.0 standoff=5.000
X 60.6325 27.1273 60.9652   shell=5.0 standoff=4.999
X 53.0550 37.6273 62.0110   shell=5.0 standoff=4.999
X 49.8163 34.0273 51.8110   shell=5.0 standoff=5.000
X 60.0325 33.7273 64.1629   shell=5.0 standoff=5.000
X 52.1849 26.8273 53.9110   shell=5.0 standoff=4.999
X 65.5392 37.6273 53.3110   shell=5.0 standoff=4.999
X 60.0325 38.9664 62.6110   shell=5.0 standoff=4.998
X 66.8725 35.8273 55.7110   shell=5.0 standoff=5.005
X 63.8360 37.3273 62.0110   shell=5.0 standoff=4.999
X 49.1415 31.0273 56.6110   shell=5.0 standoff=5.000
X 54.6325 40.5227 53.0110   shell=5.0 standoff=4.999
X 50.1325 34.8538 57.8110   shell=5.0 standoff=4.999
X 65.0252 39.1273 59.3110   shell=5.0 standoff=4.999
X 51.8510 40.0273 56.6110   shell=5.0 standoff=4.999
X 65.2461 26.5273 53.6110   shell=5.0 standoff=4.999
X 49.5325 31.6273 52.2170   shell=5.0 standoff=5.002
X 56.4325 25.1020 55.1110   shell=5.0 standoff=5.000
X 59.7325 24.9773 55.7110   shell=5.0 standoff=5.000
X 67.4136 30.7273 58.7110   shell=5.0 standoff=5.000
X 67.1378 32.2273 50.0110   shell=5.0 standoff=5.000
X 57.9325 36.9707 63.5110   shell=5.0 standoff=5.006
X 67.8325 33.7273 53.8986   shell=5.0 standoff=5.000
X 50.4325 36.3976 53.6110   shell=5.0 standoff=5.000
X 64.5325 25.9500 56.9110   shell=5.0 standoff=5.000
X 61.2325 40.6273 51.7973   shell=5.0 standoff=5.000
X 66.5739 34.6273 59.0110   shell=5.0 standoff=5.000
X 55.2325 28.6273 61.8517   shell=5.0 standoff=4.999
X 66.8346 28.6273 51.8110   shell=5.0 standoff=4.999
X 68.1325 30.2954 56.0110   shell=5.0 standoff=4.998
X 61.5325 25.7715 51.8110   shell=5.0 standoff=5.000
X 52.0228 31.6273 60.5110   shell=5.0 standoff=5.012
X 58.5325 28.9422 48.5110   shell=5.0 standoff=5.000
X 61.2325 42.3620 59.0110   shell=5.0 standoff=5.000
X 58.5325 26.3055 60.2110   shell=5.0 standoff=4.999
X 62.7325 35.4935 47.9110   shell=5.0 standoff=4.999
X 57.1945 30.1273 63.2110   shell=5.0 standoff=4.998
X 58.2325 37.9273 48.2017   shell=5.0 standoff=5.000
X 51.0074 36.1273 59.9110   shell=5.0 standoff=5.000
X 65.0684 34.6273 61.7110   shell=5.0 standoff=4.999
X 64.5325 28.6273 48.7216   shell=5.0 standoff=4.999
X 54.0325 35.8273 48.0625   shell=5.0 standoff=4.999
X 60.0325 25.6273 59.1818   shell=5.0 standoff=4.999
X 55.5325 25.3273 57.6658   shell=5.0 standoff=4.998
X 52.5325 30.1961 49.1110   shell=5.0 standoff=4.999
X 58.8325 33.4273 46.9909   shell=5.0 standoff=5.000
X 50.7325 29.5273 51.2871   shell=5.0 standoff=4.999
X 61.8325 25.2705 56.6110   shell=5.0 standoff=5.000
X 56.7361 32.2273 47.3110   shell=5.0 standoff=5.000
X 65.4325 36.7273 50.8083   shell=5.0 standoff=4.999
X 63.4776 27.4273 60.2110   shell=5.0 standoff=4.998
X 50.5052 37.0273 56.0110   shell=5.0 standoff=5.000
X 51.8315 38.5273 60.2110   shell=5.0 standoff=4.999
X 56.7325 39.4273 49.5111   shell=5.0 standoff=4.999
X 64.2325 40.5396 56.6110   shell=5.0 standoff=4.999
X 51.2037 33.7273 49.7110   shell=5.0 standoff=4.999
X 55.2325 33.4273 63.6176   shell=5.0 standoff=5.000
X 57.9325 35.2273 64.2032   shell=5.0 standoff=5.000
X 66.6233 37.0273 57.8110   shell=5.0 standoff=5.000
X 63.4388 35.5273 62.9110   shell=5.0 standoff=4.999
X 62.7325 26.8313 49.7110   shell=5.0 standoff=5.000
X 63.0325 39.1273 51.6823   shell=5.0 standoff=4.998
X 65.1325 30.1273 60.9618   shell=5.0 standoff=4.999
X 53.1325 26.9836 58.7110   shell=5.0 standoff=4.999
X 61.8325 42.3601 54.8110   shell=5.0 standoff=5.000
X 62.1325 31.6273 63.1171   shell=5.0 standoff=5.000
X 63.0325 31.3273 47.0537   shell=5.0 standoff=5.000
X 66.7772 30.1273 50.0110   shell=5.0 standoff=4.999
X 56.2223 42.7273 57.5110   shell=5.0 standoff=4.999
X 51.0325 29.8273 59.2012   shell=5.0 standoff=4.999
X 52.6433 40.3273 54.8110   shell=5.0 standoff=4.999
X 61.6468 37.9273 48.8110   shell=5.0 standoff=4.998
X 51.9325 37.5480 52.1110   shell=5.0 standoff=4.999
X 55.5325 40.9818 60.8110   shell=5.0 standoff=5.000
X 60.3501 28.6273 62.0110   shell=5.0 standoff=5.000
X 64.5325 31.9273 61.9416   shell=5.0 standoff=4.999
X 54.0325 25.9273 54.6762   shell=5.0 standoff=4.998
X 57.9325 42.6722 59.3110   shell=5.0 standoff=5.000
X 54.9325 28.7134 49.1110   shell=5.0 standoff=4.999
X 67.9278 32.5273 52.1110   shell=5.0 standoff=5.000
X 63.3325 25.9273 52.3049   shell=5.0 standoff=4.998
X 51.0862 27.4273 55.1110   shell=5.0 standoff=4.999
X 60.3325 32.8273 46.9864   shell=5.0 standoff=5.000
X 59.1325 41.2927 51.8110   shell=5.0 standoff=4.999
X 67.1867 28.6273 57.5110   shell=5.0 standoff=5.000
X 53.6347 34.9273 62.6110   shell=5.0 standoff=4.999
X 53.1325 27.0599 51.8110   shell=5.0 standoff=5.000
X 65.1325 26.7320 58.1110   shell=5.0 standoff=4.999
X 50.7434 33.7273 59.3110   shell=5.0 standoff=5.000
X 57.6325 36.1273 47.2634   shell=5.0 standoff=5.000
X 54.0325 37.7298 49.1110   shell=5.0 standoff=4.999
X 49.2325 32.7146 57.2110   shell=5.0 standoff=4.998
X 57.0325 25.6273 53.4578   shell=5.0 standoff=4.999
X 53.4325 41.2284 58.4110   shell=5.0 standoff=5.000
X 51.3325 27.9858 52.4110   shell=5.0 standoff=5.000
X 49.6100 29.2273 55.4110   shell=5.0 standoff=5.000
X 56.8527 29.8273 48.5110   shell=5.0 standoff=4.998
X 55.2325 39.1273 62.4109   shell=5.0 standoff=5.000
X 61.8325 34.3273 63.6851   shell=5.0 standoff=5.000
X 59.4325 26.4410 50.9110   shell=5.0 standoff=5.000
X 56.1325 26.5727 51.5110   shell=5.0 standoff=5.000
X 66.9325 34.6273 50.6931   shell=5.0 standoff=4.999
X 65.4325 33.1273 48.2220   shell=5.0 standoff=5.000
X 54.9325 33.1273 47.4923   shell=5.0 standoff=5.000
X 67.7276 29.2273 54.5110   shell=5.0 standoff=5.000
X 57.9325 40.3146 62.0110   shell=5.0 standoff=5.000
X 60.6325 25.3880 54.2110   shell=5.0 standoff=5.000
X 67.1407 31.9273 59.3110   shell=5.0 standoff=5.000
X 58.5325 39.7273 50.0821   shell=5.0 standoff=4.999
X 67.0780 35.5273 54.2110   shell=5.0 standoff=5.000
X 68.2997 31.9273 55.4110   shell=5.0 standoff=5.000
X 60.9325 41.2273 60.8877   shell=5.0 standoff=4.999
X 51.9325 39.7273 58.8452   shell=5.0 standoff=4.998
X 61.8325 39.4717 61.7110   shell=5.0 standoff=4.999
X 53.4588 39.4273 52.7110   shell=5.0 standoff=5.000
X 63.9239 40.3273 58.7110   shell=5.0 standoff=5.000
X 58.8325 43.2802 55.7110   shell=5.0 standoff=5.000
X 60.6325 34.9273 47.0671   shell=5.0 standoff=5.000
X 64.2325 39.1273 60.4143   shell=5.0 standoff=4.999
X 49.2325 30.3361 53.9110   shell=5.0 standoff=4.999
X 56.7325 41.6364 52.7110   shell=5.0 standoff=4.999
X 55.2325 40.0273 51.2115   shell=5.0 standoff=5.000
X 59.1325 32.2273 64.1724   shell=5.0 standoff=5.000
X 53.4325 33.1273 62.1907   shell=5.0 standoff=4.999
X 51.0325 38.5273 55.7419   shell=5.0 standoff=4.999
X 51.5197 27.4273 56.9110   shell=5.0 standoff=4.999
X 61.5325 31.3273 46.8795   shell=5.0 standoff=5.000
X 64.2325 37.9273 51.4310   shell=5.0 standoff=4.999
X 53.6276 30.1273 61.7110   shell=5.0 standoff=4.999
X 64.5325 25.8805 54.5110   shell=5.0 standoff=5.000
X 64.6983 39.1273 53.9110   shell=5.0 standoff=4.999
X 60.8071 43.0273 56.3110   shell=5.0 standoff=4.998
X 58.8325 42.7273 53.8167   shell=5.0 standoff=4.999
X 60.3325 28.9273 47.7907   shell=5.0 standoff=5.000
X 61.2325 39.3680 50.3110   shell=5.0 standoff=5.000
X 49.5325 30.6773 57.5110   shell=5.0 standoff=4.999
X 55.8325 31.6273 63.5390   shell=5.0 standoff=5.000
X 56.1325 25.6273 58.8294   shell=5.0 standoff=4.999
X 58.2325 29.5620 62.9110   shell=5.0 standoff=5.000
X 53.9808 28.0273 60.8110   shell=5.0 standoff=4.999
X 63.9325 34.6273 47.8362   shell=5.0 standoff=5.000
X 55.0808 27.4273 50.3110   shell=5.0 standoff=4.998
X 59.7325 35.2273 64.0521   shell=5.0 standoff=5.000
X 55.5325 35.4762 47.3110   shell=5.0 standoff=4.999
X 64.5325 36.3633 49.4110   shell=5.0 standoff=4.999
X 57.0325 41.4466 60.8110   shell=5.0 standoff=4.999
X 66.2429 34.3273 59.9110   shell=5.0 standoff=5.000
X 54.6325 38.8273 49.7095   shell=5.0 standoff=5.000
X 66.3827 37.0273 54.8110   shell=5.0 standoff=5.000
X 58.2325 39.1273 62.7261   shell=5.0 standoff=5.000
X 49.6280 34.6273 56.9110   shell=5.0 standoff=5.000
X 54.9325 37.3273 63.0664   shell=5.0 standoff=5.000
X 60.0325 25.0273 57.2768   shell=5.0 standoff=4.999
X 65.7325 26.5273 55.1837   shell=5.0 standoff=4.999
X 51.7455 32.5273 49.1110   shell=5.0 standoff=4.999
X 62.4325 27.8332 48.5110   shell=5.0 standoff=4.999
X 57.6325 25.0422 55.7110   shell=5.0 standoff=5.000
X 56.4325 37.3273 63.3467   shell=5.0 standoff=5.000
X 50.7325 35.5273 51.2543   shell=5.0 standoff=4.999
X 52.7810 37.6273 50.3110   shell=5.0 standoff=4.999
X 49.3534 34.0273 53.3110   shell=5.0 standoff=5.000
X 55.5325 41.8273 54.0008   shell=5.0 standoff=4.999
X 61.8325 41.5273 53.1366   shell=5.0 standoff=4.999
X 56.1325 27.0313 60.8110   shell=5.0 standoff=4.999
X 59.7325 37.0273 47.7554   shell=5.0 standoff=5.000
X 64.9422 37.3273 61.1110   shell=5.0 standoff=4.999
X 63.6325 30.1273 47.5034   shell=5.0 standoff=5.000
X 52.2325 36.1273 61.6138   shell=5.0 standoff=4.999
X 51.6325 28.4790 58.7110   shell=5.0 standoff=4.999
X 57.9325 43.2785 56.6110   shell=5.0 standoff=5.000
X 66.1195 27.1273 57.2110   shell=5.0 standoff=4.999
X 53.4325 31.0273 48.3943   shell=5.0 standoff=5.000
X 61.3540 28.0273 61.4110   shell=5.0 standoff=4.998
X 63.1525 41.5273 55.1110   shell=5.0 standoff=4.999
X 61.5325 30.2277 62.6110   shell=5.0 standoff=4.999
X 65.7325 28.3965 50.0110   shell=5.0 standoff=4.999
X 61.5325 37.9273 62.7156   shell=5.0 standoff=5.000
X 48.8856 32.2273 54.2110   shell=5.0 standoff=5.000
X 66.8187 30.7273 59.6110   shell=5.0 standoff=4.999
X 52.8325 38.8273 61.2016   shell=5.0 standoff=4.999
X 58.5325 28.0273 49.2534   shell=5.0 standoff=4.999
X 64.8325 39.9122 57.2110   shell=5.0 standoff=4.999
X 66.3325 27.5995 53.3110   shell=5.0 standoff=4.999
X 59.7325 37.9273 63.0428   shell=5.0 standoff=5.000
X 66.0723 38.2273 58.1110   shell=5.0 standoff=5.000
X 66.3857 33.1273 49.1110   shell=5.0 standoff=5.000
X 68.0510 32.2273 53.0110   shell=5.0 standoff=5.000
X 53.7325 26.2273 58.0953   shell=5.0 standoff=5.000
X 61.5325 32.8273 63.5699   shell=5.0 standoff=5.000
X 52.7529 40.9273 56.9110   shell=5.0 standoff=4.999
X 67.8325 34.1485 55.7110   shell=5.0 standoff=4.999
X 67.3208 34.9273 56.9110   shell=5.0 standoff=5.000
X 56.4325 29.2273 62.3844   shell=5.0 standoff=5.000
X 68.1325 31.0273 56.8672   shell=5.0 standoff=4.999
X 57.8448 30.7273 47.9110   shell=5.0 standoff=4.999
X 63.3325 25.3860 56.0110   shell=5.0 standoff=5.000
X 50.1325 32.8273 50.8623   shell=5.0 standoff=4.999
X 66.3325 35.3137 50.3110   shell=5.0 standoff=4.999
X 50.0507 31.3273 51.2110   shell=5.0 standoff=5.000
X 65.5463 37.9273 59.9110   shell=5.0 standoff=4.999
X 54.0325 41.4185 55.1110   shell=5.0 standoff=5.000
X 59.1325 33.4273 64.3370   shell=5.0 standoff=5.000
X 59.4325 28.0273 61.7718   shell=5.0 standoff=5.000
X 65.9069 27.4273 52.1110   shell=5.0 standoff=4.999
X 51.0325 37.4382 54.5110   shell=5.0 standoff=4.998
X 50.3646 36.4273 57.5110   shell=5.0 standoff=5.000
X 52.2325 34.6273 49.1859   shell=5.0 standoff=5.000
X 67.4268 30.7273 50.9110   shell=5.0 standoff=5.000
X 58.2325 39.0289 49.1110   shell=5.0 standoff=4.999
X 51.0325 27.6165 53.9110   shell=5.0 standoff=4.999
X 65.5677 29.2273 49.1110   shell=5.0 standoff=4.999
X 58.5325 25.3273 54.3617   shell=5.0 standoff=5.004
X 54.9325 42.0635 57.5110   shell=5.0 standoff=5.000
X 59.7325 42.9104 58.7110   shell=5.0 standoff=5.000
X 64.2325 28.9273 60.9595   shell=5.0 standoff=4.999
X 59.4325 40.6273 61.8333   shell=5.0 standoff=4.999
X 66.1288 36.7273 52.4110   shell=5.0 standoff=4.999
X 60.9325 25.2127 55.4110   shell=5.0 standoff=5.000
X 62.4325 37.0306 62.9110   shell=5.0 standoff=5.000
X 60.6325 26.1299 50.9110   shell=5.0 standoff=5.000
X 66.1932 31.6273 48.8110   shell=5.0 standoff=4.999
X 51.2265 39.1273 57.5110   shell=5.0 standoff=5.000
X 54.3325 39.9529 61.4110   shell=5.0 standoff=4.999
X 56.4325 34.9273 63.9983   shell=5.0 standoff=5.000
X 60.0325 39.7273 50.5767   shell=5.0 standoff=4.999
X 67.6370 33.1273 58.1110   shell=5.0 standoff=5.000
X 51.0325 30.7273 59.6058   shell=5.0 standoff=5.000
X 57.3325 43.0991 57.5110   shell=5.0 standoff=5.000
X 58.5325 34.9273 47.1089   shell=5.0 standoff=5.000
X 58.5325 25.5638 59.0110   shell=5.0 standoff=5.000
X 61.9514 42.1273 58.7110   shell=5.0 standoff=4.999
X 66.7616 28.9273 58.7110   shell=5.0 standoff=4.999
X 55.8325 30.7273 63.1219   shell=5.0 standoff=4.999
X 51.9325 29.2273 50.1253   shell=5.0 standoff=4.999
X 52.8325 26.4078 55.1110   shell=5.0 standoff=5.000
X 61.0336 25.3273 57.8110   shell=5.0 standoff=4.999
X 53.1325 29.2273 49.3170   shell=5.0 standoff=4.999
X 65.3072 39.1273 55.4110   shell=5.0 standoff=4.999
X 54.9325 34.0273 47.3868   shell=5.0 standoff=5.000
X 63.6325 25.7675 57.5110   shell=5.0 standoff=5.000
X 66.4743 35.8273 59.3110   shell=5.0 standoff=5.000
X 51.6325 35.5273 60.9186   shell=5.0 standoff=4.999
X 64.6557 36.4273 61.7110   shell=5.0 standoff=4.999
X 51.9325 39.6988 55.1110   shell=5.0 standoff=5.000
X 66.5731 37.0273 55.7110   shell=5.0 standoff=5.000
X 63.8662 26.5273 50.9110   shell=5.0 standoff=4.999
X 49.5655 30.4273 52.7110   shell=5.0 standoff=5.000
X 58.2981 32.2273 47.3110   shell=5.0 standoff=4.999
X 64.8325 27.5984 59.6110   shell=5.0 standoff=4.999
X 63.9325 40.4102 54.5110   shell=5.0 standoff=4.999
X 60.6325 42.9214 55.1110   shell=5.0 standoff=5.000
X 56.7325 24.9881 56.3110   shell=5.0 standoff=5.000
X 56.1325 29.2273 48.7403   shell=5.0 standoff=5.000
X 53.1325 31.3273 61.5622   shell=5.0 standoff=4.999
X 57.0325 38.5273 48.5671   shell=5.0 standoff=5.000
X 52.2325 33.1273 60.7334   shell=5.0 standoff=4.999
X 56.4325 40.3477 61.7110   shell=5.0 standoff=5.000
X 55.8325 25.4184 54.2110   shell=5.0 standoff=5.000
X 63.8435 40.9273 57.5110   shell=5.0 standoff=4.999
X 59.7325 26.2487 60.2110   shell=5.0 standoff=5.000
X 60.6325 42.9564 57.8110   shell=5.0 standoff=5.000
X 60.3325 31.9200 63.8110   shell=5.0 standoff=5.000
X 66.9325 33.2521 59.3110   shell=5.0 standoff=4.998
X 63.6325 32.8273 47.2197   shell=5.0 standoff=5.000
X 67.8325 33.7273 52.8231   shell=5.0 standoff=4.998
X 57.9325 41.5273 52.1433   shell=5.0 standoff=5.000
X 63.9325 39.1273 52.8039   shell=5.0 standoff=4.999
X 61.2325 36.7273 47.8076   shell=5.0 standoff=5.000
X 55.2325 42.1273 55.3559   shell=5.0 standoff=4.999
X 62.1325 27.0898 60.2110   shell=5.0 standoff=5.000
X 68.0092 31.3273 53.6110   shell=5.0 standoff=5.000
X 62.5127 40.3273 52.4110   shell=5.0 standoff=4.999
X 54.6325 41.2273 59.9597   shell=5.0 standoff=4.999
X 66.0325 27.6727 58.4110   shell=5.0 standoff=4.999
X 52.5889 38.5273 52.4110   shell=5.0 standoff=4.999
X 56.4325 28.0024 61.7110   shell=5.0 standoff=5.000
X 59.8785 25.9273 52.1110   shell=5.0 standoff=4.998
X 53.4325 26.3868 53.6110   shell=5.0 standoff=5.000
X 63.6325 26.6888 59.3110   shell=5.0 standoff=4.999
X 50.7325 34.9273 59.0950   shell=5.0 standoff=4.999
X 54.6325 26.5273 51.9203   shell=5.0 standoff=4.999
X 49.3316 31.9273 57.5110   shell=5.0 standoff=5.000
X 48.9010 32.8273 55.7110   shell=5.0 standoff=5.000
X 55.5325 25.1467 56.3110   shell=5.0 standoff=5.000
X 60.8114 26.2273 59.9110   shell=5.0 standoff=4.998
X 50.2306 33.7273 58.7110   shell=5.0 standoff=4.999
X 67.3987 29.5273 52.1110   shell=5.0 standoff=5.000
X 51.0325 37.2658 59.6110   shell=5.0 standoff=4.999
X 62.2130 25.6273 53.0110   shell=5.0 standoff=5.002
X 59.4325 28.0273 48.7251   shell=5.0 standoff=4.999
X 49.8325 35.5893 54.8110   shell=5.0 standoff=4.999
X 67.9374 29.8273 56.6110   shell=5.0 standoff=5.000
X 56.1325 40.0273 50.6053   shell=5.0 standoff=5.000
X 65.1325 33.1273 61.6106   shell=5.0 standoff=4.999
X 62.8992 38.5273 50.3110   shell=5.0 standoff=4.999
X 61.8325 42.4766 57.8110   shell=5.0 standoff=5.000
X 57.0325 36.0774 63.8110   shell=5.0 standoff=4.999
X 57.6325 32.8273 47.1355   shell=5.0 standoff=5.000
X 58.8325 36.1273 63.9045   shell=5.0 standoff=5.000
X 64.1292 30.7273 61.7110   shell=5.0 standoff=4.999
X 52.8325 35.9884 49.1110   shell=5.0 standoff=4.998
X 57.6325 26.9655 51.2110   shell=5.0 standoff=4.999
X 50.1316 31.0273 58.7110   shell=5.0 standoff=5.000
X 64.6752 26.5273 52.1110   shell=5.0 standoff=4.999
X 52.7047 35.2273 62.0110   shell=5.0 standoff=4.999
X 49.8863 34.9273 52.4110   shell=5.0 standoff=5.000
X 50.9017 36.4273 52.1110   shell=5.0 standoff=4.999
X 51.9325 29.8273 59.9260   shell=5.0 standoff=5.003
X 57.6325 27.4273 61.2220   shell=5.0 standoff=4.999
X 63.3325 31.9273 62.7464   shell=5.0 standoff=5.000
X 66.2500 36.7273 53.6110   shell=5.0 standoff=4.999
X 57.3325 26.1053 52.4110   shell=5.0 standoff=5.000
X 50.6801 37.9273 57.5110   shell=5.0 standoff=5.000
X 64.8325 28.0273 49.4763   shell=5.0 standoff=4.999
X 55.5325 31.6273 47.7873   shell=5.0 standoff=5.000
X 62.7325 36.7494 48.5110   shell=5.0 standoff=5.000
X 53.5556 36.4273 62.6110   shell=5.0 standoff=4.999
X 63.6325 27.1273 49.7002   shell=5.0 standoff=5.000
X 59.4325 38.5273 48.9209   shell=5.0 standoff=4.999
X 58.8325 37.0273 47.8264   shell=5.0 standoff=5.000
X 66.4264 36.7273 59.0110   shell=5.0 standoff=5.000
X 66.8294 35.5273 58.1110   shell=5.0 standoff=5.000
X 55.2325 27.4273 60.9527   shell=5.0 standoff=4.999
X 62.1325 26.2273 50.5974   shell=5.0 standoff=5.000
X 56.4325 31.0273 47.9113   shell=5.0 standoff=5.000
X 60.0325 34.0273 46.9210   shell=5.0 standoff=5.000
X 67.5325 34.6948 54.8110   shell=5.0 standoff=4.999
X 57.3325 28.6273 49.2956   shell=5.0 standoff=4.999
X 56.1325 33.1273 63.9946   shell=5.0 standoff=5.000
X 57.3325 31.6273 63.9787   shell=5.0 standoff=5.000
X 61.2325 41.2804 52.4110   shell=5.0 standoff=4.999
X 61.2616 42.1273 53.6110   shell=5.0 standoff=4.999
X 59.4325 32.5273 47.0720   shell=5.0 standoff=5.000
X 63.6325 36.1273 48.6663   shell=5.0 standoff=4.999
X 64.2325 26.1780 53.0110   shell=5.0 standoff=5.000
X 58.8325 24.9533 56.6110   shell=5.0 standoff=5.000
X 64.2325 34.6273 62.4868   shell=5.0 standoff=4.999
X 61.5325 27.1553 49.1110   shell=5.0 standoff=5.000
X 56.7325 25.1268 57.5110   shell=5.0 standoff=5.000
X 55.2325 36.7273 47.8230   shell=5.0 standoff=5.000
X 62.4325 35.8273 63.3272   shell=5.0 standoff=5.000
X 50.7765 32.2273 59.6110   shell=5.0 standoff=5.000
X 51.6325 31.0755 49.4110   shell=5.0 standoff=4.999
X 49.4394 33.1273 52.4110   shell=5.0 standoff=5.000
X 52.5325 39.7273 59.9936   shell=5.0 standoff=4.999
X 50.1325 29.2273 52.6832   shell=5.0 standoff=4.999
X 53.9543 29.5273 48.8110   shell=5.0 standoff=4.999
X 62.5396 41.5273 53.9110   shell=5.0 standoff=4.999
X 51.6325 37.6273 53.4293   shell=5.0 standoff=5.017
X 54.0325 34.6273 47.8361   shell=5.0 standoff=5.000
X 54.0325 25.7235 56.6110   shell=5.0 standoff=5.000
X 50.2108 28.3273 54.8110   shell=5.0 standoff=4.999
X 67.6964 31.9273 51.2110   shell=5.0 standoff=5.000
X 56.6135 26.2273 59.9110   shell=5.0 standoff=4.998
X 52.1699 40.3273 57.8110   shell=5.0 standoff=4.999
X 52.8325 32.6198 61.4110   shell=5.0 standoff=4.999
X 66.8564 29.2273 50.9110   shell=5.0 standoff=5.000
X 50.7137 34.6273 50.6110   shell=5.0 standoff=5.000
X 51.6325 37.3273 60.6423   shell=5.0 standoff=4.999
X 62.4325 38.2273 62.2345   shell=5.0 standoff=5.000
X 60.3325 42.2118 59.9110   shell=5.0 standoff=5.000
X 58.5325 40.5533 51.2110   shell=5.0 standoff=4.999
X 49.1538 33.7273 56.3110   shell=5.0 standoff=5.000
X 54.9325 29.8273 62.2712   shell=5.0 standoff=5.000
X 53.4325 29.2273 61.2177   shell=5.0 standoff=4.999
X 68.1653 32.8273 54.8110   shell=5.0 standoff=5.000
X 57.3325 25.1550 54.8110   shell=5.0 standoff=5.000
X 56.1325 38.2273 63.0388   shell=5.0 standoff=5.000
X 62.7325 30.7273 62.5434   shell=5.0 standoff=5.000
X 57.0325 42.3435 53.6110   shell=5.0 standoff=5.000
X 53.7325 40.6273 53.8429   shell=5.0 standoff=4.999
X 62.1838 42.4273 56.6110   shell=5.0 standoff=4.999
X 52.5325 27.0256 57.5110   shell=5.0 standoff=4.999
X 54.2065 39.7273 51.8110   shell=5.0 standoff=4.999
X 55.2325 25.7772 58.7110   shell=5.0 standoff=5.000
X 51.9325 26.8704 55.7110   shell=5.0 standoff=5.000
X 62.1325 32.2273 46.8608   shell=5.0 standoff=5.000
X 55.2325 40.0273 61.7493   shell=5.0 standoff=5.000
X 65.5765 30.7273 60.8110   shell=5.0 standoff=4.999
X 57.9325 43.0133 58.4110   shell=5.0 standoff=5.000
X 54.0325 32.5273 48.0199   shell=5.0 standoff=5.000
X 62.1325 38.3017 49.4110   shell=5.0 standoff=4.999
X 67.2231 28.9273 53.0110   shell=5.0 standoff=5.000
X 50.2858 28.3273 56.0110   shell=5.0 standoff=4.999
X 62.7325 34.3273 63.3758   shell=5.0 standoff=5.000
X 61.8325 41.7364 59.6110   shell=5.0 standoff=4.999
X 58.5325 27.1273 61.0669   shell=5.0 standoff=5.000
X 53.4969 27.4273 50.9110   shell=5.0 standoff=4.999
X 56.1325 37.0273 47.7168   shell=5.0 standoff=5.000
X 52.2990 33.4273 48.8110   shell=5.0 standoff=4.999
X 65.4325 35.8613 49.7110   shell=5.0 standoff=5.000
X 67.8325 31.6273 58.0049   shell=5.0 standoff=4.999
X 57.3325 40.0026 50.3110   shell=5.0 standoff=5.000
X 50.5250 29.5273 58.4110   shell=5.0 standoff=4.999
X 60.3325 38.2273 48.6864   shell=5.0 standoff=4.999
X 53.7325 27.1171 59.6110   shell=5.0 standoff=5.000
X 51.2949 38.8273 58.7110   shell=5.0 standoff=5.000
X 59.4325 42.9761 54.5110   shell=5.0 standoff=5.000
X 57.0325 34.6273 46.9687   shell=5.0 standoff=5.000
X 63.0325 39.6340 60.8110   shell=5.0 standoff=4.999
X 54.8742 41.8273 58.7110   shell=5.0 standoff=4.999
X 67.2325 28.2837 56.6110   shell=5.0 standoff=4.999
X 50.6606 36.7273 55.1110   shell=5.0 standoff=5.004
X 63.0325 28.6273 61.2174   shell=5.0 standoff=5.000
X 57.3325 25.9273 59.4654   shell=5.0 standoff=4.999
X 58.2325 42.2012 60.2110   shell=5.0 standoff=5.000
X 66.3325 31.6273 60.2756   shell=5.0 standoff=4.999
X 52.0674 37.0273 50.9110   shell=5.0 standoff=4.999
X 54.0325 41.7300 57.2110   shell=5.0 standoff=5.000
X 60.9325 28.0273 48.3038   shell=5.0 standoff=4.999
X 60.3325 30.1273 47.2592   shell=5.0 standoff=5.000
X 64.7140 38.5273 60.5110   shell=5.0 standoff=4.999
X 52.6898 30.7273 61.1110   shell=5.0 standoff=4.999
X 51.9325 28.4202 50.9110   shell=5.0 standoff=4.999
X 64.2325 32.2273 47.4157   shell=5.0 standoff=5.000
X 67.1198 28.0273 54.8110   shell=5.0 standoff=4.999
X 55.2325 34.8311 63.5110   shell=5.0 standoff=4.999
X 57.3325 34.0273 64.3137   shell=5.0 standoff=5.000
X 67.7531 30.1273 53.3110   shell=5.0 standoff=5.000
X 50.4781 36.1273 58.4110   shell=5.0 standoff=5.000
X 55.8325 42.4273 58.0466   shell=5.0 standoff=4.999
X 64.2325 33.4273 62.4137   shell=5.0 standoff=5.000
X 52.8325 40.8940 56.0110   shell=5.0 standoff=5.000
X 64.5325 33.4273 47.7125   shell=5.0 standoff=5.000
X 61.2325 33.1273 46.9206   shell=5.0 standoff=5.000
X 51.5695 35.2273 50.0110   shell=5.0 standoff=4.999
X 54.6325 26.0421 53.6110   shell=5.0 standoff=5.004
X 63.3325 25.6708 53.6110   shell=5.0 standoff=5.000
X 51.0325 32.8273 49.7348   shell=5.0 standoff=5.000
X 57.6325 38.2273 63.1343   shell=5.0 standoff=5.000
X 52.7598 28.3273 59.9110   shell=5.0 standoff=4.999
X 64.1991 39.7273 59.6110   shell=5.0 standoff=4.999
X 60.3325 25.5857 53.0110   shell=5.0 standoff=5.000
X 52.8325 32.5273 48.4543   shell=5.0 standoff=5.000
X 61.5435 40.6273 61.1110   shell=5.0 standoff=5.000
X 53.5475 38.2273 50.0110   shell=5.0 standoff=4.999
X 60.5598 37.3273 63.2110   shell=5.0 standoff=4.999
X 55.8325 38.8639 49.1110   shell=5.0 standoff=5.000
X 59.4325 25.6771 53.3110   shell=5.0 standoff=5.000
X 56.1325 41.5273 60.2054   shell=5.0 standoff=5.000
X 60.1107 31.6273 47.0110   shell=5.0 standoff=4.999
X 58.8325 34.3273 64.3440   shell=5.0 standoff=5.000
X 64.5325 25.7922 55.7110   shell=5.0 standoff=5.000
X 67.1039 35.5273 53.0110   shell=5.0 standoff=5.000
X 65.7325 33.4273 60.8719   shell=5.0 standoff=4.999
X 60.6325 39.7273 62.1222   shell=5.0 standoff=5.000
X 57.9325 27.7273 50.1443   shell=5.0 standoff=4.999
X 59.1325 31.0273 63.7636   shell=5.0 standoff=5.000
X 50.1325 35.6755 56.6110   shell=5.0 standoff=4.999
X 51.6325 33.7273 60.3083   shell=5.0 standoff=4.999
X 63.9325 36.7273 62.1893   shell=5.0 standoff=4.999
X 62.4325 25.2290 55.1110   shell=5.0 standoff=5.000
X 50.7275 30.4273 50.6110   shell=5.0 standoff=5.000
X 56.7325 42.9713 56.0110   shell=5.0 standoff=5.000
X 55.5325 28.3273 49.3601   shell=5.0 standoff=5.000
X 53.7325 38.5273 62.0769   shell=5.0 standoff=5.000
X 50.9873 34.6273 59.6110   shell=5.0 standoff=5.000
X 62.4325 30.1273 47.2049   shell=5.0 standoff=5.000
X 54.6325 37.4544 48.5110   shell=5.0 standoff=4.999
X 53.4325 34.0273 62.2612   shell=5.0 standoff=5.000
X 59.7325 25.2350 54.5110   shell=5.0 standoff=5.000
X 62.4325 25.6157 57.8110   shell=5.0 standoff=5.000
X 61.8530 39.7273 51.5110   shell=5.0 standoff=5.000
X 60.9325 34.6273 63.8552   shell=5.0 standoff=5.000
X 53.1325 37.0273 49.3868   shell=5.0 standoff=5.000
X 62.1325 34.3273 47.2513   shell=5.0 standoff=5.000
X 59.1325 28.9961 62.3110   shell=5.0 standoff=4.999
X 63.6743 41.2273 56.3110   shell=5.0 standoff=5.000
X 49.1975 30.1273 55.1110   shell=5.0 standoff=5.000
X 54.9325 25.4207 55.1110   shell=5.0 standoff=5.000
X 62.7325 25.9667 51.5110   shell=5.0 standoff=5.000
X 59.3965 29.2273 47.9110   shell=5.0 standoff=4.999
X 67.4402 33.4273 50.9110   shell=5.0 standoff=5.000
X 53.5797 26.5273 52.7110   shell=5.0 standoff=4.998
X 55.5325 30.1273 48.2838   shell=5.0 standoff=5.000
X 55.0390 42.1273 56.3110   shell=5.0 standoff=4.999
X 63.3325 28.6273 48.1383   shell=5.0 standoff=5.000
X 64.6081 29.5273 48.2110   shell=5.0 standoff=4.999
X 62.5602 42.1273 55.7110   shell=5.0 standoff=4.999
X 49.5325 33.7274 57.5110   shell=5.0 standoff=5.000
X 51.3325 38.5273 54.7734   shell=5.0 standoff=4.999
X 65.1325 39.5022 58.1110   shell=5.0 standoff=4.999
X 66.1377 29.5273 59.9110   shell=5.0 standoff=4.999
X 54.6325 36.1273 63.1382   shell=5.0 standoff=5.000
X 65.4325 26.4053 56.6110   shell=5.0 standoff=4.999
X 62.8887 40.9273 59.6110   shell=5.0 standoff=4.999
X 60.0325 40.6273 51.3757   shell=5.0 standoff=4.999
X 62.1325 29.2597 61.7110   shell=5.0 standoff=5.000
X 66.3325 27.0883 54.8110   shell=5.0 standoff=5.000
X 61.8325 35.5273 47.5194   shell=5.0 standoff=5.000
X 54.9325 32.0809 63.2110   shell=5.0 standoff=4.998
X 65.4931 35.2273 61.1110   shell=5.0 standoff=5.000
X 63.0325 38.8273 61.5827   shell=5.0 standoff=4.999
X 48.8617 31.6273 55.1110   shell=5.0 standoff=5.000
X 66.0325 30.4273 48.9362   shell=5.0 standoff=4.999
X 64.5325 38.2273 52.4385   shell=5.0 standoff=5.000
X 65.2637 39.4273 56.3110   shell=5.0 standoff=4.999
X 56.4325 36.1693 47.3110   shell=5.0 standoff=4.999
X 65.4325 31.9273 48.1251   shell=5.0 standoff=5.000
X 61.8325 26.0754 59.0110   shell=5.0 standoff=4.999
X 59.7325 41.8273 52.4640   shell=5.0 standoff=4.999
X 53.7325 32.2034 62.3110   shell=5.0 standoff=5.000
X 64.3048 40.3273 57.5110   shell=5.0 standoff=5.011
X 67.5325 34.3569 52.1110   shell=5.0 standoff=4.999
X 63.3325 41.3988 57.8110   shell=5.0 standoff=4.999
X 49.0531 33.4273 53.9110   shell=5.0 standoff=5.000
X 68.0692 30.1273 54.8110   shell=5.0 standoff=5.000
X 56.1325 40.4853 51.8110   shell=5.0 standoff=5.000
X 65.7325 38.2273 54.5924   shell=5.0 standoff=4.999
X 67.8325 30.4273 57.6155   shell=5.0 standoff=4.999
X 67.8325 33.7273 56.9819   shell=5.0 standoff=4.999
X 49.2325 30.2348 56.0110   shell=5.0 standoff=4.998
X 59.4325 25.1677 58.1110   shell=5.0 standoff=5.000
X 67.0340 31.0273 50.0110   shell=5.0 standoff=5.000
X 49.6158 34.9273 53.6110   shell=5.0 standoff=5.000
X 63.9325 37.5168 50.3110   shell=5.0 standoff=4.999
X 59.1325 37.3273 63.3414   shell=5.0 standoff=5.000
X 54.3325 40.7434 60.5110   shell=5.0 standoff=4.999
X 59.4325 43.3086 56.6110   shell=5.0 standoff=5.000
X 60.9325 25.1307 56.3110   shell=5.0 standoff=5.000
X 54.2151 34.3273 62.9110   shell=5.0 standoff=4.999
X 53.7325 28.3662 49.7110   shell=5.0 standoff=5.000
X 66.5962 34.0273 49.7110   shell=5.0 standoff=5.000
X 66.0325 27.8949 51.2110   shell=5.0 standoff=4.999
X 49.9079 29.2273 56.9110   shell=5.0 standoff=5.000
X 58.8325 42.1273 52.7719   shell=5.0 standoff=4.999
X 56.2628 27.1273 50.6110   shell=5.0 standoff=4.998
X 61.5325 25.3951 53.9110   shell=5.0 standoff=5.000
X 66.5720 37.3273 56.9110   shell=5.0 standoff=5.000
X 57.6325 42.7772 54.2110   shell=5.0 standoff=5.000
X 53.0093 38.5273 51.2110   shell=5.0 standoff=4.999
X 53.2073 35.2273 48.5110   shell=5.0 standoff=4.999
X 58.5325 41.5273 61.0791   shell=5.0 standoff=5.000
X 66.8980 35.8273 56.9110   shell=5.0 standoff=5.000
X 59.1325 27.2654 49.7110   shell=5.0 standoff=4.999
X 52.5325 31.3273 48.7378   shell=5.0 standoff=5.000
X 57.6325 36.9859 47.6110   shell=5.0 standoff=4.999
X 52.5786 39.4273 53.6110   shell=5.0 standoff=4.999
X 58.2325 32.5273 64.2881   shell=5.0 standoff=5.000
X 60.6325 29.8273 62.5748   shell=5.0 standoff=5.000
X 62.7325 27.8949 60.8110   shell=5.0 standoff=4.999
X 65.7139 31.9273 60.8110   shell=5.0 standoff=5.000
X 61.2325 30.7273 62.9293   shell=5.0 standoff=5.000
