24
Coordinates from ORCA-job neb.QMRegion E -1075.772547359308
  C      42.786591     15.249322     60.626580
  H      43.382636     14.341664     60.560615
  H      43.246557     16.160489     61.003334
  C      41.398110     15.185311     60.557720
  C      40.544541     16.424183     60.905627
  O      41.126727     17.434047     61.377702
  O      39.306289     16.360997     60.726428
  O      40.808522     14.151101     60.092580
  C      41.041346     14.151579     57.978862
  H      40.490528     13.219728     57.845900
  C      42.425981     14.141801     58.010763
  H      42.974613     13.200258     58.070797
  C      43.123583     15.335796     58.227560
  C      42.420572     16.609812     58.036187
  H      43.015300     17.520041     58.102697
  C      41.096467     16.647076     57.827728
  H      40.578418     17.604392     57.748676
  C      40.253392     15.408366     57.691757
  H      39.426516     15.464634     58.418601
  O      39.743403     15.304606     56.368217
  H      38.837224     15.747559     56.351798
  C      44.653577     15.328257     58.154572
  O      45.282020     14.338700     58.613133
  O      45.190849     16.325075     57.614451
24
Coordinates from ORCA-job neb.QMRegion E -1075.772779324685
  C      42.786333     15.248278     60.635479
  H      43.383564     14.341179     60.573447
  H      43.245120     16.161760     61.008026
  C      41.398043     15.183198     60.562860
  C      40.543859     16.422832     60.907272
  O      41.125712     17.433519     61.378017
  O      39.305874     16.359889     60.726193
  O      40.809807     14.148872     60.095724
  C      41.042598     14.149116     57.972901
  H      40.492287     13.216977     57.839380
  C      42.427283     14.139909     58.002334
  H      42.976604     13.198584     58.060578
  C      43.124279     15.334174     58.219390
  C      42.420615     16.607839     58.028802
  H      43.014870     17.518287     58.095885
  C      41.096185     16.644613     57.822362
  H      40.577891     17.601951     57.745377
  C      40.253631     15.405576     57.686283
  H      39.427665     15.460737     58.414008
  O      39.741708     15.303195     56.363233
  H      38.835968     15.747568     56.348472
  C      44.654365     15.327436     58.150488
  O      45.282075     14.338332     58.611152
  O      45.192401     16.324718     57.611943
24
Coordinates from ORCA-job neb.QMRegion E -1075.772894316857
  C      42.785098     15.249599     60.635409
  H      43.383143     14.343238     60.570071
  H      43.242702     16.161933     61.012387
  C      41.396577     15.183314     60.561938
  C      40.542437     16.423186     60.907013
  O      41.124713     17.433681     61.377847
  O      39.304579     16.360482     60.725520
  O      40.808971     14.148617     60.096483
  C      41.043886     14.146292     57.970943
  H      40.493891     13.213715     57.838550
  C      42.428085     14.137783     58.004227
  H      42.978424     13.196874     58.061167
  C      43.125086     15.333187     58.217941
  C      42.420202     16.606133     58.029533
  H      43.014148     17.516887     58.095622
  C      41.095441     16.641998     57.824290
  H      40.576704     17.599210     57.748503
  C      40.253842     15.402472     57.686714
  H      39.428400     15.455809     58.415251
  O      39.740702     15.301624     56.363819
  H      38.835326     15.746953     56.349708
  C      44.655042     15.327302     58.149071
  O      45.282419     14.338353     58.610175
  O      45.193119     16.324929     57.611097
24
Coordinates from ORCA-job neb.QMRegion E -1075.773077114385
  C      42.785431     15.248625     60.644211
  H      43.385034     14.343307     60.578816
  H      43.241071     16.162068     61.021236
  C      41.396999     15.180751     60.567179
  C      40.542320     16.421956     60.908820
  O      41.124144     17.433404     61.378143
  O      39.304786     16.359688     60.725435
  O      40.810535     14.145973     60.101338
  C      41.046218     14.143304     57.965668
  H      40.497240     13.210008     57.833786
  C      42.430038     14.136148     58.000763
  H      42.981408     13.195943     58.058689
  C      43.126050     15.332417     58.213316
  C      42.419925     16.604288     58.024996
  H      43.012901     17.515560     58.092805
  C      41.094765     16.638982     57.820857
  H      40.575261     17.596021     57.747246
  C      40.254321     15.398735     57.683247
  H      39.430011     15.450108     58.413058
  O      39.738732     15.299673     56.361016
  H      38.834162     15.746783     56.348640
  C      44.656059     15.327473     58.146482
  O      45.282933     14.338621     58.608559
  O      45.194524     16.325612     57.609791
24
Coordinates from ORCA-job neb.QMRegion E -1075.773118950671
  C      42.786541     15.248691     60.650786
  H      43.387371     14.344048     60.588198
  H      43.238724     16.162799     61.030901
  C      41.397212     15.178021     60.570753
  C      40.541865     16.420778     60.909771
  O      41.123369     17.432979     61.378120
  O      39.304750     16.358618     60.724327
  O      40.812196     14.142707     60.108797
  C      41.050705     14.137345     57.954676
  H      40.503289     13.202712     57.824605
  C      42.432816     14.132905     57.997879
  H      42.986427     13.193993     58.056428
  C      43.127060     15.331283     58.211969
  C      42.418424     16.601328     58.024182
  H      43.009603     17.513656     58.093995
  C      41.093095     16.633376     57.818856
  H      40.571627     17.589690     57.747664
  C      40.255578     15.391572     57.677972
  H      39.432424     15.438332     58.409443
  O      39.737086     15.296298     56.356337
  H      38.833520     15.745532     56.346352
  C      44.657187     15.328006     58.145123
  O      45.283892     14.339083     58.607123
  O      45.195527     16.326545     57.609034
24
Coordinates from ORCA-job neb.QMRegion E -1075.773552010346
  C      42.774328     15.247302     60.685981
  H      43.386350     14.351201     60.588539
  H      43.229867     16.163567     61.057585
  C      41.398779     15.182414     60.571805
  C      40.541483     16.421998     60.908273
  O      41.120624     17.435374     61.377950
  O      39.303983     16.360473     60.721936
  O      40.813582     14.144537     60.080346
  C      41.047305     14.139514     57.987515
  H      40.505202     13.204775     57.839463
  C      42.440648     14.135230     58.004832
  H      42.992106     13.195010     58.060283
  C      43.132284     15.327731     58.185944
  C      42.421758     16.598258     58.023895
  H      43.013014     17.510735     58.093645
  C      41.094181     16.632525     57.827435
  H      40.572584     17.588904     57.759993
  C      40.255638     15.391807     57.688331
  H      39.433190     15.438119     58.419597
  O      39.737545     15.292905     56.366820
  H      38.835503     15.745734     56.355416
  C      44.659956     15.327930     58.138089
  O      45.284544     14.340449     58.605823
  O      45.200310     16.329456     57.609234
24
Coordinates from ORCA-job neb.QMRegion E -1075.773887581273
  C      42.770140     15.246988     60.698952
  H      43.384661     14.354401     60.592849
  H      43.222911     16.162149     61.076457
  C      41.396596     15.182380     60.573544
  C      40.538682     16.421888     60.908150
  O      41.117535     17.435557     61.377769
  O      39.301607     16.360793     60.718940
  O      40.813022     14.144973     60.077474
  C      41.046623     14.138192     57.996883
  H      40.503884     13.202828     57.852590
  C      42.441073     14.132968     58.009234
  H      42.992262     13.192499     58.064737
  C      43.134502     15.326186     58.173803
  C      42.423664     16.595983     58.012673
  H      43.015747     17.508232     58.076282
  C      41.094559     16.630619     57.826568
  H      40.573274     17.587378     57.761620
  C      40.254932     15.389979     57.694413
  H      39.433671     15.439000     58.427209
  O      39.735717     15.287532     56.373608
  H      38.835106     15.742731     56.361076
  C      44.662185     15.326959     58.130858
  O      45.285513     14.340057     58.601739
  O      45.203678     16.329709     57.605365
