24
Coordinates from ORCA-job neb.QMRegion
  C          42.77013979728123     15.24698832165951     60.69895228343028
  H          43.38466119736180     14.35440131271231     60.59284896327049
  H          43.22291083103298     16.16214899971761     61.07645671130287
  C          41.39659608529661     15.18238012763459     60.57354366923933
  C          40.53868154370168     16.42188824171294     60.90815011550364
  O          41.11753498581422     17.43555699243517     61.37776897895371
  O          39.30160676669772     16.36079319722890     60.71893990180371
  O          40.81302189857428     14.14497293666367     60.07747443907605
  C          41.04662267432703     14.13819178689935     57.99688325590896
  H          40.50388373113862     13.20282801592698     57.85258999491345
  C          42.44107262177236     14.13296820592974     58.00923418022087
  H          42.99226224779931     13.19249863466216     58.06473704794885
  C          43.13450222111431     15.32618594522802     58.17380285399551
  C          42.42366373462762     16.59598314137532     58.01267325536962
  H          43.01574714490312     17.50823211994312     58.07628217001680
  C          41.09455887324556     16.63061870062696     57.82656784214174
  H          40.57327444542828     17.58737836011993     57.76162037877005
  C          40.25493153942762     15.38997945314999     57.69441297619775
  H          39.43367056470294     15.43899988143929     58.42720871138156
  O          39.73571707607042     15.28753192776589     56.37360823964210
  H          38.83510571455270     15.74273098573148     56.36107557072329
  C          44.66218544565804     15.32695897153428     58.13085845915038
  O          45.28551320835215     14.34005749255278     58.60173927167371
  O          45.20367845070180     16.32970910042632     57.60536463480865
