24
Coordinates from ORCA-job neb_initial_path.QMRegion E   0.000000000000
  C      42.553000     15.330000     61.203000
  H      43.194000     14.471000     61.000000
  H      42.937000     16.154000     61.803000
  C      41.308000     15.408000     60.719000
  C      40.409000     16.597000     61.027000
  O      40.960000     17.636000     61.475000
  O      39.176000     16.492000     60.838000
  O      40.772000     14.385000     59.959000
  C      41.034000     14.417000     58.508000
  H      40.492000     13.540000     58.123000
  C      42.512000     14.286000     58.278000
  H      42.984000     13.314000     58.443000
  C      43.274000     15.371000     58.024000
  C      42.638000     16.686000     57.869000
  H      43.306000     17.540000     57.774000
  C      41.305000     16.843000     57.887000
  H      40.871000     17.846000     57.845000
  C      40.369000     15.664000     57.893000
  H      39.499000     15.880000     58.532000
  O      39.944000     15.386000     56.566000
  H      39.008000     15.740000     56.469000
  C      44.800000     15.323000     58.013000
  O      45.389000     14.329000     58.515000
  O      45.377000     16.338000     57.549000
24
Coordinates from ORCA-job neb_initial_path.QMRegion E   0.000000000000
  C      42.594500     15.315667     61.091833
  H      43.227000     14.447500     60.922833
  H      42.990500     16.153333     61.658167
  C      41.324167     15.369833     60.684667
  C      40.433333     16.566000     61.004333
  O      40.990333     17.598667     61.458667
  O      39.199167     16.468000     60.819167
  O      40.779167     14.346333     59.970167
  C      41.034500     14.371833     58.425167
  H      40.492333     13.485833     58.076000
  C      42.497167     14.261833     58.233500
  H      42.982333     13.294833     58.379167
  C      43.246833     15.364667     58.068000
  C      42.599167     16.672667     57.900500
  H      43.254667     17.536167     57.832000
  C      41.268333     16.808833     57.877667
  H      40.820667     17.804000     57.825833
  C      40.348000     15.619833     57.860500
  H      39.484167     15.809667     58.512833
  O      39.910167     15.370500     56.533667
  H      38.979833     15.740500     56.449333
  C      44.774000     15.323500     58.040000
  O      45.370667     14.330333     58.533167
  O      45.343167     16.335000     57.561333
24
Coordinates from ORCA-job neb_initial_path.QMRegion E   0.000000000000
  C      42.636000     15.301333     60.980667
  H      43.260000     14.424000     60.845667
  H      43.044000     16.152667     61.513333
  C      41.340333     15.331667     60.650333
  C      40.457667     16.535000     60.981667
  O      41.020667     17.561333     61.442333
  O      39.222333     16.444000     60.800333
  O      40.786333     14.307667     59.981333
  C      41.035000     14.326667     58.342333
  H      40.492667     13.431667     58.029000
  C      42.482333     14.237667     58.189000
  H      42.980667     13.275667     58.315333
  C      43.219667     15.358333     58.112000
  C      42.560333     16.659333     57.932000
  H      43.203333     17.532333     57.890000
  C      41.231667     16.774667     57.868333
  H      40.770333     17.762000     57.806667
  C      40.327000     15.575667     57.828000
  H      39.469333     15.739333     58.493667
  O      39.876333     15.355000     56.501333
  H      38.951667     15.741000     56.429667
  C      44.748000     15.324000     58.067000
  O      45.352333     14.331667     58.551333
  O      45.309333     16.332000     57.573667
24
Coordinates from ORCA-job neb_initial_path.QMRegion E   0.000000000000
  C      42.677500     15.287000     60.869500
  H      43.293000     14.400500     60.768500
  H      43.097500     16.152000     61.368500
  C      41.356500     15.293500     60.616000
  C      40.482000     16.504000     60.959000
  O      41.051000     17.524000     61.426000
  O      39.245500     16.420000     60.781500
  O      40.793500     14.269000     59.992500
  C      41.035500     14.281500     58.259500
  H      40.493000     13.377500     57.982000
  C      42.467500     14.213500     58.144500
  H      42.979000     13.256500     58.251500
  C      43.192500     15.352000     58.156000
  C      42.521500     16.646000     57.963500
  H      43.152000     17.528500     57.948000
  C      41.195000     16.740500     57.859000
  H      40.720000     17.720000     57.787500
  C      40.306000     15.531500     57.795500
  H      39.454500     15.669000     58.474500
  O      39.842500     15.339500     56.469000
  H      38.923500     15.741500     56.410000
  C      44.722000     15.324500     58.094000
  O      45.334000     14.333000     58.569500
  O      45.275500     16.329000     57.586000
24
Coordinates from ORCA-job neb_initial_path.QMRegion E   0.000000000000
  C      42.719000     15.272667     60.758333
  H      43.326000     14.377000     60.691333
  H      43.151000     16.151333     61.223667
  C      41.372667     15.255333     60.581667
  C      40.506333     16.473000     60.936333
  O      41.081333     17.486667     61.409667
  O      39.268667     16.396000     60.762667
  O      40.800667     14.230333     60.003667
  C      41.036000     14.236333     58.176667
  H      40.493333     13.323333     57.935000
  C      42.452667     14.189333     58.100000
  H      42.977333     13.237333     58.187667
  C      43.165333     15.345667     58.200000
  C      42.482667     16.632667     57.995000
  H      43.100667     17.524667     58.006000
  C      41.158333     16.706333     57.849667
  H      40.669667     17.678000     57.768333
  C      40.285000     15.487333     57.763000
  H      39.439667     15.598667     58.455333
  O      39.808667     15.324000     56.436667
  H      38.895333     15.742000     56.390333
  C      44.696000     15.325000     58.121000
  O      45.315667     14.334333     58.587667
  O      45.241667     16.326000     57.598333
24
Coordinates from ORCA-job neb_initial_path.QMRegion E   0.000000000000
  C      42.760500     15.258333     60.647167
  H      43.359000     14.353500     60.614167
  H      43.204500     16.150667     61.078833
  C      41.388833     15.217167     60.547333
  C      40.530667     16.442000     60.913667
  O      41.111667     17.449333     61.393333
  O      39.291833     16.372000     60.743833
  O      40.807833     14.191667     60.014833
  C      41.036500     14.191167     58.093833
  H      40.493667     13.269167     57.888000
  C      42.437833     14.165167     58.055500
  H      42.975667     13.218167     58.123833
  C      43.138167     15.339333     58.244000
  C      42.443833     16.619333     58.026500
  H      43.049333     17.520833     58.064000
  C      41.121667     16.672167     57.840333
  H      40.619333     17.636000     57.749167
  C      40.264000     15.443167     57.730500
  H      39.424833     15.528333     58.436167
  O      39.774833     15.308500     56.404333
  H      38.867167     15.742500     56.370667
  C      44.670000     15.325500     58.148000
  O      45.297333     14.335667     58.605833
  O      45.207833     16.323000     57.610667
24
Coordinates from ORCA-job neb_initial_path.QMRegion E   0.000000000000
  C      42.802000     15.244000     60.536000
  H      43.392000     14.330000     60.537000
  H      43.258000     16.150000     60.934000
  C      41.405000     15.179000     60.513000
  C      40.555000     16.411000     60.891000
  O      41.142000     17.412000     61.377000
  O      39.315000     16.348000     60.725000
  O      40.815000     14.153000     60.026000
  C      41.037000     14.146000     58.011000
  H      40.494000     13.215000     57.841000
  C      42.423000     14.141000     58.011000
  H      42.974000     13.199000     58.060000
  C      43.111000     15.333000     58.288000
  C      42.405000     16.606000     58.058000
  H      42.998000     17.517000     58.122000
  C      41.085000     16.638000     57.831000
  H      40.569000     17.594000     57.730000
  C      40.243000     15.399000     57.698000
  H      39.410000     15.458000     58.417000
  O      39.741000     15.293000     56.372000
  H      38.839000     15.743000     56.351000
  C      44.644000     15.326000     58.175000
  O      45.279000     14.337000     58.624000
  O      45.174000     16.320000     57.623000
24
Coordinates from ORCA-job neb_initial_path.QMRegion E   0.000000000000
  C      42.829667     15.248667     60.413000
  H      43.402000     14.341333     60.530667
  H      43.269000     16.154000     60.835667
  C      41.411333     15.160333     60.523333
  C      40.566000     16.401333     60.908667
  O      41.163333     17.394333     61.392333
  O      39.326667     16.339333     60.746000
  O      40.835000     14.114333     60.189667
  C      41.083000     14.140667     57.846667
  H      40.564667     13.216333     57.611333
  C      42.425333     14.137333     57.998333
  H      42.990000     13.203333     58.040667
  C      43.096333     15.338333     58.389333
  C      42.389000     16.607667     58.094333
  H      42.963000     17.528000     58.184667
  C      41.084667     16.625333     57.809000
  H      40.561333     17.575333     57.692667
  C      40.260333     15.381000     57.631667
  H      39.451000     15.383667     58.377667
  O      39.714667     15.331333     56.325667
  H      38.815333     15.783333     56.344000
  C      44.629000     15.333333     58.201000
  O      45.276333     14.345333     58.636667
  O      45.143000     16.317667     57.622000
24
Coordinates from ORCA-job neb_initial_path.QMRegion E   0.000000000000
  C      42.857333     15.253333     60.290000
  H      43.412000     14.352667     60.524333
  H      43.280000     16.158000     60.737333
  C      41.417667     15.141667     60.533667
  C      40.577000     16.391667     60.926333
  O      41.184667     17.376667     61.407667
  O      39.338333     16.330667     60.767000
  O      40.855000     14.075667     60.353333
  C      41.129000     14.135333     57.682333
  H      40.635333     13.217667     57.381667
  C      42.427667     14.133667     57.985667
  H      43.006000     13.207667     58.021333
  C      43.081667     15.343667     58.490667
  C      42.373000     16.609333     58.130667
  H      42.928000     17.539000     58.247333
  C      41.084333     16.612667     57.787000
  H      40.553667     17.556667     57.655333
  C      40.277667     15.363000     57.565333
  H      39.492000     15.309333     58.338333
  O      39.688333     15.369667     56.279333
  H      38.791667     15.823667     56.337000
  C      44.614000     15.340667     58.227000
  O      45.273667     14.353667     58.649333
  O      45.112000     16.315333     57.621000
24
Coordinates from ORCA-job neb_initial_path.QMRegion E   0.000000000000
  C      42.885000     15.258000     60.167000
  H      43.422000     14.364000     60.518000
  H      43.291000     16.162000     60.639000
  C      41.424000     15.123000     60.544000
  C      40.588000     16.382000     60.944000
  O      41.206000     17.359000     61.423000
  O      39.350000     16.322000     60.788000
  O      40.875000     14.037000     60.517000
  C      41.175000     14.130000     57.518000
  H      40.706000     13.219000     57.152000
  C      42.430000     14.130000     57.973000
  H      43.022000     13.212000     58.002000
  C      43.067000     15.349000     58.592000
  C      42.357000     16.611000     58.167000
  H      42.893000     17.550000     58.310000
  C      41.084000     16.600000     57.765000
  H      40.546000     17.538000     57.618000
  C      40.295000     15.345000     57.499000
  H      39.533000     15.235000     58.299000
  O      39.662000     15.408000     56.233000
  H      38.768000     15.864000     56.330000
  C      44.599000     15.348000     58.253000
  O      45.271000     14.362000     58.662000
  O      45.081000     16.313000     57.620000
