24
Coordinates from ORCA-job neb_MEP.QMRegion E -1077.092431461964
  C      44.420000     15.226000     46.593000
  H      44.842000     14.467000     45.937000
  H      45.047000     16.060000     46.908000
  C      43.158000     15.172000     47.033000
  C      42.601000     16.190000     48.017000
  O      43.186000     17.302000     48.116000
  O      41.604000     15.842000     48.686000
  O      42.295000     14.143000     46.705000
  C      41.627000     14.195000     45.398000
  H      40.932000     13.343000     45.426000
  C      42.662000     13.997000     44.334000
  H      43.123000     13.012000     44.238000
  C      43.125000     15.023000     43.595000
  C      42.549000     16.363000     43.775000
  H      43.042000     17.178000     43.242000
  C      41.498000     16.592000     44.582000
  H      41.113000     17.606000     44.720000
  C      40.750000     15.466000     45.250000
  H      40.460000     15.758000     46.274000
  O      39.596000     15.194000     44.466000
  H      38.790000     15.078000     45.052000
  C      44.289000     14.848000     42.618000
  O      44.978000     13.792000     42.678000
  O      44.481000     15.811000     41.833000
24
Coordinates from ORCA-job neb_MEP.QMRegion E -1077.094777788226
  C      44.392390     15.189120     46.538819
  H      44.800399     14.430462     45.874300
  H      45.022777     16.029996     46.829339
  C      43.139323     15.135437     47.004504
  C      42.603189     16.160142     47.992403
  O      43.191502     17.271569     48.080464
  O      41.613256     15.819593     48.676319
  O      42.270249     14.106563     46.695656
  C      41.573212     14.164378     45.400138
  H      40.884864     13.307297     45.433526
  C      42.595694     13.990272     44.322644
  H      43.051478     13.007407     44.194616
  C      43.077258     15.040077     43.631637
  C      42.509722     16.377524     43.858984
  H      43.015028     17.211974     43.368975
  C      41.451690     16.581728     44.663224
  H      41.072924     17.593119     44.839918
  C      40.694844     15.436004     45.286408
  H      40.398505     15.695719     46.317200
  O      39.544455     15.187507     44.488952
  H      38.734682     15.080376     45.072105
  C      44.253337     14.890463     42.666511
  O      44.951737     13.840645     42.713000
  O      44.443860     15.869671     41.901383
24
Coordinates from ORCA-job neb_MEP.QMRegion E -1077.094799455573
  C      44.351699     15.126528     46.455699
  H      44.735856     14.364969     45.781893
  H      44.985182     15.978890     46.702696
  C      43.113736     15.077518     46.960647
  C      42.605811     16.114311     47.949955
  O      43.201597     17.222785     48.021216
  O      41.628380     15.784163     48.657241
  O      42.231604     14.051683     46.676716
  C      41.490207     14.122402     45.399166
  H      40.814050     13.256153     45.436168
  C      42.494913     13.988362     44.303719
  H      42.941291     13.011012     44.119913
  C      43.006998     15.073456     43.695235
  C      42.451627     16.402652     43.996812
  H      42.979566     17.263697     43.582371
  C      41.375592     16.567089     44.786495
  H      40.998275     17.568226     45.016193
  C      40.607745     15.392550     45.337908
  H      40.305017     15.601611     46.377608
  O      39.462215     15.179955     44.522890
  H      38.646093     15.090956     45.102011
  C      44.200254     14.959530     42.749569
  O      44.907978     13.914355     42.773647
  O      44.395628     15.963780     42.019218
24
Coordinates from ORCA-job neb_MEP.QMRegion E -1077.090264671775
  C      44.315585     15.080570     46.360806
  H      44.695526     14.307245     45.700059
  H      44.929851     15.966151     46.529007
  C      43.095256     15.024405     46.910746
  C      42.611657     16.074935     47.898796
  O      43.215572     17.179610     47.957590
  O      41.645288     15.756651     48.627653
  O      42.204613     13.998392     46.651570
  C      41.413696     14.082487     45.379739
  H      40.753172     13.203728     45.415105
  C      42.410624     13.992240     44.282914
  H      42.844838     13.023511     44.040149
  C      42.968323     15.108769     43.781736
  C      42.419145     16.425785     44.147344
  H      42.971613     17.308531     43.818678
  C      41.305721     16.550585     44.890703
  H      40.906733     17.537660     45.142070
  C      40.527752     15.352858     45.371137
  H      40.228544     15.508110     46.420057
  O      39.377683     15.192614     44.550285
  H      38.558200     15.118667     45.130871
  C      44.171897     15.021902     42.853045
  O      44.878390     13.975556     42.845390
  O      44.369977     16.046770     42.153796
24
Coordinates from ORCA-job neb_MEP.QMRegion E -1077.078004953601
  C      44.314061     15.099388     46.292627
  H      44.726937     14.293044     45.695188
  H      44.892021     16.022108     46.376376
  C      43.120694     14.994329     46.913945
  C      42.626072     16.067545     47.883627
  O      43.222085     17.177795     47.932682
  O      41.653993     15.760962     48.611605
  O      42.265190     13.951588     46.684093
  C      41.355943     14.058200     45.298863
  H      40.716062     13.164627     45.362638
  C      42.391014     13.991160     44.277566
  H      42.822596     13.027229     44.019528
  C      43.009853     15.123733     43.879298
  C      42.440701     16.436048     44.227290
  H      42.998486     17.324510     43.924411
  C      41.283684     16.544725     44.901298
  H      40.854802     17.525019     45.125767
  C      40.496622     15.341966     45.347039
  H      40.224356     15.456259     46.405979
  O      39.324435     15.244718     44.544930
  H      38.510457     15.153983     45.138671
  C      44.196617     15.035724     42.930983
  O      44.884065     13.980022     42.882907
  O      44.371504     16.059465     42.224205
24
Coordinates from ORCA-job neb_MEP.QMRegion E -1077.066263293994
  C      44.313630     15.116900     46.250690
  H      44.746042     14.283735     45.708043
  H      44.886233     16.041768     46.327645
  C      43.144061     14.972755     46.944726
  C      42.634052     16.069160     47.891738
  O      43.222133     17.183549     47.930264
  O      41.655701     15.766801     48.613614
  O      42.366838     13.921384     46.789544
  C      41.281575     14.050262     45.178232
  H      40.686556     13.144442     45.332093
  C      42.374451     13.987385     44.285599
  H      42.816220     13.027799     44.028507
  C      43.039658     15.133152     43.940124
  C      42.447100     16.441693     44.247899
  H      43.001843     17.329409     43.938962
  C      41.275767     16.544652     44.896140
  H      40.843645     17.523290     45.119442
  C      40.482708     15.341048     45.324516
  H      40.230054     15.435042     46.391895
  O      39.296375     15.274117     44.537786
  H      38.491039     15.164391     45.141458
  C      44.207010     15.037759     42.959378
  O      44.881474     13.976534     42.891345
  O      44.361762     16.055091     42.239471
24
Coordinates from ORCA-job neb_MEP.QMRegion E -1077.063488868713
  C      44.300915     15.133792     46.187513
  H      44.765476     14.272776     45.722933
  H      44.875124     16.055835     46.279970
  C      43.161581     14.955317     46.969541
  C      42.638782     16.069869     47.900831
  O      43.222920     17.186432     47.927204
  O      41.658300     15.769394     48.616998
  O      42.461844     13.893327     46.892289
  C      41.217830     14.043246     45.073031
  H      40.659236     13.132367     45.297305
  C      42.359858     13.982611     44.301972
  H      42.811744     13.028099     44.041525
  C      43.077603     15.144235     44.011708
  C      42.453450     16.446962     44.267325
  H      43.004235     17.334344     43.951986
  C      41.268613     16.543239     44.891010
  H      40.833164     17.520898     45.111486
  C      40.470165     15.337729     45.303219
  H      40.234544     15.416461     46.378503
  O      39.271047     15.301263     44.532634
  H      38.475168     15.172763     45.144691
  C      44.216817     15.039195     42.987307
  O      44.879239     13.973321     42.899967
  O      44.352626     16.050212     42.254328
24
Coordinates from ORCA-job neb_MEP.QMRegion E -1077.068791935310
  C      44.227592     15.150464     46.019841
  H      44.779120     14.258137     45.744573
  H      44.831783     16.050239     46.190598
  C      43.156424     14.945373     46.960822
  C      42.643530     16.069510     47.901947
  O      43.231680     17.181385     47.920968
  O      41.667937     15.765558     48.620144
  O      42.532846     13.872484     46.971048
  C      41.185125     14.039506     45.001166
  H      40.636161     13.127954     45.246894
  C      42.361124     13.982192     44.333026
  H      42.814504     13.030927     44.058074
  C      43.169873     15.161402     44.158736
  C      42.468281     16.456565     44.300848
  H      43.007129     17.344734     43.967334
  C      41.267259     16.541551     44.885849
  H      40.818661     17.517868     45.087944
  C      40.464488     15.333850     45.289911
  H      40.236355     15.403279     46.369242
  O      39.257579     15.324372     44.531110
  H      38.468090     15.180163     45.145934
  C      44.237023     15.044201     43.030345
  O      44.881994     13.971400     42.910572
  O      44.338291     16.043417     42.276689
24
Coordinates from ORCA-job neb_MEP.QMRegion E -1077.088510321880
  C      44.135687     15.152556     45.826841
  H      44.771802     14.262482     45.760155
  H      44.759984     16.035712     46.072409
  C      43.144774     14.937611     46.938251
  C      42.652759     16.065875     47.903847
  O      43.244120     17.173110     47.914938
  O      41.680242     15.761390     48.622764
  O      42.606638     13.849885     47.051810
  C      41.161616     14.037431     44.939317
  H      40.604542     13.124692     45.167653
  C      42.373101     13.982477     44.367863
  H      42.822785     13.032625     44.080569
  C      43.277081     15.176485     44.327793
  C      42.491752     16.461526     44.344972
  H      43.015100     17.354057     43.996295
  C      41.269993     16.537369     44.882284
  H      40.801741     17.512388     45.051927
  C      40.459098     15.328984     45.276632
  H      40.238281     15.385446     46.360420
  O      39.245212     15.352624     44.531104
  H      38.461589     15.191930     45.147411
  C      44.257410     15.051506     43.081752
  O      44.884869     13.972895     42.926675
  O      44.321535     16.037999     42.308462
24
Coordinates from ORCA-job neb_MEP.QMRegion E -1077.106221776330
  C      44.093000     15.168000     45.784000
  H      44.854000     14.381000     45.731000
  H      44.577000     16.142000     45.938000
  C      43.215000     14.869000     46.977000
  C      42.712000     15.997000     47.941000
  O      43.260000     17.126000     47.893000
  O      41.801000     15.666000     48.724000
  O      42.855000     13.728000     47.187000
  C      41.048000     14.017000     44.716000
  H      40.426000     13.119000     44.690000
  C      42.344000     13.960000     44.400000
  H      42.823000     13.017000     44.140000
  C      43.252000     15.162000     44.433000
  C      42.456000     16.444000     44.438000
  H      43.008000     17.354000     44.199000
  C      41.174000     16.499000     44.802000
  H      40.668000     17.465000     44.881000
  C      40.347000     15.284000     45.127000
  H      40.195000     15.260000     46.226000
  O      39.090000     15.376000     44.477000
  H      38.344000     15.253000     45.147000
  C      44.206000     15.074000     43.170000
  O      44.881000     14.028000     42.996000
  O      44.199000     16.063000     42.400000
