24
Coordinates from ORCA-job neb_initial_path.QMRegion E   0.000000000000
  C      44.420000     15.226000     46.593000
  H      44.842000     14.467000     45.937000
  H      45.047000     16.060000     46.908000
  C      43.158000     15.172000     47.033000
  C      42.601000     16.190000     48.017000
  O      43.186000     17.302000     48.116000
  O      41.604000     15.842000     48.686000
  O      42.295000     14.143000     46.705000
  C      41.627000     14.195000     45.398000
  H      40.932000     13.343000     45.426000
  C      42.662000     13.997000     44.334000
  H      43.123000     13.012000     44.238000
  C      43.125000     15.023000     43.595000
  C      42.549000     16.363000     43.775000
  H      43.042000     17.178000     43.242000
  C      41.498000     16.592000     44.582000
  H      41.113000     17.606000     44.720000
  C      40.750000     15.466000     45.250000
  H      40.460000     15.758000     46.274000
  O      39.596000     15.194000     44.466000
  H      38.790000     15.078000     45.052000
  C      44.289000     14.848000     42.618000
  O      44.978000     13.792000     42.678000
  O      44.481000     15.811000     41.833000
24
Coordinates from ORCA-job neb_initial_path.QMRegion E   0.000000000000
  C      44.391221     15.194323     46.528359
  H      44.805077     14.428625     45.875657
  H      45.013946     16.047391     46.798617
  C      43.139665     15.139207     46.998798
  C      42.604137     16.164563     47.986501
  O      43.193831     17.274827     48.077633
  O      41.614069     15.824026     48.670611
  O      42.270910     14.108877     46.694364
  C      41.578252     14.165391     45.394899
  H      40.890763     13.307369     45.423890
  C      42.607501     13.992166     44.325271
  H      43.061660     13.008908     44.194519
  C      43.097964     15.044111     43.644616
  C      42.528192     16.381392     43.866087
  H      43.035745     17.216785     43.380086
  C      41.456855     16.582977     44.652804
  H      41.061610     17.591475     44.807750
  C      40.700512     15.438612     45.278030
  H      40.408188     15.699625     46.309734
  O      39.547048     15.195319     44.484357
  H      38.738131     15.087375     45.069197
  C      44.269827     14.889878     42.677572
  O      44.962917     13.836616     42.717806
  O      44.458817     15.867858     41.911140
24
Coordinates from ORCA-job neb_initial_path.QMRegion E   0.000000000000
  C      44.359647     15.157044     46.456627
  H      44.763201     14.382948     45.808766
  H      44.974555     16.030723     46.673178
  C      43.121524     15.101318     46.962203
  C      42.606789     16.135318     47.951342
  O      43.202863     17.242677     48.033294
  O      41.625471     15.802327     48.652355
  O      42.245226     14.070333     46.680199
  C      41.523855     14.134272     45.389838
  H      40.845659     13.269198     45.418675
  C      42.545807     13.989863     44.313661
  H      42.992252     13.010354     44.140801
  C      43.065704     15.068781     43.701807
  C      42.502761     16.400900     43.971734
  H      43.027765     17.256904     43.543287
  C      41.408226     16.572720     44.733053
  H      41.001547     17.573467     44.906693
  C      40.643940     15.408358     45.308433
  H      40.350208     15.633387     46.347749
  O      39.491175     15.196757     44.505260
  H      38.678519     15.099875     45.088420
  C      44.246731     14.938134     42.746418
  O      44.944268     13.886887     42.764859
  O      44.435633     15.933266     42.003108
24
Coordinates from ORCA-job neb_initial_path.QMRegion E   0.000000000000
  C      44.330006     15.120315     46.386484
  H      44.725834     14.336378     45.747228
  H      44.933169     16.014936     46.543529
  C      43.106139     15.062173     46.927764
  C      42.610460     16.105831     47.916539
  O      43.212472     17.210533     47.988580
  O      41.637245     15.781314     48.633568
  O      42.223015     14.031203     46.664062
  C      41.470334     14.104686     45.380969
  H      40.802251     13.231679     45.408008
  C      42.485069     13.991301     44.300348
  H      42.924731     13.017944     44.085495
  C      43.035204     15.093908     43.762392
  C      42.477035     16.418653     44.078935
  H      43.018345     17.292085     43.709734
  C      41.358867     16.561950     44.810964
  H      40.940097     17.554396     45.001981
  C      40.587540     15.379117     45.335765
  H      40.293850     15.566508     46.381798
  O      39.434042     15.201878     44.525329
  H      38.618369     15.114711     45.107968
  C      44.224577     14.985372     42.818877
  O      44.924565     13.935455     42.815267
  O      44.413183     15.996103     42.097539
24
Coordinates from ORCA-job neb_initial_path.QMRegion E   0.000000000000
  C      44.306174     15.093026     46.318824
  H      44.701747     14.293399     45.700708
  H      44.893818     16.007685     46.410558
  C      43.100002     15.023440     46.903572
  C      42.616586     16.079891     47.887399
  O      43.222416     17.183288     47.948806
  O      41.648525     15.765273     48.616939
  O      42.216879     13.989636     46.654857
  C      41.417302     14.077408     45.358717
  H      40.760269     13.194698     45.387128
  C      42.432482     13.995644     44.288170
  H      42.866718     13.029332     44.038270
  C      43.019002     15.117667     43.833157
  C      42.458138     16.434323     44.180754
  H      43.010290     17.320373     43.860310
  C      41.314127     16.552512     44.875526
  H      40.881762     17.536507     45.078142
  C      40.535843     15.354693     45.352327
  H      40.247887     15.502335     46.404809
  O      39.377081     15.217631     44.540312
  H      38.560200     15.132810     45.125458
  C      44.209774     15.025362     42.893298
  O      44.907450     13.974623     42.864253
  O      44.391031     16.046144     42.184800
24
Coordinates from ORCA-job neb_initial_path.QMRegion E   0.000000000000
  C      44.290768     15.093930     46.248586
  H      44.704564     14.262385     45.688716
  H      44.867471     16.018474     46.297242
  C      43.116673     14.987558     46.913764
  C      42.627510     16.067679     47.878797
  O      43.228817     17.174838     47.926877
  O      41.655811     15.764403     48.609574
  O      42.278917     13.943017     46.711068
  C      41.343940     14.056948     45.270154
  H      40.717742     13.158196     45.352453
  C      42.396485     13.998404     44.284042
  H      42.833041     13.038318     44.020246
  C      43.038688     15.136271     43.924110
  C      42.455275     16.447509     44.252452
  H      43.007780     17.338658     43.947247
  C      41.285509     16.548666     44.903309
  H      40.843169     17.526610     45.110452
  C      40.499047     15.342943     45.342551
  H      40.230751     15.451860     46.403580
  O      39.326313     15.251377     44.541784
  H      38.514797     15.150165     45.136484
  C      44.212843     15.046556     42.958277
  O      44.897604     13.990726     42.896410
  O      44.369031     16.065738     42.241363
24
Coordinates from ORCA-job neb_initial_path.QMRegion E   0.000000000000
  C      44.273112     15.113210     46.162282
  H      44.723678     14.243019     45.702053
  H      44.853846     16.032082     46.230750
  C      43.138296     14.957545     46.947894
  C      42.635078     16.068713     47.887661
  O      43.231196     17.178404     47.919669
  O      41.658970     15.770200     48.611443
  O      42.413619     13.905428     46.858836
  C      41.242078     14.047035     45.101842
  H      40.682955     13.134517     45.316407
  C      42.366489     13.993300     44.295639
  H      42.820067     13.041758     44.027365
  C      43.084547     15.153390     44.022375
  C      42.459022     16.456993     44.284073
  H      43.008276     17.347677     43.974631
  C      41.272448     16.547789     44.903560
  H      40.827405     17.523465     45.113145
  C      40.479409     15.338510     45.317294
  H      40.233488     15.421973     46.389513
  O      39.288984     15.286284     44.535467
  H      38.489989     15.160310     45.141972
  C      44.223940     15.053604     42.998904
  O      44.892204     13.991533     42.909750
  O      44.352460     16.064590     42.265197
24
Coordinates from ORCA-job neb_initial_path.QMRegion E   0.000000000000
  C      44.196507     15.133629     45.984894
  H      44.739787     14.230986     45.726729
  H      44.813241     16.024736     46.154582
  C      43.130490     14.946412     46.940910
  C      42.639463     16.067979     47.892280
  O      43.239537     17.172877     47.914785
  O      41.668698     15.765676     48.617711
  O      42.488736     13.885760     46.945743
  C      41.201432     14.041298     45.016965
  H      40.660646     13.128070     45.271492
  C      42.363407     13.990385     44.324743
  H      42.820369     13.042983     44.042171
  C      43.180720     15.170284     44.176910
  C      42.471163     16.465621     44.314996
  H      43.008484     17.356808     43.987226
  C      41.269248     16.544665     44.898325
  H      40.813517     17.519044     45.093242
  C      40.472633     15.332759     45.303796
  H      40.234214     15.407580     46.380684
  O      39.272897     15.307691     44.534239
  H      38.481007     15.166618     45.144268
  C      44.241927     15.058594     43.039729
  O      44.893305     13.989874     42.918178
  O      44.333904     16.056814     42.284098
24
Coordinates from ORCA-job neb_initial_path.QMRegion E   0.000000000000
  C      44.113523     15.140313     45.811769
  H      44.745506     14.247889     45.744136
  H      44.740239     16.020956     46.045088
  C      43.122710     14.933497     46.924613
  C      42.652167     16.060297     47.897330
  O      43.252153     17.163139     47.907879
  O      41.692599     15.751244     48.630879
  O      42.577796     13.852110     47.034012
  C      41.165469     14.036055     44.939296
  H      40.616491     13.120491     45.172225
  C      42.370822     13.988814     44.358752
  H      42.825491     13.043103     44.065366
  C      43.272700     15.182838     44.332238
  C      42.488783     16.468985     44.362639
  H      43.009970     17.366425     44.023775
  C      41.262477     16.535471     44.891215
  H      40.786954     17.507160     45.054204
  C      40.456154     15.322532     45.279786
  H      40.230598     15.379771     46.362715
  O      39.244072     15.335777     44.530695
  H      38.460462     15.181866     45.147579
  C      44.254384     15.066521     43.089757
  O      44.894546     13.994973     42.936562
  O      44.304419     16.053077     42.315837
24
Coordinates from ORCA-job neb_initial_path.QMRegion E   0.000000000000
  C      44.093000     15.168000     45.784000
  H      44.854000     14.381000     45.731000
  H      44.577000     16.142000     45.938000
  C      43.215000     14.869000     46.977000
  C      42.712000     15.997000     47.941000
  O      43.260000     17.126000     47.893000
  O      41.801000     15.666000     48.724000
  O      42.855000     13.728000     47.187000
  C      41.048000     14.017000     44.716000
  H      40.426000     13.119000     44.690000
  C      42.344000     13.960000     44.400000
  H      42.823000     13.017000     44.140000
  C      43.252000     15.162000     44.433000
  C      42.456000     16.444000     44.438000
  H      43.008000     17.354000     44.199000
  C      41.174000     16.499000     44.802000
  H      40.668000     17.465000     44.881000
  C      40.347000     15.284000     45.127000
  H      40.195000     15.260000     46.226000
  O      39.090000     15.376000     44.477000
  H      38.344000     15.253000     45.147000
  C      44.206000     15.074000     43.170000
  O      44.881000     14.028000     42.996000
  O      44.199000     16.063000     42.400000
