24
Coordinates from ORCA-job neb_NEB-CI_converged.QMRegion
  C          44.30091452318994     15.13379247361283     46.18751323069757
  H          44.76547585976781     14.27277607371166     45.72293322473285
  H          44.87512398542076     16.05583476130918     46.27997035285060
  C          43.16158056121492     14.95531700927639     46.96954098547661
  C          42.63878160025190     16.06986937640228     47.90083125232305
  O          43.22291983895325     17.18643198559301     47.92720410829108
  O          41.65829994443286     15.76939422797096     48.61699776235433
  O          42.46184433799347     13.89332734213863     46.89228916109610
  C          41.21782971169067     14.04324630350342     45.07303097273419
  H          40.65923649121348     13.13236694950691     45.29730510897355
  C          42.35985832178974     13.98261132618151     44.30197220576077
  H          42.81174404305604     13.02809886499330     44.04152456137270
  C          43.07760303811602     15.14423495259454     44.01170801359171
  C          42.45344989233018     16.44696162747379     44.26732536299338
  H          43.00423506031993     17.33434418948729     43.95198597475800
  C          41.26861260080838     16.54323919915105     44.89101041173787
  H          40.83316424086998     17.52089798443048     45.11148608747374
  C          40.47016481938112     15.33772914528525     45.30321904364712
  H          40.23454384083478     15.41646145455152     46.37850287332552
  O          39.27104693455870     15.30126324112300     44.53263409609075
  H          38.47516777209710     15.17276322085842     45.14469054136858
  C          44.21681683073044     15.03919459569783     42.98730735189320
  O          44.87923923270775     13.97332052178154     42.89996722758768
  O          44.35262574737619     16.05021209935851     42.25432750741066
