24
Coordinates from ORCA-job neb_MEP.QMRegion E -1075.970301487510
  C      45.867000     23.445000     38.333000
  H      46.290000     22.812000     37.556000
  H      46.451000     24.279000     38.722000
  C      44.643000     23.239000     38.827000
  C      44.084000     24.098000     39.946000
  O      44.552000     25.266000     40.071000
  O      43.215000     23.569000     40.670000
  O      43.858000     22.184000     38.423000
  C      42.917000     22.397000     37.309000
  H      42.424000     21.420000     37.204000
  C      43.724000     22.745000     36.101000
  H      44.292000     21.971000     35.584000
  C      43.930000     24.033000     35.768000
  C      43.214000     25.100000     36.478000
  H      43.514000     26.121000     36.242000
  C      42.256000     24.834000     37.382000
  H      41.731000     25.644000     37.897000
  C      41.823000     23.423000     37.683000
  H      41.670000     23.315000     38.771000
  O      40.625000     23.180000     36.971000
  H      40.144000     22.361000     37.366000
  C      44.989000     24.408000     34.744000
  O      45.627000     23.511000     34.158000
  O      45.180000     25.649000     34.594000
24
Coordinates from ORCA-job neb_MEP.QMRegion E -1075.974871548251
  C      45.850386     23.444124     38.308016
  H      46.262569     22.818451     37.519892
  H      46.435320     24.278592     38.694193
  C      44.633725     23.232768     38.816794
  C      44.086238     24.088258     39.944127
  O      44.556533     25.255978     40.066751
  O      43.221406     23.559235     40.674198
  O      43.844258     22.178606     38.416429
  C      42.897502     22.395869     37.307414
  H      42.401291     21.420491     37.203990
  C      43.700397     22.742937     36.096960
  H      44.259941     21.965700     35.575690
  C      43.917025     24.030518     35.769863
  C      43.209588     25.099053     36.485157
  H      43.515916     26.119818     36.253858
  C      42.253185     24.835955     37.392285
  H      41.733666     25.647276     37.910877
  C      41.810543     23.426038     37.688099
  H      41.656718     23.314704     38.776018
  O      40.611471     23.194239     36.976635
  H      40.117857     22.386108     37.377059
  C      44.979987     24.401545     34.748403
  O      45.613612     23.502976     34.161112
  O      45.180071     25.642128     34.602543
24
Coordinates from ORCA-job neb_MEP.QMRegion E -1075.978567062410
  C      45.827712     23.443021     38.277727
  H      46.227302     22.826919     37.476099
  H      46.414490     24.277711     38.659755
  C      44.619612     23.224850     38.803614
  C      44.084139     24.076828     39.939262
  O      44.557948     25.243734     40.060670
  O      43.223879     23.548229     40.674660
  O      43.826006     22.172215     38.407595
  C      42.873763     22.393001     37.303403
  H      42.373470     21.419499     37.201598
  C      43.672997     22.739502     36.090575
  H      44.226414     21.960789     35.565151
  C      43.900657     24.027370     35.771776
  C      43.203257     25.096923     36.495354
  H      43.518000     26.116862     36.271486
  C      42.247056     24.835918     37.403305
  H      41.735213     25.647837     37.928519
  C      41.794864     23.427832     37.692570
  H      41.643497     23.311500     38.780381
  O      40.592479     23.208018     36.983791
  H      40.088240     22.409153     37.388741
  C      44.968918     24.395383     34.754069
  O      45.598148     23.495745     34.164318
  O      45.177425     25.635297     34.614621
24
Coordinates from ORCA-job neb_MEP.QMRegion E -1075.983121689396
  C      45.803666     23.440939     38.246654
  H      46.190316     22.834927     37.431558
  H      46.392237     24.275840     38.625017
  C      44.604502     23.216221     38.789380
  C      44.081611     24.064733     39.933406
  O      44.559266     25.230239     40.053707
  O      43.225695     23.536532     40.674310
  O      43.806365     22.165248     38.397670
  C      42.848244     22.389870     37.298777
  H      42.343842     21.418268     37.198401
  C      43.643534     22.736214     36.083527
  H      44.190660     21.956141     35.553855
  C      43.882641     24.024187     35.773384
  C      43.195303     25.094669     36.505838
  H      43.518721     26.113407     36.289783
  C      42.239456     24.835420     37.414643
  H      41.735609     25.647609     37.946817
  C      41.777662     23.429099     37.697281
  H      41.629274     23.307556     38.784802
  O      40.571768     23.221623     36.991575
  H      40.056746     22.432675     37.401433
  C      44.956294     24.389462     34.760337
  O      45.582055     23.488665     34.167739
  O      45.173696     25.628807     34.627486
24
Coordinates from ORCA-job neb_MEP.QMRegion E -1075.989130036271
  C      45.765780     23.441259     38.199530
  H      46.141665     22.845772     37.372446
  H      46.346496     24.285714     38.566474
  C      44.582005     23.202438     38.769051
  C      44.078059     24.049927     39.922784
  O      44.561783     25.213778     40.039502
  O      43.229604     23.524148     40.673912
  O      43.779652     22.152147     38.386811
  C      42.810204     22.382167     37.284743
  H      42.303210     21.411748     37.185230
  C      43.606012     22.730464     36.073337
  H      44.142514     21.950072     35.534133
  C      43.868686     24.019164     35.785927
  C      43.192213     25.088878     36.529804
  H      43.529245     26.106332     36.330278
  C      42.226874     24.830513     37.428538
  H      41.723326     25.642127     37.961463
  C      41.752528     23.426841     37.700404
  H      41.615788     23.295462     38.788179
  O      40.536996     23.240463     37.007699
  H      40.010509     22.461461     37.422501
  C      44.946219     24.382930     34.776185
  O      45.568251     23.482410     34.178772
  O      45.168213     25.621834     34.647796
24
Coordinates from ORCA-job neb_MEP.QMRegion E -1075.971114936419
  C      45.650909     23.495182     38.042497
  H      46.057922     22.881984     37.245247
  H      46.135300     24.425166     38.328581
  C      44.560504     23.140079     38.754107
  C      44.088090     24.034627     39.902140
  O      44.570935     25.205669     39.983730
  O      43.253065     23.536990     40.685879
  O      43.805198     22.075181     38.451671
  C      42.643615     22.345084     37.118744
  H      42.186407     21.346544     37.068667
  C      43.530806     22.704681     36.044457
  H      44.043272     21.938654     35.467846
  C      43.942838     23.995403     35.927336
  C      43.254261     25.058662     36.664895
  H      43.633076     26.071800     36.533800
  C      42.190246     24.798093     37.441766
  H      41.628696     25.603592     37.923632
  C      41.679848     23.402714     37.665465
  H      41.642884     23.212196     38.751176
  O      40.397667     23.312915     37.085282
  H      39.880910     22.511371     37.486974
  C      44.986757     24.371984     34.882075
  O      45.587446     23.482310     34.249879
  O      45.150452     25.614213     34.711175
24
Coordinates from ORCA-job neb_MEP.QMRegion E -1075.960265858090
  C      45.623502     23.526730     37.984828
  H      46.075267     22.877343     37.244299
  H      46.094678     24.461243     38.264118
  C      44.572470     23.124612     38.768651
  C      44.094308     24.039593     39.904036
  O      44.579457     25.210479     39.973270
  O      43.263713     23.545087     40.692256
  O      43.899469     22.047712     38.542192
  C      42.559301     22.352729     37.009048
  H      42.147837     21.339079     37.017995
  C      43.524781     22.693283     36.061212
  H      44.040897     21.935475     35.476533
  C      44.002687     23.990514     36.007687
  C      43.274855     25.057141     36.695005
  H      43.643954     26.072439     36.553695
  C      42.185382     24.795264     37.435616
  H      41.608094     25.599717     37.899189
  C      41.667660     23.401779     37.645907
  H      41.659262     23.193257     38.730025
  O      40.363739     23.340062     37.105337
  H      39.857470     22.524654     37.495292
  C      45.007725     24.366449     34.918625
  O      45.585370     23.475994     34.267229
  O      45.146661     25.608941     34.721149
24
Coordinates from ORCA-job neb_MEP.QMRegion E -1075.960118290469
  C      45.583467     23.556436     37.919366
  H      46.084917     22.870084     37.248262
  H      46.069096     24.475017     38.229229
  C      44.582264     23.114031     38.780919
  C      44.099172     24.042918     39.909830
  O      44.579381     25.214866     39.967907
  O      43.266802     23.550121     40.695909
  O      43.971476     22.023496     38.612708
  C      42.505439     22.357848     36.939000
  H      42.118215     21.337631     36.982106
  C      43.518929     22.685139     36.073075
  H      44.040118     21.932970     35.484769
  C      44.050578     23.986508     36.069750
  C      43.282994     25.057704     36.709002
  H      43.647471     26.073465     36.562631
  C      42.179544     24.794339     37.426576
  H      41.598396     25.598701     37.886166
  C      41.658534     23.400917     37.630557
  H      41.665654     23.183042     38.714428
  O      40.342088     23.356344     37.116914
  H      39.847037     22.529895     37.496621
  C      45.019822     24.365754     34.939364
  O      45.580921     23.473604     34.275073
  O      45.141659     25.605457     34.725394
24
Coordinates from ORCA-job neb_MEP.QMRegion E -1075.968184371252
  C      45.445898     23.614128     37.733695
  H      46.075866     22.861914     37.260201
  H      45.991467     24.473276     38.141208
  C      44.563235     23.111642     38.770605
  C      44.103315     24.045577     39.915155
  O      44.590510     25.212053     39.962170
  O      43.279378     23.548379     40.703502
  O      44.053045     21.999096     38.696857
  C      42.467634     22.364620     36.873481
  H      42.085979     21.342484     36.930906
  C      43.530685     22.672152     36.105596
  H      44.046046     21.928255     35.499785
  C      44.192913     23.969561     36.229741
  C      43.309869     25.054667     36.744662
  H      43.653276     26.074710     36.575744
  C      42.183664     24.790263     37.417949
  H      41.586190     25.596243     37.856654
  C      41.656952     23.396243     37.621186
  H      41.670493     23.172312     38.705264
  O      40.330231     23.369929     37.130753
  H      39.844266     22.534917     37.497889
  C      45.046761     24.361434     34.978748
  O      45.575458     23.471185     34.286514
  O      45.131432     25.598383     34.733921
24
Coordinates from ORCA-job neb_MEP.QMRegion E -1075.998731110816
  C      45.175000     23.688000     37.520000
  H      45.998000     23.031000     37.202000
  H      45.550000     24.641000     37.886000
  C      44.519000     23.099000     38.734000
  C      44.136000     24.026000     39.920000
  O      44.595000     25.203000     39.919000
  O      43.416000     23.497000     40.783000
  O      44.272000     21.919000     38.840000
  C      42.246000     22.379000     36.614000
  H      41.734000     21.424000     36.470000
  C      43.430000     22.634000     36.054000
  H      43.954000     21.902000     35.442000
  C      44.177000     23.915000     36.305000
  C      43.233000     25.018000     36.726000
  H      43.594000     26.037000     36.581000
  C      42.054000     24.764000     37.295000
  H      41.398000     25.569000     37.643000
  C      41.535000     23.367000     37.504000
  H      41.724000     23.080000     38.562000
  O      40.153000     23.387000     37.252000
  H      39.715000     22.508000     37.596000
  C      45.002000     24.327000     35.020000
  O      45.530000     23.447000     34.316000
  O      45.089000     25.566000     34.787000
