24
Coordinates from ORCA-job neb_initial_path.QMRegion E   0.000000000000
  C      45.867000     23.445000     38.333000
  H      46.290000     22.812000     37.556000
  H      46.451000     24.279000     38.722000
  C      44.643000     23.239000     38.827000
  C      44.084000     24.098000     39.946000
  O      44.552000     25.266000     40.071000
  O      43.215000     23.569000     40.670000
  O      43.858000     22.184000     38.423000
  C      42.917000     22.397000     37.309000
  H      42.424000     21.420000     37.204000
  C      43.724000     22.745000     36.101000
  H      44.292000     21.971000     35.584000
  C      43.930000     24.033000     35.768000
  C      43.214000     25.100000     36.478000
  H      43.514000     26.121000     36.242000
  C      42.256000     24.834000     37.382000
  H      41.731000     25.644000     37.897000
  C      41.823000     23.423000     37.683000
  H      41.670000     23.315000     38.771000
  O      40.625000     23.180000     36.971000
  H      40.144000     22.361000     37.366000
  C      44.989000     24.408000     34.744000
  O      45.627000     23.511000     34.158000
  O      45.180000     25.649000     34.594000
24
Coordinates from ORCA-job neb_initial_path.QMRegion E   0.000000000000
  C      45.816286     23.461000     38.262714
  H      46.250857     22.818571     37.503286
  H      46.389714     24.305000     38.641000
  C      44.628429     23.222714     38.814000
  C      44.085286     24.089714     39.937286
  O      44.558571     25.256571     40.055429
  O      43.221857     23.565857     40.670857
  O      43.861286     22.165286     38.438857
  C      42.867714     22.390714     37.268429
  H      42.387714     21.408286     37.181714
  C      43.695714     22.738000     36.098286
  H      44.255143     21.967286     35.569286
  C      43.951857     24.025429     35.817143
  C      43.226143     25.094000     36.515143
  H      43.534286     26.114571     36.290429
  C      42.247857     24.828571     37.392571
  H      41.713429     25.638000     37.897571
  C      41.802429     23.419857     37.680429
  H      41.665000     23.297714     38.767857
  O      40.591429     23.202143     36.987714
  H      40.105857     22.384857     37.382143
  C      44.994571     24.402143     34.774571
  O      45.621857     23.506429     34.176714
  O      45.173571     25.642857     34.614000
24
Coordinates from ORCA-job neb_initial_path.QMRegion E   0.000000000000
  C      45.765571     23.477000     38.192429
  H      46.211714     22.825143     37.450571
  H      46.328429     24.331000     38.560000
  C      44.613857     23.206429     38.801000
  C      44.086571     24.081429     39.928571
  O      44.565143     25.247143     40.039857
  O      43.228714     23.562714     40.671714
  O      43.864571     22.146571     38.454714
  C      42.818429     22.384429     37.227857
  H      42.351429     21.396571     37.159429
  C      43.667429     22.731000     36.095571
  H      44.218286     21.963571     35.554571
  C      43.973714     24.017857     35.866286
  C      43.238286     25.088000     36.552286
  H      43.554571     26.108143     36.338857
  C      42.239714     24.823143     37.403143
  H      41.695857     25.632000     37.898143
  C      41.781857     23.416714     37.677857
  H      41.660000     23.280429     38.764714
  O      40.557857     23.224286     37.004429
  H      40.067714     22.408714     37.398286
  C      45.000143     24.396286     34.805143
  O      45.616714     23.501857     34.195429
  O      45.167143     25.636714     34.634000
24
Coordinates from ORCA-job neb_initial_path.QMRegion E   0.000000000000
  C      45.714857     23.493000     38.122143
  H      46.172571     22.831714     37.397857
  H      46.267143     24.357000     38.479000
  C      44.599286     23.190143     38.788000
  C      44.087857     24.073143     39.919857
  O      44.571714     25.237714     40.024286
  O      43.235571     23.559571     40.672571
  O      43.867857     22.127857     38.470571
  C      42.769143     22.378143     37.187286
  H      42.315143     21.384857     37.137143
  C      43.639143     22.724000     36.092857
  H      44.181429     21.959857     35.539857
  C      43.995571     24.010286     35.915429
  C      43.250429     25.082000     36.589429
  H      43.574857     26.101714     36.387286
  C      42.231571     24.817714     37.413714
  H      41.678286     25.626000     37.898714
  C      41.761286     23.413571     37.675286
  H      41.655000     23.263143     38.761571
  O      40.524286     23.246429     37.021143
  H      40.029571     22.432571     37.414429
  C      45.005714     24.390429     34.835714
  O      45.611571     23.497286     34.214143
  O      45.160714     25.630571     34.654000
24
Coordinates from ORCA-job neb_initial_path.QMRegion E   0.000000000000
  C      45.664143     23.509000     38.051857
  H      46.133429     22.838286     37.345143
  H      46.205857     24.383000     38.398000
  C      44.584714     23.173857     38.775000
  C      44.089143     24.064857     39.911143
  O      44.578286     25.228286     40.008714
  O      43.242429     23.556429     40.673429
  O      43.871143     22.109143     38.486429
  C      42.719857     22.371857     37.146714
  H      42.278857     21.373143     37.114857
  C      43.610857     22.717000     36.090143
  H      44.144571     21.956143     35.525143
  C      44.017429     24.002714     35.964571
  C      43.262571     25.076000     36.626571
  H      43.595143     26.095286     36.435714
  C      42.223429     24.812286     37.424286
  H      41.660714     25.620000     37.899286
  C      41.740714     23.410429     37.672714
  H      41.650000     23.245857     38.758429
  O      40.490714     23.268571     37.037857
  H      39.991429     22.456429     37.430571
  C      45.011286     24.384571     34.866286
  O      45.606429     23.492714     34.232857
  O      45.154286     25.624429     34.674000
24
Coordinates from ORCA-job neb_initial_path.QMRegion E   0.000000000000
  C      45.613429     23.525000     37.981571
  H      46.094286     22.844857     37.292429
  H      46.144571     24.409000     38.317000
  C      44.570143     23.157571     38.762000
  C      44.090429     24.056571     39.902429
  O      44.584857     25.218857     39.993143
  O      43.249286     23.553286     40.674286
  O      43.874429     22.090429     38.502286
  C      42.670571     22.365571     37.106143
  H      42.242571     21.361429     37.092571
  C      43.582571     22.710000     36.087429
  H      44.107714     21.952429     35.510429
  C      44.039286     23.995143     36.013714
  C      43.274714     25.070000     36.663714
  H      43.615429     26.088857     36.484143
  C      42.215286     24.806857     37.434857
  H      41.643143     25.614000     37.899857
  C      41.720143     23.407286     37.670143
  H      41.645000     23.228571     38.755286
  O      40.457143     23.290714     37.054571
  H      39.953286     22.480286     37.446714
  C      45.016857     24.378714     34.896857
  O      45.601286     23.488143     34.251571
  O      45.147857     25.618286     34.694000
24
Coordinates from ORCA-job neb_initial_path.QMRegion E   0.000000000000
  C      45.562714     23.541000     37.911286
  H      46.055143     22.851429     37.239714
  H      46.083286     24.435000     38.236000
  C      44.555571     23.141286     38.749000
  C      44.091714     24.048286     39.893714
  O      44.591429     25.209429     39.977571
  O      43.256143     23.550143     40.675143
  O      43.877714     22.071714     38.518143
  C      42.621286     22.359286     37.065571
  H      42.206286     21.349714     37.070286
  C      43.554286     22.703000     36.084714
  H      44.070857     21.948714     35.495714
  C      44.061143     23.987571     36.062857
  C      43.286857     25.064000     36.700857
  H      43.635714     26.082429     36.532571
  C      42.207143     24.801429     37.445429
  H      41.625571     25.608000     37.900429
  C      41.699571     23.404143     37.667571
  H      41.640000     23.211286     38.752143
  O      40.423571     23.312857     37.071286
  H      39.915143     22.504143     37.462857
  C      45.022429     24.372857     34.927429
  O      45.596143     23.483571     34.270286
  O      45.141429     25.612143     34.714000
24
Coordinates from ORCA-job neb_initial_path.QMRegion E   0.000000000000
  C      45.512000     23.557000     37.841000
  H      46.016000     22.858000     37.187000
  H      46.022000     24.461000     38.155000
  C      44.541000     23.125000     38.736000
  C      44.093000     24.040000     39.885000
  O      44.598000     25.200000     39.962000
  O      43.263000     23.547000     40.676000
  O      43.881000     22.053000     38.534000
  C      42.572000     22.353000     37.025000
  H      42.170000     21.338000     37.048000
  C      43.526000     22.696000     36.082000
  H      44.034000     21.945000     35.481000
  C      44.083000     23.980000     36.112000
  C      43.299000     25.058000     36.738000
  H      43.656000     26.076000     36.581000
  C      42.199000     24.796000     37.456000
  H      41.608000     25.602000     37.901000
  C      41.679000     23.401000     37.665000
  H      41.635000     23.194000     38.749000
  O      40.390000     23.335000     37.088000
  H      39.877000     22.528000     37.479000
  C      45.028000     24.367000     34.958000
  O      45.591000     23.479000     34.289000
  O      45.135000     25.606000     34.734000
24
Coordinates from ORCA-job neb_initial_path.QMRegion E   0.000000000000
  C      45.343500     23.622500     37.680500
  H      46.007000     22.944500     37.194500
  H      45.786000     24.551000     38.020500
  C      44.530000     23.112000     38.735000
  C      44.114500     24.033000     39.902500
  O      44.596500     25.201500     39.940500
  O      43.339500     23.522000     40.729500
  O      44.076500     21.986000     38.687000
  C      42.409000     22.366000     36.819500
  H      41.952000     21.381000     36.759000
  C      43.478000     22.665000     36.068000
  H      43.994000     21.923500     35.461500
  C      44.130000     23.947500     36.208500
  C      43.266000     25.038000     36.732000
  H      43.625000     26.056500     36.581000
  C      42.126500     24.780000     37.375500
  H      41.503000     25.585500     37.772000
  C      41.607000     23.384000     37.584500
  H      41.679500     23.137000     38.655500
  O      40.271500     23.361000     37.170000
  H      39.796000     22.518000     37.537500
  C      45.015000     24.347000     34.989000
  O      45.560500     23.463000     34.302500
  O      45.112000     25.586000     34.760500
24
Coordinates from ORCA-job neb_initial_path.QMRegion E   0.000000000000
  C      45.175000     23.688000     37.520000
  H      45.998000     23.031000     37.202000
  H      45.550000     24.641000     37.886000
  C      44.519000     23.099000     38.734000
  C      44.136000     24.026000     39.920000
  O      44.595000     25.203000     39.919000
  O      43.416000     23.497000     40.783000
  O      44.272000     21.919000     38.840000
  C      42.246000     22.379000     36.614000
  H      41.734000     21.424000     36.470000
  C      43.430000     22.634000     36.054000
  H      43.954000     21.902000     35.442000
  C      44.177000     23.915000     36.305000
  C      43.233000     25.018000     36.726000
  H      43.594000     26.037000     36.581000
  C      42.054000     24.764000     37.295000
  H      41.398000     25.569000     37.643000
  C      41.535000     23.367000     37.504000
  H      41.724000     23.080000     38.562000
  O      40.153000     23.387000     37.252000
  H      39.715000     22.508000     37.596000
  C      45.002000     24.327000     35.020000
  O      45.530000     23.447000     34.316000
  O      45.089000     25.566000     34.787000
