24
Coordinates from ORCA-job neb_NEB-CI_converged.QMRegion
  C          48.05136032142276     30.65138377016750     58.90515417015667
  H          48.89421728069901     29.99416107135945     58.70748781660543
  H          48.26729676765368     31.54442798023135     59.49404725469189
  C          46.73467460143320     30.17889445369435     58.81467623548804
  C          45.56246920243129     31.02149463626260     59.36321865026681
  O          45.81807701528996     31.86534836509249     60.25123715614668
  O          44.42127621174623     30.78784926217504     58.88562154140608
  O          46.44201262926394     29.10885452169395     58.20203911717643
  C          46.65678741663994     29.42869627087089     55.96775559489014
  H          46.34391491228539     28.40052307479479     55.78729572245836
  C          47.98244646951120     29.74524654717700     56.15722305289508
  H          48.73993851601634     28.96333796608053     56.24035501456702
  C          48.35356868238807     31.06372483932850     56.48719737505521
  C          47.41660733530806     32.13046820592265     56.13219174508444
  H          47.80334769098894     33.15161775882179     56.14408850550770
  C          46.14405358513436     31.86304411395576     55.78373628111313
  H          45.46295571101571     32.67044765182565     55.50212565038479
  C          45.58080245165341     30.47078984569433     55.76140596419398
  H          44.89198041812701     30.38438748889944     56.62536634729248
  O          44.89415378517860     30.24367791826760     54.54622530430357
  H          44.01139893175862     29.78257134385047     54.73040595432663
  C          49.83229235734186     31.42252599416822     56.67362967698396
  O          50.61249860744443     30.52621051623342     57.08526122196353
  O          50.16582677412928     32.59752423032541     56.38567408726182
