24
Coordinates from ORCA-job neb_initial_path.QMRegion E   0.000000000000
  C      47.876000     30.538000     59.231000
  H      48.767000     30.040000     58.852000
  H      48.003000     31.329000     59.970000
  C      46.630000     30.239000     58.835000
  C      45.428000     31.010000     59.380000
  O      45.662000     31.904000     60.223000
  O      44.288000     30.726000     58.927000
  O      46.361000     29.232000     57.929000
  C      46.548000     29.490000     56.480000
  H      46.267000     28.529000     56.031000
  C      47.998000     29.807000     56.295000
  H      48.728000     29.011000     56.465000
  C      48.440000     31.075000     56.174000
  C      47.475000     32.156000     55.940000
  H      47.876000     33.168000     55.848000
  C      46.152000     31.921000     55.855000
  H      45.462000     32.751000     55.682000
  C      45.543000     30.544000     55.956000
  H      44.740000     30.573000     56.712000
  O      45.019000     30.180000     54.692000
  H      44.132000     29.718000     54.822000
  C      49.910000     31.416000     56.406000
  O      50.628000     30.544000     56.966000
  O      50.301000     32.567000     56.088000
24
Coordinates from ORCA-job neb_initial_path.QMRegion E   0.000000000000
  C      47.902889     30.558556     59.142556
  H      48.776778     30.031222     58.837667
  H      48.044889     31.361000     59.864444
  C      46.641778     30.235111     58.827444
  C      45.451556     31.014111     59.387889
  O      45.701000     31.896667     60.236000
  O      44.308000     30.735556     58.943222
  O      46.369111     29.212778     57.991222
  C      46.576333     29.477333     56.395111
  H      46.295667     28.513556     55.955556
  C      48.001556     29.789111     56.282000
  H      48.737222     28.996556     56.436444
  C      48.428778     31.061556     56.251000
  C      47.470333     32.141667     55.980444
  H      47.871000     33.154222     55.897889
  C      46.159222     31.903889     55.850222
  H      45.475778     32.731222     55.653556
  C      45.556667     30.524778     55.927111
  H      44.771222     30.529111     56.696889
  O      45.006778     30.187444     54.671889
  H      44.120778     29.726222     54.809444
  C      49.903333     31.410556     56.445111
  O      50.635000     30.541556     56.987889
  O      50.282000     32.560889     56.115444
24
Coordinates from ORCA-job neb_initial_path.QMRegion E   0.000000000000
  C      47.929778     30.579111     59.054111
  H      48.786556     30.022444     58.823333
  H      48.086778     31.393000     59.758889
  C      46.653556     30.231222     58.819889
  C      45.475111     31.018222     59.395778
  O      45.740000     31.889333     60.249000
  O      44.328000     30.745111     58.959444
  O      46.377222     29.193556     58.053444
  C      46.604667     29.464667     56.310222
  H      46.324333     28.498111     55.880111
  C      48.005111     29.771222     56.269000
  H      48.746444     28.982111     56.407889
  C      48.417556     31.048111     56.328000
  C      47.465667     32.127333     56.020889
  H      47.866000     33.140444     55.947778
  C      46.166444     31.886778     55.845444
  H      45.489556     32.711444     55.625111
  C      45.570333     30.505556     55.898222
  H      44.802444     30.485222     56.681778
  O      44.994556     30.194889     54.651778
  H      44.109556     29.734444     54.796889
  C      49.896667     31.405111     56.484222
  O      50.642000     30.539111     57.009778
  O      50.263000     32.554778     56.142889
24
Coordinates from ORCA-job neb_initial_path.QMRegion E   0.000000000000
  C      47.956667     30.599667     58.965667
  H      48.796333     30.013667     58.809000
  H      48.128667     31.425000     59.653333
  C      46.665333     30.227333     58.812333
  C      45.498667     31.022333     59.403667
  O      45.779000     31.882000     60.262000
  O      44.348000     30.754667     58.975667
  O      46.385333     29.174333     58.115667
  C      46.633000     29.452000     56.225333
  H      46.353000     28.482667     55.804667
  C      48.008667     29.753333     56.256000
  H      48.755667     28.967667     56.379333
  C      48.406333     31.034667     56.405000
  C      47.461000     32.113000     56.061333
  H      47.861000     33.126667     55.997667
  C      46.173667     31.869667     55.840667
  H      45.503333     32.691667     55.596667
  C      45.584000     30.486333     55.869333
  H      44.833667     30.441333     56.666667
  O      44.982333     30.202333     54.631667
  H      44.098333     29.742667     54.784333
  C      49.890000     31.399667     56.523333
  O      50.649000     30.536667     57.031667
  O      50.244000     32.548667     56.170333
24
Coordinates from ORCA-job neb_initial_path.QMRegion E   0.000000000000
  C      47.983556     30.620222     58.877222
  H      48.806111     30.004889     58.794667
  H      48.170556     31.457000     59.547778
  C      46.677111     30.223444     58.804778
  C      45.522222     31.026444     59.411556
  O      45.818000     31.874667     60.275000
  O      44.368000     30.764222     58.991889
  O      46.393444     29.155111     58.177889
  C      46.661333     29.439333     56.140444
  H      46.381667     28.467222     55.729222
  C      48.012222     29.735444     56.243000
  H      48.764889     28.953222     56.350778
  C      48.395111     31.021222     56.482000
  C      47.456333     32.098667     56.101778
  H      47.856000     33.112889     56.047556
  C      46.180889     31.852556     55.835889
  H      45.517111     32.671889     55.568222
  C      45.597667     30.467111     55.840444
  H      44.864889     30.397444     56.651556
  O      44.970111     30.209778     54.611556
  H      44.087111     29.750889     54.771778
  C      49.883333     31.394222     56.562444
  O      50.656000     30.534222     57.053556
  O      50.225000     32.542556     56.197778
24
Coordinates from ORCA-job neb_initial_path.QMRegion E   0.000000000000
  C      48.010444     30.640778     58.788778
  H      48.815889     29.996111     58.780333
  H      48.212444     31.489000     59.442222
  C      46.688889     30.219556     58.797222
  C      45.545778     31.030556     59.419444
  O      45.857000     31.867333     60.288000
  O      44.388000     30.773778     59.008111
  O      46.401556     29.135889     58.240111
  C      46.689667     29.426667     56.055556
  H      46.410333     28.451778     55.653778
  C      48.015778     29.717556     56.230000
  H      48.774111     28.938778     56.322222
  C      48.383889     31.007778     56.559000
  C      47.451667     32.084333     56.142222
  H      47.851000     33.099111     56.097444
  C      46.188111     31.835444     55.831111
  H      45.530889     32.652111     55.539778
  C      45.611333     30.447889     55.811556
  H      44.896111     30.353556     56.636444
  O      44.957889     30.217222     54.591444
  H      44.075889     29.759111     54.759222
  C      49.876667     31.388778     56.601556
  O      50.663000     30.531778     57.075444
  O      50.206000     32.536444     56.225222
24
Coordinates from ORCA-job neb_initial_path.QMRegion E   0.000000000000
  C      48.037333     30.661333     58.700333
  H      48.825667     29.987333     58.766000
  H      48.254333     31.521000     59.336667
  C      46.700667     30.215667     58.789667
  C      45.569333     31.034667     59.427333
  O      45.896000     31.860000     60.301000
  O      44.408000     30.783333     59.024333
  O      46.409667     29.116667     58.302333
  C      46.718000     29.414000     55.970667
  H      46.439000     28.436333     55.578333
  C      48.019333     29.699667     56.217000
  H      48.783333     28.924333     56.293667
  C      48.372667     30.994333     56.636000
  C      47.447000     32.070000     56.182667
  H      47.846000     33.085333     56.147333
  C      46.195333     31.818333     55.826333
  H      45.544667     32.632333     55.511333
  C      45.625000     30.428667     55.782667
  H      44.927333     30.309667     56.621333
  O      44.945667     30.224667     54.571333
  H      44.064667     29.767333     54.746667
  C      49.870000     31.383333     56.640667
  O      50.670000     30.529333     57.097333
  O      50.187000     32.530333     56.252667
24
Coordinates from ORCA-job neb_initial_path.QMRegion E   0.000000000000
  C      48.064222     30.681889     58.611889
  H      48.835444     29.978556     58.751667
  H      48.296222     31.553000     59.231111
  C      46.712444     30.211778     58.782111
  C      45.592889     31.038778     59.435222
  O      45.935000     31.852667     60.314000
  O      44.428000     30.792889     59.040556
  O      46.417778     29.097444     58.364556
  C      46.746333     29.401333     55.885778
  H      46.467667     28.420889     55.502889
  C      48.022889     29.681778     56.204000
  H      48.792556     28.909889     56.265111
  C      48.361444     30.980889     56.713000
  C      47.442333     32.055667     56.223111
  H      47.841000     33.071556     56.197222
  C      46.202556     31.801222     55.821556
  H      45.558444     32.612556     55.482889
  C      45.638667     30.409444     55.753778
  H      44.958556     30.265778     56.606222
  O      44.933444     30.232111     54.551222
  H      44.053444     29.775556     54.734111
  C      49.863333     31.377889     56.679778
  O      50.677000     30.526889     57.119222
  O      50.168000     32.524222     56.280111
24
Coordinates from ORCA-job neb_initial_path.QMRegion E   0.000000000000
  C      48.091111     30.702444     58.523444
  H      48.845222     29.969778     58.737333
  H      48.338111     31.585000     59.125556
  C      46.724222     30.207889     58.774556
  C      45.616444     31.042889     59.443111
  O      45.974000     31.845333     60.327000
  O      44.448000     30.802444     59.056778
  O      46.425889     29.078222     58.426778
  C      46.774667     29.388667     55.800889
  H      46.496333     28.405444     55.427444
  C      48.026444     29.663889     56.191000
  H      48.801778     28.895444     56.236556
  C      48.350222     30.967444     56.790000
  C      47.437667     32.041333     56.263556
  H      47.836000     33.057778     56.247111
  C      46.209778     31.784111     55.816778
  H      45.572222     32.592778     55.454444
  C      45.652333     30.390222     55.724889
  H      44.989778     30.221889     56.591111
  O      44.921222     30.239556     54.531111
  H      44.042222     29.783778     54.721556
  C      49.856667     31.372444     56.718889
  O      50.684000     30.524444     57.141111
  O      50.149000     32.518111     56.307556
24
Coordinates from ORCA-job neb_initial_path.QMRegion E   0.000000000000
  C      48.118000     30.723000     58.435000
  H      48.855000     29.961000     58.723000
  H      48.380000     31.617000     59.020000
  C      46.736000     30.204000     58.767000
  C      45.640000     31.047000     59.451000
  O      46.013000     31.838000     60.340000
  O      44.468000     30.812000     59.073000
  O      46.434000     29.059000     58.489000
  C      46.803000     29.376000     55.716000
  H      46.525000     28.390000     55.352000
  C      48.030000     29.646000     56.178000
  H      48.811000     28.881000     56.208000
  C      48.339000     30.954000     56.867000
  C      47.433000     32.027000     56.304000
  H      47.831000     33.044000     56.297000
  C      46.217000     31.767000     55.812000
  H      45.586000     32.573000     55.426000
  C      45.666000     30.371000     55.696000
  H      45.021000     30.178000     56.576000
  O      44.909000     30.247000     54.511000
  H      44.031000     29.792000     54.709000
  C      49.850000     31.367000     56.758000
  O      50.691000     30.522000     57.163000
  O      50.130000     32.512000     56.335000
