24
Coordinates from ORCA-job neb_MEP.QMRegion E -1076.607152173161
  C      47.876000     30.538000     59.231000
  H      48.767000     30.040000     58.852000
  H      48.003000     31.329000     59.970000
  C      46.630000     30.239000     58.835000
  C      45.428000     31.010000     59.380000
  O      45.662000     31.904000     60.223000
  O      44.288000     30.726000     58.927000
  O      46.361000     29.232000     57.929000
  C      46.548000     29.490000     56.480000
  H      46.267000     28.529000     56.031000
  C      47.998000     29.807000     56.295000
  H      48.728000     29.011000     56.465000
  C      48.440000     31.075000     56.174000
  C      47.475000     32.156000     55.940000
  H      47.876000     33.168000     55.848000
  C      46.152000     31.921000     55.855000
  H      45.462000     32.751000     55.682000
  C      45.543000     30.544000     55.956000
  H      44.740000     30.573000     56.712000
  O      45.019000     30.180000     54.692000
  H      44.132000     29.718000     54.822000
  C      49.910000     31.416000     56.406000
  O      50.628000     30.544000     56.966000
  O      50.301000     32.567000     56.088000
24
Coordinates from ORCA-job neb_MEP.QMRegion E -1076.615982977140
  C      47.886468     30.530176     59.226626
  H      48.778812     30.034185     58.846672
  H      48.012316     31.317211     59.969937
  C      46.641980     30.232660     58.826866
  C      45.440340     31.002994     59.371326
  O      45.672274     31.891868     60.220564
  O      44.302083     30.724526     58.911310
  O      46.373274     29.227496     57.918152
  C      46.561556     29.485746     56.469035
  H      46.281238     28.525601     56.018687
  C      48.011410     29.803526     56.285895
  H      48.741998     29.008268     56.456131
  C      48.451878     31.072625     56.171777
  C      47.487527     32.153944     55.939844
  H      47.889338     33.165868     55.851468
  C      46.164347     31.918298     55.849846
  H      45.474174     32.748738     55.674155
  C      45.557164     30.541557     55.946500
  H      44.753089     30.566681     56.702185
  O      45.034570     30.179582     54.680558
  H      44.147143     29.718071     54.809707
  C      49.921169     31.416043     56.405710
  O      50.641405     30.546883     56.966098
  O      50.308669     32.568015     56.086802
24
Coordinates from ORCA-job neb_MEP.QMRegion E -1076.624506168332
  C      47.867889     30.534203     59.238986
  H      48.764376     30.041097     58.865102
  H      47.983880     31.315708     59.989656
  C      46.627976     30.235311     58.826733
  C      45.419486     31.001405     59.361910
  O      45.642883     31.896800     60.206694
  O      44.285122     30.713730     58.898288
  O      46.370006     29.232449     57.912768
  C      46.571251     29.496179     56.467776
  H      46.292249     28.538414     56.011759
  C      48.023218     29.810075     56.293860
  H      48.751099     29.014526     56.473228
  C      48.468501     31.076531     56.168931
  C      47.509298     32.160063     55.927914
  H      47.915252     33.169761     55.835297
  C      46.185455     31.928853     55.836632
  H      45.498614     32.761134     55.657631
  C      45.573740     30.554475     55.937195
  H      44.764644     30.585967     56.687419
  O      45.057897     30.187842     54.669773
  H      44.174525     29.717734     54.797845
  C      49.938717     31.415950     56.399437
  O      50.657545     30.547845     56.963169
  O      50.328855     32.564995     56.072677
24
Coordinates from ORCA-job neb_MEP.QMRegion E -1076.608950611484
  C      48.019554     30.580495     59.010626
  H      48.884313     30.007287     58.683466
  H      48.227576     31.477227     59.597082
  C      46.741003     30.195968     58.764811
  C      45.565942     31.000502     59.342700
  O      45.816458     31.841542     60.236802
  O      44.418484     30.771997     58.873162
  O      46.437858     29.157290     57.954082
  C      46.614811     29.410835     56.217407
  H      46.330639     28.408490     55.878496
  C      48.017374     29.753020     56.162828
  H      48.762353     28.959465     56.239331
  C      48.398075     31.049306     56.335806
  C      47.428831     32.119957     56.092240
  H      47.808984     33.143908     56.118231
  C      46.141107     31.853760     55.804614
  H      45.454435     32.662750     55.539411
  C      45.566619     30.464619     55.818283
  H      44.840534     30.412151     56.646661
  O      44.939927     30.193799     54.580491
  H      44.037707     29.763129     54.742018
  C      49.851536     31.419067     56.616335
  O      50.614239     30.527886     57.075078
  O      50.185187     32.604994     56.378127
24
Coordinates from ORCA-job neb_MEP.QMRegion E -1076.601118039898
  C      48.037996     30.614758     58.969258
  H      48.890948     29.997863     58.697851
  H      48.250268     31.514122     59.548315
  C      46.737796     30.177883     58.801990
  C      45.564424     31.010979     59.355176
  O      45.815850     31.854908     60.245185
  O      44.421146     30.780823     58.877725
  O      46.440461     29.124724     58.112941
  C      46.643793     29.420527     56.049239
  H      46.337378     28.396584     55.833154
  C      47.997852     29.746016     56.152205
  H      48.750256     28.959949     56.237358
  C      48.374554     31.056786     56.410436
  C      47.423510     32.124836     56.110791
  H      47.807302     33.146956     56.130645
  C      46.142706     31.857911     55.791736
  H      45.457686     32.665923     55.521750
  C      45.577087     30.466547     55.782796
  H      44.875105     30.393102     56.635698
  O      44.913129     30.220043     54.558806
  H      44.022401     29.771069     54.735502
  C      49.841626     31.419315     56.646775
  O      50.613390     30.524518     57.078382
  O      50.175775     32.599284     56.380951
24
Coordinates from ORCA-job neb_MEP.QMRegion E -1076.600014019426
  C      48.051360     30.651384     58.905154
  H      48.894217     29.994161     58.707488
  H      48.267297     31.544428     59.494047
  C      46.734675     30.178894     58.814676
  C      45.562469     31.021495     59.363219
  O      45.818077     31.865348     60.251237
  O      44.421276     30.787849     58.885622
  O      46.442013     29.108855     58.202039
  C      46.656787     29.428696     55.967756
  H      46.343915     28.400523     55.787296
  C      47.982446     29.745247     56.157223
  H      48.739939     28.963338     56.240355
  C      48.353569     31.063725     56.487197
  C      47.416607     32.130468     56.132192
  H      47.803348     33.151618     56.144089
  C      46.144054     31.863044     55.783736
  H      45.462956     32.670448     55.502126
  C      45.580802     30.470790     55.761406
  H      44.891980     30.384387     56.625366
  O      44.894154     30.243678     54.546225
  H      44.011399     29.782571     54.730406
  C      49.832292     31.422526     56.673630
  O      50.612499     30.526211     57.085261
  O      50.165827     32.597524     56.385674
24
Coordinates from ORCA-job neb_MEP.QMRegion E -1076.600567604422
  C      48.063413     30.672041     58.837983
  H      48.896359     29.984354     58.710206
  H      48.278996     31.552839     59.448918
  C      46.734524     30.178519     58.810247
  C      45.564866     31.022459     59.364818
  O      45.827009     31.864040     60.252405
  O      44.423228     30.784568     58.893362
  O      46.442577     29.097881     58.245497
  C      46.667608     29.427068     55.933927
  H      46.351835     28.398172     55.762505
  C      47.977457     29.738272     56.165671
  H      48.738360     28.958431     56.242528
  C      48.342491     31.059517     56.554998
  C      47.414996     32.125943     56.151421
  H      47.805240     33.146055     56.152913
  C      46.149125     31.858733     55.783512
  H      45.472596     32.666051     55.489791
  C      45.584771     30.466143     55.755912
  H      44.899364     30.372746     56.621859
  O      44.890806     30.248484     54.543010
  H      44.012277     29.781237     54.728677
  C      49.830849     31.418527     56.691766
  O      50.617888     30.522526     57.090341
  O      50.162550     32.589190     56.385270
24
Coordinates from ORCA-job neb_MEP.QMRegion E -1076.604159056405
  C      48.075244     30.704189     58.730430
  H      48.889880     29.979706     58.713319
  H      48.287202     31.560166     59.386116
  C      46.728992     30.184522     58.796726
  C      45.564080     31.027032     59.366800
  O      45.836180     31.863495     60.255135
  O      44.422066     30.784744     58.903178
  O      46.439516     29.091268     58.291965
  C      46.678505     29.430584     55.903661
  H      46.360801     28.401898     55.732963
  C      47.969882     29.734712     56.180162
  H      48.735260     28.957426     56.246021
  C      48.326864     31.057570     56.657340
  C      47.410665     32.124052     56.180586
  H      47.805413     33.142738     56.161901
  C      46.154333     31.857501     55.787656
  H      45.484377     32.663773     55.474503
  C      45.586790     30.465151     55.753039
  H      44.902435     30.366106     56.617809
  O      44.886857     30.257215     54.541238
  H      44.012159     29.784210     54.727718
  C      49.828627     31.418577     56.711688
  O      50.624184     30.523342     57.094639
  O      50.156866     32.583356     56.381863
24
Coordinates from ORCA-job neb_MEP.QMRegion E -1076.620902955468
  C      48.088818     30.750590     58.526261
  H      48.853279     29.981420     58.709937
  H      48.305347     31.585288     59.222662
  C      46.717209     30.201031     58.769199
  C      45.567418     31.035557     59.376720
  O      45.860641     31.860698     60.266026
  O      44.422849     30.789660     58.926471
  O      46.433930     29.074093     58.398157
  C      46.700617     29.435562     55.856779
  H      46.392040     28.408265     55.660908
  C      47.964011     29.727911     56.205103
  H      48.733492     28.952086     56.258864
  C      48.305535     31.046727     56.833135
  C      47.403719     32.114543     56.244505
  H      47.802300     33.132246     56.196420
  C      46.165698     31.850518     55.802135
  H      45.515290     32.655551     55.442820
  C      45.590927     30.459503     55.751557
  H      44.907862     30.345553     56.616112
  O      44.878170     30.276056     54.542659
  H      44.008629     29.795436     54.727481
  C      49.824726     31.418221     56.749942
  O      50.636811     30.528284     57.111651
  O      50.142279     32.572531     56.380184
24
Coordinates from ORCA-job neb_MEP.QMRegion E -1076.630404018943
  C      48.118000     30.723000     58.435000
  H      48.855000     29.961000     58.723000
  H      48.380000     31.617000     59.020000
  C      46.736000     30.204000     58.767000
  C      45.640000     31.047000     59.451000
  O      46.013000     31.838000     60.340000
  O      44.468000     30.812000     59.073000
  O      46.434000     29.059000     58.489000
  C      46.803000     29.376000     55.716000
  H      46.525000     28.390000     55.352000
  C      48.030000     29.646000     56.178000
  H      48.811000     28.881000     56.208000
  C      48.339000     30.954000     56.867000
  C      47.433000     32.027000     56.304000
  H      47.831000     33.044000     56.297000
  C      46.217000     31.767000     55.812000
  H      45.586000     32.573000     55.426000
  C      45.666000     30.371000     55.696000
  H      45.021000     30.178000     56.576000
  O      44.909000     30.247000     54.511000
  H      44.031000     29.792000     54.709000
  C      49.850000     31.367000     56.758000
  O      50.691000     30.522000     57.163000
  O      50.130000     32.512000     56.335000
