100
-2 1 -841.2396635179948
C       59.13693976    35.92915896    56.59663233
H       59.62380974    36.07511892    55.63570856
H       61.12667534    35.89423449    58.43568503
C       58.61943832    35.73549386    57.67982927
C       58.07543325    35.36350666    58.98171400
O       58.57080424    34.34225431    59.55531720
O       57.11752768    36.03455738    59.45855215
O       58.51235515    32.77391141    56.13132994
C       58.97342320    32.87618454    54.98174308
H       56.29722271    32.62690196    58.76887487
C       60.27310605    32.27288754    54.59888206
H       60.86067687    31.79510481    55.38533467
C       60.69447081    32.19574207    53.30497657
C       60.02335453    32.93682442    52.26312340
H       60.44652390    33.24825941    51.23718976
C       58.64054968    33.34021282    52.62204313
H       58.05531218    33.49082348    51.68811747
C       58.19063448    33.44208975    53.88726027
H       57.16154309    33.74653369    54.12277355
O       53.97144461    32.26588052    56.98389555
H       54.50092514    32.57559048    56.23469227
C       61.87403829    31.34984001    53.17244005
O       62.85488143    31.44901701    53.92956398
O       62.24520755    30.25974080    52.69661706
C       61.34690001    37.08200001    59.61740001
N       61.49747702    37.46722000    58.35334601
H       61.18696000    38.12972200    59.04960001
H       61.69364654    36.51218210    58.61701316
N       60.93800275    37.95440443    60.53424950
H       61.13415829    36.99936123    60.79791132
H       61.05238537    38.24696097    59.57435701
N       61.60523847    35.82438280    59.96461093
H       61.71954511    36.11690444    59.00467593
H       61.29473475    36.48690080    60.66088322
C       58.88720000    30.25530000    51.89210000
O       60.07102500    30.31707600    51.49556300
O       58.17591600    29.22791700    51.92465900
H       58.42922100    31.19115000    52.24486100
C       63.81050000    29.09560000    54.34790000
O       64.99432500    29.15737600    53.95136300
O       63.09921600    28.06821700    54.38045900
H       63.35252100    30.03145000    54.70066100
C       53.21740000    31.67870000    51.94570000
N       53.36797700    32.06392000    50.68164600
H       53.05746000    32.72642200    51.37790000
H       53.56414600    31.10888200    50.94531300
N       52.80850100    32.55110400    52.86254900
H       53.00467000    31.59606600    53.12621600
H       52.92284900    32.84364000    51.90262800
N       53.47572100    30.42107600    52.29290500
H       53.59007000    30.71361100    51.33298400
H       53.16520400    31.08357800    52.98915900
C       53.85940000    36.72330000    55.35930000
N       54.00997700    37.10852000    54.09524600
H       53.69946000    37.77102200    54.79150000
H       54.20614600    36.15348200    54.35891300
N       53.45050100    37.59570400    56.27614900
H       53.64667000    36.64066600    56.53981600
H       53.56484900    37.88824000    55.31622800
N       54.11772100    35.46567600    55.70650500
H       54.23207000    35.75821100    54.74658400
H       53.80720400    36.12817800    56.40275900
C       54.66340000    29.53370000    57.72430000
N       54.81397700    29.91892000    56.46024600
H       54.50346000    30.58142200    57.15650000
H       55.01014600    28.96388200    56.72391300
N       54.25450100    30.40610400    58.64114900
H       54.45067000    29.45106600    58.90481600
H       54.36884900    30.69864000    57.68122800
N       54.92172100    28.27607600    58.07150500
H       55.03607000    28.56861100    57.11158400
H       54.61120400    28.93857800    58.76775900
C       64.47490000    32.89690000    51.58640000
O       65.65872500    32.95867600    51.18986300
O       63.76361600    31.86951700    51.61895900
H       64.01692100    33.83275000    51.93916100
C       55.33790560    33.73470384    59.83179259
N       55.48845766    34.11991178    58.56776155
H       55.17797308    34.78242326    59.26400365
H       55.68505039    33.16495565    58.83145946
N       54.92931075    34.60717899    60.74873798
H       55.12478637    33.65191272    61.01216387
H       55.04367332    34.89983306    59.78898892
N       55.59608971    32.47701660    60.17895342
H       55.70867375    32.76884193    59.21811307
H       55.28703862    33.14050206    60.87615483
C       59.64430000    31.49730000    60.26190000
N       59.79487700    31.88252000    58.99784600
H       59.48436000    32.54502200    59.69410000
H       59.99104600    30.92748200    59.26151300
N       59.23540100    32.36970400    61.17874900
H       59.43157000    31.41466600    61.44241600
H       59.34974900    32.66224000    60.21882800
N       59.90262100    30.23967600    60.60910500
H       60.01697000    30.53221100    59.64918400
H       59.59210400    30.90217800    61.30535900
C       58.91760000    34.60790000    50.09390000
O       60.10142500    34.66967600    49.69736300
O       58.20631600    33.58051700    50.12645900
H       58.45962100    35.54375000    50.44666100
