100
-2 1 -840.9627133665365
C       59.19359587    34.40890482    57.71029092
H       60.02619313    33.69132731    57.89360808
H       59.59996454    35.22379532    57.09338022
C       58.55735763    34.90712041    59.01338955
C       57.88764863    36.23227173    59.03977284
O       58.58699405    37.25373015    58.75330451
O       56.64726016    36.30809061    59.42529477
O       57.97791494    33.91402420    59.72392565
C       56.09013523    32.06846512    57.03725071
H       56.30609569    31.03467488    56.65923608
C       57.46345732    32.56721133    57.42614206
H       57.96776143    32.03439610    58.24936700
C       58.08519967    33.68893109    56.95347639
C       57.59479900    34.26965492    55.71746193
H       58.24101297    34.98050823    55.18889849
C       56.46417375    33.83858038    55.12326401
H       56.26051706    34.12329647    54.08190424
C       55.55249497    32.78432169    55.70112204
H       54.56410485    33.25711253    55.93572900
O       55.18483248    31.89527177    54.62256851
H       56.01166711    31.54124189    54.22804097
C       62.49685090    29.88638741    50.81108898
O       62.72065679    29.18745489    51.73287971
O       62.25484666    30.53634228    49.85797605
C       61.34690000    37.08200000    59.61740000
N       61.49747700    37.46722000    58.35334600
H       61.18696000    38.12972200    59.04960000
H       61.69364600    36.51218200    58.61701300
N       60.93800100    37.95440400    60.53424900
H       61.13417000    36.99936600    60.79791600
H       61.05234900    38.24694000    59.57432800
N       61.60522100    35.82437600    59.96460500
H       61.71957000    36.11691100    59.00468400
H       61.29470400    36.48687800    60.66085900
C       58.88720000    30.25530000    51.89210000
O       60.07102500    30.31707600    51.49556300
O       58.17591600    29.22791700    51.92465900
H       58.42922100    31.19115000    52.24486100
C       63.81050000    29.09560000    54.34790000
O       64.99432500    29.15737600    53.95136300
O       63.09921600    28.06821700    54.38045900
H       63.35252100    30.03145000    54.70066100
C       53.21740000    31.67870000    51.94570000
N       53.36797700    32.06392000    50.68164600
H       53.05746000    32.72642200    51.37790000
H       53.56414600    31.10888200    50.94531300
N       52.80850100    32.55110400    52.86254900
H       53.00467000    31.59606600    53.12621600
H       52.92284900    32.84364000    51.90262800
N       53.47572100    30.42107600    52.29290500
H       53.59007000    30.71361100    51.33298400
H       53.16520400    31.08357800    52.98915900
C       53.85940000    36.72330000    55.35930000
N       54.00997700    37.10852000    54.09524600
H       53.69946000    37.77102200    54.79150000
H       54.20614600    36.15348200    54.35891300
N       53.45050100    37.59570400    56.27614900
H       53.64667000    36.64066600    56.53981600
H       53.56484900    37.88824000    55.31622800
N       54.11772100    35.46567600    55.70650500
H       54.23207000    35.75821100    54.74658400
H       53.80720400    36.12817800    56.40275900
C       54.66340000    29.53370000    57.72430000
N       54.81397700    29.91892000    56.46024600
H       54.50346000    30.58142200    57.15650000
H       55.01014600    28.96388200    56.72391300
N       54.25450100    30.40610400    58.64114900
H       54.45067000    29.45106600    58.90481600
H       54.36884900    30.69864000    57.68122800
N       54.92172100    28.27607600    58.07150500
H       55.03607000    28.56861100    57.11158400
H       54.61120400    28.93857800    58.76775900
C       64.47490000    32.89690000    51.58640000
O       65.65872500    32.95867600    51.18986300
O       63.76361600    31.86951700    51.61895900
H       64.01692100    33.83275000    51.93916100
C       55.33790000    33.73470000    59.83180000
N       55.48847700    34.11992000    58.56774600
H       55.17796000    34.78242200    59.26400000
H       55.68464600    33.16488200    58.83141300
N       54.92900100    34.60710400    60.74864900
H       55.12517000    33.65206600    61.01231600
H       55.04334900    34.89964000    59.78872800
N       55.59622100    32.47707600    60.17900500
H       55.71057000    32.76961100    59.21908400
H       55.28570400    33.13957800    60.87525900
C       59.64430000    31.49730000    60.26190000
N       59.79487700    31.88252000    58.99784600
H       59.48436000    32.54502200    59.69410000
H       59.99104600    30.92748200    59.26151300
N       59.23540100    32.36970400    61.17874900
H       59.43157000    31.41466600    61.44241600
H       59.34974900    32.66224000    60.21882800
N       59.90262100    30.23967600    60.60910500
H       60.01697000    30.53221100    59.64918400
H       59.59210400    30.90217800    61.30535900
C       58.91760000    34.60790000    50.09390000
O       60.10142500    34.66967600    49.69736300
O       58.20631600    33.58051700    50.12645900
H       58.45962100    35.54375000    50.44666100
