24
Coordinates from ORCA-job neb.QMRegion E -1076.037738010573
  C      46.314513     31.203665     62.109511
  H      47.185750     30.563507     61.992239
  H      46.443038     32.190442     62.544476
  C      45.023657     30.681328     62.045820
  C      43.821738     31.574826     62.422972
  O      44.064768     32.676491     62.973470
  O      42.666422     31.155427     62.164461
  O      44.793314     29.523870     61.559136
  C      44.917518     29.699267     59.366851
  H      44.681088     28.645258     59.224059
  C      46.233679     30.118802     59.406765
  H      47.055420     29.401029     59.425228
  C      46.526553     31.466296     59.659365
  C      45.459993     32.460799     59.536789
  H      45.747940     33.506588     59.655571
  C      44.193047     32.091609     59.292937
  H      43.407355     32.843632     59.227177
  C      43.774991     30.658099     59.114999
  H      42.986082     30.450027     59.852073
  O      43.298063     30.443166     57.790007
  H      42.321528     30.227983     57.789270
  C      47.976656     31.946410     59.560815
  O      48.897946     31.100562     59.625230
  O      48.146056     33.181002     59.358110
