24
Coordinates from ORCA-job neb_initial_path.QMRegion E   0.000000000000
  C      46.148000     31.118000     62.509000
  H      47.051000     30.559000     62.264000
  H      46.229000     32.015000     63.122000
  C      44.931000     30.758000     62.085000
  C      43.702000     31.579000     62.452000
  O      43.904000     32.718000     62.947000
  O      42.564000     31.094000     62.242000
  O      44.736000     29.621000     61.314000
  C      44.874000     29.760000     59.840000
  H      44.653000     28.752000     59.467000
  C      46.289000     30.158000     59.550000
  H      47.076000     29.406000     59.635000
  C      46.615000     31.457000     59.385000
  C      45.558000     32.472000     59.324000
  H      45.883000     33.514000     59.314000
  C      44.256000     32.141000     59.306000
  H      43.491000     32.919000     59.284000
  C      43.790000     30.708000     59.280000
  H      42.928000     30.609000     59.954000
  O      43.435000     30.332000     57.955000
  H      42.456000     30.170000     57.892000
  C      48.066000     31.920000     59.380000
  O      48.979000     31.066000     59.476000
  O      48.247000     33.168000     59.300000
24
Coordinates from ORCA-job neb_initial_path.QMRegion E   0.000000000000
  C      46.178000     31.150000     62.387000
  H      47.075333     30.580333     62.152667
  H      46.273333     32.070000     62.957667
  C      44.947000     30.750667     62.059333
  C      43.723667     31.575667     62.441667
  O      43.930000     32.711667     62.942000
  O      42.582000     31.096000     62.237000
  O      44.739333     29.604667     61.331667
  C      44.875333     29.744000     59.776333
  H      44.652000     28.727333     59.438333
  C      46.277667     30.149667     59.527000
  H      47.070667     29.402333     59.584333
  C      46.595333     31.456333     59.460667
  C      45.536000     32.468333     59.387333
  H      45.855000     33.511333     59.404333
  C      44.241000     32.130333     59.315667
  H      43.473000     32.903000     59.275667
  C      43.782667     30.696667     59.258667
  H      42.929667     30.578333     59.940000
  O      43.415667     30.351000     57.930000
  H      42.437333     30.175667     57.873333
  C      48.045667     31.924333     59.429333
  O      48.961000     31.072667     59.516000
  O      48.224333     33.169333     59.317667
24
Coordinates from ORCA-job neb_initial_path.QMRegion E   0.000000000000
  C      46.208000     31.182000     62.265000
  H      47.099667     30.601667     62.041333
  H      46.317667     32.125000     62.793333
  C      44.963000     30.743333     62.033667
  C      43.745333     31.572333     62.431333
  O      43.956000     32.705333     62.937000
  O      42.600000     31.098000     62.232000
  O      44.742667     29.588333     61.349333
  C      44.876667     29.728000     59.712667
  H      44.651000     28.702667     59.409667
  C      46.266333     30.141333     59.504000
  H      47.065333     29.398667     59.533667
  C      46.575667     31.455667     59.536333
  C      45.514000     32.464667     59.450667
  H      45.827000     33.508667     59.494667
  C      44.226000     32.119667     59.325333
  H      43.455000     32.887000     59.267333
  C      43.775333     30.685333     59.237333
  H      42.931333     30.547667     59.926000
  O      43.396333     30.370000     57.905000
  H      42.418667     30.181333     57.854667
  C      48.025333     31.928667     59.478667
  O      48.943000     31.079333     59.556000
  O      48.201667     33.170667     59.335333
24
Coordinates from ORCA-job neb_initial_path.QMRegion E   0.000000000000
  C      46.238000     31.214000     62.143000
  H      47.124000     30.623000     61.930000
  H      46.362000     32.180000     62.629000
  C      44.979000     30.736000     62.008000
  C      43.767000     31.569000     62.421000
  O      43.982000     32.699000     62.932000
  O      42.618000     31.100000     62.227000
  O      44.746000     29.572000     61.367000
  C      44.878000     29.712000     59.649000
  H      44.650000     28.678000     59.381000
  C      46.255000     30.133000     59.481000
  H      47.060000     29.395000     59.483000
  C      46.556000     31.455000     59.612000
  C      45.492000     32.461000     59.514000
  H      45.799000     33.506000     59.585000
  C      44.211000     32.109000     59.335000
  H      43.437000     32.871000     59.259000
  C      43.768000     30.674000     59.216000
  H      42.933000     30.517000     59.912000
  O      43.377000     30.389000     57.880000
  H      42.400000     30.187000     57.836000
  C      48.005000     31.933000     59.528000
  O      48.925000     31.086000     59.596000
  O      48.179000     33.172000     59.353000
24
Coordinates from ORCA-job neb_initial_path.QMRegion E   0.000000000000
  C      46.267500     31.211500     62.054667
  H      47.136833     30.600167     61.925167
  H      46.393667     32.173667     62.548833
  C      44.993000     30.721667     62.005000
  C      43.794333     31.574833     62.424000
  O      44.030667     32.680167     62.964167
  O      42.642167     31.130333     62.206667
  O      44.760500     29.552333     61.462000
  C      44.901333     29.719500     59.525333
  H      44.680333     28.691500     59.236833
  C      46.249167     30.127333     59.463667
  H      47.058167     29.393833     59.467167
  C      46.544000     31.450000     59.683833
  C      45.479667     32.456167     59.545333
  H      45.774167     33.500667     59.642333
  C      44.212333     32.104500     59.317500
  H      43.441167     32.867500     59.229167
  C      43.776667     30.672667     59.164333
  H      42.964833     30.485667     59.876500
  O      43.344000     30.423667     57.840333
  H      42.369833     30.214500     57.818000
  C      47.990167     31.934333     59.550500
  O      48.913667     31.090833     59.608833
  O      48.156167     33.169500     59.353833
24
Coordinates from ORCA-job neb_initial_path.QMRegion E   0.000000000000
  C      46.297000     31.209000     61.966333
  H      47.149667     30.577333     61.920333
  H      46.425333     32.167333     62.468667
  C      45.007000     30.707333     62.002000
  C      43.821667     31.580667     62.427000
  O      44.079333     32.661333     62.996333
  O      42.666333     31.160667     62.186333
  O      44.775000     29.532667     61.557000
  C      44.924667     29.727000     59.401667
  H      44.710667     28.705000     59.092667
  C      46.243333     30.121667     59.446333
  H      47.056333     29.392667     59.451333
  C      46.532000     31.445000     59.755667
  C      45.467333     32.451333     59.576667
  H      45.749333     33.495333     59.699667
  C      44.213667     32.100000     59.300000
  H      43.445333     32.864000     59.199333
  C      43.785333     30.671333     59.112667
  H      42.996667     30.454333     59.841000
  O      43.311000     30.458333     57.800667
  H      42.339667     30.242000     57.800000
  C      47.975333     31.935667     59.573000
  O      48.902333     31.095667     59.621667
  O      48.133333     33.167000     59.354667
24
Coordinates from ORCA-job neb_initial_path.QMRegion E   0.000000000000
  C      46.326500     31.206500     61.878000
  H      47.162500     30.554500     61.915500
  H      46.457000     32.161000     62.388500
  C      45.021000     30.693000     61.999000
  C      43.849000     31.586500     62.430000
  O      44.128000     32.642500     63.028500
  O      42.690500     31.191000     62.166000
  O      44.789500     29.513000     61.652000
  C      44.948000     29.734500     59.278000
  H      44.741000     28.718500     58.948500
  C      46.237500     30.116000     59.429000
  H      47.054500     29.391500     59.435500
  C      46.520000     31.440000     59.827500
  C      45.455000     32.446500     59.608000
  H      45.724500     33.490000     59.757000
  C      44.215000     32.095500     59.282500
  H      43.449500     32.860500     59.169500
  C      43.794000     30.670000     59.061000
  H      43.028500     30.423000     59.805500
  O      43.278000     30.493000     57.761000
  H      42.309500     30.269500     57.782000
  C      47.960500     31.937000     59.595500
  O      48.891000     31.100500     59.634500
  O      48.110500     33.164500     59.355500
24
Coordinates from ORCA-job neb_initial_path.QMRegion E   0.000000000000
  C      46.356000     31.204000     61.789667
  H      47.175333     30.531667     61.910667
  H      46.488667     32.154667     62.308333
  C      45.035000     30.678667     61.996000
  C      43.876333     31.592333     62.433000
  O      44.176667     32.623667     63.060667
  O      42.714667     31.221333     62.145667
  O      44.804000     29.493333     61.747000
  C      44.971333     29.742000     59.154333
  H      44.771333     28.732000     58.804333
  C      46.231667     30.110333     59.411667
  H      47.052667     29.390333     59.419667
  C      46.508000     31.435000     59.899333
  C      45.442667     32.441667     59.639333
  H      45.699667     33.484667     59.814333
  C      44.216333     32.091000     59.265000
  H      43.453667     32.857000     59.139667
  C      43.802667     30.668667     59.009333
  H      43.060333     30.391667     59.770000
  O      43.245000     30.527667     57.721333
  H      42.279333     30.297000     57.764000
  C      47.945667     31.938333     59.618000
  O      48.879667     31.105333     59.647333
  O      48.087667     33.162000     59.356333
24
Coordinates from ORCA-job neb_initial_path.QMRegion E   0.000000000000
  C      46.385500     31.201500     61.701333
  H      47.188167     30.508833     61.905833
  H      46.520333     32.148333     62.228167
  C      45.049000     30.664333     61.993000
  C      43.903667     31.598167     62.436000
  O      44.225333     32.604833     63.092833
  O      42.738833     31.251667     62.125333
  O      44.818500     29.473667     61.842000
  C      44.994667     29.749500     59.030667
  H      44.801667     28.745500     58.660167
  C      46.225833     30.104667     59.394333
  H      47.050833     29.389167     59.403833
  C      46.496000     31.430000     59.971167
  C      45.430333     32.436833     59.670667
  H      45.674833     33.479333     59.871667
  C      44.217667     32.086500     59.247500
  H      43.457833     32.853500     59.109833
  C      43.811333     30.667333     58.957667
  H      43.092167     30.360333     59.734500
  O      43.212000     30.562333     57.681667
  H      42.249167     30.324500     57.746000
  C      47.930833     31.939667     59.640500
  O      48.868333     31.110167     59.660167
  O      48.064833     33.159500     59.357167
24
Coordinates from ORCA-job neb_initial_path.QMRegion E   0.000000000000
  C      46.415000     31.199000     61.613000
  H      47.201000     30.486000     61.901000
  H      46.552000     32.142000     62.148000
  C      45.063000     30.650000     61.990000
  C      43.931000     31.604000     62.439000
  O      44.274000     32.586000     63.125000
  O      42.763000     31.282000     62.105000
  O      44.833000     29.454000     61.937000
  C      45.018000     29.757000     58.907000
  H      44.832000     28.759000     58.516000
  C      46.220000     30.099000     59.377000
  H      47.049000     29.388000     59.388000
  C      46.484000     31.425000     60.043000
  C      45.418000     32.432000     59.702000
  H      45.650000     33.474000     59.929000
  C      44.219000     32.082000     59.230000
  H      43.462000     32.850000     59.080000
  C      43.820000     30.666000     58.906000
  H      43.124000     30.329000     59.699000
  O      43.179000     30.597000     57.642000
  H      42.219000     30.352000     57.728000
  C      47.916000     31.941000     59.663000
  O      48.857000     31.115000     59.673000
  O      48.042000     33.157000     59.358000
