24
Coordinates from ORCA-job neb_MEP.QMRegion E -1076.058350816593
  C      46.148000     31.118000     62.509000
  H      47.051000     30.559000     62.264000
  H      46.229000     32.015000     63.122000
  C      44.931000     30.758000     62.085000
  C      43.702000     31.579000     62.452000
  O      43.904000     32.718000     62.947000
  O      42.564000     31.094000     62.242000
  O      44.736000     29.621000     61.314000
  C      44.874000     29.760000     59.840000
  H      44.653000     28.752000     59.467000
  C      46.289000     30.158000     59.550000
  H      47.076000     29.406000     59.635000
  C      46.615000     31.457000     59.385000
  C      45.558000     32.472000     59.324000
  H      45.883000     33.514000     59.314000
  C      44.256000     32.141000     59.306000
  H      43.491000     32.919000     59.284000
  C      43.790000     30.708000     59.280000
  H      42.928000     30.609000     59.954000
  O      43.435000     30.332000     57.955000
  H      42.456000     30.170000     57.892000
  C      48.066000     31.920000     59.380000
  O      48.979000     31.066000     59.476000
  O      48.247000     33.168000     59.300000
24
Coordinates from ORCA-job neb_MEP.QMRegion E -1076.060179656087
  C      46.221751     31.135066     62.313868
  H      47.116763     30.590748     62.013928
  H      46.335354     32.080183     62.840805
  C      44.981350     30.743371     61.994306
  C      43.770939     31.566597     62.416545
  O      43.995086     32.680382     62.954165
  O      42.621015     31.109975     62.203148
  O      44.748731     29.602442     61.240831
  C      44.867266     29.730522     59.746103
  H      44.653540     28.716178     59.387102
  C      46.269836     30.151599     59.454326
  H      47.068835     29.407311     59.477910
  C      46.577941     31.465099     59.406994
  C      45.504790     32.466364     59.408312
  H      45.806068     33.510921     59.504549
  C      44.211702     32.113812     59.317111
  H      43.432820     32.875735     59.301133
  C      43.766572     30.678007     59.219620
  H      42.916265     30.540373     59.901190
  O      43.394880     30.355712     57.886986
  H      42.415237     30.186123     57.835070
  C      48.023135     31.942503     59.424952
  O      48.941503     31.097098     59.550231
  O      48.198715     33.189647     59.325625
24
Coordinates from ORCA-job neb_MEP.QMRegion E -1076.052209611398
  C      46.275300     31.144613     62.222037
  H      47.165167     30.573336     61.960243
  H      46.410794     32.134708     62.654500
  C      45.020555     30.718222     61.979991
  C      43.823336     31.569433     62.405706
  O      44.062883     32.661986     62.976603
  O      42.663705     31.149103     62.157430
  O      44.771358     29.575101     61.251841
  C      44.878742     29.705492     59.648469
  H      44.671493     28.680367     59.312711
  C      46.262361     30.144264     59.413056
  H      47.069326     29.409684     59.408023
  C      46.552899     31.464530     59.494825
  C      45.473084     32.458369     59.491870
  H      45.759947     33.503109     59.625401
  C      44.193206     32.096175     59.310159
  H      43.409547     32.850774     59.249441
  C      43.762811     30.661427     59.169138
  H      42.939582     30.487123     59.871393
  O      43.345560     30.400226     57.835602
  H      42.363825     30.218430     57.805686
  C      47.993212     31.948987     59.496436
  O      48.914900     31.107500     59.613561
  O      48.165380     33.192209     59.353562
24
Coordinates from ORCA-job neb_MEP.QMRegion E -1076.040238278843
  C      46.293529     31.175590     62.180474
  H      47.175289     30.570715     61.976430
  H      46.429181     32.172049     62.593726
  C      45.023597     30.696722     62.021300
  C      43.824141     31.573370     62.416622
  O      44.062685     32.672484     62.975386
  O      42.665572     31.154809     62.160925
  O      44.784574     29.547883     61.411144
  C      44.900305     29.701827     59.495505
  H      44.676854     28.656918     59.268170
  C      46.250127     30.132939     59.403450
  H      47.063062     29.405684     59.417551
  C      46.539959     31.465304     59.569899
  C      45.465894     32.459413     59.517888
  H      45.752956     33.504329     59.647590
  C      44.192176     32.094477     59.303099
  H      43.407710     32.847875     59.238959
  C      43.768693     30.660796     59.140589
  H      42.966503     30.465856     59.863304
  O      43.320306     30.423479     57.811418
  H      42.340640     30.224856     57.797521
  C      47.984963     31.948543     59.531158
  O      48.906336     31.104547     59.622449
  O      48.155534     33.187163     59.357072
24
Coordinates from ORCA-job neb_MEP.QMRegion E -1076.037699542180
  C      46.314513     31.203665     62.109511
  H      47.185750     30.563507     61.992239
  H      46.443038     32.190442     62.544476
  C      45.023657     30.681328     62.045820
  C      43.821738     31.574826     62.422972
  O      44.064768     32.676491     62.973470
  O      42.666422     31.155427     62.164461
  O      44.793314     29.523870     61.559136
  C      44.917518     29.699267     59.366851
  H      44.681088     28.645258     59.224059
  C      46.233679     30.118802     59.406765
  H      47.055420     29.401029     59.425228
  C      46.526553     31.466296     59.659365
  C      45.459993     32.460799     59.536789
  H      45.747940     33.506588     59.655571
  C      44.193047     32.091609     59.292937
  H      43.407355     32.843632     59.227177
  C      43.774991     30.658099     59.114999
  H      42.986082     30.450027     59.852073
  O      43.298063     30.443166     57.790007
  H      42.321528     30.227983     57.789270
  C      47.976656     31.946410     59.560815
  O      48.897946     31.100562     59.625230
  O      48.146056     33.181002     59.358110
24
Coordinates from ORCA-job neb_MEP.QMRegion E -1076.041066586140
  C      46.337017     31.231231     61.992276
  H      47.191918     30.557877     62.003049
  H      46.453763     32.195171     62.486363
  C      45.024061     30.677003     62.042951
  C      43.822609     31.577471     62.426258
  O      44.073613     32.674959     62.976534
  O      42.668513     31.155588     62.171345
  O      44.796430     29.511178     61.650953
  C      44.930473     29.700065     59.297568
  H      44.687665     28.643762     59.183175
  C      46.223004     30.111248     59.419586
  H      47.049861     29.398455     59.436788
  C      46.516579     31.467071     59.778280
  C      45.454600     32.463724     59.563458
  H      45.742815     33.511173     59.667848
  C      44.196651     32.091079     59.289760
  H      43.411129     32.843248     59.213773
  C      43.779751     30.656594     59.101502
  H      42.996912     30.441589     59.845018
  O      43.285791     30.457744     57.779725
  H      42.311877     30.232982     57.786501
  C      47.970178     31.946288     59.592186
  O      48.892199     31.099800     59.630033
  O      48.137321     33.175767     59.359815
24
Coordinates from ORCA-job neb_MEP.QMRegion E -1076.050764818600
  C      46.357244     31.252688     61.861019
  H      47.187419     30.557852     62.008186
  H      46.460196     32.187236     62.425167
  C      45.022253     30.676020     62.025533
  C      43.823469     31.578206     62.427644
  O      44.082475     32.670838     62.981033
  O      42.671043     31.154181     62.177686
  O      44.797273     29.504340     61.714271
  C      44.941287     29.701732     59.254773
  H      44.694600     28.644982     59.143508
  C      46.215229     30.105750     59.437554
  H      47.044917     29.395250     59.446863
  C      46.510002     31.466333     59.903521
  C      45.450248     32.463753     59.591340
  H      45.736794     33.513463     59.679114
  C      44.201248     32.089014     59.289016
  H      43.416151     32.841858     59.199540
  C      43.782632     30.653989     59.093470
  H      43.001627     30.434343     59.839025
  O      43.277369     30.467623     57.773986
  H      42.305296     30.237363     57.783936
  C      47.964020     31.945634     59.618845
  O      48.886416     31.099026     59.632373
  O      48.127842     33.169942     59.359293
24
Coordinates from ORCA-job neb_MEP.QMRegion E -1076.067573124366
  C      46.374216     31.267468     61.708512
  H      47.169695     30.565966     62.000098
  H      46.470078     32.185793     62.304795
  C      45.018195     30.681184     61.999705
  C      43.826697     31.582581     62.427966
  O      44.095297     32.667348     62.988164
  O      42.674547     31.151595     62.192856
  O      44.801564     29.491115     61.822614
  C      44.957523     29.708232     59.205193
  H      44.714517     28.654729     59.059733
  C      46.209556     30.100597     59.471954
  H      47.037909     29.389487     59.474995
  C      46.504360     31.463112     60.041355
  C      45.445765     32.460790     59.645042
  H      45.725855     33.514943     59.711192
  C      44.210554     32.084954     59.294536
  H      43.431648     32.840385     59.171877
  C      43.789521     30.651889     59.079266
  H      43.014977     30.419481     59.830336
  O      43.263887     30.488363     57.765152
  H      42.294034     30.248733     57.782044
  C      47.953129     31.944318     59.658482
  O      48.876015     31.097858     59.644190
  O      48.108685     33.161616     59.364824
24
Coordinates from ORCA-job neb_MEP.QMRegion E -1076.077456829986
  C      46.389121     31.240645     61.642243
  H      47.177981     30.537110     61.947191
  H      46.508723     32.182152     62.185319
  C      45.033884     30.672394     61.998938
  C      43.873922     31.599457     62.436506
  O      44.185400     32.632282     63.065859
  O      42.712435     31.223491     62.153276
  O      44.816633     29.476353     61.925241
  C      44.985610     29.729282     59.069599
  H      44.767912     28.697299     58.799055
  C      46.213557     30.097209     59.445321
  H      47.039477     29.383975     59.465646
  C      46.495199     31.446081     60.055712
  C      45.435971     32.451486     59.682507
  H      45.697132     33.503291     59.814932
  C      44.218737     32.085885     59.269604
  H      43.454243     32.848006     59.118292
  C      43.804919     30.660478     59.004882
  H      43.068292     30.379665     59.780480
  O      43.220609     30.548319     57.714039
  H      42.255078     30.301060     57.762688
  C      47.936154     31.942575     59.671211
  O      48.866384     31.104980     59.668347
  O      48.076159     33.158888     59.366982
24
Coordinates from ORCA-job neb_MEP.QMRegion E -1076.081158249566
  C      46.415000     31.199000     61.613000
  H      47.201000     30.486000     61.901000
  H      46.552000     32.142000     62.148000
  C      45.063000     30.650000     61.990000
  C      43.931000     31.604000     62.439000
  O      44.274000     32.586000     63.125000
  O      42.763000     31.282000     62.105000
  O      44.833000     29.454000     61.937000
  C      45.018000     29.757000     58.907000
  H      44.832000     28.759000     58.516000
  C      46.220000     30.099000     59.377000
  H      47.049000     29.388000     59.388000
  C      46.484000     31.425000     60.043000
  C      45.418000     32.432000     59.702000
  H      45.650000     33.474000     59.929000
  C      44.219000     32.082000     59.230000
  H      43.462000     32.850000     59.080000
  C      43.820000     30.666000     58.906000
  H      43.124000     30.329000     59.699000
  O      43.179000     30.597000     57.642000
  H      42.219000     30.352000     57.728000
  C      47.916000     31.941000     59.663000
  O      48.857000     31.115000     59.673000
  O      48.042000     33.157000     59.358000
