24
Coordinates from ORCA-job neb_MEP.QMRegion E -1076.293184671505
  C      52.516000     31.217000     62.859000
  H      52.971000     30.263000     63.125000
  H      53.147000     32.103000     62.809000
  C      51.212000     31.323000     62.581000
  C      50.536000     32.655000     62.297000
  O      51.258000     33.649000     61.991000
  O      49.288000     32.685000     62.384000
  O      50.351000     30.238000     62.620000
  C      50.321000     29.335000     61.472000
  H      49.452000     28.689000     61.661000
  C      51.573000     28.512000     61.478000
  H      51.666000     27.715000     62.218000
  C      52.600000     28.790000     60.653000
  C      52.455000     29.879000     59.677000
  H      53.358000     30.181000     59.144000
  C      51.284000     30.500000     59.450000
  H      51.212000     31.299000     58.703000
  C      50.016000     30.085000     60.151000
  H      49.430000     30.976000     60.438000
  O      49.267000     29.275000     59.257000
  H      48.282000     29.425000     59.373000
  C      53.896000     27.987000     60.691000
  O      54.092000     27.196000     61.658000
  O      54.676000     28.151000     59.718000
24
Coordinates from ORCA-job neb_MEP.QMRegion E -1076.303492364139
  C      52.531928     31.212823     62.866231
  H      52.991568     30.259672     63.127627
  H      53.161589     32.099187     62.810343
  C      51.225712     31.318152     62.600185
  C      50.543111     32.650201     62.330576
  O      51.256684     33.640986     61.989822
  O      49.301702     32.686294     62.469545
  O      50.365910     30.232668     62.646347
  C      50.323380     29.331058     61.496048
  H      49.453453     28.687809     61.691578
  C      51.573318     28.504498     61.491055
  H      51.667539     27.706813     62.229683
  C      52.594903     28.784152     60.660844
  C      52.445944     29.877114     59.689332
  H      53.345427     30.179770     59.152710
  C      51.275428     30.502390     59.473832
  H      51.200103     31.307200     58.734309
  C      50.010512     30.084403     60.178898
  H      49.422250     30.973471     60.467333
  O      49.260612     29.272216     59.284687
  H      48.277634     29.428460     59.394222
  C      53.892855     27.984696     60.695243
  O      54.091957     27.192502     61.659225
  O      54.673415     28.150866     59.722724
24
Coordinates from ORCA-job neb_MEP.QMRegion E -1076.299320174378
  C      52.628127     30.959560     62.713229
  H      53.060065     30.015169     63.046061
  H      53.314433     31.770551     62.461351
  C      51.304140     31.131662     62.557813
  C      50.664609     32.488949     62.286415
  O      51.386715     33.478369     61.974888
  O      49.419768     32.554530     62.411064
  O      50.392897     30.092490     62.670706
  C      50.204418     29.192492     61.473422
  H      49.336793     28.564237     61.726332
  C      51.457061     28.404362     61.421326
  H      51.575006     27.564863     62.104841
  C      52.502571     28.853578     60.704039
  C      52.303762     29.974306     59.768974
  H      53.194820     30.392498     59.297911
  C      51.086246     30.481325     59.499832
  H      50.955661     31.257199     58.737486
  C      49.841349     29.997483     60.194765
  H      49.261899     30.859804     60.561779
  O      49.065090     29.254702     59.262852
  H      48.086620     29.471981     59.341063
  C      53.844236     28.138008     60.774960
  O      54.065696     27.336438     61.726755
  O      54.632724     28.361646     59.823059
24
Coordinates from ORCA-job neb_MEP.QMRegion E -1076.279504467923
  C      52.670147     30.930320     62.673143
  H      53.091281     30.014509     63.091060
  H      53.367801     31.696443     62.325834
  C      51.325858     31.129290     62.617849
  C      50.684673     32.486741     62.292865
  O      51.403969     33.475027     61.968355
  O      49.437598     32.552487     62.399010
  O      50.447141     30.127242     62.814502
  C      50.170351     29.083763     61.371652
  H      49.300760     28.497404     61.697773
  C      51.435948     28.406631     61.420150
  H      51.564824     27.573992     62.108691
  C      52.505760     28.935594     60.773996
  C      52.298737     30.019151     59.799767
  H      53.189506     30.438468     59.328677
  C      51.073079     30.473127     59.484546
  H      50.933697     31.231498     58.706330
  C      49.827419     29.969561     60.161900
  H      49.265301     30.818584     60.582149
  O      49.037497     29.281138     59.197553
  H      48.055187     29.486930     59.301803
  C      53.838222     28.197277     60.824940
  O      54.055851     27.377115     61.758878
  O      54.602074     28.397760     59.848128
24
Coordinates from ORCA-job neb_MEP.QMRegion E -1076.270908484089
  C      52.690936     30.907840     62.641165
  H      53.102280     30.017354     63.116024
  H      53.384064     31.669535     62.280393
  C      51.328993     31.133875     62.654980
  C      50.688609     32.493641     62.298209
  O      51.407929     33.477633     61.965905
  O      49.441184     32.555673     62.398031
  O      50.486988     30.187756     62.936161
  C      50.150210     28.993525     61.276586
  H      49.282440     28.463509     61.676583
  C      51.415097     28.412219     61.420713
  H      51.557997     27.584782     62.113524
  C      52.511123     28.983815     60.811395
  C      52.298874     30.034228     59.807459
  H      53.189223     30.448509     59.332321
  C      51.069827     30.468901     59.477939
  H      50.928954     31.224114     58.697727
  C      49.824448     29.952635     60.144342
  H      49.269384     30.798542     60.587027
  O      49.025697     29.293594     59.165694
  H      48.044697     29.491534     59.291760
  C      53.836709     28.218611     60.841958
  O      54.050298     27.386197     61.765355
  O      54.588464     28.405909     59.853717
24
Coordinates from ORCA-job neb_MEP.QMRegion E -1076.268962577970
  C      52.707337     30.864356     62.590141
  H      53.114227     30.020150     63.144431
  H      53.396793     31.628282     62.226116
  C      51.332745     31.132380     62.680179
  C      50.691794     32.496588     62.303442
  O      51.412755     33.475418     61.963688
  O      49.445394     32.556148     62.400199
  O      50.515428     30.231090     63.033996
  C      50.135423     28.929551     61.211082
  H      49.269073     28.427786     61.645528
  C      51.397114     28.424252     61.427963
  H      51.550708     27.597989     62.120628
  C      52.517494     29.043393     60.859757
  C      52.297629     30.051561     59.815992
  H      53.187312     30.461393     59.336290
  C      51.065527     30.462545     59.470422
  H      50.922458     31.212446     58.685789
  C      49.820077     29.935711     60.128702
  H      49.271665     30.778096     60.590627
  O      49.014254     29.308334     59.135326
  H      48.033969     29.495681     59.280669
  C      53.832876     28.244180     60.862148
  O      54.043033     27.399433     61.774254
  O      54.571575     28.417238     59.861455
24
Coordinates from ORCA-job neb_MEP.QMRegion E -1076.270886960689
  C      52.715637     30.792267     62.514510
  H      53.121480     30.023572     63.170142
  H      53.400120     31.577711     62.179712
  C      51.334259     31.120094     62.680962
  C      50.696893     32.495318     62.304657
  O      51.420796     33.470438     61.965329
  O      49.452201     32.555457     62.406235
  O      50.530896     30.257199     63.088356
  C      50.132884     28.896999     61.176667
  H      49.267047     28.403231     61.620916
  C      51.389186     28.442177     61.439274
  H      51.549688     27.611758     62.126646
  C      52.531554     29.120482     60.925439
  C      52.298840     30.072041     59.825131
  H      53.187568     30.473979     59.337162
  C      51.065242     30.461347     59.467536
  H      50.919781     31.200994     58.673568
  C      49.818783     29.929913     60.122865
  H      49.272481     30.770542     60.593125
  O      49.011328     29.319556     59.120693
  H      48.031948     29.499413     59.275948
  C      53.832402     28.273094     60.883973
  O      54.038197     27.413106     61.782177
  O      54.555470     28.430780     59.869598
24
Coordinates from ORCA-job neb_MEP.QMRegion E -1076.278012871175
  C      52.718832     30.703190     62.428691
  H      53.122695     30.032780     63.189586
  H      53.396611     31.519631     62.135202
  C      51.332681     31.104989     62.677811
  C      50.701670     32.494433     62.306947
  O      51.427643     33.464989     61.966604
  O      49.457926     32.554023     62.411356
  O      50.542573     30.280287     63.135229
  C      50.132586     28.872023     61.150749
  H      49.266256     28.379042     61.596303
  C      51.382141     28.459967     61.451127
  H      51.548927     27.624552     62.132198
  C      52.547069     29.206602     60.999517
  C      52.299055     30.091474     59.834343
  H      53.186359     30.484927     59.337038
  C      51.064652     30.460314     59.466267
  H      50.916830     31.188243     58.661368
  C      49.816538     29.925163     60.119045
  H      49.270824     30.763355     60.595230
  O      49.008840     29.330415     59.108143
  H      48.029989     29.501586     59.271988
  C      53.831022     28.301195     60.904122
  O      54.031861     27.426485     61.788673
  O      54.538437     28.443913     59.876896
24
Coordinates from ORCA-job neb_MEP.QMRegion E -1076.293473763345
  C      52.720347     30.584864     62.327768
  H      53.122757     30.043916     63.195321
  H      53.390392     31.426233     62.066250
  C      51.335017     31.082966     62.664585
  C      50.711166     32.489891     62.307901
  O      51.439762     33.457507     61.970858
  O      49.469347     32.549586     62.418893
  O      50.562870     30.308044     63.194951
  C      50.133191     28.843654     61.119735
  H      49.267296     28.333595     61.550852
  C      51.376288     28.487672     61.469946
  H      51.547240     27.647304     62.144443
  C      52.563525     29.315140     61.093383
  C      52.298741     30.123480     59.855646
  H      53.183005     30.504348     59.343111
  C      51.064040     30.460576     59.465257
  H      50.914249     31.165910     58.639053
  C      49.813837     29.917167     60.111153
  H      49.272175     30.751700     60.597663
  O      49.005294     29.347558     59.088571
  H      48.027119     29.508263     59.264474
  C      53.827787     28.343710     60.935295
  O      54.024208     27.454184     61.805552
  O      54.512522     28.465567     59.890509
24
Coordinates from ORCA-job neb_MEP.QMRegion E -1076.309957815657
  C      52.737000     30.513000     62.266000
  H      53.203000     30.023000     63.135000
  H      53.399000     31.305000     61.887000
  C      51.399000     31.055000     62.741000
  C      50.765000     32.443000     62.355000
  O      51.490000     33.394000     61.976000
  O      49.526000     32.512000     62.492000
  O      50.712000     30.344000     63.445000
  C      50.104000     28.765000     60.988000
  H      49.261000     28.132000     61.276000
  C      51.327000     28.531000     61.469000
  H      51.509000     27.712000     62.166000
  C      52.511000     29.405000     61.137000
  C      52.258000     30.196000     59.878000
  H      53.136000     30.650000     59.416000
  C      51.032000     30.439000     59.405000
  H      50.889000     31.074000     58.523000
  C      49.779000     29.879000     60.026000
  H      49.263000     30.699000     60.571000
  O      48.940000     29.401000     58.990000
  H      47.969000     29.566000     59.196000
  C      53.773000     28.451000     60.989000
  O      54.004000     27.619000     61.904000
  O      54.437000     28.544000     59.929000
