24
Coordinates from ORCA-job neb_initial_path.QMRegion E   0.000000000000
  C      52.516000     31.217000     62.859000
  H      52.971000     30.263000     63.125000
  H      53.147000     32.103000     62.809000
  C      51.212000     31.323000     62.581000
  C      50.536000     32.655000     62.297000
  O      51.258000     33.649000     61.991000
  O      49.288000     32.685000     62.384000
  O      50.351000     30.238000     62.620000
  C      50.321000     29.335000     61.472000
  H      49.452000     28.689000     61.661000
  C      51.573000     28.512000     61.478000
  H      51.666000     27.715000     62.218000
  C      52.600000     28.790000     60.653000
  C      52.455000     29.879000     59.677000
  H      53.358000     30.181000     59.144000
  C      51.284000     30.500000     59.450000
  H      51.212000     31.299000     58.703000
  C      50.016000     30.085000     60.151000
  H      49.430000     30.976000     60.438000
  O      49.267000     29.275000     59.257000
  H      48.282000     29.425000     59.373000
  C      53.896000     27.987000     60.691000
  O      54.092000     27.196000     61.658000
  O      54.676000     28.151000     59.718000
24
Coordinates from ORCA-job neb_initial_path.QMRegion E   0.000000000000
  C      52.540556     31.138778     62.793111
  H      52.996778     30.236333     63.126111
  H      53.175000     32.014333     62.706556
  C      51.232778     31.293222     62.598778
  C      50.561444     32.631444     62.303444
  O      51.283778     33.620667     61.989333
  O      49.314444     32.665778     62.396000
  O      50.391111     30.249778     62.711667
  C      50.296889     29.271667     61.418222
  H      49.430778     28.627111     61.618222
  C      51.545667     28.514111     61.477000
  H      51.648556     27.714667     62.212222
  C      52.590111     28.858333     60.706778
  C      52.433111     29.914222     59.699333
  H      53.333333     30.233111     59.174222
  C      51.256000     30.493222     59.445000
  H      51.176111     31.274000     58.683000
  C      49.989667     30.062111     60.137111
  H      49.411444     30.945222     60.452778
  O      49.230667     29.289000     59.227333
  H      48.247222     29.440667     59.353333
  C      53.882333     28.038556     60.724111
  O      54.082222     27.243000     61.685333
  O      54.649444     28.194667     59.741444
24
Coordinates from ORCA-job neb_initial_path.QMRegion E   0.000000000000
  C      52.565111     31.060556     62.727222
  H      53.022556     30.209667     63.127222
  H      53.203000     31.925667     62.604111
  C      51.253556     31.263444     62.616556
  C      50.586889     32.607889     62.309889
  O      51.309556     33.592333     61.987667
  O      49.340889     32.646556     62.408000
  O      50.431222     30.261556     62.803333
  C      50.272778     29.208333     61.364444
  H      49.409556     28.565222     61.575444
  C      51.518333     28.516222     61.476000
  H      51.631111     27.714333     62.206444
  C      52.580222     28.926667     60.760556
  C      52.411222     29.949444     59.721667
  H      53.308667     30.285222     59.204444
  C      51.228000     30.486444     59.440000
  H      51.140222     31.249000     58.663000
  C      49.963333     30.039222     60.123222
  H      49.392889     30.914444     60.467556
  O      49.194333     29.303000     59.197667
  H      48.212444     29.456333     59.333667
  C      53.868667     28.090111     60.757222
  O      54.072444     27.290000     61.712667
  O      54.622889     28.238333     59.764889
24
Coordinates from ORCA-job neb_initial_path.QMRegion E   0.000000000000
  C      52.589667     30.982333     62.661333
  H      53.048333     30.183000     63.128333
  H      53.231000     31.837000     62.501667
  C      51.274333     31.233667     62.634333
  C      50.612333     32.584333     62.316333
  O      51.335333     33.564000     61.986000
  O      49.367333     32.627333     62.420000
  O      50.471333     30.273333     62.895000
  C      50.248667     29.145000     61.310667
  H      49.388333     28.503333     61.532667
  C      51.491000     28.518333     61.475000
  H      51.613667     27.714000     62.200667
  C      52.570333     28.995000     60.814333
  C      52.389333     29.984667     59.744000
  H      53.284000     30.337333     59.234667
  C      51.200000     30.479667     59.435000
  H      51.104333     31.224000     58.643000
  C      49.937000     30.016333     60.109333
  H      49.374333     30.883667     60.482333
  O      49.158000     29.317000     59.168000
  H      48.177667     29.472000     59.314000
  C      53.855000     28.141667     60.790333
  O      54.062667     27.337000     61.740000
  O      54.596333     28.282000     59.788333
24
Coordinates from ORCA-job neb_initial_path.QMRegion E   0.000000000000
  C      52.614222     30.904111     62.595444
  H      53.074111     30.156333     63.129444
  H      53.259000     31.748333     62.399222
  C      51.295111     31.203889     62.652111
  C      50.637778     32.560778     62.322778
  O      51.361111     33.535667     61.984333
  O      49.393778     32.608111     62.432000
  O      50.511444     30.285111     62.986667
  C      50.224556     29.081667     61.256889
  H      49.367111     28.441444     61.489889
  C      51.463667     28.520444     61.474000
  H      51.596222     27.713667     62.194889
  C      52.560444     29.063333     60.868111
  C      52.367444     30.019889     59.766333
  H      53.259333     30.389444     59.264889
  C      51.172000     30.472889     59.430000
  H      51.068444     31.199000     58.623000
  C      49.910667     29.993444     60.095444
  H      49.355778     30.852889     60.497111
  O      49.121667     29.331000     59.138333
  H      48.142889     29.487667     59.294333
  C      53.841333     28.193222     60.823444
  O      54.052889     27.384000     61.767333
  O      54.569778     28.325667     59.811778
24
Coordinates from ORCA-job neb_initial_path.QMRegion E   0.000000000000
  C      52.638778     30.825889     62.529556
  H      53.099889     30.129667     63.130556
  H      53.287000     31.659667     62.296778
  C      51.315889     31.174111     62.669889
  C      50.663222     32.537222     62.329222
  O      51.386889     33.507333     61.982667
  O      49.420222     32.588889     62.444000
  O      50.551556     30.296889     63.078333
  C      50.200444     29.018333     61.203111
  H      49.345889     28.379556     61.447111
  C      51.436333     28.522556     61.473000
  H      51.578778     27.713333     62.189111
  C      52.550556     29.131667     60.921889
  C      52.345556     30.055111     59.788667
  H      53.234667     30.441556     59.295111
  C      51.144000     30.466111     59.425000
  H      51.032556     31.174000     58.603000
  C      49.884333     29.970556     60.081556
  H      49.337222     30.822111     60.511889
  O      49.085333     29.345000     59.108667
  H      48.108111     29.503333     59.274667
  C      53.827667     28.244778     60.856556
  O      54.043111     27.431000     61.794667
  O      54.543222     28.369333     59.835222
24
Coordinates from ORCA-job neb_initial_path.QMRegion E   0.000000000000
  C      52.663333     30.747667     62.463667
  H      53.125667     30.103000     63.131667
  H      53.315000     31.571000     62.194333
  C      51.336667     31.144333     62.687667
  C      50.688667     32.513667     62.335667
  O      51.412667     33.479000     61.981000
  O      49.446667     32.569667     62.456000
  O      50.591667     30.308667     63.170000
  C      50.176333     28.955000     61.149333
  H      49.324667     28.317667     61.404333
  C      51.409000     28.524667     61.472000
  H      51.561333     27.713000     62.183333
  C      52.540667     29.200000     60.975667
  C      52.323667     30.090333     59.811000
  H      53.210000     30.493667     59.325333
  C      51.116000     30.459333     59.420000
  H      50.996667     31.149000     58.583000
  C      49.858000     29.947667     60.067667
  H      49.318667     30.791333     60.526667
  O      49.049000     29.359000     59.079000
  H      48.073333     29.519000     59.255000
  C      53.814000     28.296333     60.889667
  O      54.033333     27.478000     61.822000
  O      54.516667     28.413000     59.858667
24
Coordinates from ORCA-job neb_initial_path.QMRegion E   0.000000000000
  C      52.687889     30.669444     62.397778
  H      53.151444     30.076333     63.132778
  H      53.343000     31.482333     62.091889
  C      51.357444     31.114556     62.705444
  C      50.714111     32.490111     62.342111
  O      51.438444     33.450667     61.979333
  O      49.473111     32.550444     62.468000
  O      50.631778     30.320444     63.261667
  C      50.152222     28.891667     61.095556
  H      49.303444     28.255778     61.361556
  C      51.381667     28.526778     61.471000
  H      51.543889     27.712667     62.177556
  C      52.530778     29.268333     61.029444
  C      52.301778     30.125556     59.833333
  H      53.185333     30.545778     59.355556
  C      51.088000     30.452556     59.415000
  H      50.960778     31.124000     58.563000
  C      49.831667     29.924778     60.053778
  H      49.300111     30.760556     60.541444
  O      49.012667     29.373000     59.049333
  H      48.038556     29.534667     59.235333
  C      53.800333     28.347889     60.922778
  O      54.023556     27.525000     61.849333
  O      54.490111     28.456667     59.882111
24
Coordinates from ORCA-job neb_initial_path.QMRegion E   0.000000000000
  C      52.712444     30.591222     62.331889
  H      53.177222     30.049667     63.133889
  H      53.371000     31.393667     61.989444
  C      51.378222     31.084778     62.723222
  C      50.739556     32.466556     62.348556
  O      51.464222     33.422333     61.977667
  O      49.499556     32.531222     62.480000
  O      50.671889     30.332222     63.353333
  C      50.128111     28.828333     61.041778
  H      49.282222     28.193889     61.318778
  C      51.354333     28.528889     61.470000
  H      51.526444     27.712333     62.171778
  C      52.520889     29.336667     61.083222
  C      52.279889     30.160778     59.855667
  H      53.160667     30.597889     59.385778
  C      51.060000     30.445778     59.410000
  H      50.924889     31.099000     58.543000
  C      49.805333     29.901889     60.039889
  H      49.281556     30.729778     60.556222
  O      48.976333     29.387000     59.019667
  H      48.003778     29.550333     59.215667
  C      53.786667     28.399444     60.955889
  O      54.013778     27.572000     61.876667
  O      54.463556     28.500333     59.905556
24
Coordinates from ORCA-job neb_initial_path.QMRegion E   0.000000000000
  C      52.737000     30.513000     62.266000
  H      53.203000     30.023000     63.135000
  H      53.399000     31.305000     61.887000
  C      51.399000     31.055000     62.741000
  C      50.765000     32.443000     62.355000
  O      51.490000     33.394000     61.976000
  O      49.526000     32.512000     62.492000
  O      50.712000     30.344000     63.445000
  C      50.104000     28.765000     60.988000
  H      49.261000     28.132000     61.276000
  C      51.327000     28.531000     61.469000
  H      51.509000     27.712000     62.166000
  C      52.511000     29.405000     61.137000
  C      52.258000     30.196000     59.878000
  H      53.136000     30.650000     59.416000
  C      51.032000     30.439000     59.405000
  H      50.889000     31.074000     58.523000
  C      49.779000     29.879000     60.026000
  H      49.263000     30.699000     60.571000
  O      48.940000     29.401000     58.990000
  H      47.969000     29.566000     59.196000
  C      53.773000     28.451000     60.989000
  O      54.004000     27.619000     61.904000
  O      54.437000     28.544000     59.929000
