24
Coordinates from ORCA-job neb_NEB-CI_converged.QMRegion
  C          52.70733661412363     30.86435634693933     62.59014147876493
  H          53.11422695240442     30.02015012556719     63.14443137849074
  H          53.39679332342887     31.62828207097857     62.22611607936342
  C          51.33274501328406     31.13237958610603     62.68017896619281
  C          50.69179429388353     32.49658775960587     62.30344236387302
  O          51.41275465078504     33.47541842243695     61.96368779039500
  O          49.44539423653374     32.55614820452445     62.40019873203024
  O          50.51542757289671     30.23108957833224     63.03399617312880
  C          50.13542308036799     28.92955133393922     61.21108167244446
  H          49.26907296443083     28.42778590971658     61.64552783883018
  C          51.39711395020547     28.42425218981917     61.42796290419345
  H          51.55070801578970     27.59798865780293     62.12062761039506
  C          52.51749370594725     29.04339260576402     60.85975693957160
  C          52.29762923537880     30.05156056579273     59.81599206230165
  H          53.18731217916907     30.46139251300861     59.33628997772107
  C          51.06552680285557     30.46254543471411     59.47042180284240
  H          50.92245764745613     31.21244586109023     58.68578888279118
  C          49.82007700382933     29.93571091116763     60.12870193340908
  H          49.27166465808895     30.77809607013718     60.59062679143313
  O          49.01425358738382     29.30833379065761     59.13532640403151
  H          48.03396864769154     29.49568131292332     59.28066872082086
  C          53.83287618568625     28.24418003002854     60.86214828180762
  O          54.04303267466819     27.39943257251086     61.77425414505844
  O          54.57157495215000     28.41723781174985     59.86145506999357
